<?xml version="1.0"?> 
<VTKFile type="UnstructuredGrid"> 
   <UnstructuredGrid> 
      <Piece NumberOfPoints="6000"  NumberOfCells="1500">  
          <Points>  
             <DataArray type="Float64" NumberOfComponents="3" format="ascii">   
-500.0   0.0   0.0
-450.0   0.0   0.0
-500.0   30.0   0.0
-500.0   0.0   16.666666666666668
-450.0   0.0   0.0
-450.0   30.0   0.0
-500.0   30.0   0.0
-450.0   30.0   16.666666666666668
-500.0   0.0   16.666666666666668
-500.0   30.0   16.666666666666668
-450.0   30.0   16.666666666666668
-500.0   30.0   0.0
-500.0   0.0   16.666666666666668
-450.0   30.0   16.666666666666668
-450.0   0.0   16.666666666666668
-450.0   0.0   0.0
-500.0   0.0   16.666666666666668
-450.0   30.0   16.666666666666668
-450.0   0.0   0.0
-500.0   30.0   0.0
-500.0   0.0   16.666666666666668
-450.0   0.0   16.666666666666668
-500.0   30.0   16.666666666666668
-500.0   0.0   33.333333333333336
-450.0   0.0   16.666666666666668
-450.0   30.0   16.666666666666668
-500.0   30.0   16.666666666666668
-450.0   30.0   33.333333333333336
-500.0   0.0   33.333333333333336
-500.0   30.0   33.333333333333336
-450.0   30.0   33.333333333333336
-500.0   30.0   16.666666666666668
-500.0   0.0   33.333333333333336
-450.0   30.0   33.333333333333336
-450.0   0.0   33.333333333333336
-450.0   0.0   16.666666666666668
-500.0   0.0   33.333333333333336
-450.0   30.0   33.333333333333336
-450.0   0.0   16.666666666666668
-500.0   30.0   16.666666666666668
-500.0   0.0   33.333333333333336
-450.0   0.0   33.333333333333336
-500.0   30.0   33.333333333333336
-500.0   0.0   50.0
-450.0   0.0   33.333333333333336
-450.0   30.0   33.333333333333336
-500.0   30.0   33.333333333333336
-450.0   30.0   50.0
-500.0   0.0   50.0
-500.0   30.0   50.0
-450.0   30.0   50.0
-500.0   30.0   33.333333333333336
-500.0   0.0   50.0
-450.0   30.0   50.0
-450.0   0.0   50.0
-450.0   0.0   33.333333333333336
-500.0   0.0   50.0
-450.0   30.0   50.0
-450.0   0.0   33.333333333333336
-500.0   30.0   33.333333333333336
-500.0   30.0   0.0
-450.0   30.0   0.0
-500.0   60.0   0.0
-500.0   30.0   16.666666666666668
-450.0   30.0   0.0
-450.0   60.0   0.0
-500.0   60.0   0.0
-450.0   60.0   16.666666666666668
-500.0   30.0   16.666666666666668
-500.0   60.0   16.666666666666668
-450.0   60.0   16.666666666666668
-500.0   60.0   0.0
-500.0   30.0   16.666666666666668
-450.0   60.0   16.666666666666668
-450.0   30.0   16.666666666666668
-450.0   30.0   0.0
-500.0   30.0   16.666666666666668
-450.0   60.0   16.666666666666668
-450.0   30.0   0.0
-500.0   60.0   0.0
-500.0   30.0   16.666666666666668
-450.0   30.0   16.666666666666668
-500.0   60.0   16.666666666666668
-500.0   30.0   33.333333333333336
-450.0   30.0   16.666666666666668
-450.0   60.0   16.666666666666668
-500.0   60.0   16.666666666666668
-450.0   60.0   33.333333333333336
-500.0   30.0   33.333333333333336
-500.0   60.0   33.333333333333336
-450.0   60.0   33.333333333333336
-500.0   60.0   16.666666666666668
-500.0   30.0   33.333333333333336
-450.0   60.0   33.333333333333336
-450.0   30.0   33.333333333333336
-450.0   30.0   16.666666666666668
-500.0   30.0   33.333333333333336
-450.0   60.0   33.333333333333336
-450.0   30.0   16.666666666666668
-500.0   60.0   16.666666666666668
-500.0   30.0   33.333333333333336
-450.0   30.0   33.333333333333336
-500.0   60.0   33.333333333333336
-500.0   30.0   50.0
-450.0   30.0   33.333333333333336
-450.0   60.0   33.333333333333336
-500.0   60.0   33.333333333333336
-450.0   60.0   50.0
-500.0   30.0   50.0
-500.0   60.0   50.0
-450.0   60.0   50.0
-500.0   60.0   33.333333333333336
-500.0   30.0   50.0
-450.0   60.0   50.0
-450.0   30.0   50.0
-450.0   30.0   33.333333333333336
-500.0   30.0   50.0
-450.0   60.0   50.0
-450.0   30.0   33.333333333333336
-500.0   60.0   33.333333333333336
-500.0   60.0   0.0
-450.0   60.0   0.0
-500.0   90.0   0.0
-500.0   60.0   16.666666666666668
-450.0   60.0   0.0
-450.0   90.0   0.0
-500.0   90.0   0.0
-450.0   90.0   16.666666666666668
-500.0   60.0   16.666666666666668
-500.0   90.0   16.666666666666668
-450.0   90.0   16.666666666666668
-500.0   90.0   0.0
-500.0   60.0   16.666666666666668
-450.0   90.0   16.666666666666668
-450.0   60.0   16.666666666666668
-450.0   60.0   0.0
-500.0   60.0   16.666666666666668
-450.0   90.0   16.666666666666668
-450.0   60.0   0.0
-500.0   90.0   0.0
-500.0   60.0   16.666666666666668
-450.0   60.0   16.666666666666668
-500.0   90.0   16.666666666666668
-500.0   60.0   33.333333333333336
-450.0   60.0   16.666666666666668
-450.0   90.0   16.666666666666668
-500.0   90.0   16.666666666666668
-450.0   90.0   33.333333333333336
-500.0   60.0   33.333333333333336
-500.0   90.0   33.333333333333336
-450.0   90.0   33.333333333333336
-500.0   90.0   16.666666666666668
-500.0   60.0   33.333333333333336
-450.0   90.0   33.333333333333336
-450.0   60.0   33.333333333333336
-450.0   60.0   16.666666666666668
-500.0   60.0   33.333333333333336
-450.0   90.0   33.333333333333336
-450.0   60.0   16.666666666666668
-500.0   90.0   16.666666666666668
-500.0   60.0   33.333333333333336
-450.0   60.0   33.333333333333336
-500.0   90.0   33.333333333333336
-500.0   60.0   50.0
-450.0   60.0   33.333333333333336
-450.0   90.0   33.333333333333336
-500.0   90.0   33.333333333333336
-450.0   90.0   50.0
-500.0   60.0   50.0
-500.0   90.0   50.0
-450.0   90.0   50.0
-500.0   90.0   33.333333333333336
-500.0   60.0   50.0
-450.0   90.0   50.0
-450.0   60.0   50.0
-450.0   60.0   33.333333333333336
-500.0   60.0   50.0
-450.0   90.0   50.0
-450.0   60.0   33.333333333333336
-500.0   90.0   33.333333333333336
-500.0   90.0   0.0
-450.0   90.0   0.0
-500.0   120.0   0.0
-500.0   90.0   16.666666666666668
-450.0   90.0   0.0
-450.0   120.0   0.0
-500.0   120.0   0.0
-450.0   120.0   16.666666666666668
-500.0   90.0   16.666666666666668
-500.0   120.0   16.666666666666668
-450.0   120.0   16.666666666666668
-500.0   120.0   0.0
-500.0   90.0   16.666666666666668
-450.0   120.0   16.666666666666668
-450.0   90.0   16.666666666666668
-450.0   90.0   0.0
-500.0   90.0   16.666666666666668
-450.0   120.0   16.666666666666668
-450.0   90.0   0.0
-500.0   120.0   0.0
-500.0   90.0   16.666666666666668
-450.0   90.0   16.666666666666668
-500.0   120.0   16.666666666666668
-500.0   90.0   33.333333333333336
-450.0   90.0   16.666666666666668
-450.0   120.0   16.666666666666668
-500.0   120.0   16.666666666666668
-450.0   120.0   33.333333333333336
-500.0   90.0   33.333333333333336
-500.0   120.0   33.333333333333336
-450.0   120.0   33.333333333333336
-500.0   120.0   16.666666666666668
-500.0   90.0   33.333333333333336
-450.0   120.0   33.333333333333336
-450.0   90.0   33.333333333333336
-450.0   90.0   16.666666666666668
-500.0   90.0   33.333333333333336
-450.0   120.0   33.333333333333336
-450.0   90.0   16.666666666666668
-500.0   120.0   16.666666666666668
-500.0   90.0   33.333333333333336
-450.0   90.0   33.333333333333336
-500.0   120.0   33.333333333333336
-500.0   90.0   50.0
-450.0   90.0   33.333333333333336
-450.0   120.0   33.333333333333336
-500.0   120.0   33.333333333333336
-450.0   120.0   50.0
-500.0   90.0   50.0
-500.0   120.0   50.0
-450.0   120.0   50.0
-500.0   120.0   33.333333333333336
-500.0   90.0   50.0
-450.0   120.0   50.0
-450.0   90.0   50.0
-450.0   90.0   33.333333333333336
-500.0   90.0   50.0
-450.0   120.0   50.0
-450.0   90.0   33.333333333333336
-500.0   120.0   33.333333333333336
-500.0   120.0   0.0
-450.0   120.0   0.0
-500.0   150.0   0.0
-500.0   120.0   16.666666666666668
-450.0   120.0   0.0
-450.0   150.0   0.0
-500.0   150.0   0.0
-450.0   150.0   16.666666666666668
-500.0   120.0   16.666666666666668
-500.0   150.0   16.666666666666668
-450.0   150.0   16.666666666666668
-500.0   150.0   0.0
-500.0   120.0   16.666666666666668
-450.0   150.0   16.666666666666668
-450.0   120.0   16.666666666666668
-450.0   120.0   0.0
-500.0   120.0   16.666666666666668
-450.0   150.0   16.666666666666668
-450.0   120.0   0.0
-500.0   150.0   0.0
-500.0   120.0   16.666666666666668
-450.0   120.0   16.666666666666668
-500.0   150.0   16.666666666666668
-500.0   120.0   33.333333333333336
-450.0   120.0   16.666666666666668
-450.0   150.0   16.666666666666668
-500.0   150.0   16.666666666666668
-450.0   150.0   33.333333333333336
-500.0   120.0   33.333333333333336
-500.0   150.0   33.333333333333336
-450.0   150.0   33.333333333333336
-500.0   150.0   16.666666666666668
-500.0   120.0   33.333333333333336
-450.0   150.0   33.333333333333336
-450.0   120.0   33.333333333333336
-450.0   120.0   16.666666666666668
-500.0   120.0   33.333333333333336
-450.0   150.0   33.333333333333336
-450.0   120.0   16.666666666666668
-500.0   150.0   16.666666666666668
-500.0   120.0   33.333333333333336
-450.0   120.0   33.333333333333336
-500.0   150.0   33.333333333333336
-500.0   120.0   50.0
-450.0   120.0   33.333333333333336
-450.0   150.0   33.333333333333336
-500.0   150.0   33.333333333333336
-450.0   150.0   50.0
-500.0   120.0   50.0
-500.0   150.0   50.0
-450.0   150.0   50.0
-500.0   150.0   33.333333333333336
-500.0   120.0   50.0
-450.0   150.0   50.0
-450.0   120.0   50.0
-450.0   120.0   33.333333333333336
-500.0   120.0   50.0
-450.0   150.0   50.0
-450.0   120.0   33.333333333333336
-500.0   150.0   33.333333333333336
-450.0   0.0   0.0
-400.0   0.0   0.0
-450.0   30.0   0.0
-450.0   0.0   16.666666666666668
-400.0   0.0   0.0
-400.0   30.0   0.0
-450.0   30.0   0.0
-400.0   30.0   16.666666666666668
-450.0   0.0   16.666666666666668
-450.0   30.0   16.666666666666668
-400.0   30.0   16.666666666666668
-450.0   30.0   0.0
-450.0   0.0   16.666666666666668
-400.0   30.0   16.666666666666668
-400.0   0.0   16.666666666666668
-400.0   0.0   0.0
-450.0   0.0   16.666666666666668
-400.0   30.0   16.666666666666668
-400.0   0.0   0.0
-450.0   30.0   0.0
-450.0   0.0   16.666666666666668
-400.0   0.0   16.666666666666668
-450.0   30.0   16.666666666666668
-450.0   0.0   33.333333333333336
-400.0   0.0   16.666666666666668
-400.0   30.0   16.666666666666668
-450.0   30.0   16.666666666666668
-400.0   30.0   33.333333333333336
-450.0   0.0   33.333333333333336
-450.0   30.0   33.333333333333336
-400.0   30.0   33.333333333333336
-450.0   30.0   16.666666666666668
-450.0   0.0   33.333333333333336
-400.0   30.0   33.333333333333336
-400.0   0.0   33.333333333333336
-400.0   0.0   16.666666666666668
-450.0   0.0   33.333333333333336
-400.0   30.0   33.333333333333336
-400.0   0.0   16.666666666666668
-450.0   30.0   16.666666666666668
-450.0   0.0   33.333333333333336
-400.0   0.0   33.333333333333336
-450.0   30.0   33.333333333333336
-450.0   0.0   50.0
-400.0   0.0   33.333333333333336
-400.0   30.0   33.333333333333336
-450.0   30.0   33.333333333333336
-400.0   30.0   50.0
-450.0   0.0   50.0
-450.0   30.0   50.0
-400.0   30.0   50.0
-450.0   30.0   33.333333333333336
-450.0   0.0   50.0
-400.0   30.0   50.0
-400.0   0.0   50.0
-400.0   0.0   33.333333333333336
-450.0   0.0   50.0
-400.0   30.0   50.0
-400.0   0.0   33.333333333333336
-450.0   30.0   33.333333333333336
-450.0   30.0   0.0
-400.0   30.0   0.0
-450.0   60.0   0.0
-450.0   30.0   16.666666666666668
-400.0   30.0   0.0
-400.0   60.0   0.0
-450.0   60.0   0.0
-400.0   60.0   16.666666666666668
-450.0   30.0   16.666666666666668
-450.0   60.0   16.666666666666668
-400.0   60.0   16.666666666666668
-450.0   60.0   0.0
-450.0   30.0   16.666666666666668
-400.0   60.0   16.666666666666668
-400.0   30.0   16.666666666666668
-400.0   30.0   0.0
-450.0   30.0   16.666666666666668
-400.0   60.0   16.666666666666668
-400.0   30.0   0.0
-450.0   60.0   0.0
-450.0   30.0   16.666666666666668
-400.0   30.0   16.666666666666668
-450.0   60.0   16.666666666666668
-450.0   30.0   33.333333333333336
-400.0   30.0   16.666666666666668
-400.0   60.0   16.666666666666668
-450.0   60.0   16.666666666666668
-400.0   60.0   33.333333333333336
-450.0   30.0   33.333333333333336
-450.0   60.0   33.333333333333336
-400.0   60.0   33.333333333333336
-450.0   60.0   16.666666666666668
-450.0   30.0   33.333333333333336
-400.0   60.0   33.333333333333336
-400.0   30.0   33.333333333333336
-400.0   30.0   16.666666666666668
-450.0   30.0   33.333333333333336
-400.0   60.0   33.333333333333336
-400.0   30.0   16.666666666666668
-450.0   60.0   16.666666666666668
-450.0   30.0   33.333333333333336
-400.0   30.0   33.333333333333336
-450.0   60.0   33.333333333333336
-450.0   30.0   50.0
-400.0   30.0   33.333333333333336
-400.0   60.0   33.333333333333336
-450.0   60.0   33.333333333333336
-400.0   60.0   50.0
-450.0   30.0   50.0
-450.0   60.0   50.0
-400.0   60.0   50.0
-450.0   60.0   33.333333333333336
-450.0   30.0   50.0
-400.0   60.0   50.0
-400.0   30.0   50.0
-400.0   30.0   33.333333333333336
-450.0   30.0   50.0
-400.0   60.0   50.0
-400.0   30.0   33.333333333333336
-450.0   60.0   33.333333333333336
-450.0   60.0   0.0
-400.0   60.0   0.0
-450.0   90.0   0.0
-450.0   60.0   16.666666666666668
-400.0   60.0   0.0
-400.0   90.0   0.0
-450.0   90.0   0.0
-400.0   90.0   16.666666666666668
-450.0   60.0   16.666666666666668
-450.0   90.0   16.666666666666668
-400.0   90.0   16.666666666666668
-450.0   90.0   0.0
-450.0   60.0   16.666666666666668
-400.0   90.0   16.666666666666668
-400.0   60.0   16.666666666666668
-400.0   60.0   0.0
-450.0   60.0   16.666666666666668
-400.0   90.0   16.666666666666668
-400.0   60.0   0.0
-450.0   90.0   0.0
-450.0   60.0   16.666666666666668
-400.0   60.0   16.666666666666668
-450.0   90.0   16.666666666666668
-450.0   60.0   33.333333333333336
-400.0   60.0   16.666666666666668
-400.0   90.0   16.666666666666668
-450.0   90.0   16.666666666666668
-400.0   90.0   33.333333333333336
-450.0   60.0   33.333333333333336
-450.0   90.0   33.333333333333336
-400.0   90.0   33.333333333333336
-450.0   90.0   16.666666666666668
-450.0   60.0   33.333333333333336
-400.0   90.0   33.333333333333336
-400.0   60.0   33.333333333333336
-400.0   60.0   16.666666666666668
-450.0   60.0   33.333333333333336
-400.0   90.0   33.333333333333336
-400.0   60.0   16.666666666666668
-450.0   90.0   16.666666666666668
-450.0   60.0   33.333333333333336
-400.0   60.0   33.333333333333336
-450.0   90.0   33.333333333333336
-450.0   60.0   50.0
-400.0   60.0   33.333333333333336
-400.0   90.0   33.333333333333336
-450.0   90.0   33.333333333333336
-400.0   90.0   50.0
-450.0   60.0   50.0
-450.0   90.0   50.0
-400.0   90.0   50.0
-450.0   90.0   33.333333333333336
-450.0   60.0   50.0
-400.0   90.0   50.0
-400.0   60.0   50.0
-400.0   60.0   33.333333333333336
-450.0   60.0   50.0
-400.0   90.0   50.0
-400.0   60.0   33.333333333333336
-450.0   90.0   33.333333333333336
-450.0   90.0   0.0
-400.0   90.0   0.0
-450.0   120.0   0.0
-450.0   90.0   16.666666666666668
-400.0   90.0   0.0
-400.0   120.0   0.0
-450.0   120.0   0.0
-400.0   120.0   16.666666666666668
-450.0   90.0   16.666666666666668
-450.0   120.0   16.666666666666668
-400.0   120.0   16.666666666666668
-450.0   120.0   0.0
-450.0   90.0   16.666666666666668
-400.0   120.0   16.666666666666668
-400.0   90.0   16.666666666666668
-400.0   90.0   0.0
-450.0   90.0   16.666666666666668
-400.0   120.0   16.666666666666668
-400.0   90.0   0.0
-450.0   120.0   0.0
-450.0   90.0   16.666666666666668
-400.0   90.0   16.666666666666668
-450.0   120.0   16.666666666666668
-450.0   90.0   33.333333333333336
-400.0   90.0   16.666666666666668
-400.0   120.0   16.666666666666668
-450.0   120.0   16.666666666666668
-400.0   120.0   33.333333333333336
-450.0   90.0   33.333333333333336
-450.0   120.0   33.333333333333336
-400.0   120.0   33.333333333333336
-450.0   120.0   16.666666666666668
-450.0   90.0   33.333333333333336
-400.0   120.0   33.333333333333336
-400.0   90.0   33.333333333333336
-400.0   90.0   16.666666666666668
-450.0   90.0   33.333333333333336
-400.0   120.0   33.333333333333336
-400.0   90.0   16.666666666666668
-450.0   120.0   16.666666666666668
-450.0   90.0   33.333333333333336
-400.0   90.0   33.333333333333336
-450.0   120.0   33.333333333333336
-450.0   90.0   50.0
-400.0   90.0   33.333333333333336
-400.0   120.0   33.333333333333336
-450.0   120.0   33.333333333333336
-400.0   120.0   50.0
-450.0   90.0   50.0
-450.0   120.0   50.0
-400.0   120.0   50.0
-450.0   120.0   33.333333333333336
-450.0   90.0   50.0
-400.0   120.0   50.0
-400.0   90.0   50.0
-400.0   90.0   33.333333333333336
-450.0   90.0   50.0
-400.0   120.0   50.0
-400.0   90.0   33.333333333333336
-450.0   120.0   33.333333333333336
-450.0   120.0   0.0
-400.0   120.0   0.0
-450.0   150.0   0.0
-450.0   120.0   16.666666666666668
-400.0   120.0   0.0
-400.0   150.0   0.0
-450.0   150.0   0.0
-400.0   150.0   16.666666666666668
-450.0   120.0   16.666666666666668
-450.0   150.0   16.666666666666668
-400.0   150.0   16.666666666666668
-450.0   150.0   0.0
-450.0   120.0   16.666666666666668
-400.0   150.0   16.666666666666668
-400.0   120.0   16.666666666666668
-400.0   120.0   0.0
-450.0   120.0   16.666666666666668
-400.0   150.0   16.666666666666668
-400.0   120.0   0.0
-450.0   150.0   0.0
-450.0   120.0   16.666666666666668
-400.0   120.0   16.666666666666668
-450.0   150.0   16.666666666666668
-450.0   120.0   33.333333333333336
-400.0   120.0   16.666666666666668
-400.0   150.0   16.666666666666668
-450.0   150.0   16.666666666666668
-400.0   150.0   33.333333333333336
-450.0   120.0   33.333333333333336
-450.0   150.0   33.333333333333336
-400.0   150.0   33.333333333333336
-450.0   150.0   16.666666666666668
-450.0   120.0   33.333333333333336
-400.0   150.0   33.333333333333336
-400.0   120.0   33.333333333333336
-400.0   120.0   16.666666666666668
-450.0   120.0   33.333333333333336
-400.0   150.0   33.333333333333336
-400.0   120.0   16.666666666666668
-450.0   150.0   16.666666666666668
-450.0   120.0   33.333333333333336
-400.0   120.0   33.333333333333336
-450.0   150.0   33.333333333333336
-450.0   120.0   50.0
-400.0   120.0   33.333333333333336
-400.0   150.0   33.333333333333336
-450.0   150.0   33.333333333333336
-400.0   150.0   50.0
-450.0   120.0   50.0
-450.0   150.0   50.0
-400.0   150.0   50.0
-450.0   150.0   33.333333333333336
-450.0   120.0   50.0
-400.0   150.0   50.0
-400.0   120.0   50.0
-400.0   120.0   33.333333333333336
-450.0   120.0   50.0
-400.0   150.0   50.0
-400.0   120.0   33.333333333333336
-450.0   150.0   33.333333333333336
-400.0   0.0   0.0
-350.0   0.0   0.0
-400.0   30.0   0.0
-400.0   0.0   16.666666666666668
-350.0   0.0   0.0
-350.0   30.0   0.0
-400.0   30.0   0.0
-350.0   30.0   16.666666666666668
-400.0   0.0   16.666666666666668
-400.0   30.0   16.666666666666668
-350.0   30.0   16.666666666666668
-400.0   30.0   0.0
-400.0   0.0   16.666666666666668
-350.0   30.0   16.666666666666668
-350.0   0.0   16.666666666666668
-350.0   0.0   0.0
-400.0   0.0   16.666666666666668
-350.0   30.0   16.666666666666668
-350.0   0.0   0.0
-400.0   30.0   0.0
-400.0   0.0   16.666666666666668
-350.0   0.0   16.666666666666668
-400.0   30.0   16.666666666666668
-400.0   0.0   33.333333333333336
-350.0   0.0   16.666666666666668
-350.0   30.0   16.666666666666668
-400.0   30.0   16.666666666666668
-350.0   30.0   33.333333333333336
-400.0   0.0   33.333333333333336
-400.0   30.0   33.333333333333336
-350.0   30.0   33.333333333333336
-400.0   30.0   16.666666666666668
-400.0   0.0   33.333333333333336
-350.0   30.0   33.333333333333336
-350.0   0.0   33.333333333333336
-350.0   0.0   16.666666666666668
-400.0   0.0   33.333333333333336
-350.0   30.0   33.333333333333336
-350.0   0.0   16.666666666666668
-400.0   30.0   16.666666666666668
-400.0   0.0   33.333333333333336
-350.0   0.0   33.333333333333336
-400.0   30.0   33.333333333333336
-400.0   0.0   50.0
-350.0   0.0   33.333333333333336
-350.0   30.0   33.333333333333336
-400.0   30.0   33.333333333333336
-350.0   30.0   50.0
-400.0   0.0   50.0
-400.0   30.0   50.0
-350.0   30.0   50.0
-400.0   30.0   33.333333333333336
-400.0   0.0   50.0
-350.0   30.0   50.0
-350.0   0.0   50.0
-350.0   0.0   33.333333333333336
-400.0   0.0   50.0
-350.0   30.0   50.0
-350.0   0.0   33.333333333333336
-400.0   30.0   33.333333333333336
-400.0   30.0   0.0
-350.0   30.0   0.0
-400.0   60.0   0.0
-400.0   30.0   16.666666666666668
-350.0   30.0   0.0
-350.0   60.0   0.0
-400.0   60.0   0.0
-350.0   60.0   16.666666666666668
-400.0   30.0   16.666666666666668
-400.0   60.0   16.666666666666668
-350.0   60.0   16.666666666666668
-400.0   60.0   0.0
-400.0   30.0   16.666666666666668
-350.0   60.0   16.666666666666668
-350.0   30.0   16.666666666666668
-350.0   30.0   0.0
-400.0   30.0   16.666666666666668
-350.0   60.0   16.666666666666668
-350.0   30.0   0.0
-400.0   60.0   0.0
-400.0   30.0   16.666666666666668
-350.0   30.0   16.666666666666668
-400.0   60.0   16.666666666666668
-400.0   30.0   33.333333333333336
-350.0   30.0   16.666666666666668
-350.0   60.0   16.666666666666668
-400.0   60.0   16.666666666666668
-350.0   60.0   33.333333333333336
-400.0   30.0   33.333333333333336
-400.0   60.0   33.333333333333336
-350.0   60.0   33.333333333333336
-400.0   60.0   16.666666666666668
-400.0   30.0   33.333333333333336
-350.0   60.0   33.333333333333336
-350.0   30.0   33.333333333333336
-350.0   30.0   16.666666666666668
-400.0   30.0   33.333333333333336
-350.0   60.0   33.333333333333336
-350.0   30.0   16.666666666666668
-400.0   60.0   16.666666666666668
-400.0   30.0   33.333333333333336
-350.0   30.0   33.333333333333336
-400.0   60.0   33.333333333333336
-400.0   30.0   50.0
-350.0   30.0   33.333333333333336
-350.0   60.0   33.333333333333336
-400.0   60.0   33.333333333333336
-350.0   60.0   50.0
-400.0   30.0   50.0
-400.0   60.0   50.0
-350.0   60.0   50.0
-400.0   60.0   33.333333333333336
-400.0   30.0   50.0
-350.0   60.0   50.0
-350.0   30.0   50.0
-350.0   30.0   33.333333333333336
-400.0   30.0   50.0
-350.0   60.0   50.0
-350.0   30.0   33.333333333333336
-400.0   60.0   33.333333333333336
-400.0   60.0   0.0
-350.0   60.0   0.0
-400.0   90.0   0.0
-400.0   60.0   16.666666666666668
-350.0   60.0   0.0
-350.0   90.0   0.0
-400.0   90.0   0.0
-350.0   90.0   16.666666666666668
-400.0   60.0   16.666666666666668
-400.0   90.0   16.666666666666668
-350.0   90.0   16.666666666666668
-400.0   90.0   0.0
-400.0   60.0   16.666666666666668
-350.0   90.0   16.666666666666668
-350.0   60.0   16.666666666666668
-350.0   60.0   0.0
-400.0   60.0   16.666666666666668
-350.0   90.0   16.666666666666668
-350.0   60.0   0.0
-400.0   90.0   0.0
-400.0   60.0   16.666666666666668
-350.0   60.0   16.666666666666668
-400.0   90.0   16.666666666666668
-400.0   60.0   33.333333333333336
-350.0   60.0   16.666666666666668
-350.0   90.0   16.666666666666668
-400.0   90.0   16.666666666666668
-350.0   90.0   33.333333333333336
-400.0   60.0   33.333333333333336
-400.0   90.0   33.333333333333336
-350.0   90.0   33.333333333333336
-400.0   90.0   16.666666666666668
-400.0   60.0   33.333333333333336
-350.0   90.0   33.333333333333336
-350.0   60.0   33.333333333333336
-350.0   60.0   16.666666666666668
-400.0   60.0   33.333333333333336
-350.0   90.0   33.333333333333336
-350.0   60.0   16.666666666666668
-400.0   90.0   16.666666666666668
-400.0   60.0   33.333333333333336
-350.0   60.0   33.333333333333336
-400.0   90.0   33.333333333333336
-400.0   60.0   50.0
-350.0   60.0   33.333333333333336
-350.0   90.0   33.333333333333336
-400.0   90.0   33.333333333333336
-350.0   90.0   50.0
-400.0   60.0   50.0
-400.0   90.0   50.0
-350.0   90.0   50.0
-400.0   90.0   33.333333333333336
-400.0   60.0   50.0
-350.0   90.0   50.0
-350.0   60.0   50.0
-350.0   60.0   33.333333333333336
-400.0   60.0   50.0
-350.0   90.0   50.0
-350.0   60.0   33.333333333333336
-400.0   90.0   33.333333333333336
-400.0   90.0   0.0
-350.0   90.0   0.0
-400.0   120.0   0.0
-400.0   90.0   16.666666666666668
-350.0   90.0   0.0
-350.0   120.0   0.0
-400.0   120.0   0.0
-350.0   120.0   16.666666666666668
-400.0   90.0   16.666666666666668
-400.0   120.0   16.666666666666668
-350.0   120.0   16.666666666666668
-400.0   120.0   0.0
-400.0   90.0   16.666666666666668
-350.0   120.0   16.666666666666668
-350.0   90.0   16.666666666666668
-350.0   90.0   0.0
-400.0   90.0   16.666666666666668
-350.0   120.0   16.666666666666668
-350.0   90.0   0.0
-400.0   120.0   0.0
-400.0   90.0   16.666666666666668
-350.0   90.0   16.666666666666668
-400.0   120.0   16.666666666666668
-400.0   90.0   33.333333333333336
-350.0   90.0   16.666666666666668
-350.0   120.0   16.666666666666668
-400.0   120.0   16.666666666666668
-350.0   120.0   33.333333333333336
-400.0   90.0   33.333333333333336
-400.0   120.0   33.333333333333336
-350.0   120.0   33.333333333333336
-400.0   120.0   16.666666666666668
-400.0   90.0   33.333333333333336
-350.0   120.0   33.333333333333336
-350.0   90.0   33.333333333333336
-350.0   90.0   16.666666666666668
-400.0   90.0   33.333333333333336
-350.0   120.0   33.333333333333336
-350.0   90.0   16.666666666666668
-400.0   120.0   16.666666666666668
-400.0   90.0   33.333333333333336
-350.0   90.0   33.333333333333336
-400.0   120.0   33.333333333333336
-400.0   90.0   50.0
-350.0   90.0   33.333333333333336
-350.0   120.0   33.333333333333336
-400.0   120.0   33.333333333333336
-350.0   120.0   50.0
-400.0   90.0   50.0
-400.0   120.0   50.0
-350.0   120.0   50.0
-400.0   120.0   33.333333333333336
-400.0   90.0   50.0
-350.0   120.0   50.0
-350.0   90.0   50.0
-350.0   90.0   33.333333333333336
-400.0   90.0   50.0
-350.0   120.0   50.0
-350.0   90.0   33.333333333333336
-400.0   120.0   33.333333333333336
-400.0   120.0   0.0
-350.0   120.0   0.0
-400.0   150.0   0.0
-400.0   120.0   16.666666666666668
-350.0   120.0   0.0
-350.0   150.0   0.0
-400.0   150.0   0.0
-350.0   150.0   16.666666666666668
-400.0   120.0   16.666666666666668
-400.0   150.0   16.666666666666668
-350.0   150.0   16.666666666666668
-400.0   150.0   0.0
-400.0   120.0   16.666666666666668
-350.0   150.0   16.666666666666668
-350.0   120.0   16.666666666666668
-350.0   120.0   0.0
-400.0   120.0   16.666666666666668
-350.0   150.0   16.666666666666668
-350.0   120.0   0.0
-400.0   150.0   0.0
-400.0   120.0   16.666666666666668
-350.0   120.0   16.666666666666668
-400.0   150.0   16.666666666666668
-400.0   120.0   33.333333333333336
-350.0   120.0   16.666666666666668
-350.0   150.0   16.666666666666668
-400.0   150.0   16.666666666666668
-350.0   150.0   33.333333333333336
-400.0   120.0   33.333333333333336
-400.0   150.0   33.333333333333336
-350.0   150.0   33.333333333333336
-400.0   150.0   16.666666666666668
-400.0   120.0   33.333333333333336
-350.0   150.0   33.333333333333336
-350.0   120.0   33.333333333333336
-350.0   120.0   16.666666666666668
-400.0   120.0   33.333333333333336
-350.0   150.0   33.333333333333336
-350.0   120.0   16.666666666666668
-400.0   150.0   16.666666666666668
-400.0   120.0   33.333333333333336
-350.0   120.0   33.333333333333336
-400.0   150.0   33.333333333333336
-400.0   120.0   50.0
-350.0   120.0   33.333333333333336
-350.0   150.0   33.333333333333336
-400.0   150.0   33.333333333333336
-350.0   150.0   50.0
-400.0   120.0   50.0
-400.0   150.0   50.0
-350.0   150.0   50.0
-400.0   150.0   33.333333333333336
-400.0   120.0   50.0
-350.0   150.0   50.0
-350.0   120.0   50.0
-350.0   120.0   33.333333333333336
-400.0   120.0   50.0
-350.0   150.0   50.0
-350.0   120.0   33.333333333333336
-400.0   150.0   33.333333333333336
-350.0   0.0   0.0
-300.0   0.0   0.0
-350.0   30.0   0.0
-350.0   0.0   16.666666666666668
-300.0   0.0   0.0
-300.0   30.0   0.0
-350.0   30.0   0.0
-300.0   30.0   16.666666666666668
-350.0   0.0   16.666666666666668
-350.0   30.0   16.666666666666668
-300.0   30.0   16.666666666666668
-350.0   30.0   0.0
-350.0   0.0   16.666666666666668
-300.0   30.0   16.666666666666668
-300.0   0.0   16.666666666666668
-300.0   0.0   0.0
-350.0   0.0   16.666666666666668
-300.0   30.0   16.666666666666668
-300.0   0.0   0.0
-350.0   30.0   0.0
-350.0   0.0   16.666666666666668
-300.0   0.0   16.666666666666668
-350.0   30.0   16.666666666666668
-350.0   0.0   33.333333333333336
-300.0   0.0   16.666666666666668
-300.0   30.0   16.666666666666668
-350.0   30.0   16.666666666666668
-300.0   30.0   33.333333333333336
-350.0   0.0   33.333333333333336
-350.0   30.0   33.333333333333336
-300.0   30.0   33.333333333333336
-350.0   30.0   16.666666666666668
-350.0   0.0   33.333333333333336
-300.0   30.0   33.333333333333336
-300.0   0.0   33.333333333333336
-300.0   0.0   16.666666666666668
-350.0   0.0   33.333333333333336
-300.0   30.0   33.333333333333336
-300.0   0.0   16.666666666666668
-350.0   30.0   16.666666666666668
-350.0   0.0   33.333333333333336
-300.0   0.0   33.333333333333336
-350.0   30.0   33.333333333333336
-350.0   0.0   50.0
-300.0   0.0   33.333333333333336
-300.0   30.0   33.333333333333336
-350.0   30.0   33.333333333333336
-300.0   30.0   50.0
-350.0   0.0   50.0
-350.0   30.0   50.0
-300.0   30.0   50.0
-350.0   30.0   33.333333333333336
-350.0   0.0   50.0
-300.0   30.0   50.0
-300.0   0.0   50.0
-300.0   0.0   33.333333333333336
-350.0   0.0   50.0
-300.0   30.0   50.0
-300.0   0.0   33.333333333333336
-350.0   30.0   33.333333333333336
-350.0   30.0   0.0
-300.0   30.0   0.0
-350.0   60.0   0.0
-350.0   30.0   16.666666666666668
-300.0   30.0   0.0
-300.0   60.0   0.0
-350.0   60.0   0.0
-300.0   60.0   16.666666666666668
-350.0   30.0   16.666666666666668
-350.0   60.0   16.666666666666668
-300.0   60.0   16.666666666666668
-350.0   60.0   0.0
-350.0   30.0   16.666666666666668
-300.0   60.0   16.666666666666668
-300.0   30.0   16.666666666666668
-300.0   30.0   0.0
-350.0   30.0   16.666666666666668
-300.0   60.0   16.666666666666668
-300.0   30.0   0.0
-350.0   60.0   0.0
-350.0   30.0   16.666666666666668
-300.0   30.0   16.666666666666668
-350.0   60.0   16.666666666666668
-350.0   30.0   33.333333333333336
-300.0   30.0   16.666666666666668
-300.0   60.0   16.666666666666668
-350.0   60.0   16.666666666666668
-300.0   60.0   33.333333333333336
-350.0   30.0   33.333333333333336
-350.0   60.0   33.333333333333336
-300.0   60.0   33.333333333333336
-350.0   60.0   16.666666666666668
-350.0   30.0   33.333333333333336
-300.0   60.0   33.333333333333336
-300.0   30.0   33.333333333333336
-300.0   30.0   16.666666666666668
-350.0   30.0   33.333333333333336
-300.0   60.0   33.333333333333336
-300.0   30.0   16.666666666666668
-350.0   60.0   16.666666666666668
-350.0   30.0   33.333333333333336
-300.0   30.0   33.333333333333336
-350.0   60.0   33.333333333333336
-350.0   30.0   50.0
-300.0   30.0   33.333333333333336
-300.0   60.0   33.333333333333336
-350.0   60.0   33.333333333333336
-300.0   60.0   50.0
-350.0   30.0   50.0
-350.0   60.0   50.0
-300.0   60.0   50.0
-350.0   60.0   33.333333333333336
-350.0   30.0   50.0
-300.0   60.0   50.0
-300.0   30.0   50.0
-300.0   30.0   33.333333333333336
-350.0   30.0   50.0
-300.0   60.0   50.0
-300.0   30.0   33.333333333333336
-350.0   60.0   33.333333333333336
-350.0   60.0   0.0
-300.0   60.0   0.0
-350.0   90.0   0.0
-350.0   60.0   16.666666666666668
-300.0   60.0   0.0
-300.0   90.0   0.0
-350.0   90.0   0.0
-300.0   90.0   16.666666666666668
-350.0   60.0   16.666666666666668
-350.0   90.0   16.666666666666668
-300.0   90.0   16.666666666666668
-350.0   90.0   0.0
-350.0   60.0   16.666666666666668
-300.0   90.0   16.666666666666668
-300.0   60.0   16.666666666666668
-300.0   60.0   0.0
-350.0   60.0   16.666666666666668
-300.0   90.0   16.666666666666668
-300.0   60.0   0.0
-350.0   90.0   0.0
-350.0   60.0   16.666666666666668
-300.0   60.0   16.666666666666668
-350.0   90.0   16.666666666666668
-350.0   60.0   33.333333333333336
-300.0   60.0   16.666666666666668
-300.0   90.0   16.666666666666668
-350.0   90.0   16.666666666666668
-300.0   90.0   33.333333333333336
-350.0   60.0   33.333333333333336
-350.0   90.0   33.333333333333336
-300.0   90.0   33.333333333333336
-350.0   90.0   16.666666666666668
-350.0   60.0   33.333333333333336
-300.0   90.0   33.333333333333336
-300.0   60.0   33.333333333333336
-300.0   60.0   16.666666666666668
-350.0   60.0   33.333333333333336
-300.0   90.0   33.333333333333336
-300.0   60.0   16.666666666666668
-350.0   90.0   16.666666666666668
-350.0   60.0   33.333333333333336
-300.0   60.0   33.333333333333336
-350.0   90.0   33.333333333333336
-350.0   60.0   50.0
-300.0   60.0   33.333333333333336
-300.0   90.0   33.333333333333336
-350.0   90.0   33.333333333333336
-300.0   90.0   50.0
-350.0   60.0   50.0
-350.0   90.0   50.0
-300.0   90.0   50.0
-350.0   90.0   33.333333333333336
-350.0   60.0   50.0
-300.0   90.0   50.0
-300.0   60.0   50.0
-300.0   60.0   33.333333333333336
-350.0   60.0   50.0
-300.0   90.0   50.0
-300.0   60.0   33.333333333333336
-350.0   90.0   33.333333333333336
-350.0   90.0   0.0
-300.0   90.0   0.0
-350.0   120.0   0.0
-350.0   90.0   16.666666666666668
-300.0   90.0   0.0
-300.0   120.0   0.0
-350.0   120.0   0.0
-300.0   120.0   16.666666666666668
-350.0   90.0   16.666666666666668
-350.0   120.0   16.666666666666668
-300.0   120.0   16.666666666666668
-350.0   120.0   0.0
-350.0   90.0   16.666666666666668
-300.0   120.0   16.666666666666668
-300.0   90.0   16.666666666666668
-300.0   90.0   0.0
-350.0   90.0   16.666666666666668
-300.0   120.0   16.666666666666668
-300.0   90.0   0.0
-350.0   120.0   0.0
-350.0   90.0   16.666666666666668
-300.0   90.0   16.666666666666668
-350.0   120.0   16.666666666666668
-350.0   90.0   33.333333333333336
-300.0   90.0   16.666666666666668
-300.0   120.0   16.666666666666668
-350.0   120.0   16.666666666666668
-300.0   120.0   33.333333333333336
-350.0   90.0   33.333333333333336
-350.0   120.0   33.333333333333336
-300.0   120.0   33.333333333333336
-350.0   120.0   16.666666666666668
-350.0   90.0   33.333333333333336
-300.0   120.0   33.333333333333336
-300.0   90.0   33.333333333333336
-300.0   90.0   16.666666666666668
-350.0   90.0   33.333333333333336
-300.0   120.0   33.333333333333336
-300.0   90.0   16.666666666666668
-350.0   120.0   16.666666666666668
-350.0   90.0   33.333333333333336
-300.0   90.0   33.333333333333336
-350.0   120.0   33.333333333333336
-350.0   90.0   50.0
-300.0   90.0   33.333333333333336
-300.0   120.0   33.333333333333336
-350.0   120.0   33.333333333333336
-300.0   120.0   50.0
-350.0   90.0   50.0
-350.0   120.0   50.0
-300.0   120.0   50.0
-350.0   120.0   33.333333333333336
-350.0   90.0   50.0
-300.0   120.0   50.0
-300.0   90.0   50.0
-300.0   90.0   33.333333333333336
-350.0   90.0   50.0
-300.0   120.0   50.0
-300.0   90.0   33.333333333333336
-350.0   120.0   33.333333333333336
-350.0   120.0   0.0
-300.0   120.0   0.0
-350.0   150.0   0.0
-350.0   120.0   16.666666666666668
-300.0   120.0   0.0
-300.0   150.0   0.0
-350.0   150.0   0.0
-300.0   150.0   16.666666666666668
-350.0   120.0   16.666666666666668
-350.0   150.0   16.666666666666668
-300.0   150.0   16.666666666666668
-350.0   150.0   0.0
-350.0   120.0   16.666666666666668
-300.0   150.0   16.666666666666668
-300.0   120.0   16.666666666666668
-300.0   120.0   0.0
-350.0   120.0   16.666666666666668
-300.0   150.0   16.666666666666668
-300.0   120.0   0.0
-350.0   150.0   0.0
-350.0   120.0   16.666666666666668
-300.0   120.0   16.666666666666668
-350.0   150.0   16.666666666666668
-350.0   120.0   33.333333333333336
-300.0   120.0   16.666666666666668
-300.0   150.0   16.666666666666668
-350.0   150.0   16.666666666666668
-300.0   150.0   33.333333333333336
-350.0   120.0   33.333333333333336
-350.0   150.0   33.333333333333336
-300.0   150.0   33.333333333333336
-350.0   150.0   16.666666666666668
-350.0   120.0   33.333333333333336
-300.0   150.0   33.333333333333336
-300.0   120.0   33.333333333333336
-300.0   120.0   16.666666666666668
-350.0   120.0   33.333333333333336
-300.0   150.0   33.333333333333336
-300.0   120.0   16.666666666666668
-350.0   150.0   16.666666666666668
-350.0   120.0   33.333333333333336
-300.0   120.0   33.333333333333336
-350.0   150.0   33.333333333333336
-350.0   120.0   50.0
-300.0   120.0   33.333333333333336
-300.0   150.0   33.333333333333336
-350.0   150.0   33.333333333333336
-300.0   150.0   50.0
-350.0   120.0   50.0
-350.0   150.0   50.0
-300.0   150.0   50.0
-350.0   150.0   33.333333333333336
-350.0   120.0   50.0
-300.0   150.0   50.0
-300.0   120.0   50.0
-300.0   120.0   33.333333333333336
-350.0   120.0   50.0
-300.0   150.0   50.0
-300.0   120.0   33.333333333333336
-350.0   150.0   33.333333333333336
-300.0   0.0   0.0
-250.0   0.0   0.0
-300.0   30.0   0.0
-300.0   0.0   16.666666666666668
-250.0   0.0   0.0
-250.0   30.0   0.0
-300.0   30.0   0.0
-250.0   30.0   16.666666666666668
-300.0   0.0   16.666666666666668
-300.0   30.0   16.666666666666668
-250.0   30.0   16.666666666666668
-300.0   30.0   0.0
-300.0   0.0   16.666666666666668
-250.0   30.0   16.666666666666668
-250.0   0.0   16.666666666666668
-250.0   0.0   0.0
-300.0   0.0   16.666666666666668
-250.0   30.0   16.666666666666668
-250.0   0.0   0.0
-300.0   30.0   0.0
-300.0   0.0   16.666666666666668
-250.0   0.0   16.666666666666668
-300.0   30.0   16.666666666666668
-300.0   0.0   33.333333333333336
-250.0   0.0   16.666666666666668
-250.0   30.0   16.666666666666668
-300.0   30.0   16.666666666666668
-250.0   30.0   33.333333333333336
-300.0   0.0   33.333333333333336
-300.0   30.0   33.333333333333336
-250.0   30.0   33.333333333333336
-300.0   30.0   16.666666666666668
-300.0   0.0   33.333333333333336
-250.0   30.0   33.333333333333336
-250.0   0.0   33.333333333333336
-250.0   0.0   16.666666666666668
-300.0   0.0   33.333333333333336
-250.0   30.0   33.333333333333336
-250.0   0.0   16.666666666666668
-300.0   30.0   16.666666666666668
-300.0   0.0   33.333333333333336
-250.0   0.0   33.333333333333336
-300.0   30.0   33.333333333333336
-300.0   0.0   50.0
-250.0   0.0   33.333333333333336
-250.0   30.0   33.333333333333336
-300.0   30.0   33.333333333333336
-250.0   30.0   50.0
-300.0   0.0   50.0
-300.0   30.0   50.0
-250.0   30.0   50.0
-300.0   30.0   33.333333333333336
-300.0   0.0   50.0
-250.0   30.0   50.0
-250.0   0.0   50.0
-250.0   0.0   33.333333333333336
-300.0   0.0   50.0
-250.0   30.0   50.0
-250.0   0.0   33.333333333333336
-300.0   30.0   33.333333333333336
-300.0   30.0   0.0
-250.0   30.0   0.0
-300.0   60.0   0.0
-300.0   30.0   16.666666666666668
-250.0   30.0   0.0
-250.0   60.0   0.0
-300.0   60.0   0.0
-250.0   60.0   16.666666666666668
-300.0   30.0   16.666666666666668
-300.0   60.0   16.666666666666668
-250.0   60.0   16.666666666666668
-300.0   60.0   0.0
-300.0   30.0   16.666666666666668
-250.0   60.0   16.666666666666668
-250.0   30.0   16.666666666666668
-250.0   30.0   0.0
-300.0   30.0   16.666666666666668
-250.0   60.0   16.666666666666668
-250.0   30.0   0.0
-300.0   60.0   0.0
-300.0   30.0   16.666666666666668
-250.0   30.0   16.666666666666668
-300.0   60.0   16.666666666666668
-300.0   30.0   33.333333333333336
-250.0   30.0   16.666666666666668
-250.0   60.0   16.666666666666668
-300.0   60.0   16.666666666666668
-250.0   60.0   33.333333333333336
-300.0   30.0   33.333333333333336
-300.0   60.0   33.333333333333336
-250.0   60.0   33.333333333333336
-300.0   60.0   16.666666666666668
-300.0   30.0   33.333333333333336
-250.0   60.0   33.333333333333336
-250.0   30.0   33.333333333333336
-250.0   30.0   16.666666666666668
-300.0   30.0   33.333333333333336
-250.0   60.0   33.333333333333336
-250.0   30.0   16.666666666666668
-300.0   60.0   16.666666666666668
-300.0   30.0   33.333333333333336
-250.0   30.0   33.333333333333336
-300.0   60.0   33.333333333333336
-300.0   30.0   50.0
-250.0   30.0   33.333333333333336
-250.0   60.0   33.333333333333336
-300.0   60.0   33.333333333333336
-250.0   60.0   50.0
-300.0   30.0   50.0
-300.0   60.0   50.0
-250.0   60.0   50.0
-300.0   60.0   33.333333333333336
-300.0   30.0   50.0
-250.0   60.0   50.0
-250.0   30.0   50.0
-250.0   30.0   33.333333333333336
-300.0   30.0   50.0
-250.0   60.0   50.0
-250.0   30.0   33.333333333333336
-300.0   60.0   33.333333333333336
-300.0   60.0   0.0
-250.0   60.0   0.0
-300.0   90.0   0.0
-300.0   60.0   16.666666666666668
-250.0   60.0   0.0
-250.0   90.0   0.0
-300.0   90.0   0.0
-250.0   90.0   16.666666666666668
-300.0   60.0   16.666666666666668
-300.0   90.0   16.666666666666668
-250.0   90.0   16.666666666666668
-300.0   90.0   0.0
-300.0   60.0   16.666666666666668
-250.0   90.0   16.666666666666668
-250.0   60.0   16.666666666666668
-250.0   60.0   0.0
-300.0   60.0   16.666666666666668
-250.0   90.0   16.666666666666668
-250.0   60.0   0.0
-300.0   90.0   0.0
-300.0   60.0   16.666666666666668
-250.0   60.0   16.666666666666668
-300.0   90.0   16.666666666666668
-300.0   60.0   33.333333333333336
-250.0   60.0   16.666666666666668
-250.0   90.0   16.666666666666668
-300.0   90.0   16.666666666666668
-250.0   90.0   33.333333333333336
-300.0   60.0   33.333333333333336
-300.0   90.0   33.333333333333336
-250.0   90.0   33.333333333333336
-300.0   90.0   16.666666666666668
-300.0   60.0   33.333333333333336
-250.0   90.0   33.333333333333336
-250.0   60.0   33.333333333333336
-250.0   60.0   16.666666666666668
-300.0   60.0   33.333333333333336
-250.0   90.0   33.333333333333336
-250.0   60.0   16.666666666666668
-300.0   90.0   16.666666666666668
-300.0   60.0   33.333333333333336
-250.0   60.0   33.333333333333336
-300.0   90.0   33.333333333333336
-300.0   60.0   50.0
-250.0   60.0   33.333333333333336
-250.0   90.0   33.333333333333336
-300.0   90.0   33.333333333333336
-250.0   90.0   50.0
-300.0   60.0   50.0
-300.0   90.0   50.0
-250.0   90.0   50.0
-300.0   90.0   33.333333333333336
-300.0   60.0   50.0
-250.0   90.0   50.0
-250.0   60.0   50.0
-250.0   60.0   33.333333333333336
-300.0   60.0   50.0
-250.0   90.0   50.0
-250.0   60.0   33.333333333333336
-300.0   90.0   33.333333333333336
-300.0   90.0   0.0
-250.0   90.0   0.0
-300.0   120.0   0.0
-300.0   90.0   16.666666666666668
-250.0   90.0   0.0
-250.0   120.0   0.0
-300.0   120.0   0.0
-250.0   120.0   16.666666666666668
-300.0   90.0   16.666666666666668
-300.0   120.0   16.666666666666668
-250.0   120.0   16.666666666666668
-300.0   120.0   0.0
-300.0   90.0   16.666666666666668
-250.0   120.0   16.666666666666668
-250.0   90.0   16.666666666666668
-250.0   90.0   0.0
-300.0   90.0   16.666666666666668
-250.0   120.0   16.666666666666668
-250.0   90.0   0.0
-300.0   120.0   0.0
-300.0   90.0   16.666666666666668
-250.0   90.0   16.666666666666668
-300.0   120.0   16.666666666666668
-300.0   90.0   33.333333333333336
-250.0   90.0   16.666666666666668
-250.0   120.0   16.666666666666668
-300.0   120.0   16.666666666666668
-250.0   120.0   33.333333333333336
-300.0   90.0   33.333333333333336
-300.0   120.0   33.333333333333336
-250.0   120.0   33.333333333333336
-300.0   120.0   16.666666666666668
-300.0   90.0   33.333333333333336
-250.0   120.0   33.333333333333336
-250.0   90.0   33.333333333333336
-250.0   90.0   16.666666666666668
-300.0   90.0   33.333333333333336
-250.0   120.0   33.333333333333336
-250.0   90.0   16.666666666666668
-300.0   120.0   16.666666666666668
-300.0   90.0   33.333333333333336
-250.0   90.0   33.333333333333336
-300.0   120.0   33.333333333333336
-300.0   90.0   50.0
-250.0   90.0   33.333333333333336
-250.0   120.0   33.333333333333336
-300.0   120.0   33.333333333333336
-250.0   120.0   50.0
-300.0   90.0   50.0
-300.0   120.0   50.0
-250.0   120.0   50.0
-300.0   120.0   33.333333333333336
-300.0   90.0   50.0
-250.0   120.0   50.0
-250.0   90.0   50.0
-250.0   90.0   33.333333333333336
-300.0   90.0   50.0
-250.0   120.0   50.0
-250.0   90.0   33.333333333333336
-300.0   120.0   33.333333333333336
-300.0   120.0   0.0
-250.0   120.0   0.0
-300.0   150.0   0.0
-300.0   120.0   16.666666666666668
-250.0   120.0   0.0
-250.0   150.0   0.0
-300.0   150.0   0.0
-250.0   150.0   16.666666666666668
-300.0   120.0   16.666666666666668
-300.0   150.0   16.666666666666668
-250.0   150.0   16.666666666666668
-300.0   150.0   0.0
-300.0   120.0   16.666666666666668
-250.0   150.0   16.666666666666668
-250.0   120.0   16.666666666666668
-250.0   120.0   0.0
-300.0   120.0   16.666666666666668
-250.0   150.0   16.666666666666668
-250.0   120.0   0.0
-300.0   150.0   0.0
-300.0   120.0   16.666666666666668
-250.0   120.0   16.666666666666668
-300.0   150.0   16.666666666666668
-300.0   120.0   33.333333333333336
-250.0   120.0   16.666666666666668
-250.0   150.0   16.666666666666668
-300.0   150.0   16.666666666666668
-250.0   150.0   33.333333333333336
-300.0   120.0   33.333333333333336
-300.0   150.0   33.333333333333336
-250.0   150.0   33.333333333333336
-300.0   150.0   16.666666666666668
-300.0   120.0   33.333333333333336
-250.0   150.0   33.333333333333336
-250.0   120.0   33.333333333333336
-250.0   120.0   16.666666666666668
-300.0   120.0   33.333333333333336
-250.0   150.0   33.333333333333336
-250.0   120.0   16.666666666666668
-300.0   150.0   16.666666666666668
-300.0   120.0   33.333333333333336
-250.0   120.0   33.333333333333336
-300.0   150.0   33.333333333333336
-300.0   120.0   50.0
-250.0   120.0   33.333333333333336
-250.0   150.0   33.333333333333336
-300.0   150.0   33.333333333333336
-250.0   150.0   50.0
-300.0   120.0   50.0
-300.0   150.0   50.0
-250.0   150.0   50.0
-300.0   150.0   33.333333333333336
-300.0   120.0   50.0
-250.0   150.0   50.0
-250.0   120.0   50.0
-250.0   120.0   33.333333333333336
-300.0   120.0   50.0
-250.0   150.0   50.0
-250.0   120.0   33.333333333333336
-300.0   150.0   33.333333333333336
-250.0   0.0   0.0
-200.0   0.0   0.0
-250.0   30.0   0.0
-250.0   0.0   16.666666666666668
-200.0   0.0   0.0
-200.0   30.0   0.0
-250.0   30.0   0.0
-200.0   30.0   16.666666666666668
-250.0   0.0   16.666666666666668
-250.0   30.0   16.666666666666668
-200.0   30.0   16.666666666666668
-250.0   30.0   0.0
-250.0   0.0   16.666666666666668
-200.0   30.0   16.666666666666668
-200.0   0.0   16.666666666666668
-200.0   0.0   0.0
-250.0   0.0   16.666666666666668
-200.0   30.0   16.666666666666668
-200.0   0.0   0.0
-250.0   30.0   0.0
-250.0   0.0   16.666666666666668
-200.0   0.0   16.666666666666668
-250.0   30.0   16.666666666666668
-250.0   0.0   33.333333333333336
-200.0   0.0   16.666666666666668
-200.0   30.0   16.666666666666668
-250.0   30.0   16.666666666666668
-200.0   30.0   33.333333333333336
-250.0   0.0   33.333333333333336
-250.0   30.0   33.333333333333336
-200.0   30.0   33.333333333333336
-250.0   30.0   16.666666666666668
-250.0   0.0   33.333333333333336
-200.0   30.0   33.333333333333336
-200.0   0.0   33.333333333333336
-200.0   0.0   16.666666666666668
-250.0   0.0   33.333333333333336
-200.0   30.0   33.333333333333336
-200.0   0.0   16.666666666666668
-250.0   30.0   16.666666666666668
-250.0   0.0   33.333333333333336
-200.0   0.0   33.333333333333336
-250.0   30.0   33.333333333333336
-250.0   0.0   50.0
-200.0   0.0   33.333333333333336
-200.0   30.0   33.333333333333336
-250.0   30.0   33.333333333333336
-200.0   30.0   50.0
-250.0   0.0   50.0
-250.0   30.0   50.0
-200.0   30.0   50.0
-250.0   30.0   33.333333333333336
-250.0   0.0   50.0
-200.0   30.0   50.0
-200.0   0.0   50.0
-200.0   0.0   33.333333333333336
-250.0   0.0   50.0
-200.0   30.0   50.0
-200.0   0.0   33.333333333333336
-250.0   30.0   33.333333333333336
-250.0   30.0   0.0
-200.0   30.0   0.0
-250.0   60.0   0.0
-250.0   30.0   16.666666666666668
-200.0   30.0   0.0
-200.0   60.0   0.0
-250.0   60.0   0.0
-200.0   60.0   16.666666666666668
-250.0   30.0   16.666666666666668
-250.0   60.0   16.666666666666668
-200.0   60.0   16.666666666666668
-250.0   60.0   0.0
-250.0   30.0   16.666666666666668
-200.0   60.0   16.666666666666668
-200.0   30.0   16.666666666666668
-200.0   30.0   0.0
-250.0   30.0   16.666666666666668
-200.0   60.0   16.666666666666668
-200.0   30.0   0.0
-250.0   60.0   0.0
-250.0   30.0   16.666666666666668
-200.0   30.0   16.666666666666668
-250.0   60.0   16.666666666666668
-250.0   30.0   33.333333333333336
-200.0   30.0   16.666666666666668
-200.0   60.0   16.666666666666668
-250.0   60.0   16.666666666666668
-200.0   60.0   33.333333333333336
-250.0   30.0   33.333333333333336
-250.0   60.0   33.333333333333336
-200.0   60.0   33.333333333333336
-250.0   60.0   16.666666666666668
-250.0   30.0   33.333333333333336
-200.0   60.0   33.333333333333336
-200.0   30.0   33.333333333333336
-200.0   30.0   16.666666666666668
-250.0   30.0   33.333333333333336
-200.0   60.0   33.333333333333336
-200.0   30.0   16.666666666666668
-250.0   60.0   16.666666666666668
-250.0   30.0   33.333333333333336
-200.0   30.0   33.333333333333336
-250.0   60.0   33.333333333333336
-250.0   30.0   50.0
-200.0   30.0   33.333333333333336
-200.0   60.0   33.333333333333336
-250.0   60.0   33.333333333333336
-200.0   60.0   50.0
-250.0   30.0   50.0
-250.0   60.0   50.0
-200.0   60.0   50.0
-250.0   60.0   33.333333333333336
-250.0   30.0   50.0
-200.0   60.0   50.0
-200.0   30.0   50.0
-200.0   30.0   33.333333333333336
-250.0   30.0   50.0
-200.0   60.0   50.0
-200.0   30.0   33.333333333333336
-250.0   60.0   33.333333333333336
-250.0   60.0   0.0
-200.0   60.0   0.0
-250.0   90.0   0.0
-250.0   60.0   16.666666666666668
-200.0   60.0   0.0
-200.0   90.0   0.0
-250.0   90.0   0.0
-200.0   90.0   16.666666666666668
-250.0   60.0   16.666666666666668
-250.0   90.0   16.666666666666668
-200.0   90.0   16.666666666666668
-250.0   90.0   0.0
-250.0   60.0   16.666666666666668
-200.0   90.0   16.666666666666668
-200.0   60.0   16.666666666666668
-200.0   60.0   0.0
-250.0   60.0   16.666666666666668
-200.0   90.0   16.666666666666668
-200.0   60.0   0.0
-250.0   90.0   0.0
-250.0   60.0   16.666666666666668
-200.0   60.0   16.666666666666668
-250.0   90.0   16.666666666666668
-250.0   60.0   33.333333333333336
-200.0   60.0   16.666666666666668
-200.0   90.0   16.666666666666668
-250.0   90.0   16.666666666666668
-200.0   90.0   33.333333333333336
-250.0   60.0   33.333333333333336
-250.0   90.0   33.333333333333336
-200.0   90.0   33.333333333333336
-250.0   90.0   16.666666666666668
-250.0   60.0   33.333333333333336
-200.0   90.0   33.333333333333336
-200.0   60.0   33.333333333333336
-200.0   60.0   16.666666666666668
-250.0   60.0   33.333333333333336
-200.0   90.0   33.333333333333336
-200.0   60.0   16.666666666666668
-250.0   90.0   16.666666666666668
-250.0   60.0   33.333333333333336
-200.0   60.0   33.333333333333336
-250.0   90.0   33.333333333333336
-250.0   60.0   50.0
-200.0   60.0   33.333333333333336
-200.0   90.0   33.333333333333336
-250.0   90.0   33.333333333333336
-200.0   90.0   50.0
-250.0   60.0   50.0
-250.0   90.0   50.0
-200.0   90.0   50.0
-250.0   90.0   33.333333333333336
-250.0   60.0   50.0
-200.0   90.0   50.0
-200.0   60.0   50.0
-200.0   60.0   33.333333333333336
-250.0   60.0   50.0
-200.0   90.0   50.0
-200.0   60.0   33.333333333333336
-250.0   90.0   33.333333333333336
-250.0   90.0   0.0
-200.0   90.0   0.0
-250.0   120.0   0.0
-250.0   90.0   16.666666666666668
-200.0   90.0   0.0
-200.0   120.0   0.0
-250.0   120.0   0.0
-200.0   120.0   16.666666666666668
-250.0   90.0   16.666666666666668
-250.0   120.0   16.666666666666668
-200.0   120.0   16.666666666666668
-250.0   120.0   0.0
-250.0   90.0   16.666666666666668
-200.0   120.0   16.666666666666668
-200.0   90.0   16.666666666666668
-200.0   90.0   0.0
-250.0   90.0   16.666666666666668
-200.0   120.0   16.666666666666668
-200.0   90.0   0.0
-250.0   120.0   0.0
-250.0   90.0   16.666666666666668
-200.0   90.0   16.666666666666668
-250.0   120.0   16.666666666666668
-250.0   90.0   33.333333333333336
-200.0   90.0   16.666666666666668
-200.0   120.0   16.666666666666668
-250.0   120.0   16.666666666666668
-200.0   120.0   33.333333333333336
-250.0   90.0   33.333333333333336
-250.0   120.0   33.333333333333336
-200.0   120.0   33.333333333333336
-250.0   120.0   16.666666666666668
-250.0   90.0   33.333333333333336
-200.0   120.0   33.333333333333336
-200.0   90.0   33.333333333333336
-200.0   90.0   16.666666666666668
-250.0   90.0   33.333333333333336
-200.0   120.0   33.333333333333336
-200.0   90.0   16.666666666666668
-250.0   120.0   16.666666666666668
-250.0   90.0   33.333333333333336
-200.0   90.0   33.333333333333336
-250.0   120.0   33.333333333333336
-250.0   90.0   50.0
-200.0   90.0   33.333333333333336
-200.0   120.0   33.333333333333336
-250.0   120.0   33.333333333333336
-200.0   120.0   50.0
-250.0   90.0   50.0
-250.0   120.0   50.0
-200.0   120.0   50.0
-250.0   120.0   33.333333333333336
-250.0   90.0   50.0
-200.0   120.0   50.0
-200.0   90.0   50.0
-200.0   90.0   33.333333333333336
-250.0   90.0   50.0
-200.0   120.0   50.0
-200.0   90.0   33.333333333333336
-250.0   120.0   33.333333333333336
-250.0   120.0   0.0
-200.0   120.0   0.0
-250.0   150.0   0.0
-250.0   120.0   16.666666666666668
-200.0   120.0   0.0
-200.0   150.0   0.0
-250.0   150.0   0.0
-200.0   150.0   16.666666666666668
-250.0   120.0   16.666666666666668
-250.0   150.0   16.666666666666668
-200.0   150.0   16.666666666666668
-250.0   150.0   0.0
-250.0   120.0   16.666666666666668
-200.0   150.0   16.666666666666668
-200.0   120.0   16.666666666666668
-200.0   120.0   0.0
-250.0   120.0   16.666666666666668
-200.0   150.0   16.666666666666668
-200.0   120.0   0.0
-250.0   150.0   0.0
-250.0   120.0   16.666666666666668
-200.0   120.0   16.666666666666668
-250.0   150.0   16.666666666666668
-250.0   120.0   33.333333333333336
-200.0   120.0   16.666666666666668
-200.0   150.0   16.666666666666668
-250.0   150.0   16.666666666666668
-200.0   150.0   33.333333333333336
-250.0   120.0   33.333333333333336
-250.0   150.0   33.333333333333336
-200.0   150.0   33.333333333333336
-250.0   150.0   16.666666666666668
-250.0   120.0   33.333333333333336
-200.0   150.0   33.333333333333336
-200.0   120.0   33.333333333333336
-200.0   120.0   16.666666666666668
-250.0   120.0   33.333333333333336
-200.0   150.0   33.333333333333336
-200.0   120.0   16.666666666666668
-250.0   150.0   16.666666666666668
-250.0   120.0   33.333333333333336
-200.0   120.0   33.333333333333336
-250.0   150.0   33.333333333333336
-250.0   120.0   50.0
-200.0   120.0   33.333333333333336
-200.0   150.0   33.333333333333336
-250.0   150.0   33.333333333333336
-200.0   150.0   50.0
-250.0   120.0   50.0
-250.0   150.0   50.0
-200.0   150.0   50.0
-250.0   150.0   33.333333333333336
-250.0   120.0   50.0
-200.0   150.0   50.0
-200.0   120.0   50.0
-200.0   120.0   33.333333333333336
-250.0   120.0   50.0
-200.0   150.0   50.0
-200.0   120.0   33.333333333333336
-250.0   150.0   33.333333333333336
-200.0   0.0   0.0
-150.0   0.0   0.0
-200.0   30.0   0.0
-200.0   0.0   16.666666666666668
-150.0   0.0   0.0
-150.0   30.0   0.0
-200.0   30.0   0.0
-150.0   30.0   16.666666666666668
-200.0   0.0   16.666666666666668
-200.0   30.0   16.666666666666668
-150.0   30.0   16.666666666666668
-200.0   30.0   0.0
-200.0   0.0   16.666666666666668
-150.0   30.0   16.666666666666668
-150.0   0.0   16.666666666666668
-150.0   0.0   0.0
-200.0   0.0   16.666666666666668
-150.0   30.0   16.666666666666668
-150.0   0.0   0.0
-200.0   30.0   0.0
-200.0   0.0   16.666666666666668
-150.0   0.0   16.666666666666668
-200.0   30.0   16.666666666666668
-200.0   0.0   33.333333333333336
-150.0   0.0   16.666666666666668
-150.0   30.0   16.666666666666668
-200.0   30.0   16.666666666666668
-150.0   30.0   33.333333333333336
-200.0   0.0   33.333333333333336
-200.0   30.0   33.333333333333336
-150.0   30.0   33.333333333333336
-200.0   30.0   16.666666666666668
-200.0   0.0   33.333333333333336
-150.0   30.0   33.333333333333336
-150.0   0.0   33.333333333333336
-150.0   0.0   16.666666666666668
-200.0   0.0   33.333333333333336
-150.0   30.0   33.333333333333336
-150.0   0.0   16.666666666666668
-200.0   30.0   16.666666666666668
-200.0   0.0   33.333333333333336
-150.0   0.0   33.333333333333336
-200.0   30.0   33.333333333333336
-200.0   0.0   50.0
-150.0   0.0   33.333333333333336
-150.0   30.0   33.333333333333336
-200.0   30.0   33.333333333333336
-150.0   30.0   50.0
-200.0   0.0   50.0
-200.0   30.0   50.0
-150.0   30.0   50.0
-200.0   30.0   33.333333333333336
-200.0   0.0   50.0
-150.0   30.0   50.0
-150.0   0.0   50.0
-150.0   0.0   33.333333333333336
-200.0   0.0   50.0
-150.0   30.0   50.0
-150.0   0.0   33.333333333333336
-200.0   30.0   33.333333333333336
-200.0   30.0   0.0
-150.0   30.0   0.0
-200.0   60.0   0.0
-200.0   30.0   16.666666666666668
-150.0   30.0   0.0
-150.0   60.0   0.0
-200.0   60.0   0.0
-150.0   60.0   16.666666666666668
-200.0   30.0   16.666666666666668
-200.0   60.0   16.666666666666668
-150.0   60.0   16.666666666666668
-200.0   60.0   0.0
-200.0   30.0   16.666666666666668
-150.0   60.0   16.666666666666668
-150.0   30.0   16.666666666666668
-150.0   30.0   0.0
-200.0   30.0   16.666666666666668
-150.0   60.0   16.666666666666668
-150.0   30.0   0.0
-200.0   60.0   0.0
-200.0   30.0   16.666666666666668
-150.0   30.0   16.666666666666668
-200.0   60.0   16.666666666666668
-200.0   30.0   33.333333333333336
-150.0   30.0   16.666666666666668
-150.0   60.0   16.666666666666668
-200.0   60.0   16.666666666666668
-150.0   60.0   33.333333333333336
-200.0   30.0   33.333333333333336
-200.0   60.0   33.333333333333336
-150.0   60.0   33.333333333333336
-200.0   60.0   16.666666666666668
-200.0   30.0   33.333333333333336
-150.0   60.0   33.333333333333336
-150.0   30.0   33.333333333333336
-150.0   30.0   16.666666666666668
-200.0   30.0   33.333333333333336
-150.0   60.0   33.333333333333336
-150.0   30.0   16.666666666666668
-200.0   60.0   16.666666666666668
-200.0   30.0   33.333333333333336
-150.0   30.0   33.333333333333336
-200.0   60.0   33.333333333333336
-200.0   30.0   50.0
-150.0   30.0   33.333333333333336
-150.0   60.0   33.333333333333336
-200.0   60.0   33.333333333333336
-150.0   60.0   50.0
-200.0   30.0   50.0
-200.0   60.0   50.0
-150.0   60.0   50.0
-200.0   60.0   33.333333333333336
-200.0   30.0   50.0
-150.0   60.0   50.0
-150.0   30.0   50.0
-150.0   30.0   33.333333333333336
-200.0   30.0   50.0
-150.0   60.0   50.0
-150.0   30.0   33.333333333333336
-200.0   60.0   33.333333333333336
-200.0   60.0   0.0
-150.0   60.0   0.0
-200.0   90.0   0.0
-200.0   60.0   16.666666666666668
-150.0   60.0   0.0
-150.0   90.0   0.0
-200.0   90.0   0.0
-150.0   90.0   16.666666666666668
-200.0   60.0   16.666666666666668
-200.0   90.0   16.666666666666668
-150.0   90.0   16.666666666666668
-200.0   90.0   0.0
-200.0   60.0   16.666666666666668
-150.0   90.0   16.666666666666668
-150.0   60.0   16.666666666666668
-150.0   60.0   0.0
-200.0   60.0   16.666666666666668
-150.0   90.0   16.666666666666668
-150.0   60.0   0.0
-200.0   90.0   0.0
-200.0   60.0   16.666666666666668
-150.0   60.0   16.666666666666668
-200.0   90.0   16.666666666666668
-200.0   60.0   33.333333333333336
-150.0   60.0   16.666666666666668
-150.0   90.0   16.666666666666668
-200.0   90.0   16.666666666666668
-150.0   90.0   33.333333333333336
-200.0   60.0   33.333333333333336
-200.0   90.0   33.333333333333336
-150.0   90.0   33.333333333333336
-200.0   90.0   16.666666666666668
-200.0   60.0   33.333333333333336
-150.0   90.0   33.333333333333336
-150.0   60.0   33.333333333333336
-150.0   60.0   16.666666666666668
-200.0   60.0   33.333333333333336
-150.0   90.0   33.333333333333336
-150.0   60.0   16.666666666666668
-200.0   90.0   16.666666666666668
-200.0   60.0   33.333333333333336
-150.0   60.0   33.333333333333336
-200.0   90.0   33.333333333333336
-200.0   60.0   50.0
-150.0   60.0   33.333333333333336
-150.0   90.0   33.333333333333336
-200.0   90.0   33.333333333333336
-150.0   90.0   50.0
-200.0   60.0   50.0
-200.0   90.0   50.0
-150.0   90.0   50.0
-200.0   90.0   33.333333333333336
-200.0   60.0   50.0
-150.0   90.0   50.0
-150.0   60.0   50.0
-150.0   60.0   33.333333333333336
-200.0   60.0   50.0
-150.0   90.0   50.0
-150.0   60.0   33.333333333333336
-200.0   90.0   33.333333333333336
-200.0   90.0   0.0
-150.0   90.0   0.0
-200.0   120.0   0.0
-200.0   90.0   16.666666666666668
-150.0   90.0   0.0
-150.0   120.0   0.0
-200.0   120.0   0.0
-150.0   120.0   16.666666666666668
-200.0   90.0   16.666666666666668
-200.0   120.0   16.666666666666668
-150.0   120.0   16.666666666666668
-200.0   120.0   0.0
-200.0   90.0   16.666666666666668
-150.0   120.0   16.666666666666668
-150.0   90.0   16.666666666666668
-150.0   90.0   0.0
-200.0   90.0   16.666666666666668
-150.0   120.0   16.666666666666668
-150.0   90.0   0.0
-200.0   120.0   0.0
-200.0   90.0   16.666666666666668
-150.0   90.0   16.666666666666668
-200.0   120.0   16.666666666666668
-200.0   90.0   33.333333333333336
-150.0   90.0   16.666666666666668
-150.0   120.0   16.666666666666668
-200.0   120.0   16.666666666666668
-150.0   120.0   33.333333333333336
-200.0   90.0   33.333333333333336
-200.0   120.0   33.333333333333336
-150.0   120.0   33.333333333333336
-200.0   120.0   16.666666666666668
-200.0   90.0   33.333333333333336
-150.0   120.0   33.333333333333336
-150.0   90.0   33.333333333333336
-150.0   90.0   16.666666666666668
-200.0   90.0   33.333333333333336
-150.0   120.0   33.333333333333336
-150.0   90.0   16.666666666666668
-200.0   120.0   16.666666666666668
-200.0   90.0   33.333333333333336
-150.0   90.0   33.333333333333336
-200.0   120.0   33.333333333333336
-200.0   90.0   50.0
-150.0   90.0   33.333333333333336
-150.0   120.0   33.333333333333336
-200.0   120.0   33.333333333333336
-150.0   120.0   50.0
-200.0   90.0   50.0
-200.0   120.0   50.0
-150.0   120.0   50.0
-200.0   120.0   33.333333333333336
-200.0   90.0   50.0
-150.0   120.0   50.0
-150.0   90.0   50.0
-150.0   90.0   33.333333333333336
-200.0   90.0   50.0
-150.0   120.0   50.0
-150.0   90.0   33.333333333333336
-200.0   120.0   33.333333333333336
-200.0   120.0   0.0
-150.0   120.0   0.0
-200.0   150.0   0.0
-200.0   120.0   16.666666666666668
-150.0   120.0   0.0
-150.0   150.0   0.0
-200.0   150.0   0.0
-150.0   150.0   16.666666666666668
-200.0   120.0   16.666666666666668
-200.0   150.0   16.666666666666668
-150.0   150.0   16.666666666666668
-200.0   150.0   0.0
-200.0   120.0   16.666666666666668
-150.0   150.0   16.666666666666668
-150.0   120.0   16.666666666666668
-150.0   120.0   0.0
-200.0   120.0   16.666666666666668
-150.0   150.0   16.666666666666668
-150.0   120.0   0.0
-200.0   150.0   0.0
-200.0   120.0   16.666666666666668
-150.0   120.0   16.666666666666668
-200.0   150.0   16.666666666666668
-200.0   120.0   33.333333333333336
-150.0   120.0   16.666666666666668
-150.0   150.0   16.666666666666668
-200.0   150.0   16.666666666666668
-150.0   150.0   33.333333333333336
-200.0   120.0   33.333333333333336
-200.0   150.0   33.333333333333336
-150.0   150.0   33.333333333333336
-200.0   150.0   16.666666666666668
-200.0   120.0   33.333333333333336
-150.0   150.0   33.333333333333336
-150.0   120.0   33.333333333333336
-150.0   120.0   16.666666666666668
-200.0   120.0   33.333333333333336
-150.0   150.0   33.333333333333336
-150.0   120.0   16.666666666666668
-200.0   150.0   16.666666666666668
-200.0   120.0   33.333333333333336
-150.0   120.0   33.333333333333336
-200.0   150.0   33.333333333333336
-200.0   120.0   50.0
-150.0   120.0   33.333333333333336
-150.0   150.0   33.333333333333336
-200.0   150.0   33.333333333333336
-150.0   150.0   50.0
-200.0   120.0   50.0
-200.0   150.0   50.0
-150.0   150.0   50.0
-200.0   150.0   33.333333333333336
-200.0   120.0   50.0
-150.0   150.0   50.0
-150.0   120.0   50.0
-150.0   120.0   33.333333333333336
-200.0   120.0   50.0
-150.0   150.0   50.0
-150.0   120.0   33.333333333333336
-200.0   150.0   33.333333333333336
-150.0   0.0   0.0
-100.0   0.0   0.0
-150.0   30.0   0.0
-150.0   0.0   16.666666666666668
-100.0   0.0   0.0
-100.0   30.0   0.0
-150.0   30.0   0.0
-100.0   30.0   16.666666666666668
-150.0   0.0   16.666666666666668
-150.0   30.0   16.666666666666668
-100.0   30.0   16.666666666666668
-150.0   30.0   0.0
-150.0   0.0   16.666666666666668
-100.0   30.0   16.666666666666668
-100.0   0.0   16.666666666666668
-100.0   0.0   0.0
-150.0   0.0   16.666666666666668
-100.0   30.0   16.666666666666668
-100.0   0.0   0.0
-150.0   30.0   0.0
-150.0   0.0   16.666666666666668
-100.0   0.0   16.666666666666668
-150.0   30.0   16.666666666666668
-150.0   0.0   33.333333333333336
-100.0   0.0   16.666666666666668
-100.0   30.0   16.666666666666668
-150.0   30.0   16.666666666666668
-100.0   30.0   33.333333333333336
-150.0   0.0   33.333333333333336
-150.0   30.0   33.333333333333336
-100.0   30.0   33.333333333333336
-150.0   30.0   16.666666666666668
-150.0   0.0   33.333333333333336
-100.0   30.0   33.333333333333336
-100.0   0.0   33.333333333333336
-100.0   0.0   16.666666666666668
-150.0   0.0   33.333333333333336
-100.0   30.0   33.333333333333336
-100.0   0.0   16.666666666666668
-150.0   30.0   16.666666666666668
-150.0   0.0   33.333333333333336
-100.0   0.0   33.333333333333336
-150.0   30.0   33.333333333333336
-150.0   0.0   50.0
-100.0   0.0   33.333333333333336
-100.0   30.0   33.333333333333336
-150.0   30.0   33.333333333333336
-100.0   30.0   50.0
-150.0   0.0   50.0
-150.0   30.0   50.0
-100.0   30.0   50.0
-150.0   30.0   33.333333333333336
-150.0   0.0   50.0
-100.0   30.0   50.0
-100.0   0.0   50.0
-100.0   0.0   33.333333333333336
-150.0   0.0   50.0
-100.0   30.0   50.0
-100.0   0.0   33.333333333333336
-150.0   30.0   33.333333333333336
-150.0   30.0   0.0
-100.0   30.0   0.0
-150.0   60.0   0.0
-150.0   30.0   16.666666666666668
-100.0   30.0   0.0
-100.0   60.0   0.0
-150.0   60.0   0.0
-100.0   60.0   16.666666666666668
-150.0   30.0   16.666666666666668
-150.0   60.0   16.666666666666668
-100.0   60.0   16.666666666666668
-150.0   60.0   0.0
-150.0   30.0   16.666666666666668
-100.0   60.0   16.666666666666668
-100.0   30.0   16.666666666666668
-100.0   30.0   0.0
-150.0   30.0   16.666666666666668
-100.0   60.0   16.666666666666668
-100.0   30.0   0.0
-150.0   60.0   0.0
-150.0   30.0   16.666666666666668
-100.0   30.0   16.666666666666668
-150.0   60.0   16.666666666666668
-150.0   30.0   33.333333333333336
-100.0   30.0   16.666666666666668
-100.0   60.0   16.666666666666668
-150.0   60.0   16.666666666666668
-100.0   60.0   33.333333333333336
-150.0   30.0   33.333333333333336
-150.0   60.0   33.333333333333336
-100.0   60.0   33.333333333333336
-150.0   60.0   16.666666666666668
-150.0   30.0   33.333333333333336
-100.0   60.0   33.333333333333336
-100.0   30.0   33.333333333333336
-100.0   30.0   16.666666666666668
-150.0   30.0   33.333333333333336
-100.0   60.0   33.333333333333336
-100.0   30.0   16.666666666666668
-150.0   60.0   16.666666666666668
-150.0   30.0   33.333333333333336
-100.0   30.0   33.333333333333336
-150.0   60.0   33.333333333333336
-150.0   30.0   50.0
-100.0   30.0   33.333333333333336
-100.0   60.0   33.333333333333336
-150.0   60.0   33.333333333333336
-100.0   60.0   50.0
-150.0   30.0   50.0
-150.0   60.0   50.0
-100.0   60.0   50.0
-150.0   60.0   33.333333333333336
-150.0   30.0   50.0
-100.0   60.0   50.0
-100.0   30.0   50.0
-100.0   30.0   33.333333333333336
-150.0   30.0   50.0
-100.0   60.0   50.0
-100.0   30.0   33.333333333333336
-150.0   60.0   33.333333333333336
-150.0   60.0   0.0
-100.0   60.0   0.0
-150.0   90.0   0.0
-150.0   60.0   16.666666666666668
-100.0   60.0   0.0
-100.0   90.0   0.0
-150.0   90.0   0.0
-100.0   90.0   16.666666666666668
-150.0   60.0   16.666666666666668
-150.0   90.0   16.666666666666668
-100.0   90.0   16.666666666666668
-150.0   90.0   0.0
-150.0   60.0   16.666666666666668
-100.0   90.0   16.666666666666668
-100.0   60.0   16.666666666666668
-100.0   60.0   0.0
-150.0   60.0   16.666666666666668
-100.0   90.0   16.666666666666668
-100.0   60.0   0.0
-150.0   90.0   0.0
-150.0   60.0   16.666666666666668
-100.0   60.0   16.666666666666668
-150.0   90.0   16.666666666666668
-150.0   60.0   33.333333333333336
-100.0   60.0   16.666666666666668
-100.0   90.0   16.666666666666668
-150.0   90.0   16.666666666666668
-100.0   90.0   33.333333333333336
-150.0   60.0   33.333333333333336
-150.0   90.0   33.333333333333336
-100.0   90.0   33.333333333333336
-150.0   90.0   16.666666666666668
-150.0   60.0   33.333333333333336
-100.0   90.0   33.333333333333336
-100.0   60.0   33.333333333333336
-100.0   60.0   16.666666666666668
-150.0   60.0   33.333333333333336
-100.0   90.0   33.333333333333336
-100.0   60.0   16.666666666666668
-150.0   90.0   16.666666666666668
-150.0   60.0   33.333333333333336
-100.0   60.0   33.333333333333336
-150.0   90.0   33.333333333333336
-150.0   60.0   50.0
-100.0   60.0   33.333333333333336
-100.0   90.0   33.333333333333336
-150.0   90.0   33.333333333333336
-100.0   90.0   50.0
-150.0   60.0   50.0
-150.0   90.0   50.0
-100.0   90.0   50.0
-150.0   90.0   33.333333333333336
-150.0   60.0   50.0
-100.0   90.0   50.0
-100.0   60.0   50.0
-100.0   60.0   33.333333333333336
-150.0   60.0   50.0
-100.0   90.0   50.0
-100.0   60.0   33.333333333333336
-150.0   90.0   33.333333333333336
-150.0   90.0   0.0
-100.0   90.0   0.0
-150.0   120.0   0.0
-150.0   90.0   16.666666666666668
-100.0   90.0   0.0
-100.0   120.0   0.0
-150.0   120.0   0.0
-100.0   120.0   16.666666666666668
-150.0   90.0   16.666666666666668
-150.0   120.0   16.666666666666668
-100.0   120.0   16.666666666666668
-150.0   120.0   0.0
-150.0   90.0   16.666666666666668
-100.0   120.0   16.666666666666668
-100.0   90.0   16.666666666666668
-100.0   90.0   0.0
-150.0   90.0   16.666666666666668
-100.0   120.0   16.666666666666668
-100.0   90.0   0.0
-150.0   120.0   0.0
-150.0   90.0   16.666666666666668
-100.0   90.0   16.666666666666668
-150.0   120.0   16.666666666666668
-150.0   90.0   33.333333333333336
-100.0   90.0   16.666666666666668
-100.0   120.0   16.666666666666668
-150.0   120.0   16.666666666666668
-100.0   120.0   33.333333333333336
-150.0   90.0   33.333333333333336
-150.0   120.0   33.333333333333336
-100.0   120.0   33.333333333333336
-150.0   120.0   16.666666666666668
-150.0   90.0   33.333333333333336
-100.0   120.0   33.333333333333336
-100.0   90.0   33.333333333333336
-100.0   90.0   16.666666666666668
-150.0   90.0   33.333333333333336
-100.0   120.0   33.333333333333336
-100.0   90.0   16.666666666666668
-150.0   120.0   16.666666666666668
-150.0   90.0   33.333333333333336
-100.0   90.0   33.333333333333336
-150.0   120.0   33.333333333333336
-150.0   90.0   50.0
-100.0   90.0   33.333333333333336
-100.0   120.0   33.333333333333336
-150.0   120.0   33.333333333333336
-100.0   120.0   50.0
-150.0   90.0   50.0
-150.0   120.0   50.0
-100.0   120.0   50.0
-150.0   120.0   33.333333333333336
-150.0   90.0   50.0
-100.0   120.0   50.0
-100.0   90.0   50.0
-100.0   90.0   33.333333333333336
-150.0   90.0   50.0
-100.0   120.0   50.0
-100.0   90.0   33.333333333333336
-150.0   120.0   33.333333333333336
-150.0   120.0   0.0
-100.0   120.0   0.0
-150.0   150.0   0.0
-150.0   120.0   16.666666666666668
-100.0   120.0   0.0
-100.0   150.0   0.0
-150.0   150.0   0.0
-100.0   150.0   16.666666666666668
-150.0   120.0   16.666666666666668
-150.0   150.0   16.666666666666668
-100.0   150.0   16.666666666666668
-150.0   150.0   0.0
-150.0   120.0   16.666666666666668
-100.0   150.0   16.666666666666668
-100.0   120.0   16.666666666666668
-100.0   120.0   0.0
-150.0   120.0   16.666666666666668
-100.0   150.0   16.666666666666668
-100.0   120.0   0.0
-150.0   150.0   0.0
-150.0   120.0   16.666666666666668
-100.0   120.0   16.666666666666668
-150.0   150.0   16.666666666666668
-150.0   120.0   33.333333333333336
-100.0   120.0   16.666666666666668
-100.0   150.0   16.666666666666668
-150.0   150.0   16.666666666666668
-100.0   150.0   33.333333333333336
-150.0   120.0   33.333333333333336
-150.0   150.0   33.333333333333336
-100.0   150.0   33.333333333333336
-150.0   150.0   16.666666666666668
-150.0   120.0   33.333333333333336
-100.0   150.0   33.333333333333336
-100.0   120.0   33.333333333333336
-100.0   120.0   16.666666666666668
-150.0   120.0   33.333333333333336
-100.0   150.0   33.333333333333336
-100.0   120.0   16.666666666666668
-150.0   150.0   16.666666666666668
-150.0   120.0   33.333333333333336
-100.0   120.0   33.333333333333336
-150.0   150.0   33.333333333333336
-150.0   120.0   50.0
-100.0   120.0   33.333333333333336
-100.0   150.0   33.333333333333336
-150.0   150.0   33.333333333333336
-100.0   150.0   50.0
-150.0   120.0   50.0
-150.0   150.0   50.0
-100.0   150.0   50.0
-150.0   150.0   33.333333333333336
-150.0   120.0   50.0
-100.0   150.0   50.0
-100.0   120.0   50.0
-100.0   120.0   33.333333333333336
-150.0   120.0   50.0
-100.0   150.0   50.0
-100.0   120.0   33.333333333333336
-150.0   150.0   33.333333333333336
-100.0   0.0   0.0
-50.0   0.0   0.0
-100.0   30.0   0.0
-100.0   0.0   16.666666666666668
-50.0   0.0   0.0
-50.0   30.0   0.0
-100.0   30.0   0.0
-50.0   30.0   16.666666666666668
-100.0   0.0   16.666666666666668
-100.0   30.0   16.666666666666668
-50.0   30.0   16.666666666666668
-100.0   30.0   0.0
-100.0   0.0   16.666666666666668
-50.0   30.0   16.666666666666668
-50.0   0.0   16.666666666666668
-50.0   0.0   0.0
-100.0   0.0   16.666666666666668
-50.0   30.0   16.666666666666668
-50.0   0.0   0.0
-100.0   30.0   0.0
-100.0   0.0   16.666666666666668
-50.0   0.0   16.666666666666668
-100.0   30.0   16.666666666666668
-100.0   0.0   33.333333333333336
-50.0   0.0   16.666666666666668
-50.0   30.0   16.666666666666668
-100.0   30.0   16.666666666666668
-50.0   30.0   33.333333333333336
-100.0   0.0   33.333333333333336
-100.0   30.0   33.333333333333336
-50.0   30.0   33.333333333333336
-100.0   30.0   16.666666666666668
-100.0   0.0   33.333333333333336
-50.0   30.0   33.333333333333336
-50.0   0.0   33.333333333333336
-50.0   0.0   16.666666666666668
-100.0   0.0   33.333333333333336
-50.0   30.0   33.333333333333336
-50.0   0.0   16.666666666666668
-100.0   30.0   16.666666666666668
-100.0   0.0   33.333333333333336
-50.0   0.0   33.333333333333336
-100.0   30.0   33.333333333333336
-100.0   0.0   50.0
-50.0   0.0   33.333333333333336
-50.0   30.0   33.333333333333336
-100.0   30.0   33.333333333333336
-50.0   30.0   50.0
-100.0   0.0   50.0
-100.0   30.0   50.0
-50.0   30.0   50.0
-100.0   30.0   33.333333333333336
-100.0   0.0   50.0
-50.0   30.0   50.0
-50.0   0.0   50.0
-50.0   0.0   33.333333333333336
-100.0   0.0   50.0
-50.0   30.0   50.0
-50.0   0.0   33.333333333333336
-100.0   30.0   33.333333333333336
-100.0   30.0   0.0
-50.0   30.0   0.0
-100.0   60.0   0.0
-100.0   30.0   16.666666666666668
-50.0   30.0   0.0
-50.0   60.0   0.0
-100.0   60.0   0.0
-50.0   60.0   16.666666666666668
-100.0   30.0   16.666666666666668
-100.0   60.0   16.666666666666668
-50.0   60.0   16.666666666666668
-100.0   60.0   0.0
-100.0   30.0   16.666666666666668
-50.0   60.0   16.666666666666668
-50.0   30.0   16.666666666666668
-50.0   30.0   0.0
-100.0   30.0   16.666666666666668
-50.0   60.0   16.666666666666668
-50.0   30.0   0.0
-100.0   60.0   0.0
-100.0   30.0   16.666666666666668
-50.0   30.0   16.666666666666668
-100.0   60.0   16.666666666666668
-100.0   30.0   33.333333333333336
-50.0   30.0   16.666666666666668
-50.0   60.0   16.666666666666668
-100.0   60.0   16.666666666666668
-50.0   60.0   33.333333333333336
-100.0   30.0   33.333333333333336
-100.0   60.0   33.333333333333336
-50.0   60.0   33.333333333333336
-100.0   60.0   16.666666666666668
-100.0   30.0   33.333333333333336
-50.0   60.0   33.333333333333336
-50.0   30.0   33.333333333333336
-50.0   30.0   16.666666666666668
-100.0   30.0   33.333333333333336
-50.0   60.0   33.333333333333336
-50.0   30.0   16.666666666666668
-100.0   60.0   16.666666666666668
-100.0   30.0   33.333333333333336
-50.0   30.0   33.333333333333336
-100.0   60.0   33.333333333333336
-100.0   30.0   50.0
-50.0   30.0   33.333333333333336
-50.0   60.0   33.333333333333336
-100.0   60.0   33.333333333333336
-50.0   60.0   50.0
-100.0   30.0   50.0
-100.0   60.0   50.0
-50.0   60.0   50.0
-100.0   60.0   33.333333333333336
-100.0   30.0   50.0
-50.0   60.0   50.0
-50.0   30.0   50.0
-50.0   30.0   33.333333333333336
-100.0   30.0   50.0
-50.0   60.0   50.0
-50.0   30.0   33.333333333333336
-100.0   60.0   33.333333333333336
-100.0   60.0   0.0
-50.0   60.0   0.0
-100.0   90.0   0.0
-100.0   60.0   16.666666666666668
-50.0   60.0   0.0
-50.0   90.0   0.0
-100.0   90.0   0.0
-50.0   90.0   16.666666666666668
-100.0   60.0   16.666666666666668
-100.0   90.0   16.666666666666668
-50.0   90.0   16.666666666666668
-100.0   90.0   0.0
-100.0   60.0   16.666666666666668
-50.0   90.0   16.666666666666668
-50.0   60.0   16.666666666666668
-50.0   60.0   0.0
-100.0   60.0   16.666666666666668
-50.0   90.0   16.666666666666668
-50.0   60.0   0.0
-100.0   90.0   0.0
-100.0   60.0   16.666666666666668
-50.0   60.0   16.666666666666668
-100.0   90.0   16.666666666666668
-100.0   60.0   33.333333333333336
-50.0   60.0   16.666666666666668
-50.0   90.0   16.666666666666668
-100.0   90.0   16.666666666666668
-50.0   90.0   33.333333333333336
-100.0   60.0   33.333333333333336
-100.0   90.0   33.333333333333336
-50.0   90.0   33.333333333333336
-100.0   90.0   16.666666666666668
-100.0   60.0   33.333333333333336
-50.0   90.0   33.333333333333336
-50.0   60.0   33.333333333333336
-50.0   60.0   16.666666666666668
-100.0   60.0   33.333333333333336
-50.0   90.0   33.333333333333336
-50.0   60.0   16.666666666666668
-100.0   90.0   16.666666666666668
-100.0   60.0   33.333333333333336
-50.0   60.0   33.333333333333336
-100.0   90.0   33.333333333333336
-100.0   60.0   50.0
-50.0   60.0   33.333333333333336
-50.0   90.0   33.333333333333336
-100.0   90.0   33.333333333333336
-50.0   90.0   50.0
-100.0   60.0   50.0
-100.0   90.0   50.0
-50.0   90.0   50.0
-100.0   90.0   33.333333333333336
-100.0   60.0   50.0
-50.0   90.0   50.0
-50.0   60.0   50.0
-50.0   60.0   33.333333333333336
-100.0   60.0   50.0
-50.0   90.0   50.0
-50.0   60.0   33.333333333333336
-100.0   90.0   33.333333333333336
-100.0   90.0   0.0
-50.0   90.0   0.0
-100.0   120.0   0.0
-100.0   90.0   16.666666666666668
-50.0   90.0   0.0
-50.0   120.0   0.0
-100.0   120.0   0.0
-50.0   120.0   16.666666666666668
-100.0   90.0   16.666666666666668
-100.0   120.0   16.666666666666668
-50.0   120.0   16.666666666666668
-100.0   120.0   0.0
-100.0   90.0   16.666666666666668
-50.0   120.0   16.666666666666668
-50.0   90.0   16.666666666666668
-50.0   90.0   0.0
-100.0   90.0   16.666666666666668
-50.0   120.0   16.666666666666668
-50.0   90.0   0.0
-100.0   120.0   0.0
-100.0   90.0   16.666666666666668
-50.0   90.0   16.666666666666668
-100.0   120.0   16.666666666666668
-100.0   90.0   33.333333333333336
-50.0   90.0   16.666666666666668
-50.0   120.0   16.666666666666668
-100.0   120.0   16.666666666666668
-50.0   120.0   33.333333333333336
-100.0   90.0   33.333333333333336
-100.0   120.0   33.333333333333336
-50.0   120.0   33.333333333333336
-100.0   120.0   16.666666666666668
-100.0   90.0   33.333333333333336
-50.0   120.0   33.333333333333336
-50.0   90.0   33.333333333333336
-50.0   90.0   16.666666666666668
-100.0   90.0   33.333333333333336
-50.0   120.0   33.333333333333336
-50.0   90.0   16.666666666666668
-100.0   120.0   16.666666666666668
-100.0   90.0   33.333333333333336
-50.0   90.0   33.333333333333336
-100.0   120.0   33.333333333333336
-100.0   90.0   50.0
-50.0   90.0   33.333333333333336
-50.0   120.0   33.333333333333336
-100.0   120.0   33.333333333333336
-50.0   120.0   50.0
-100.0   90.0   50.0
-100.0   120.0   50.0
-50.0   120.0   50.0
-100.0   120.0   33.333333333333336
-100.0   90.0   50.0
-50.0   120.0   50.0
-50.0   90.0   50.0
-50.0   90.0   33.333333333333336
-100.0   90.0   50.0
-50.0   120.0   50.0
-50.0   90.0   33.333333333333336
-100.0   120.0   33.333333333333336
-100.0   120.0   0.0
-50.0   120.0   0.0
-100.0   150.0   0.0
-100.0   120.0   16.666666666666668
-50.0   120.0   0.0
-50.0   150.0   0.0
-100.0   150.0   0.0
-50.0   150.0   16.666666666666668
-100.0   120.0   16.666666666666668
-100.0   150.0   16.666666666666668
-50.0   150.0   16.666666666666668
-100.0   150.0   0.0
-100.0   120.0   16.666666666666668
-50.0   150.0   16.666666666666668
-50.0   120.0   16.666666666666668
-50.0   120.0   0.0
-100.0   120.0   16.666666666666668
-50.0   150.0   16.666666666666668
-50.0   120.0   0.0
-100.0   150.0   0.0
-100.0   120.0   16.666666666666668
-50.0   120.0   16.666666666666668
-100.0   150.0   16.666666666666668
-100.0   120.0   33.333333333333336
-50.0   120.0   16.666666666666668
-50.0   150.0   16.666666666666668
-100.0   150.0   16.666666666666668
-50.0   150.0   33.333333333333336
-100.0   120.0   33.333333333333336
-100.0   150.0   33.333333333333336
-50.0   150.0   33.333333333333336
-100.0   150.0   16.666666666666668
-100.0   120.0   33.333333333333336
-50.0   150.0   33.333333333333336
-50.0   120.0   33.333333333333336
-50.0   120.0   16.666666666666668
-100.0   120.0   33.333333333333336
-50.0   150.0   33.333333333333336
-50.0   120.0   16.666666666666668
-100.0   150.0   16.666666666666668
-100.0   120.0   33.333333333333336
-50.0   120.0   33.333333333333336
-100.0   150.0   33.333333333333336
-100.0   120.0   50.0
-50.0   120.0   33.333333333333336
-50.0   150.0   33.333333333333336
-100.0   150.0   33.333333333333336
-50.0   150.0   50.0
-100.0   120.0   50.0
-100.0   150.0   50.0
-50.0   150.0   50.0
-100.0   150.0   33.333333333333336
-100.0   120.0   50.0
-50.0   150.0   50.0
-50.0   120.0   50.0
-50.0   120.0   33.333333333333336
-100.0   120.0   50.0
-50.0   150.0   50.0
-50.0   120.0   33.333333333333336
-100.0   150.0   33.333333333333336
-50.0   0.0   0.0
0.0   0.0   0.0
-50.0   30.0   0.0
-50.0   0.0   16.666666666666668
0.0   0.0   0.0
0.0   30.0   0.0
-50.0   30.0   0.0
0.0   30.0   16.666666666666668
-50.0   0.0   16.666666666666668
-50.0   30.0   16.666666666666668
0.0   30.0   16.666666666666668
-50.0   30.0   0.0
-50.0   0.0   16.666666666666668
0.0   30.0   16.666666666666668
0.0   0.0   16.666666666666668
0.0   0.0   0.0
-50.0   0.0   16.666666666666668
0.0   30.0   16.666666666666668
0.0   0.0   0.0
-50.0   30.0   0.0
-50.0   0.0   16.666666666666668
0.0   0.0   16.666666666666668
-50.0   30.0   16.666666666666668
-50.0   0.0   33.333333333333336
0.0   0.0   16.666666666666668
0.0   30.0   16.666666666666668
-50.0   30.0   16.666666666666668
0.0   30.0   33.333333333333336
-50.0   0.0   33.333333333333336
-50.0   30.0   33.333333333333336
0.0   30.0   33.333333333333336
-50.0   30.0   16.666666666666668
-50.0   0.0   33.333333333333336
0.0   30.0   33.333333333333336
0.0   0.0   33.333333333333336
0.0   0.0   16.666666666666668
-50.0   0.0   33.333333333333336
0.0   30.0   33.333333333333336
0.0   0.0   16.666666666666668
-50.0   30.0   16.666666666666668
-50.0   0.0   33.333333333333336
0.0   0.0   33.333333333333336
-50.0   30.0   33.333333333333336
-50.0   0.0   50.0
0.0   0.0   33.333333333333336
0.0   30.0   33.333333333333336
-50.0   30.0   33.333333333333336
0.0   30.0   50.0
-50.0   0.0   50.0
-50.0   30.0   50.0
0.0   30.0   50.0
-50.0   30.0   33.333333333333336
-50.0   0.0   50.0
0.0   30.0   50.0
0.0   0.0   50.0
0.0   0.0   33.333333333333336
-50.0   0.0   50.0
0.0   30.0   50.0
0.0   0.0   33.333333333333336
-50.0   30.0   33.333333333333336
-50.0   30.0   0.0
0.0   30.0   0.0
-50.0   60.0   0.0
-50.0   30.0   16.666666666666668
0.0   30.0   0.0
0.0   60.0   0.0
-50.0   60.0   0.0
0.0   60.0   16.666666666666668
-50.0   30.0   16.666666666666668
-50.0   60.0   16.666666666666668
0.0   60.0   16.666666666666668
-50.0   60.0   0.0
-50.0   30.0   16.666666666666668
0.0   60.0   16.666666666666668
0.0   30.0   16.666666666666668
0.0   30.0   0.0
-50.0   30.0   16.666666666666668
0.0   60.0   16.666666666666668
0.0   30.0   0.0
-50.0   60.0   0.0
-50.0   30.0   16.666666666666668
0.0   30.0   16.666666666666668
-50.0   60.0   16.666666666666668
-50.0   30.0   33.333333333333336
0.0   30.0   16.666666666666668
0.0   60.0   16.666666666666668
-50.0   60.0   16.666666666666668
0.0   60.0   33.333333333333336
-50.0   30.0   33.333333333333336
-50.0   60.0   33.333333333333336
0.0   60.0   33.333333333333336
-50.0   60.0   16.666666666666668
-50.0   30.0   33.333333333333336
0.0   60.0   33.333333333333336
0.0   30.0   33.333333333333336
0.0   30.0   16.666666666666668
-50.0   30.0   33.333333333333336
0.0   60.0   33.333333333333336
0.0   30.0   16.666666666666668
-50.0   60.0   16.666666666666668
-50.0   30.0   33.333333333333336
0.0   30.0   33.333333333333336
-50.0   60.0   33.333333333333336
-50.0   30.0   50.0
0.0   30.0   33.333333333333336
0.0   60.0   33.333333333333336
-50.0   60.0   33.333333333333336
0.0   60.0   50.0
-50.0   30.0   50.0
-50.0   60.0   50.0
0.0   60.0   50.0
-50.0   60.0   33.333333333333336
-50.0   30.0   50.0
0.0   60.0   50.0
0.0   30.0   50.0
0.0   30.0   33.333333333333336
-50.0   30.0   50.0
0.0   60.0   50.0
0.0   30.0   33.333333333333336
-50.0   60.0   33.333333333333336
-50.0   60.0   0.0
0.0   60.0   0.0
-50.0   90.0   0.0
-50.0   60.0   16.666666666666668
0.0   60.0   0.0
0.0   90.0   0.0
-50.0   90.0   0.0
0.0   90.0   16.666666666666668
-50.0   60.0   16.666666666666668
-50.0   90.0   16.666666666666668
0.0   90.0   16.666666666666668
-50.0   90.0   0.0
-50.0   60.0   16.666666666666668
0.0   90.0   16.666666666666668
0.0   60.0   16.666666666666668
0.0   60.0   0.0
-50.0   60.0   16.666666666666668
0.0   90.0   16.666666666666668
0.0   60.0   0.0
-50.0   90.0   0.0
-50.0   60.0   16.666666666666668
0.0   60.0   16.666666666666668
-50.0   90.0   16.666666666666668
-50.0   60.0   33.333333333333336
0.0   60.0   16.666666666666668
0.0   90.0   16.666666666666668
-50.0   90.0   16.666666666666668
0.0   90.0   33.333333333333336
-50.0   60.0   33.333333333333336
-50.0   90.0   33.333333333333336
0.0   90.0   33.333333333333336
-50.0   90.0   16.666666666666668
-50.0   60.0   33.333333333333336
0.0   90.0   33.333333333333336
0.0   60.0   33.333333333333336
0.0   60.0   16.666666666666668
-50.0   60.0   33.333333333333336
0.0   90.0   33.333333333333336
0.0   60.0   16.666666666666668
-50.0   90.0   16.666666666666668
-50.0   60.0   33.333333333333336
0.0   60.0   33.333333333333336
-50.0   90.0   33.333333333333336
-50.0   60.0   50.0
0.0   60.0   33.333333333333336
0.0   90.0   33.333333333333336
-50.0   90.0   33.333333333333336
0.0   90.0   50.0
-50.0   60.0   50.0
-50.0   90.0   50.0
0.0   90.0   50.0
-50.0   90.0   33.333333333333336
-50.0   60.0   50.0
0.0   90.0   50.0
0.0   60.0   50.0
0.0   60.0   33.333333333333336
-50.0   60.0   50.0
0.0   90.0   50.0
0.0   60.0   33.333333333333336
-50.0   90.0   33.333333333333336
-50.0   90.0   0.0
0.0   90.0   0.0
-50.0   120.0   0.0
-50.0   90.0   16.666666666666668
0.0   90.0   0.0
0.0   120.0   0.0
-50.0   120.0   0.0
0.0   120.0   16.666666666666668
-50.0   90.0   16.666666666666668
-50.0   120.0   16.666666666666668
0.0   120.0   16.666666666666668
-50.0   120.0   0.0
-50.0   90.0   16.666666666666668
0.0   120.0   16.666666666666668
0.0   90.0   16.666666666666668
0.0   90.0   0.0
-50.0   90.0   16.666666666666668
0.0   120.0   16.666666666666668
0.0   90.0   0.0
-50.0   120.0   0.0
-50.0   90.0   16.666666666666668
0.0   90.0   16.666666666666668
-50.0   120.0   16.666666666666668
-50.0   90.0   33.333333333333336
0.0   90.0   16.666666666666668
0.0   120.0   16.666666666666668
-50.0   120.0   16.666666666666668
0.0   120.0   33.333333333333336
-50.0   90.0   33.333333333333336
-50.0   120.0   33.333333333333336
0.0   120.0   33.333333333333336
-50.0   120.0   16.666666666666668
-50.0   90.0   33.333333333333336
0.0   120.0   33.333333333333336
0.0   90.0   33.333333333333336
0.0   90.0   16.666666666666668
-50.0   90.0   33.333333333333336
0.0   120.0   33.333333333333336
0.0   90.0   16.666666666666668
-50.0   120.0   16.666666666666668
-50.0   90.0   33.333333333333336
0.0   90.0   33.333333333333336
-50.0   120.0   33.333333333333336
-50.0   90.0   50.0
0.0   90.0   33.333333333333336
0.0   120.0   33.333333333333336
-50.0   120.0   33.333333333333336
0.0   120.0   50.0
-50.0   90.0   50.0
-50.0   120.0   50.0
0.0   120.0   50.0
-50.0   120.0   33.333333333333336
-50.0   90.0   50.0
0.0   120.0   50.0
0.0   90.0   50.0
0.0   90.0   33.333333333333336
-50.0   90.0   50.0
0.0   120.0   50.0
0.0   90.0   33.333333333333336
-50.0   120.0   33.333333333333336
-50.0   120.0   0.0
0.0   120.0   0.0
-50.0   150.0   0.0
-50.0   120.0   16.666666666666668
0.0   120.0   0.0
0.0   150.0   0.0
-50.0   150.0   0.0
0.0   150.0   16.666666666666668
-50.0   120.0   16.666666666666668
-50.0   150.0   16.666666666666668
0.0   150.0   16.666666666666668
-50.0   150.0   0.0
-50.0   120.0   16.666666666666668
0.0   150.0   16.666666666666668
0.0   120.0   16.666666666666668
0.0   120.0   0.0
-50.0   120.0   16.666666666666668
0.0   150.0   16.666666666666668
0.0   120.0   0.0
-50.0   150.0   0.0
-50.0   120.0   16.666666666666668
0.0   120.0   16.666666666666668
-50.0   150.0   16.666666666666668
-50.0   120.0   33.333333333333336
0.0   120.0   16.666666666666668
0.0   150.0   16.666666666666668
-50.0   150.0   16.666666666666668
0.0   150.0   33.333333333333336
-50.0   120.0   33.333333333333336
-50.0   150.0   33.333333333333336
0.0   150.0   33.333333333333336
-50.0   150.0   16.666666666666668
-50.0   120.0   33.333333333333336
0.0   150.0   33.333333333333336
0.0   120.0   33.333333333333336
0.0   120.0   16.666666666666668
-50.0   120.0   33.333333333333336
0.0   150.0   33.333333333333336
0.0   120.0   16.666666666666668
-50.0   150.0   16.666666666666668
-50.0   120.0   33.333333333333336
0.0   120.0   33.333333333333336
-50.0   150.0   33.333333333333336
-50.0   120.0   50.0
0.0   120.0   33.333333333333336
0.0   150.0   33.333333333333336
-50.0   150.0   33.333333333333336
0.0   150.0   50.0
-50.0   120.0   50.0
-50.0   150.0   50.0
0.0   150.0   50.0
-50.0   150.0   33.333333333333336
-50.0   120.0   50.0
0.0   150.0   50.0
0.0   120.0   50.0
0.0   120.0   33.333333333333336
-50.0   120.0   50.0
0.0   150.0   50.0
0.0   120.0   33.333333333333336
-50.0   150.0   33.333333333333336
0.0   0.0   0.0
50.0   0.0   0.0
0.0   30.0   0.0
0.0   0.0   16.666666666666668
50.0   0.0   0.0
50.0   30.0   0.0
0.0   30.0   0.0
50.0   30.0   16.666666666666668
0.0   0.0   16.666666666666668
0.0   30.0   16.666666666666668
50.0   30.0   16.666666666666668
0.0   30.0   0.0
0.0   0.0   16.666666666666668
50.0   30.0   16.666666666666668
50.0   0.0   16.666666666666668
50.0   0.0   0.0
0.0   0.0   16.666666666666668
50.0   30.0   16.666666666666668
50.0   0.0   0.0
0.0   30.0   0.0
0.0   0.0   16.666666666666668
50.0   0.0   16.666666666666668
0.0   30.0   16.666666666666668
0.0   0.0   33.333333333333336
50.0   0.0   16.666666666666668
50.0   30.0   16.666666666666668
0.0   30.0   16.666666666666668
50.0   30.0   33.333333333333336
0.0   0.0   33.333333333333336
0.0   30.0   33.333333333333336
50.0   30.0   33.333333333333336
0.0   30.0   16.666666666666668
0.0   0.0   33.333333333333336
50.0   30.0   33.333333333333336
50.0   0.0   33.333333333333336
50.0   0.0   16.666666666666668
0.0   0.0   33.333333333333336
50.0   30.0   33.333333333333336
50.0   0.0   16.666666666666668
0.0   30.0   16.666666666666668
0.0   0.0   33.333333333333336
50.0   0.0   33.333333333333336
0.0   30.0   33.333333333333336
0.0   0.0   50.0
50.0   0.0   33.333333333333336
50.0   30.0   33.333333333333336
0.0   30.0   33.333333333333336
50.0   30.0   50.0
0.0   0.0   50.0
0.0   30.0   50.0
50.0   30.0   50.0
0.0   30.0   33.333333333333336
0.0   0.0   50.0
50.0   30.0   50.0
50.0   0.0   50.0
50.0   0.0   33.333333333333336
0.0   0.0   50.0
50.0   30.0   50.0
50.0   0.0   33.333333333333336
0.0   30.0   33.333333333333336
0.0   30.0   0.0
50.0   30.0   0.0
0.0   60.0   0.0
0.0   30.0   16.666666666666668
50.0   30.0   0.0
50.0   60.0   0.0
0.0   60.0   0.0
50.0   60.0   16.666666666666668
0.0   30.0   16.666666666666668
0.0   60.0   16.666666666666668
50.0   60.0   16.666666666666668
0.0   60.0   0.0
0.0   30.0   16.666666666666668
50.0   60.0   16.666666666666668
50.0   30.0   16.666666666666668
50.0   30.0   0.0
0.0   30.0   16.666666666666668
50.0   60.0   16.666666666666668
50.0   30.0   0.0
0.0   60.0   0.0
0.0   30.0   16.666666666666668
50.0   30.0   16.666666666666668
0.0   60.0   16.666666666666668
0.0   30.0   33.333333333333336
50.0   30.0   16.666666666666668
50.0   60.0   16.666666666666668
0.0   60.0   16.666666666666668
50.0   60.0   33.333333333333336
0.0   30.0   33.333333333333336
0.0   60.0   33.333333333333336
50.0   60.0   33.333333333333336
0.0   60.0   16.666666666666668
0.0   30.0   33.333333333333336
50.0   60.0   33.333333333333336
50.0   30.0   33.333333333333336
50.0   30.0   16.666666666666668
0.0   30.0   33.333333333333336
50.0   60.0   33.333333333333336
50.0   30.0   16.666666666666668
0.0   60.0   16.666666666666668
0.0   30.0   33.333333333333336
50.0   30.0   33.333333333333336
0.0   60.0   33.333333333333336
0.0   30.0   50.0
50.0   30.0   33.333333333333336
50.0   60.0   33.333333333333336
0.0   60.0   33.333333333333336
50.0   60.0   50.0
0.0   30.0   50.0
0.0   60.0   50.0
50.0   60.0   50.0
0.0   60.0   33.333333333333336
0.0   30.0   50.0
50.0   60.0   50.0
50.0   30.0   50.0
50.0   30.0   33.333333333333336
0.0   30.0   50.0
50.0   60.0   50.0
50.0   30.0   33.333333333333336
0.0   60.0   33.333333333333336
0.0   60.0   0.0
50.0   60.0   0.0
0.0   90.0   0.0
0.0   60.0   16.666666666666668
50.0   60.0   0.0
50.0   90.0   0.0
0.0   90.0   0.0
50.0   90.0   16.666666666666668
0.0   60.0   16.666666666666668
0.0   90.0   16.666666666666668
50.0   90.0   16.666666666666668
0.0   90.0   0.0
0.0   60.0   16.666666666666668
50.0   90.0   16.666666666666668
50.0   60.0   16.666666666666668
50.0   60.0   0.0
0.0   60.0   16.666666666666668
50.0   90.0   16.666666666666668
50.0   60.0   0.0
0.0   90.0   0.0
0.0   60.0   16.666666666666668
50.0   60.0   16.666666666666668
0.0   90.0   16.666666666666668
0.0   60.0   33.333333333333336
50.0   60.0   16.666666666666668
50.0   90.0   16.666666666666668
0.0   90.0   16.666666666666668
50.0   90.0   33.333333333333336
0.0   60.0   33.333333333333336
0.0   90.0   33.333333333333336
50.0   90.0   33.333333333333336
0.0   90.0   16.666666666666668
0.0   60.0   33.333333333333336
50.0   90.0   33.333333333333336
50.0   60.0   33.333333333333336
50.0   60.0   16.666666666666668
0.0   60.0   33.333333333333336
50.0   90.0   33.333333333333336
50.0   60.0   16.666666666666668
0.0   90.0   16.666666666666668
0.0   60.0   33.333333333333336
50.0   60.0   33.333333333333336
0.0   90.0   33.333333333333336
0.0   60.0   50.0
50.0   60.0   33.333333333333336
50.0   90.0   33.333333333333336
0.0   90.0   33.333333333333336
50.0   90.0   50.0
0.0   60.0   50.0
0.0   90.0   50.0
50.0   90.0   50.0
0.0   90.0   33.333333333333336
0.0   60.0   50.0
50.0   90.0   50.0
50.0   60.0   50.0
50.0   60.0   33.333333333333336
0.0   60.0   50.0
50.0   90.0   50.0
50.0   60.0   33.333333333333336
0.0   90.0   33.333333333333336
0.0   90.0   0.0
50.0   90.0   0.0
0.0   120.0   0.0
0.0   90.0   16.666666666666668
50.0   90.0   0.0
50.0   120.0   0.0
0.0   120.0   0.0
50.0   120.0   16.666666666666668
0.0   90.0   16.666666666666668
0.0   120.0   16.666666666666668
50.0   120.0   16.666666666666668
0.0   120.0   0.0
0.0   90.0   16.666666666666668
50.0   120.0   16.666666666666668
50.0   90.0   16.666666666666668
50.0   90.0   0.0
0.0   90.0   16.666666666666668
50.0   120.0   16.666666666666668
50.0   90.0   0.0
0.0   120.0   0.0
0.0   90.0   16.666666666666668
50.0   90.0   16.666666666666668
0.0   120.0   16.666666666666668
0.0   90.0   33.333333333333336
50.0   90.0   16.666666666666668
50.0   120.0   16.666666666666668
0.0   120.0   16.666666666666668
50.0   120.0   33.333333333333336
0.0   90.0   33.333333333333336
0.0   120.0   33.333333333333336
50.0   120.0   33.333333333333336
0.0   120.0   16.666666666666668
0.0   90.0   33.333333333333336
50.0   120.0   33.333333333333336
50.0   90.0   33.333333333333336
50.0   90.0   16.666666666666668
0.0   90.0   33.333333333333336
50.0   120.0   33.333333333333336
50.0   90.0   16.666666666666668
0.0   120.0   16.666666666666668
0.0   90.0   33.333333333333336
50.0   90.0   33.333333333333336
0.0   120.0   33.333333333333336
0.0   90.0   50.0
50.0   90.0   33.333333333333336
50.0   120.0   33.333333333333336
0.0   120.0   33.333333333333336
50.0   120.0   50.0
0.0   90.0   50.0
0.0   120.0   50.0
50.0   120.0   50.0
0.0   120.0   33.333333333333336
0.0   90.0   50.0
50.0   120.0   50.0
50.0   90.0   50.0
50.0   90.0   33.333333333333336
0.0   90.0   50.0
50.0   120.0   50.0
50.0   90.0   33.333333333333336
0.0   120.0   33.333333333333336
0.0   120.0   0.0
50.0   120.0   0.0
0.0   150.0   0.0
0.0   120.0   16.666666666666668
50.0   120.0   0.0
50.0   150.0   0.0
0.0   150.0   0.0
50.0   150.0   16.666666666666668
0.0   120.0   16.666666666666668
0.0   150.0   16.666666666666668
50.0   150.0   16.666666666666668
0.0   150.0   0.0
0.0   120.0   16.666666666666668
50.0   150.0   16.666666666666668
50.0   120.0   16.666666666666668
50.0   120.0   0.0
0.0   120.0   16.666666666666668
50.0   150.0   16.666666666666668
50.0   120.0   0.0
0.0   150.0   0.0
0.0   120.0   16.666666666666668
50.0   120.0   16.666666666666668
0.0   150.0   16.666666666666668
0.0   120.0   33.333333333333336
50.0   120.0   16.666666666666668
50.0   150.0   16.666666666666668
0.0   150.0   16.666666666666668
50.0   150.0   33.333333333333336
0.0   120.0   33.333333333333336
0.0   150.0   33.333333333333336
50.0   150.0   33.333333333333336
0.0   150.0   16.666666666666668
0.0   120.0   33.333333333333336
50.0   150.0   33.333333333333336
50.0   120.0   33.333333333333336
50.0   120.0   16.666666666666668
0.0   120.0   33.333333333333336
50.0   150.0   33.333333333333336
50.0   120.0   16.666666666666668
0.0   150.0   16.666666666666668
0.0   120.0   33.333333333333336
50.0   120.0   33.333333333333336
0.0   150.0   33.333333333333336
0.0   120.0   50.0
50.0   120.0   33.333333333333336
50.0   150.0   33.333333333333336
0.0   150.0   33.333333333333336
50.0   150.0   50.0
0.0   120.0   50.0
0.0   150.0   50.0
50.0   150.0   50.0
0.0   150.0   33.333333333333336
0.0   120.0   50.0
50.0   150.0   50.0
50.0   120.0   50.0
50.0   120.0   33.333333333333336
0.0   120.0   50.0
50.0   150.0   50.0
50.0   120.0   33.333333333333336
0.0   150.0   33.333333333333336
50.0   0.0   0.0
100.0   0.0   0.0
50.0   30.0   0.0
50.0   0.0   16.666666666666668
100.0   0.0   0.0
100.0   30.0   0.0
50.0   30.0   0.0
100.0   30.0   16.666666666666668
50.0   0.0   16.666666666666668
50.0   30.0   16.666666666666668
100.0   30.0   16.666666666666668
50.0   30.0   0.0
50.0   0.0   16.666666666666668
100.0   30.0   16.666666666666668
100.0   0.0   16.666666666666668
100.0   0.0   0.0
50.0   0.0   16.666666666666668
100.0   30.0   16.666666666666668
100.0   0.0   0.0
50.0   30.0   0.0
50.0   0.0   16.666666666666668
100.0   0.0   16.666666666666668
50.0   30.0   16.666666666666668
50.0   0.0   33.333333333333336
100.0   0.0   16.666666666666668
100.0   30.0   16.666666666666668
50.0   30.0   16.666666666666668
100.0   30.0   33.333333333333336
50.0   0.0   33.333333333333336
50.0   30.0   33.333333333333336
100.0   30.0   33.333333333333336
50.0   30.0   16.666666666666668
50.0   0.0   33.333333333333336
100.0   30.0   33.333333333333336
100.0   0.0   33.333333333333336
100.0   0.0   16.666666666666668
50.0   0.0   33.333333333333336
100.0   30.0   33.333333333333336
100.0   0.0   16.666666666666668
50.0   30.0   16.666666666666668
50.0   0.0   33.333333333333336
100.0   0.0   33.333333333333336
50.0   30.0   33.333333333333336
50.0   0.0   50.0
100.0   0.0   33.333333333333336
100.0   30.0   33.333333333333336
50.0   30.0   33.333333333333336
100.0   30.0   50.0
50.0   0.0   50.0
50.0   30.0   50.0
100.0   30.0   50.0
50.0   30.0   33.333333333333336
50.0   0.0   50.0
100.0   30.0   50.0
100.0   0.0   50.0
100.0   0.0   33.333333333333336
50.0   0.0   50.0
100.0   30.0   50.0
100.0   0.0   33.333333333333336
50.0   30.0   33.333333333333336
50.0   30.0   0.0
100.0   30.0   0.0
50.0   60.0   0.0
50.0   30.0   16.666666666666668
100.0   30.0   0.0
100.0   60.0   0.0
50.0   60.0   0.0
100.0   60.0   16.666666666666668
50.0   30.0   16.666666666666668
50.0   60.0   16.666666666666668
100.0   60.0   16.666666666666668
50.0   60.0   0.0
50.0   30.0   16.666666666666668
100.0   60.0   16.666666666666668
100.0   30.0   16.666666666666668
100.0   30.0   0.0
50.0   30.0   16.666666666666668
100.0   60.0   16.666666666666668
100.0   30.0   0.0
50.0   60.0   0.0
50.0   30.0   16.666666666666668
100.0   30.0   16.666666666666668
50.0   60.0   16.666666666666668
50.0   30.0   33.333333333333336
100.0   30.0   16.666666666666668
100.0   60.0   16.666666666666668
50.0   60.0   16.666666666666668
100.0   60.0   33.333333333333336
50.0   30.0   33.333333333333336
50.0   60.0   33.333333333333336
100.0   60.0   33.333333333333336
50.0   60.0   16.666666666666668
50.0   30.0   33.333333333333336
100.0   60.0   33.333333333333336
100.0   30.0   33.333333333333336
100.0   30.0   16.666666666666668
50.0   30.0   33.333333333333336
100.0   60.0   33.333333333333336
100.0   30.0   16.666666666666668
50.0   60.0   16.666666666666668
50.0   30.0   33.333333333333336
100.0   30.0   33.333333333333336
50.0   60.0   33.333333333333336
50.0   30.0   50.0
100.0   30.0   33.333333333333336
100.0   60.0   33.333333333333336
50.0   60.0   33.333333333333336
100.0   60.0   50.0
50.0   30.0   50.0
50.0   60.0   50.0
100.0   60.0   50.0
50.0   60.0   33.333333333333336
50.0   30.0   50.0
100.0   60.0   50.0
100.0   30.0   50.0
100.0   30.0   33.333333333333336
50.0   30.0   50.0
100.0   60.0   50.0
100.0   30.0   33.333333333333336
50.0   60.0   33.333333333333336
50.0   60.0   0.0
100.0   60.0   0.0
50.0   90.0   0.0
50.0   60.0   16.666666666666668
100.0   60.0   0.0
100.0   90.0   0.0
50.0   90.0   0.0
100.0   90.0   16.666666666666668
50.0   60.0   16.666666666666668
50.0   90.0   16.666666666666668
100.0   90.0   16.666666666666668
50.0   90.0   0.0
50.0   60.0   16.666666666666668
100.0   90.0   16.666666666666668
100.0   60.0   16.666666666666668
100.0   60.0   0.0
50.0   60.0   16.666666666666668
100.0   90.0   16.666666666666668
100.0   60.0   0.0
50.0   90.0   0.0
50.0   60.0   16.666666666666668
100.0   60.0   16.666666666666668
50.0   90.0   16.666666666666668
50.0   60.0   33.333333333333336
100.0   60.0   16.666666666666668
100.0   90.0   16.666666666666668
50.0   90.0   16.666666666666668
100.0   90.0   33.333333333333336
50.0   60.0   33.333333333333336
50.0   90.0   33.333333333333336
100.0   90.0   33.333333333333336
50.0   90.0   16.666666666666668
50.0   60.0   33.333333333333336
100.0   90.0   33.333333333333336
100.0   60.0   33.333333333333336
100.0   60.0   16.666666666666668
50.0   60.0   33.333333333333336
100.0   90.0   33.333333333333336
100.0   60.0   16.666666666666668
50.0   90.0   16.666666666666668
50.0   60.0   33.333333333333336
100.0   60.0   33.333333333333336
50.0   90.0   33.333333333333336
50.0   60.0   50.0
100.0   60.0   33.333333333333336
100.0   90.0   33.333333333333336
50.0   90.0   33.333333333333336
100.0   90.0   50.0
50.0   60.0   50.0
50.0   90.0   50.0
100.0   90.0   50.0
50.0   90.0   33.333333333333336
50.0   60.0   50.0
100.0   90.0   50.0
100.0   60.0   50.0
100.0   60.0   33.333333333333336
50.0   60.0   50.0
100.0   90.0   50.0
100.0   60.0   33.333333333333336
50.0   90.0   33.333333333333336
50.0   90.0   0.0
100.0   90.0   0.0
50.0   120.0   0.0
50.0   90.0   16.666666666666668
100.0   90.0   0.0
100.0   120.0   0.0
50.0   120.0   0.0
100.0   120.0   16.666666666666668
50.0   90.0   16.666666666666668
50.0   120.0   16.666666666666668
100.0   120.0   16.666666666666668
50.0   120.0   0.0
50.0   90.0   16.666666666666668
100.0   120.0   16.666666666666668
100.0   90.0   16.666666666666668
100.0   90.0   0.0
50.0   90.0   16.666666666666668
100.0   120.0   16.666666666666668
100.0   90.0   0.0
50.0   120.0   0.0
50.0   90.0   16.666666666666668
100.0   90.0   16.666666666666668
50.0   120.0   16.666666666666668
50.0   90.0   33.333333333333336
100.0   90.0   16.666666666666668
100.0   120.0   16.666666666666668
50.0   120.0   16.666666666666668
100.0   120.0   33.333333333333336
50.0   90.0   33.333333333333336
50.0   120.0   33.333333333333336
100.0   120.0   33.333333333333336
50.0   120.0   16.666666666666668
50.0   90.0   33.333333333333336
100.0   120.0   33.333333333333336
100.0   90.0   33.333333333333336
100.0   90.0   16.666666666666668
50.0   90.0   33.333333333333336
100.0   120.0   33.333333333333336
100.0   90.0   16.666666666666668
50.0   120.0   16.666666666666668
50.0   90.0   33.333333333333336
100.0   90.0   33.333333333333336
50.0   120.0   33.333333333333336
50.0   90.0   50.0
100.0   90.0   33.333333333333336
100.0   120.0   33.333333333333336
50.0   120.0   33.333333333333336
100.0   120.0   50.0
50.0   90.0   50.0
50.0   120.0   50.0
100.0   120.0   50.0
50.0   120.0   33.333333333333336
50.0   90.0   50.0
100.0   120.0   50.0
100.0   90.0   50.0
100.0   90.0   33.333333333333336
50.0   90.0   50.0
100.0   120.0   50.0
100.0   90.0   33.333333333333336
50.0   120.0   33.333333333333336
50.0   120.0   0.0
100.0   120.0   0.0
50.0   150.0   0.0
50.0   120.0   16.666666666666668
100.0   120.0   0.0
100.0   150.0   0.0
50.0   150.0   0.0
100.0   150.0   16.666666666666668
50.0   120.0   16.666666666666668
50.0   150.0   16.666666666666668
100.0   150.0   16.666666666666668
50.0   150.0   0.0
50.0   120.0   16.666666666666668
100.0   150.0   16.666666666666668
100.0   120.0   16.666666666666668
100.0   120.0   0.0
50.0   120.0   16.666666666666668
100.0   150.0   16.666666666666668
100.0   120.0   0.0
50.0   150.0   0.0
50.0   120.0   16.666666666666668
100.0   120.0   16.666666666666668
50.0   150.0   16.666666666666668
50.0   120.0   33.333333333333336
100.0   120.0   16.666666666666668
100.0   150.0   16.666666666666668
50.0   150.0   16.666666666666668
100.0   150.0   33.333333333333336
50.0   120.0   33.333333333333336
50.0   150.0   33.333333333333336
100.0   150.0   33.333333333333336
50.0   150.0   16.666666666666668
50.0   120.0   33.333333333333336
100.0   150.0   33.333333333333336
100.0   120.0   33.333333333333336
100.0   120.0   16.666666666666668
50.0   120.0   33.333333333333336
100.0   150.0   33.333333333333336
100.0   120.0   16.666666666666668
50.0   150.0   16.666666666666668
50.0   120.0   33.333333333333336
100.0   120.0   33.333333333333336
50.0   150.0   33.333333333333336
50.0   120.0   50.0
100.0   120.0   33.333333333333336
100.0   150.0   33.333333333333336
50.0   150.0   33.333333333333336
100.0   150.0   50.0
50.0   120.0   50.0
50.0   150.0   50.0
100.0   150.0   50.0
50.0   150.0   33.333333333333336
50.0   120.0   50.0
100.0   150.0   50.0
100.0   120.0   50.0
100.0   120.0   33.333333333333336
50.0   120.0   50.0
100.0   150.0   50.0
100.0   120.0   33.333333333333336
50.0   150.0   33.333333333333336
100.0   0.0   0.0
150.0   0.0   0.0
100.0   30.0   0.0
100.0   0.0   16.666666666666668
150.0   0.0   0.0
150.0   30.0   0.0
100.0   30.0   0.0
150.0   30.0   16.666666666666668
100.0   0.0   16.666666666666668
100.0   30.0   16.666666666666668
150.0   30.0   16.666666666666668
100.0   30.0   0.0
100.0   0.0   16.666666666666668
150.0   30.0   16.666666666666668
150.0   0.0   16.666666666666668
150.0   0.0   0.0
100.0   0.0   16.666666666666668
150.0   30.0   16.666666666666668
150.0   0.0   0.0
100.0   30.0   0.0
100.0   0.0   16.666666666666668
150.0   0.0   16.666666666666668
100.0   30.0   16.666666666666668
100.0   0.0   33.333333333333336
150.0   0.0   16.666666666666668
150.0   30.0   16.666666666666668
100.0   30.0   16.666666666666668
150.0   30.0   33.333333333333336
100.0   0.0   33.333333333333336
100.0   30.0   33.333333333333336
150.0   30.0   33.333333333333336
100.0   30.0   16.666666666666668
100.0   0.0   33.333333333333336
150.0   30.0   33.333333333333336
150.0   0.0   33.333333333333336
150.0   0.0   16.666666666666668
100.0   0.0   33.333333333333336
150.0   30.0   33.333333333333336
150.0   0.0   16.666666666666668
100.0   30.0   16.666666666666668
100.0   0.0   33.333333333333336
150.0   0.0   33.333333333333336
100.0   30.0   33.333333333333336
100.0   0.0   50.0
150.0   0.0   33.333333333333336
150.0   30.0   33.333333333333336
100.0   30.0   33.333333333333336
150.0   30.0   50.0
100.0   0.0   50.0
100.0   30.0   50.0
150.0   30.0   50.0
100.0   30.0   33.333333333333336
100.0   0.0   50.0
150.0   30.0   50.0
150.0   0.0   50.0
150.0   0.0   33.333333333333336
100.0   0.0   50.0
150.0   30.0   50.0
150.0   0.0   33.333333333333336
100.0   30.0   33.333333333333336
100.0   30.0   0.0
150.0   30.0   0.0
100.0   60.0   0.0
100.0   30.0   16.666666666666668
150.0   30.0   0.0
150.0   60.0   0.0
100.0   60.0   0.0
150.0   60.0   16.666666666666668
100.0   30.0   16.666666666666668
100.0   60.0   16.666666666666668
150.0   60.0   16.666666666666668
100.0   60.0   0.0
100.0   30.0   16.666666666666668
150.0   60.0   16.666666666666668
150.0   30.0   16.666666666666668
150.0   30.0   0.0
100.0   30.0   16.666666666666668
150.0   60.0   16.666666666666668
150.0   30.0   0.0
100.0   60.0   0.0
100.0   30.0   16.666666666666668
150.0   30.0   16.666666666666668
100.0   60.0   16.666666666666668
100.0   30.0   33.333333333333336
150.0   30.0   16.666666666666668
150.0   60.0   16.666666666666668
100.0   60.0   16.666666666666668
150.0   60.0   33.333333333333336
100.0   30.0   33.333333333333336
100.0   60.0   33.333333333333336
150.0   60.0   33.333333333333336
100.0   60.0   16.666666666666668
100.0   30.0   33.333333333333336
150.0   60.0   33.333333333333336
150.0   30.0   33.333333333333336
150.0   30.0   16.666666666666668
100.0   30.0   33.333333333333336
150.0   60.0   33.333333333333336
150.0   30.0   16.666666666666668
100.0   60.0   16.666666666666668
100.0   30.0   33.333333333333336
150.0   30.0   33.333333333333336
100.0   60.0   33.333333333333336
100.0   30.0   50.0
150.0   30.0   33.333333333333336
150.0   60.0   33.333333333333336
100.0   60.0   33.333333333333336
150.0   60.0   50.0
100.0   30.0   50.0
100.0   60.0   50.0
150.0   60.0   50.0
100.0   60.0   33.333333333333336
100.0   30.0   50.0
150.0   60.0   50.0
150.0   30.0   50.0
150.0   30.0   33.333333333333336
100.0   30.0   50.0
150.0   60.0   50.0
150.0   30.0   33.333333333333336
100.0   60.0   33.333333333333336
100.0   60.0   0.0
150.0   60.0   0.0
100.0   90.0   0.0
100.0   60.0   16.666666666666668
150.0   60.0   0.0
150.0   90.0   0.0
100.0   90.0   0.0
150.0   90.0   16.666666666666668
100.0   60.0   16.666666666666668
100.0   90.0   16.666666666666668
150.0   90.0   16.666666666666668
100.0   90.0   0.0
100.0   60.0   16.666666666666668
150.0   90.0   16.666666666666668
150.0   60.0   16.666666666666668
150.0   60.0   0.0
100.0   60.0   16.666666666666668
150.0   90.0   16.666666666666668
150.0   60.0   0.0
100.0   90.0   0.0
100.0   60.0   16.666666666666668
150.0   60.0   16.666666666666668
100.0   90.0   16.666666666666668
100.0   60.0   33.333333333333336
150.0   60.0   16.666666666666668
150.0   90.0   16.666666666666668
100.0   90.0   16.666666666666668
150.0   90.0   33.333333333333336
100.0   60.0   33.333333333333336
100.0   90.0   33.333333333333336
150.0   90.0   33.333333333333336
100.0   90.0   16.666666666666668
100.0   60.0   33.333333333333336
150.0   90.0   33.333333333333336
150.0   60.0   33.333333333333336
150.0   60.0   16.666666666666668
100.0   60.0   33.333333333333336
150.0   90.0   33.333333333333336
150.0   60.0   16.666666666666668
100.0   90.0   16.666666666666668
100.0   60.0   33.333333333333336
150.0   60.0   33.333333333333336
100.0   90.0   33.333333333333336
100.0   60.0   50.0
150.0   60.0   33.333333333333336
150.0   90.0   33.333333333333336
100.0   90.0   33.333333333333336
150.0   90.0   50.0
100.0   60.0   50.0
100.0   90.0   50.0
150.0   90.0   50.0
100.0   90.0   33.333333333333336
100.0   60.0   50.0
150.0   90.0   50.0
150.0   60.0   50.0
150.0   60.0   33.333333333333336
100.0   60.0   50.0
150.0   90.0   50.0
150.0   60.0   33.333333333333336
100.0   90.0   33.333333333333336
100.0   90.0   0.0
150.0   90.0   0.0
100.0   120.0   0.0
100.0   90.0   16.666666666666668
150.0   90.0   0.0
150.0   120.0   0.0
100.0   120.0   0.0
150.0   120.0   16.666666666666668
100.0   90.0   16.666666666666668
100.0   120.0   16.666666666666668
150.0   120.0   16.666666666666668
100.0   120.0   0.0
100.0   90.0   16.666666666666668
150.0   120.0   16.666666666666668
150.0   90.0   16.666666666666668
150.0   90.0   0.0
100.0   90.0   16.666666666666668
150.0   120.0   16.666666666666668
150.0   90.0   0.0
100.0   120.0   0.0
100.0   90.0   16.666666666666668
150.0   90.0   16.666666666666668
100.0   120.0   16.666666666666668
100.0   90.0   33.333333333333336
150.0   90.0   16.666666666666668
150.0   120.0   16.666666666666668
100.0   120.0   16.666666666666668
150.0   120.0   33.333333333333336
100.0   90.0   33.333333333333336
100.0   120.0   33.333333333333336
150.0   120.0   33.333333333333336
100.0   120.0   16.666666666666668
100.0   90.0   33.333333333333336
150.0   120.0   33.333333333333336
150.0   90.0   33.333333333333336
150.0   90.0   16.666666666666668
100.0   90.0   33.333333333333336
150.0   120.0   33.333333333333336
150.0   90.0   16.666666666666668
100.0   120.0   16.666666666666668
100.0   90.0   33.333333333333336
150.0   90.0   33.333333333333336
100.0   120.0   33.333333333333336
100.0   90.0   50.0
150.0   90.0   33.333333333333336
150.0   120.0   33.333333333333336
100.0   120.0   33.333333333333336
150.0   120.0   50.0
100.0   90.0   50.0
100.0   120.0   50.0
150.0   120.0   50.0
100.0   120.0   33.333333333333336
100.0   90.0   50.0
150.0   120.0   50.0
150.0   90.0   50.0
150.0   90.0   33.333333333333336
100.0   90.0   50.0
150.0   120.0   50.0
150.0   90.0   33.333333333333336
100.0   120.0   33.333333333333336
100.0   120.0   0.0
150.0   120.0   0.0
100.0   150.0   0.0
100.0   120.0   16.666666666666668
150.0   120.0   0.0
150.0   150.0   0.0
100.0   150.0   0.0
150.0   150.0   16.666666666666668
100.0   120.0   16.666666666666668
100.0   150.0   16.666666666666668
150.0   150.0   16.666666666666668
100.0   150.0   0.0
100.0   120.0   16.666666666666668
150.0   150.0   16.666666666666668
150.0   120.0   16.666666666666668
150.0   120.0   0.0
100.0   120.0   16.666666666666668
150.0   150.0   16.666666666666668
150.0   120.0   0.0
100.0   150.0   0.0
100.0   120.0   16.666666666666668
150.0   120.0   16.666666666666668
100.0   150.0   16.666666666666668
100.0   120.0   33.333333333333336
150.0   120.0   16.666666666666668
150.0   150.0   16.666666666666668
100.0   150.0   16.666666666666668
150.0   150.0   33.333333333333336
100.0   120.0   33.333333333333336
100.0   150.0   33.333333333333336
150.0   150.0   33.333333333333336
100.0   150.0   16.666666666666668
100.0   120.0   33.333333333333336
150.0   150.0   33.333333333333336
150.0   120.0   33.333333333333336
150.0   120.0   16.666666666666668
100.0   120.0   33.333333333333336
150.0   150.0   33.333333333333336
150.0   120.0   16.666666666666668
100.0   150.0   16.666666666666668
100.0   120.0   33.333333333333336
150.0   120.0   33.333333333333336
100.0   150.0   33.333333333333336
100.0   120.0   50.0
150.0   120.0   33.333333333333336
150.0   150.0   33.333333333333336
100.0   150.0   33.333333333333336
150.0   150.0   50.0
100.0   120.0   50.0
100.0   150.0   50.0
150.0   150.0   50.0
100.0   150.0   33.333333333333336
100.0   120.0   50.0
150.0   150.0   50.0
150.0   120.0   50.0
150.0   120.0   33.333333333333336
100.0   120.0   50.0
150.0   150.0   50.0
150.0   120.0   33.333333333333336
100.0   150.0   33.333333333333336
150.0   0.0   0.0
200.0   0.0   0.0
150.0   30.0   0.0
150.0   0.0   16.666666666666668
200.0   0.0   0.0
200.0   30.0   0.0
150.0   30.0   0.0
200.0   30.0   16.666666666666668
150.0   0.0   16.666666666666668
150.0   30.0   16.666666666666668
200.0   30.0   16.666666666666668
150.0   30.0   0.0
150.0   0.0   16.666666666666668
200.0   30.0   16.666666666666668
200.0   0.0   16.666666666666668
200.0   0.0   0.0
150.0   0.0   16.666666666666668
200.0   30.0   16.666666666666668
200.0   0.0   0.0
150.0   30.0   0.0
150.0   0.0   16.666666666666668
200.0   0.0   16.666666666666668
150.0   30.0   16.666666666666668
150.0   0.0   33.333333333333336
200.0   0.0   16.666666666666668
200.0   30.0   16.666666666666668
150.0   30.0   16.666666666666668
200.0   30.0   33.333333333333336
150.0   0.0   33.333333333333336
150.0   30.0   33.333333333333336
200.0   30.0   33.333333333333336
150.0   30.0   16.666666666666668
150.0   0.0   33.333333333333336
200.0   30.0   33.333333333333336
200.0   0.0   33.333333333333336
200.0   0.0   16.666666666666668
150.0   0.0   33.333333333333336
200.0   30.0   33.333333333333336
200.0   0.0   16.666666666666668
150.0   30.0   16.666666666666668
150.0   0.0   33.333333333333336
200.0   0.0   33.333333333333336
150.0   30.0   33.333333333333336
150.0   0.0   50.0
200.0   0.0   33.333333333333336
200.0   30.0   33.333333333333336
150.0   30.0   33.333333333333336
200.0   30.0   50.0
150.0   0.0   50.0
150.0   30.0   50.0
200.0   30.0   50.0
150.0   30.0   33.333333333333336
150.0   0.0   50.0
200.0   30.0   50.0
200.0   0.0   50.0
200.0   0.0   33.333333333333336
150.0   0.0   50.0
200.0   30.0   50.0
200.0   0.0   33.333333333333336
150.0   30.0   33.333333333333336
150.0   30.0   0.0
200.0   30.0   0.0
150.0   60.0   0.0
150.0   30.0   16.666666666666668
200.0   30.0   0.0
200.0   60.0   0.0
150.0   60.0   0.0
200.0   60.0   16.666666666666668
150.0   30.0   16.666666666666668
150.0   60.0   16.666666666666668
200.0   60.0   16.666666666666668
150.0   60.0   0.0
150.0   30.0   16.666666666666668
200.0   60.0   16.666666666666668
200.0   30.0   16.666666666666668
200.0   30.0   0.0
150.0   30.0   16.666666666666668
200.0   60.0   16.666666666666668
200.0   30.0   0.0
150.0   60.0   0.0
150.0   30.0   16.666666666666668
200.0   30.0   16.666666666666668
150.0   60.0   16.666666666666668
150.0   30.0   33.333333333333336
200.0   30.0   16.666666666666668
200.0   60.0   16.666666666666668
150.0   60.0   16.666666666666668
200.0   60.0   33.333333333333336
150.0   30.0   33.333333333333336
150.0   60.0   33.333333333333336
200.0   60.0   33.333333333333336
150.0   60.0   16.666666666666668
150.0   30.0   33.333333333333336
200.0   60.0   33.333333333333336
200.0   30.0   33.333333333333336
200.0   30.0   16.666666666666668
150.0   30.0   33.333333333333336
200.0   60.0   33.333333333333336
200.0   30.0   16.666666666666668
150.0   60.0   16.666666666666668
150.0   30.0   33.333333333333336
200.0   30.0   33.333333333333336
150.0   60.0   33.333333333333336
150.0   30.0   50.0
200.0   30.0   33.333333333333336
200.0   60.0   33.333333333333336
150.0   60.0   33.333333333333336
200.0   60.0   50.0
150.0   30.0   50.0
150.0   60.0   50.0
200.0   60.0   50.0
150.0   60.0   33.333333333333336
150.0   30.0   50.0
200.0   60.0   50.0
200.0   30.0   50.0
200.0   30.0   33.333333333333336
150.0   30.0   50.0
200.0   60.0   50.0
200.0   30.0   33.333333333333336
150.0   60.0   33.333333333333336
150.0   60.0   0.0
200.0   60.0   0.0
150.0   90.0   0.0
150.0   60.0   16.666666666666668
200.0   60.0   0.0
200.0   90.0   0.0
150.0   90.0   0.0
200.0   90.0   16.666666666666668
150.0   60.0   16.666666666666668
150.0   90.0   16.666666666666668
200.0   90.0   16.666666666666668
150.0   90.0   0.0
150.0   60.0   16.666666666666668
200.0   90.0   16.666666666666668
200.0   60.0   16.666666666666668
200.0   60.0   0.0
150.0   60.0   16.666666666666668
200.0   90.0   16.666666666666668
200.0   60.0   0.0
150.0   90.0   0.0
150.0   60.0   16.666666666666668
200.0   60.0   16.666666666666668
150.0   90.0   16.666666666666668
150.0   60.0   33.333333333333336
200.0   60.0   16.666666666666668
200.0   90.0   16.666666666666668
150.0   90.0   16.666666666666668
200.0   90.0   33.333333333333336
150.0   60.0   33.333333333333336
150.0   90.0   33.333333333333336
200.0   90.0   33.333333333333336
150.0   90.0   16.666666666666668
150.0   60.0   33.333333333333336
200.0   90.0   33.333333333333336
200.0   60.0   33.333333333333336
200.0   60.0   16.666666666666668
150.0   60.0   33.333333333333336
200.0   90.0   33.333333333333336
200.0   60.0   16.666666666666668
150.0   90.0   16.666666666666668
150.0   60.0   33.333333333333336
200.0   60.0   33.333333333333336
150.0   90.0   33.333333333333336
150.0   60.0   50.0
200.0   60.0   33.333333333333336
200.0   90.0   33.333333333333336
150.0   90.0   33.333333333333336
200.0   90.0   50.0
150.0   60.0   50.0
150.0   90.0   50.0
200.0   90.0   50.0
150.0   90.0   33.333333333333336
150.0   60.0   50.0
200.0   90.0   50.0
200.0   60.0   50.0
200.0   60.0   33.333333333333336
150.0   60.0   50.0
200.0   90.0   50.0
200.0   60.0   33.333333333333336
150.0   90.0   33.333333333333336
150.0   90.0   0.0
200.0   90.0   0.0
150.0   120.0   0.0
150.0   90.0   16.666666666666668
200.0   90.0   0.0
200.0   120.0   0.0
150.0   120.0   0.0
200.0   120.0   16.666666666666668
150.0   90.0   16.666666666666668
150.0   120.0   16.666666666666668
200.0   120.0   16.666666666666668
150.0   120.0   0.0
150.0   90.0   16.666666666666668
200.0   120.0   16.666666666666668
200.0   90.0   16.666666666666668
200.0   90.0   0.0
150.0   90.0   16.666666666666668
200.0   120.0   16.666666666666668
200.0   90.0   0.0
150.0   120.0   0.0
150.0   90.0   16.666666666666668
200.0   90.0   16.666666666666668
150.0   120.0   16.666666666666668
150.0   90.0   33.333333333333336
200.0   90.0   16.666666666666668
200.0   120.0   16.666666666666668
150.0   120.0   16.666666666666668
200.0   120.0   33.333333333333336
150.0   90.0   33.333333333333336
150.0   120.0   33.333333333333336
200.0   120.0   33.333333333333336
150.0   120.0   16.666666666666668
150.0   90.0   33.333333333333336
200.0   120.0   33.333333333333336
200.0   90.0   33.333333333333336
200.0   90.0   16.666666666666668
150.0   90.0   33.333333333333336
200.0   120.0   33.333333333333336
200.0   90.0   16.666666666666668
150.0   120.0   16.666666666666668
150.0   90.0   33.333333333333336
200.0   90.0   33.333333333333336
150.0   120.0   33.333333333333336
150.0   90.0   50.0
200.0   90.0   33.333333333333336
200.0   120.0   33.333333333333336
150.0   120.0   33.333333333333336
200.0   120.0   50.0
150.0   90.0   50.0
150.0   120.0   50.0
200.0   120.0   50.0
150.0   120.0   33.333333333333336
150.0   90.0   50.0
200.0   120.0   50.0
200.0   90.0   50.0
200.0   90.0   33.333333333333336
150.0   90.0   50.0
200.0   120.0   50.0
200.0   90.0   33.333333333333336
150.0   120.0   33.333333333333336
150.0   120.0   0.0
200.0   120.0   0.0
150.0   150.0   0.0
150.0   120.0   16.666666666666668
200.0   120.0   0.0
200.0   150.0   0.0
150.0   150.0   0.0
200.0   150.0   16.666666666666668
150.0   120.0   16.666666666666668
150.0   150.0   16.666666666666668
200.0   150.0   16.666666666666668
150.0   150.0   0.0
150.0   120.0   16.666666666666668
200.0   150.0   16.666666666666668
200.0   120.0   16.666666666666668
200.0   120.0   0.0
150.0   120.0   16.666666666666668
200.0   150.0   16.666666666666668
200.0   120.0   0.0
150.0   150.0   0.0
150.0   120.0   16.666666666666668
200.0   120.0   16.666666666666668
150.0   150.0   16.666666666666668
150.0   120.0   33.333333333333336
200.0   120.0   16.666666666666668
200.0   150.0   16.666666666666668
150.0   150.0   16.666666666666668
200.0   150.0   33.333333333333336
150.0   120.0   33.333333333333336
150.0   150.0   33.333333333333336
200.0   150.0   33.333333333333336
150.0   150.0   16.666666666666668
150.0   120.0   33.333333333333336
200.0   150.0   33.333333333333336
200.0   120.0   33.333333333333336
200.0   120.0   16.666666666666668
150.0   120.0   33.333333333333336
200.0   150.0   33.333333333333336
200.0   120.0   16.666666666666668
150.0   150.0   16.666666666666668
150.0   120.0   33.333333333333336
200.0   120.0   33.333333333333336
150.0   150.0   33.333333333333336
150.0   120.0   50.0
200.0   120.0   33.333333333333336
200.0   150.0   33.333333333333336
150.0   150.0   33.333333333333336
200.0   150.0   50.0
150.0   120.0   50.0
150.0   150.0   50.0
200.0   150.0   50.0
150.0   150.0   33.333333333333336
150.0   120.0   50.0
200.0   150.0   50.0
200.0   120.0   50.0
200.0   120.0   33.333333333333336
150.0   120.0   50.0
200.0   150.0   50.0
200.0   120.0   33.333333333333336
150.0   150.0   33.333333333333336
200.0   0.0   0.0
250.0   0.0   0.0
200.0   30.0   0.0
200.0   0.0   16.666666666666668
250.0   0.0   0.0
250.0   30.0   0.0
200.0   30.0   0.0
250.0   30.0   16.666666666666668
200.0   0.0   16.666666666666668
200.0   30.0   16.666666666666668
250.0   30.0   16.666666666666668
200.0   30.0   0.0
200.0   0.0   16.666666666666668
250.0   30.0   16.666666666666668
250.0   0.0   16.666666666666668
250.0   0.0   0.0
200.0   0.0   16.666666666666668
250.0   30.0   16.666666666666668
250.0   0.0   0.0
200.0   30.0   0.0
200.0   0.0   16.666666666666668
250.0   0.0   16.666666666666668
200.0   30.0   16.666666666666668
200.0   0.0   33.333333333333336
250.0   0.0   16.666666666666668
250.0   30.0   16.666666666666668
200.0   30.0   16.666666666666668
250.0   30.0   33.333333333333336
200.0   0.0   33.333333333333336
200.0   30.0   33.333333333333336
250.0   30.0   33.333333333333336
200.0   30.0   16.666666666666668
200.0   0.0   33.333333333333336
250.0   30.0   33.333333333333336
250.0   0.0   33.333333333333336
250.0   0.0   16.666666666666668
200.0   0.0   33.333333333333336
250.0   30.0   33.333333333333336
250.0   0.0   16.666666666666668
200.0   30.0   16.666666666666668
200.0   0.0   33.333333333333336
250.0   0.0   33.333333333333336
200.0   30.0   33.333333333333336
200.0   0.0   50.0
250.0   0.0   33.333333333333336
250.0   30.0   33.333333333333336
200.0   30.0   33.333333333333336
250.0   30.0   50.0
200.0   0.0   50.0
200.0   30.0   50.0
250.0   30.0   50.0
200.0   30.0   33.333333333333336
200.0   0.0   50.0
250.0   30.0   50.0
250.0   0.0   50.0
250.0   0.0   33.333333333333336
200.0   0.0   50.0
250.0   30.0   50.0
250.0   0.0   33.333333333333336
200.0   30.0   33.333333333333336
200.0   30.0   0.0
250.0   30.0   0.0
200.0   60.0   0.0
200.0   30.0   16.666666666666668
250.0   30.0   0.0
250.0   60.0   0.0
200.0   60.0   0.0
250.0   60.0   16.666666666666668
200.0   30.0   16.666666666666668
200.0   60.0   16.666666666666668
250.0   60.0   16.666666666666668
200.0   60.0   0.0
200.0   30.0   16.666666666666668
250.0   60.0   16.666666666666668
250.0   30.0   16.666666666666668
250.0   30.0   0.0
200.0   30.0   16.666666666666668
250.0   60.0   16.666666666666668
250.0   30.0   0.0
200.0   60.0   0.0
200.0   30.0   16.666666666666668
250.0   30.0   16.666666666666668
200.0   60.0   16.666666666666668
200.0   30.0   33.333333333333336
250.0   30.0   16.666666666666668
250.0   60.0   16.666666666666668
200.0   60.0   16.666666666666668
250.0   60.0   33.333333333333336
200.0   30.0   33.333333333333336
200.0   60.0   33.333333333333336
250.0   60.0   33.333333333333336
200.0   60.0   16.666666666666668
200.0   30.0   33.333333333333336
250.0   60.0   33.333333333333336
250.0   30.0   33.333333333333336
250.0   30.0   16.666666666666668
200.0   30.0   33.333333333333336
250.0   60.0   33.333333333333336
250.0   30.0   16.666666666666668
200.0   60.0   16.666666666666668
200.0   30.0   33.333333333333336
250.0   30.0   33.333333333333336
200.0   60.0   33.333333333333336
200.0   30.0   50.0
250.0   30.0   33.333333333333336
250.0   60.0   33.333333333333336
200.0   60.0   33.333333333333336
250.0   60.0   50.0
200.0   30.0   50.0
200.0   60.0   50.0
250.0   60.0   50.0
200.0   60.0   33.333333333333336
200.0   30.0   50.0
250.0   60.0   50.0
250.0   30.0   50.0
250.0   30.0   33.333333333333336
200.0   30.0   50.0
250.0   60.0   50.0
250.0   30.0   33.333333333333336
200.0   60.0   33.333333333333336
200.0   60.0   0.0
250.0   60.0   0.0
200.0   90.0   0.0
200.0   60.0   16.666666666666668
250.0   60.0   0.0
250.0   90.0   0.0
200.0   90.0   0.0
250.0   90.0   16.666666666666668
200.0   60.0   16.666666666666668
200.0   90.0   16.666666666666668
250.0   90.0   16.666666666666668
200.0   90.0   0.0
200.0   60.0   16.666666666666668
250.0   90.0   16.666666666666668
250.0   60.0   16.666666666666668
250.0   60.0   0.0
200.0   60.0   16.666666666666668
250.0   90.0   16.666666666666668
250.0   60.0   0.0
200.0   90.0   0.0
200.0   60.0   16.666666666666668
250.0   60.0   16.666666666666668
200.0   90.0   16.666666666666668
200.0   60.0   33.333333333333336
250.0   60.0   16.666666666666668
250.0   90.0   16.666666666666668
200.0   90.0   16.666666666666668
250.0   90.0   33.333333333333336
200.0   60.0   33.333333333333336
200.0   90.0   33.333333333333336
250.0   90.0   33.333333333333336
200.0   90.0   16.666666666666668
200.0   60.0   33.333333333333336
250.0   90.0   33.333333333333336
250.0   60.0   33.333333333333336
250.0   60.0   16.666666666666668
200.0   60.0   33.333333333333336
250.0   90.0   33.333333333333336
250.0   60.0   16.666666666666668
200.0   90.0   16.666666666666668
200.0   60.0   33.333333333333336
250.0   60.0   33.333333333333336
200.0   90.0   33.333333333333336
200.0   60.0   50.0
250.0   60.0   33.333333333333336
250.0   90.0   33.333333333333336
200.0   90.0   33.333333333333336
250.0   90.0   50.0
200.0   60.0   50.0
200.0   90.0   50.0
250.0   90.0   50.0
200.0   90.0   33.333333333333336
200.0   60.0   50.0
250.0   90.0   50.0
250.0   60.0   50.0
250.0   60.0   33.333333333333336
200.0   60.0   50.0
250.0   90.0   50.0
250.0   60.0   33.333333333333336
200.0   90.0   33.333333333333336
200.0   90.0   0.0
250.0   90.0   0.0
200.0   120.0   0.0
200.0   90.0   16.666666666666668
250.0   90.0   0.0
250.0   120.0   0.0
200.0   120.0   0.0
250.0   120.0   16.666666666666668
200.0   90.0   16.666666666666668
200.0   120.0   16.666666666666668
250.0   120.0   16.666666666666668
200.0   120.0   0.0
200.0   90.0   16.666666666666668
250.0   120.0   16.666666666666668
250.0   90.0   16.666666666666668
250.0   90.0   0.0
200.0   90.0   16.666666666666668
250.0   120.0   16.666666666666668
250.0   90.0   0.0
200.0   120.0   0.0
200.0   90.0   16.666666666666668
250.0   90.0   16.666666666666668
200.0   120.0   16.666666666666668
200.0   90.0   33.333333333333336
250.0   90.0   16.666666666666668
250.0   120.0   16.666666666666668
200.0   120.0   16.666666666666668
250.0   120.0   33.333333333333336
200.0   90.0   33.333333333333336
200.0   120.0   33.333333333333336
250.0   120.0   33.333333333333336
200.0   120.0   16.666666666666668
200.0   90.0   33.333333333333336
250.0   120.0   33.333333333333336
250.0   90.0   33.333333333333336
250.0   90.0   16.666666666666668
200.0   90.0   33.333333333333336
250.0   120.0   33.333333333333336
250.0   90.0   16.666666666666668
200.0   120.0   16.666666666666668
200.0   90.0   33.333333333333336
250.0   90.0   33.333333333333336
200.0   120.0   33.333333333333336
200.0   90.0   50.0
250.0   90.0   33.333333333333336
250.0   120.0   33.333333333333336
200.0   120.0   33.333333333333336
250.0   120.0   50.0
200.0   90.0   50.0
200.0   120.0   50.0
250.0   120.0   50.0
200.0   120.0   33.333333333333336
200.0   90.0   50.0
250.0   120.0   50.0
250.0   90.0   50.0
250.0   90.0   33.333333333333336
200.0   90.0   50.0
250.0   120.0   50.0
250.0   90.0   33.333333333333336
200.0   120.0   33.333333333333336
200.0   120.0   0.0
250.0   120.0   0.0
200.0   150.0   0.0
200.0   120.0   16.666666666666668
250.0   120.0   0.0
250.0   150.0   0.0
200.0   150.0   0.0
250.0   150.0   16.666666666666668
200.0   120.0   16.666666666666668
200.0   150.0   16.666666666666668
250.0   150.0   16.666666666666668
200.0   150.0   0.0
200.0   120.0   16.666666666666668
250.0   150.0   16.666666666666668
250.0   120.0   16.666666666666668
250.0   120.0   0.0
200.0   120.0   16.666666666666668
250.0   150.0   16.666666666666668
250.0   120.0   0.0
200.0   150.0   0.0
200.0   120.0   16.666666666666668
250.0   120.0   16.666666666666668
200.0   150.0   16.666666666666668
200.0   120.0   33.333333333333336
250.0   120.0   16.666666666666668
250.0   150.0   16.666666666666668
200.0   150.0   16.666666666666668
250.0   150.0   33.333333333333336
200.0   120.0   33.333333333333336
200.0   150.0   33.333333333333336
250.0   150.0   33.333333333333336
200.0   150.0   16.666666666666668
200.0   120.0   33.333333333333336
250.0   150.0   33.333333333333336
250.0   120.0   33.333333333333336
250.0   120.0   16.666666666666668
200.0   120.0   33.333333333333336
250.0   150.0   33.333333333333336
250.0   120.0   16.666666666666668
200.0   150.0   16.666666666666668
200.0   120.0   33.333333333333336
250.0   120.0   33.333333333333336
200.0   150.0   33.333333333333336
200.0   120.0   50.0
250.0   120.0   33.333333333333336
250.0   150.0   33.333333333333336
200.0   150.0   33.333333333333336
250.0   150.0   50.0
200.0   120.0   50.0
200.0   150.0   50.0
250.0   150.0   50.0
200.0   150.0   33.333333333333336
200.0   120.0   50.0
250.0   150.0   50.0
250.0   120.0   50.0
250.0   120.0   33.333333333333336
200.0   120.0   50.0
250.0   150.0   50.0
250.0   120.0   33.333333333333336
200.0   150.0   33.333333333333336
250.0   0.0   0.0
300.0   0.0   0.0
250.0   30.0   0.0
250.0   0.0   16.666666666666668
300.0   0.0   0.0
300.0   30.0   0.0
250.0   30.0   0.0
300.0   30.0   16.666666666666668
250.0   0.0   16.666666666666668
250.0   30.0   16.666666666666668
300.0   30.0   16.666666666666668
250.0   30.0   0.0
250.0   0.0   16.666666666666668
300.0   30.0   16.666666666666668
300.0   0.0   16.666666666666668
300.0   0.0   0.0
250.0   0.0   16.666666666666668
300.0   30.0   16.666666666666668
300.0   0.0   0.0
250.0   30.0   0.0
250.0   0.0   16.666666666666668
300.0   0.0   16.666666666666668
250.0   30.0   16.666666666666668
250.0   0.0   33.333333333333336
300.0   0.0   16.666666666666668
300.0   30.0   16.666666666666668
250.0   30.0   16.666666666666668
300.0   30.0   33.333333333333336
250.0   0.0   33.333333333333336
250.0   30.0   33.333333333333336
300.0   30.0   33.333333333333336
250.0   30.0   16.666666666666668
250.0   0.0   33.333333333333336
300.0   30.0   33.333333333333336
300.0   0.0   33.333333333333336
300.0   0.0   16.666666666666668
250.0   0.0   33.333333333333336
300.0   30.0   33.333333333333336
300.0   0.0   16.666666666666668
250.0   30.0   16.666666666666668
250.0   0.0   33.333333333333336
300.0   0.0   33.333333333333336
250.0   30.0   33.333333333333336
250.0   0.0   50.0
300.0   0.0   33.333333333333336
300.0   30.0   33.333333333333336
250.0   30.0   33.333333333333336
300.0   30.0   50.0
250.0   0.0   50.0
250.0   30.0   50.0
300.0   30.0   50.0
250.0   30.0   33.333333333333336
250.0   0.0   50.0
300.0   30.0   50.0
300.0   0.0   50.0
300.0   0.0   33.333333333333336
250.0   0.0   50.0
300.0   30.0   50.0
300.0   0.0   33.333333333333336
250.0   30.0   33.333333333333336
250.0   30.0   0.0
300.0   30.0   0.0
250.0   60.0   0.0
250.0   30.0   16.666666666666668
300.0   30.0   0.0
300.0   60.0   0.0
250.0   60.0   0.0
300.0   60.0   16.666666666666668
250.0   30.0   16.666666666666668
250.0   60.0   16.666666666666668
300.0   60.0   16.666666666666668
250.0   60.0   0.0
250.0   30.0   16.666666666666668
300.0   60.0   16.666666666666668
300.0   30.0   16.666666666666668
300.0   30.0   0.0
250.0   30.0   16.666666666666668
300.0   60.0   16.666666666666668
300.0   30.0   0.0
250.0   60.0   0.0
250.0   30.0   16.666666666666668
300.0   30.0   16.666666666666668
250.0   60.0   16.666666666666668
250.0   30.0   33.333333333333336
300.0   30.0   16.666666666666668
300.0   60.0   16.666666666666668
250.0   60.0   16.666666666666668
300.0   60.0   33.333333333333336
250.0   30.0   33.333333333333336
250.0   60.0   33.333333333333336
300.0   60.0   33.333333333333336
250.0   60.0   16.666666666666668
250.0   30.0   33.333333333333336
300.0   60.0   33.333333333333336
300.0   30.0   33.333333333333336
300.0   30.0   16.666666666666668
250.0   30.0   33.333333333333336
300.0   60.0   33.333333333333336
300.0   30.0   16.666666666666668
250.0   60.0   16.666666666666668
250.0   30.0   33.333333333333336
300.0   30.0   33.333333333333336
250.0   60.0   33.333333333333336
250.0   30.0   50.0
300.0   30.0   33.333333333333336
300.0   60.0   33.333333333333336
250.0   60.0   33.333333333333336
300.0   60.0   50.0
250.0   30.0   50.0
250.0   60.0   50.0
300.0   60.0   50.0
250.0   60.0   33.333333333333336
250.0   30.0   50.0
300.0   60.0   50.0
300.0   30.0   50.0
300.0   30.0   33.333333333333336
250.0   30.0   50.0
300.0   60.0   50.0
300.0   30.0   33.333333333333336
250.0   60.0   33.333333333333336
250.0   60.0   0.0
300.0   60.0   0.0
250.0   90.0   0.0
250.0   60.0   16.666666666666668
300.0   60.0   0.0
300.0   90.0   0.0
250.0   90.0   0.0
300.0   90.0   16.666666666666668
250.0   60.0   16.666666666666668
250.0   90.0   16.666666666666668
300.0   90.0   16.666666666666668
250.0   90.0   0.0
250.0   60.0   16.666666666666668
300.0   90.0   16.666666666666668
300.0   60.0   16.666666666666668
300.0   60.0   0.0
250.0   60.0   16.666666666666668
300.0   90.0   16.666666666666668
300.0   60.0   0.0
250.0   90.0   0.0
250.0   60.0   16.666666666666668
300.0   60.0   16.666666666666668
250.0   90.0   16.666666666666668
250.0   60.0   33.333333333333336
300.0   60.0   16.666666666666668
300.0   90.0   16.666666666666668
250.0   90.0   16.666666666666668
300.0   90.0   33.333333333333336
250.0   60.0   33.333333333333336
250.0   90.0   33.333333333333336
300.0   90.0   33.333333333333336
250.0   90.0   16.666666666666668
250.0   60.0   33.333333333333336
300.0   90.0   33.333333333333336
300.0   60.0   33.333333333333336
300.0   60.0   16.666666666666668
250.0   60.0   33.333333333333336
300.0   90.0   33.333333333333336
300.0   60.0   16.666666666666668
250.0   90.0   16.666666666666668
250.0   60.0   33.333333333333336
300.0   60.0   33.333333333333336
250.0   90.0   33.333333333333336
250.0   60.0   50.0
300.0   60.0   33.333333333333336
300.0   90.0   33.333333333333336
250.0   90.0   33.333333333333336
300.0   90.0   50.0
250.0   60.0   50.0
250.0   90.0   50.0
300.0   90.0   50.0
250.0   90.0   33.333333333333336
250.0   60.0   50.0
300.0   90.0   50.0
300.0   60.0   50.0
300.0   60.0   33.333333333333336
250.0   60.0   50.0
300.0   90.0   50.0
300.0   60.0   33.333333333333336
250.0   90.0   33.333333333333336
250.0   90.0   0.0
300.0   90.0   0.0
250.0   120.0   0.0
250.0   90.0   16.666666666666668
300.0   90.0   0.0
300.0   120.0   0.0
250.0   120.0   0.0
300.0   120.0   16.666666666666668
250.0   90.0   16.666666666666668
250.0   120.0   16.666666666666668
300.0   120.0   16.666666666666668
250.0   120.0   0.0
250.0   90.0   16.666666666666668
300.0   120.0   16.666666666666668
300.0   90.0   16.666666666666668
300.0   90.0   0.0
250.0   90.0   16.666666666666668
300.0   120.0   16.666666666666668
300.0   90.0   0.0
250.0   120.0   0.0
250.0   90.0   16.666666666666668
300.0   90.0   16.666666666666668
250.0   120.0   16.666666666666668
250.0   90.0   33.333333333333336
300.0   90.0   16.666666666666668
300.0   120.0   16.666666666666668
250.0   120.0   16.666666666666668
300.0   120.0   33.333333333333336
250.0   90.0   33.333333333333336
250.0   120.0   33.333333333333336
300.0   120.0   33.333333333333336
250.0   120.0   16.666666666666668
250.0   90.0   33.333333333333336
300.0   120.0   33.333333333333336
300.0   90.0   33.333333333333336
300.0   90.0   16.666666666666668
250.0   90.0   33.333333333333336
300.0   120.0   33.333333333333336
300.0   90.0   16.666666666666668
250.0   120.0   16.666666666666668
250.0   90.0   33.333333333333336
300.0   90.0   33.333333333333336
250.0   120.0   33.333333333333336
250.0   90.0   50.0
300.0   90.0   33.333333333333336
300.0   120.0   33.333333333333336
250.0   120.0   33.333333333333336
300.0   120.0   50.0
250.0   90.0   50.0
250.0   120.0   50.0
300.0   120.0   50.0
250.0   120.0   33.333333333333336
250.0   90.0   50.0
300.0   120.0   50.0
300.0   90.0   50.0
300.0   90.0   33.333333333333336
250.0   90.0   50.0
300.0   120.0   50.0
300.0   90.0   33.333333333333336
250.0   120.0   33.333333333333336
250.0   120.0   0.0
300.0   120.0   0.0
250.0   150.0   0.0
250.0   120.0   16.666666666666668
300.0   120.0   0.0
300.0   150.0   0.0
250.0   150.0   0.0
300.0   150.0   16.666666666666668
250.0   120.0   16.666666666666668
250.0   150.0   16.666666666666668
300.0   150.0   16.666666666666668
250.0   150.0   0.0
250.0   120.0   16.666666666666668
300.0   150.0   16.666666666666668
300.0   120.0   16.666666666666668
300.0   120.0   0.0
250.0   120.0   16.666666666666668
300.0   150.0   16.666666666666668
300.0   120.0   0.0
250.0   150.0   0.0
250.0   120.0   16.666666666666668
300.0   120.0   16.666666666666668
250.0   150.0   16.666666666666668
250.0   120.0   33.333333333333336
300.0   120.0   16.666666666666668
300.0   150.0   16.666666666666668
250.0   150.0   16.666666666666668
300.0   150.0   33.333333333333336
250.0   120.0   33.333333333333336
250.0   150.0   33.333333333333336
300.0   150.0   33.333333333333336
250.0   150.0   16.666666666666668
250.0   120.0   33.333333333333336
300.0   150.0   33.333333333333336
300.0   120.0   33.333333333333336
300.0   120.0   16.666666666666668
250.0   120.0   33.333333333333336
300.0   150.0   33.333333333333336
300.0   120.0   16.666666666666668
250.0   150.0   16.666666666666668
250.0   120.0   33.333333333333336
300.0   120.0   33.333333333333336
250.0   150.0   33.333333333333336
250.0   120.0   50.0
300.0   120.0   33.333333333333336
300.0   150.0   33.333333333333336
250.0   150.0   33.333333333333336
300.0   150.0   50.0
250.0   120.0   50.0
250.0   150.0   50.0
300.0   150.0   50.0
250.0   150.0   33.333333333333336
250.0   120.0   50.0
300.0   150.0   50.0
300.0   120.0   50.0
300.0   120.0   33.333333333333336
250.0   120.0   50.0
300.0   150.0   50.0
300.0   120.0   33.333333333333336
250.0   150.0   33.333333333333336
300.0   0.0   0.0
350.0   0.0   0.0
300.0   30.0   0.0
300.0   0.0   16.666666666666668
350.0   0.0   0.0
350.0   30.0   0.0
300.0   30.0   0.0
350.0   30.0   16.666666666666668
300.0   0.0   16.666666666666668
300.0   30.0   16.666666666666668
350.0   30.0   16.666666666666668
300.0   30.0   0.0
300.0   0.0   16.666666666666668
350.0   30.0   16.666666666666668
350.0   0.0   16.666666666666668
350.0   0.0   0.0
300.0   0.0   16.666666666666668
350.0   30.0   16.666666666666668
350.0   0.0   0.0
300.0   30.0   0.0
300.0   0.0   16.666666666666668
350.0   0.0   16.666666666666668
300.0   30.0   16.666666666666668
300.0   0.0   33.333333333333336
350.0   0.0   16.666666666666668
350.0   30.0   16.666666666666668
300.0   30.0   16.666666666666668
350.0   30.0   33.333333333333336
300.0   0.0   33.333333333333336
300.0   30.0   33.333333333333336
350.0   30.0   33.333333333333336
300.0   30.0   16.666666666666668
300.0   0.0   33.333333333333336
350.0   30.0   33.333333333333336
350.0   0.0   33.333333333333336
350.0   0.0   16.666666666666668
300.0   0.0   33.333333333333336
350.0   30.0   33.333333333333336
350.0   0.0   16.666666666666668
300.0   30.0   16.666666666666668
300.0   0.0   33.333333333333336
350.0   0.0   33.333333333333336
300.0   30.0   33.333333333333336
300.0   0.0   50.0
350.0   0.0   33.333333333333336
350.0   30.0   33.333333333333336
300.0   30.0   33.333333333333336
350.0   30.0   50.0
300.0   0.0   50.0
300.0   30.0   50.0
350.0   30.0   50.0
300.0   30.0   33.333333333333336
300.0   0.0   50.0
350.0   30.0   50.0
350.0   0.0   50.0
350.0   0.0   33.333333333333336
300.0   0.0   50.0
350.0   30.0   50.0
350.0   0.0   33.333333333333336
300.0   30.0   33.333333333333336
300.0   30.0   0.0
350.0   30.0   0.0
300.0   60.0   0.0
300.0   30.0   16.666666666666668
350.0   30.0   0.0
350.0   60.0   0.0
300.0   60.0   0.0
350.0   60.0   16.666666666666668
300.0   30.0   16.666666666666668
300.0   60.0   16.666666666666668
350.0   60.0   16.666666666666668
300.0   60.0   0.0
300.0   30.0   16.666666666666668
350.0   60.0   16.666666666666668
350.0   30.0   16.666666666666668
350.0   30.0   0.0
300.0   30.0   16.666666666666668
350.0   60.0   16.666666666666668
350.0   30.0   0.0
300.0   60.0   0.0
300.0   30.0   16.666666666666668
350.0   30.0   16.666666666666668
300.0   60.0   16.666666666666668
300.0   30.0   33.333333333333336
350.0   30.0   16.666666666666668
350.0   60.0   16.666666666666668
300.0   60.0   16.666666666666668
350.0   60.0   33.333333333333336
300.0   30.0   33.333333333333336
300.0   60.0   33.333333333333336
350.0   60.0   33.333333333333336
300.0   60.0   16.666666666666668
300.0   30.0   33.333333333333336
350.0   60.0   33.333333333333336
350.0   30.0   33.333333333333336
350.0   30.0   16.666666666666668
300.0   30.0   33.333333333333336
350.0   60.0   33.333333333333336
350.0   30.0   16.666666666666668
300.0   60.0   16.666666666666668
300.0   30.0   33.333333333333336
350.0   30.0   33.333333333333336
300.0   60.0   33.333333333333336
300.0   30.0   50.0
350.0   30.0   33.333333333333336
350.0   60.0   33.333333333333336
300.0   60.0   33.333333333333336
350.0   60.0   50.0
300.0   30.0   50.0
300.0   60.0   50.0
350.0   60.0   50.0
300.0   60.0   33.333333333333336
300.0   30.0   50.0
350.0   60.0   50.0
350.0   30.0   50.0
350.0   30.0   33.333333333333336
300.0   30.0   50.0
350.0   60.0   50.0
350.0   30.0   33.333333333333336
300.0   60.0   33.333333333333336
300.0   60.0   0.0
350.0   60.0   0.0
300.0   90.0   0.0
300.0   60.0   16.666666666666668
350.0   60.0   0.0
350.0   90.0   0.0
300.0   90.0   0.0
350.0   90.0   16.666666666666668
300.0   60.0   16.666666666666668
300.0   90.0   16.666666666666668
350.0   90.0   16.666666666666668
300.0   90.0   0.0
300.0   60.0   16.666666666666668
350.0   90.0   16.666666666666668
350.0   60.0   16.666666666666668
350.0   60.0   0.0
300.0   60.0   16.666666666666668
350.0   90.0   16.666666666666668
350.0   60.0   0.0
300.0   90.0   0.0
300.0   60.0   16.666666666666668
350.0   60.0   16.666666666666668
300.0   90.0   16.666666666666668
300.0   60.0   33.333333333333336
350.0   60.0   16.666666666666668
350.0   90.0   16.666666666666668
300.0   90.0   16.666666666666668
350.0   90.0   33.333333333333336
300.0   60.0   33.333333333333336
300.0   90.0   33.333333333333336
350.0   90.0   33.333333333333336
300.0   90.0   16.666666666666668
300.0   60.0   33.333333333333336
350.0   90.0   33.333333333333336
350.0   60.0   33.333333333333336
350.0   60.0   16.666666666666668
300.0   60.0   33.333333333333336
350.0   90.0   33.333333333333336
350.0   60.0   16.666666666666668
300.0   90.0   16.666666666666668
300.0   60.0   33.333333333333336
350.0   60.0   33.333333333333336
300.0   90.0   33.333333333333336
300.0   60.0   50.0
350.0   60.0   33.333333333333336
350.0   90.0   33.333333333333336
300.0   90.0   33.333333333333336
350.0   90.0   50.0
300.0   60.0   50.0
300.0   90.0   50.0
350.0   90.0   50.0
300.0   90.0   33.333333333333336
300.0   60.0   50.0
350.0   90.0   50.0
350.0   60.0   50.0
350.0   60.0   33.333333333333336
300.0   60.0   50.0
350.0   90.0   50.0
350.0   60.0   33.333333333333336
300.0   90.0   33.333333333333336
300.0   90.0   0.0
350.0   90.0   0.0
300.0   120.0   0.0
300.0   90.0   16.666666666666668
350.0   90.0   0.0
350.0   120.0   0.0
300.0   120.0   0.0
350.0   120.0   16.666666666666668
300.0   90.0   16.666666666666668
300.0   120.0   16.666666666666668
350.0   120.0   16.666666666666668
300.0   120.0   0.0
300.0   90.0   16.666666666666668
350.0   120.0   16.666666666666668
350.0   90.0   16.666666666666668
350.0   90.0   0.0
300.0   90.0   16.666666666666668
350.0   120.0   16.666666666666668
350.0   90.0   0.0
300.0   120.0   0.0
300.0   90.0   16.666666666666668
350.0   90.0   16.666666666666668
300.0   120.0   16.666666666666668
300.0   90.0   33.333333333333336
350.0   90.0   16.666666666666668
350.0   120.0   16.666666666666668
300.0   120.0   16.666666666666668
350.0   120.0   33.333333333333336
300.0   90.0   33.333333333333336
300.0   120.0   33.333333333333336
350.0   120.0   33.333333333333336
300.0   120.0   16.666666666666668
300.0   90.0   33.333333333333336
350.0   120.0   33.333333333333336
350.0   90.0   33.333333333333336
350.0   90.0   16.666666666666668
300.0   90.0   33.333333333333336
350.0   120.0   33.333333333333336
350.0   90.0   16.666666666666668
300.0   120.0   16.666666666666668
300.0   90.0   33.333333333333336
350.0   90.0   33.333333333333336
300.0   120.0   33.333333333333336
300.0   90.0   50.0
350.0   90.0   33.333333333333336
350.0   120.0   33.333333333333336
300.0   120.0   33.333333333333336
350.0   120.0   50.0
300.0   90.0   50.0
300.0   120.0   50.0
350.0   120.0   50.0
300.0   120.0   33.333333333333336
300.0   90.0   50.0
350.0   120.0   50.0
350.0   90.0   50.0
350.0   90.0   33.333333333333336
300.0   90.0   50.0
350.0   120.0   50.0
350.0   90.0   33.333333333333336
300.0   120.0   33.333333333333336
300.0   120.0   0.0
350.0   120.0   0.0
300.0   150.0   0.0
300.0   120.0   16.666666666666668
350.0   120.0   0.0
350.0   150.0   0.0
300.0   150.0   0.0
350.0   150.0   16.666666666666668
300.0   120.0   16.666666666666668
300.0   150.0   16.666666666666668
350.0   150.0   16.666666666666668
300.0   150.0   0.0
300.0   120.0   16.666666666666668
350.0   150.0   16.666666666666668
350.0   120.0   16.666666666666668
350.0   120.0   0.0
300.0   120.0   16.666666666666668
350.0   150.0   16.666666666666668
350.0   120.0   0.0
300.0   150.0   0.0
300.0   120.0   16.666666666666668
350.0   120.0   16.666666666666668
300.0   150.0   16.666666666666668
300.0   120.0   33.333333333333336
350.0   120.0   16.666666666666668
350.0   150.0   16.666666666666668
300.0   150.0   16.666666666666668
350.0   150.0   33.333333333333336
300.0   120.0   33.333333333333336
300.0   150.0   33.333333333333336
350.0   150.0   33.333333333333336
300.0   150.0   16.666666666666668
300.0   120.0   33.333333333333336
350.0   150.0   33.333333333333336
350.0   120.0   33.333333333333336
350.0   120.0   16.666666666666668
300.0   120.0   33.333333333333336
350.0   150.0   33.333333333333336
350.0   120.0   16.666666666666668
300.0   150.0   16.666666666666668
300.0   120.0   33.333333333333336
350.0   120.0   33.333333333333336
300.0   150.0   33.333333333333336
300.0   120.0   50.0
350.0   120.0   33.333333333333336
350.0   150.0   33.333333333333336
300.0   150.0   33.333333333333336
350.0   150.0   50.0
300.0   120.0   50.0
300.0   150.0   50.0
350.0   150.0   50.0
300.0   150.0   33.333333333333336
300.0   120.0   50.0
350.0   150.0   50.0
350.0   120.0   50.0
350.0   120.0   33.333333333333336
300.0   120.0   50.0
350.0   150.0   50.0
350.0   120.0   33.333333333333336
300.0   150.0   33.333333333333336
350.0   0.0   0.0
400.0   0.0   0.0
350.0   30.0   0.0
350.0   0.0   16.666666666666668
400.0   0.0   0.0
400.0   30.0   0.0
350.0   30.0   0.0
400.0   30.0   16.666666666666668
350.0   0.0   16.666666666666668
350.0   30.0   16.666666666666668
400.0   30.0   16.666666666666668
350.0   30.0   0.0
350.0   0.0   16.666666666666668
400.0   30.0   16.666666666666668
400.0   0.0   16.666666666666668
400.0   0.0   0.0
350.0   0.0   16.666666666666668
400.0   30.0   16.666666666666668
400.0   0.0   0.0
350.0   30.0   0.0
350.0   0.0   16.666666666666668
400.0   0.0   16.666666666666668
350.0   30.0   16.666666666666668
350.0   0.0   33.333333333333336
400.0   0.0   16.666666666666668
400.0   30.0   16.666666666666668
350.0   30.0   16.666666666666668
400.0   30.0   33.333333333333336
350.0   0.0   33.333333333333336
350.0   30.0   33.333333333333336
400.0   30.0   33.333333333333336
350.0   30.0   16.666666666666668
350.0   0.0   33.333333333333336
400.0   30.0   33.333333333333336
400.0   0.0   33.333333333333336
400.0   0.0   16.666666666666668
350.0   0.0   33.333333333333336
400.0   30.0   33.333333333333336
400.0   0.0   16.666666666666668
350.0   30.0   16.666666666666668
350.0   0.0   33.333333333333336
400.0   0.0   33.333333333333336
350.0   30.0   33.333333333333336
350.0   0.0   50.0
400.0   0.0   33.333333333333336
400.0   30.0   33.333333333333336
350.0   30.0   33.333333333333336
400.0   30.0   50.0
350.0   0.0   50.0
350.0   30.0   50.0
400.0   30.0   50.0
350.0   30.0   33.333333333333336
350.0   0.0   50.0
400.0   30.0   50.0
400.0   0.0   50.0
400.0   0.0   33.333333333333336
350.0   0.0   50.0
400.0   30.0   50.0
400.0   0.0   33.333333333333336
350.0   30.0   33.333333333333336
350.0   30.0   0.0
400.0   30.0   0.0
350.0   60.0   0.0
350.0   30.0   16.666666666666668
400.0   30.0   0.0
400.0   60.0   0.0
350.0   60.0   0.0
400.0   60.0   16.666666666666668
350.0   30.0   16.666666666666668
350.0   60.0   16.666666666666668
400.0   60.0   16.666666666666668
350.0   60.0   0.0
350.0   30.0   16.666666666666668
400.0   60.0   16.666666666666668
400.0   30.0   16.666666666666668
400.0   30.0   0.0
350.0   30.0   16.666666666666668
400.0   60.0   16.666666666666668
400.0   30.0   0.0
350.0   60.0   0.0
350.0   30.0   16.666666666666668
400.0   30.0   16.666666666666668
350.0   60.0   16.666666666666668
350.0   30.0   33.333333333333336
400.0   30.0   16.666666666666668
400.0   60.0   16.666666666666668
350.0   60.0   16.666666666666668
400.0   60.0   33.333333333333336
350.0   30.0   33.333333333333336
350.0   60.0   33.333333333333336
400.0   60.0   33.333333333333336
350.0   60.0   16.666666666666668
350.0   30.0   33.333333333333336
400.0   60.0   33.333333333333336
400.0   30.0   33.333333333333336
400.0   30.0   16.666666666666668
350.0   30.0   33.333333333333336
400.0   60.0   33.333333333333336
400.0   30.0   16.666666666666668
350.0   60.0   16.666666666666668
350.0   30.0   33.333333333333336
400.0   30.0   33.333333333333336
350.0   60.0   33.333333333333336
350.0   30.0   50.0
400.0   30.0   33.333333333333336
400.0   60.0   33.333333333333336
350.0   60.0   33.333333333333336
400.0   60.0   50.0
350.0   30.0   50.0
350.0   60.0   50.0
400.0   60.0   50.0
350.0   60.0   33.333333333333336
350.0   30.0   50.0
400.0   60.0   50.0
400.0   30.0   50.0
400.0   30.0   33.333333333333336
350.0   30.0   50.0
400.0   60.0   50.0
400.0   30.0   33.333333333333336
350.0   60.0   33.333333333333336
350.0   60.0   0.0
400.0   60.0   0.0
350.0   90.0   0.0
350.0   60.0   16.666666666666668
400.0   60.0   0.0
400.0   90.0   0.0
350.0   90.0   0.0
400.0   90.0   16.666666666666668
350.0   60.0   16.666666666666668
350.0   90.0   16.666666666666668
400.0   90.0   16.666666666666668
350.0   90.0   0.0
350.0   60.0   16.666666666666668
400.0   90.0   16.666666666666668
400.0   60.0   16.666666666666668
400.0   60.0   0.0
350.0   60.0   16.666666666666668
400.0   90.0   16.666666666666668
400.0   60.0   0.0
350.0   90.0   0.0
350.0   60.0   16.666666666666668
400.0   60.0   16.666666666666668
350.0   90.0   16.666666666666668
350.0   60.0   33.333333333333336
400.0   60.0   16.666666666666668
400.0   90.0   16.666666666666668
350.0   90.0   16.666666666666668
400.0   90.0   33.333333333333336
350.0   60.0   33.333333333333336
350.0   90.0   33.333333333333336
400.0   90.0   33.333333333333336
350.0   90.0   16.666666666666668
350.0   60.0   33.333333333333336
400.0   90.0   33.333333333333336
400.0   60.0   33.333333333333336
400.0   60.0   16.666666666666668
350.0   60.0   33.333333333333336
400.0   90.0   33.333333333333336
400.0   60.0   16.666666666666668
350.0   90.0   16.666666666666668
350.0   60.0   33.333333333333336
400.0   60.0   33.333333333333336
350.0   90.0   33.333333333333336
350.0   60.0   50.0
400.0   60.0   33.333333333333336
400.0   90.0   33.333333333333336
350.0   90.0   33.333333333333336
400.0   90.0   50.0
350.0   60.0   50.0
350.0   90.0   50.0
400.0   90.0   50.0
350.0   90.0   33.333333333333336
350.0   60.0   50.0
400.0   90.0   50.0
400.0   60.0   50.0
400.0   60.0   33.333333333333336
350.0   60.0   50.0
400.0   90.0   50.0
400.0   60.0   33.333333333333336
350.0   90.0   33.333333333333336
350.0   90.0   0.0
400.0   90.0   0.0
350.0   120.0   0.0
350.0   90.0   16.666666666666668
400.0   90.0   0.0
400.0   120.0   0.0
350.0   120.0   0.0
400.0   120.0   16.666666666666668
350.0   90.0   16.666666666666668
350.0   120.0   16.666666666666668
400.0   120.0   16.666666666666668
350.0   120.0   0.0
350.0   90.0   16.666666666666668
400.0   120.0   16.666666666666668
400.0   90.0   16.666666666666668
400.0   90.0   0.0
350.0   90.0   16.666666666666668
400.0   120.0   16.666666666666668
400.0   90.0   0.0
350.0   120.0   0.0
350.0   90.0   16.666666666666668
400.0   90.0   16.666666666666668
350.0   120.0   16.666666666666668
350.0   90.0   33.333333333333336
400.0   90.0   16.666666666666668
400.0   120.0   16.666666666666668
350.0   120.0   16.666666666666668
400.0   120.0   33.333333333333336
350.0   90.0   33.333333333333336
350.0   120.0   33.333333333333336
400.0   120.0   33.333333333333336
350.0   120.0   16.666666666666668
350.0   90.0   33.333333333333336
400.0   120.0   33.333333333333336
400.0   90.0   33.333333333333336
400.0   90.0   16.666666666666668
350.0   90.0   33.333333333333336
400.0   120.0   33.333333333333336
400.0   90.0   16.666666666666668
350.0   120.0   16.666666666666668
350.0   90.0   33.333333333333336
400.0   90.0   33.333333333333336
350.0   120.0   33.333333333333336
350.0   90.0   50.0
400.0   90.0   33.333333333333336
400.0   120.0   33.333333333333336
350.0   120.0   33.333333333333336
400.0   120.0   50.0
350.0   90.0   50.0
350.0   120.0   50.0
400.0   120.0   50.0
350.0   120.0   33.333333333333336
350.0   90.0   50.0
400.0   120.0   50.0
400.0   90.0   50.0
400.0   90.0   33.333333333333336
350.0   90.0   50.0
400.0   120.0   50.0
400.0   90.0   33.333333333333336
350.0   120.0   33.333333333333336
350.0   120.0   0.0
400.0   120.0   0.0
350.0   150.0   0.0
350.0   120.0   16.666666666666668
400.0   120.0   0.0
400.0   150.0   0.0
350.0   150.0   0.0
400.0   150.0   16.666666666666668
350.0   120.0   16.666666666666668
350.0   150.0   16.666666666666668
400.0   150.0   16.666666666666668
350.0   150.0   0.0
350.0   120.0   16.666666666666668
400.0   150.0   16.666666666666668
400.0   120.0   16.666666666666668
400.0   120.0   0.0
350.0   120.0   16.666666666666668
400.0   150.0   16.666666666666668
400.0   120.0   0.0
350.0   150.0   0.0
350.0   120.0   16.666666666666668
400.0   120.0   16.666666666666668
350.0   150.0   16.666666666666668
350.0   120.0   33.333333333333336
400.0   120.0   16.666666666666668
400.0   150.0   16.666666666666668
350.0   150.0   16.666666666666668
400.0   150.0   33.333333333333336
350.0   120.0   33.333333333333336
350.0   150.0   33.333333333333336
400.0   150.0   33.333333333333336
350.0   150.0   16.666666666666668
350.0   120.0   33.333333333333336
400.0   150.0   33.333333333333336
400.0   120.0   33.333333333333336
400.0   120.0   16.666666666666668
350.0   120.0   33.333333333333336
400.0   150.0   33.333333333333336
400.0   120.0   16.666666666666668
350.0   150.0   16.666666666666668
350.0   120.0   33.333333333333336
400.0   120.0   33.333333333333336
350.0   150.0   33.333333333333336
350.0   120.0   50.0
400.0   120.0   33.333333333333336
400.0   150.0   33.333333333333336
350.0   150.0   33.333333333333336
400.0   150.0   50.0
350.0   120.0   50.0
350.0   150.0   50.0
400.0   150.0   50.0
350.0   150.0   33.333333333333336
350.0   120.0   50.0
400.0   150.0   50.0
400.0   120.0   50.0
400.0   120.0   33.333333333333336
350.0   120.0   50.0
400.0   150.0   50.0
400.0   120.0   33.333333333333336
350.0   150.0   33.333333333333336
400.0   0.0   0.0
450.0   0.0   0.0
400.0   30.0   0.0
400.0   0.0   16.666666666666668
450.0   0.0   0.0
450.0   30.0   0.0
400.0   30.0   0.0
450.0   30.0   16.666666666666668
400.0   0.0   16.666666666666668
400.0   30.0   16.666666666666668
450.0   30.0   16.666666666666668
400.0   30.0   0.0
400.0   0.0   16.666666666666668
450.0   30.0   16.666666666666668
450.0   0.0   16.666666666666668
450.0   0.0   0.0
400.0   0.0   16.666666666666668
450.0   30.0   16.666666666666668
450.0   0.0   0.0
400.0   30.0   0.0
400.0   0.0   16.666666666666668
450.0   0.0   16.666666666666668
400.0   30.0   16.666666666666668
400.0   0.0   33.333333333333336
450.0   0.0   16.666666666666668
450.0   30.0   16.666666666666668
400.0   30.0   16.666666666666668
450.0   30.0   33.333333333333336
400.0   0.0   33.333333333333336
400.0   30.0   33.333333333333336
450.0   30.0   33.333333333333336
400.0   30.0   16.666666666666668
400.0   0.0   33.333333333333336
450.0   30.0   33.333333333333336
450.0   0.0   33.333333333333336
450.0   0.0   16.666666666666668
400.0   0.0   33.333333333333336
450.0   30.0   33.333333333333336
450.0   0.0   16.666666666666668
400.0   30.0   16.666666666666668
400.0   0.0   33.333333333333336
450.0   0.0   33.333333333333336
400.0   30.0   33.333333333333336
400.0   0.0   50.0
450.0   0.0   33.333333333333336
450.0   30.0   33.333333333333336
400.0   30.0   33.333333333333336
450.0   30.0   50.0
400.0   0.0   50.0
400.0   30.0   50.0
450.0   30.0   50.0
400.0   30.0   33.333333333333336
400.0   0.0   50.0
450.0   30.0   50.0
450.0   0.0   50.0
450.0   0.0   33.333333333333336
400.0   0.0   50.0
450.0   30.0   50.0
450.0   0.0   33.333333333333336
400.0   30.0   33.333333333333336
400.0   30.0   0.0
450.0   30.0   0.0
400.0   60.0   0.0
400.0   30.0   16.666666666666668
450.0   30.0   0.0
450.0   60.0   0.0
400.0   60.0   0.0
450.0   60.0   16.666666666666668
400.0   30.0   16.666666666666668
400.0   60.0   16.666666666666668
450.0   60.0   16.666666666666668
400.0   60.0   0.0
400.0   30.0   16.666666666666668
450.0   60.0   16.666666666666668
450.0   30.0   16.666666666666668
450.0   30.0   0.0
400.0   30.0   16.666666666666668
450.0   60.0   16.666666666666668
450.0   30.0   0.0
400.0   60.0   0.0
400.0   30.0   16.666666666666668
450.0   30.0   16.666666666666668
400.0   60.0   16.666666666666668
400.0   30.0   33.333333333333336
450.0   30.0   16.666666666666668
450.0   60.0   16.666666666666668
400.0   60.0   16.666666666666668
450.0   60.0   33.333333333333336
400.0   30.0   33.333333333333336
400.0   60.0   33.333333333333336
450.0   60.0   33.333333333333336
400.0   60.0   16.666666666666668
400.0   30.0   33.333333333333336
450.0   60.0   33.333333333333336
450.0   30.0   33.333333333333336
450.0   30.0   16.666666666666668
400.0   30.0   33.333333333333336
450.0   60.0   33.333333333333336
450.0   30.0   16.666666666666668
400.0   60.0   16.666666666666668
400.0   30.0   33.333333333333336
450.0   30.0   33.333333333333336
400.0   60.0   33.333333333333336
400.0   30.0   50.0
450.0   30.0   33.333333333333336
450.0   60.0   33.333333333333336
400.0   60.0   33.333333333333336
450.0   60.0   50.0
400.0   30.0   50.0
400.0   60.0   50.0
450.0   60.0   50.0
400.0   60.0   33.333333333333336
400.0   30.0   50.0
450.0   60.0   50.0
450.0   30.0   50.0
450.0   30.0   33.333333333333336
400.0   30.0   50.0
450.0   60.0   50.0
450.0   30.0   33.333333333333336
400.0   60.0   33.333333333333336
400.0   60.0   0.0
450.0   60.0   0.0
400.0   90.0   0.0
400.0   60.0   16.666666666666668
450.0   60.0   0.0
450.0   90.0   0.0
400.0   90.0   0.0
450.0   90.0   16.666666666666668
400.0   60.0   16.666666666666668
400.0   90.0   16.666666666666668
450.0   90.0   16.666666666666668
400.0   90.0   0.0
400.0   60.0   16.666666666666668
450.0   90.0   16.666666666666668
450.0   60.0   16.666666666666668
450.0   60.0   0.0
400.0   60.0   16.666666666666668
450.0   90.0   16.666666666666668
450.0   60.0   0.0
400.0   90.0   0.0
400.0   60.0   16.666666666666668
450.0   60.0   16.666666666666668
400.0   90.0   16.666666666666668
400.0   60.0   33.333333333333336
450.0   60.0   16.666666666666668
450.0   90.0   16.666666666666668
400.0   90.0   16.666666666666668
450.0   90.0   33.333333333333336
400.0   60.0   33.333333333333336
400.0   90.0   33.333333333333336
450.0   90.0   33.333333333333336
400.0   90.0   16.666666666666668
400.0   60.0   33.333333333333336
450.0   90.0   33.333333333333336
450.0   60.0   33.333333333333336
450.0   60.0   16.666666666666668
400.0   60.0   33.333333333333336
450.0   90.0   33.333333333333336
450.0   60.0   16.666666666666668
400.0   90.0   16.666666666666668
400.0   60.0   33.333333333333336
450.0   60.0   33.333333333333336
400.0   90.0   33.333333333333336
400.0   60.0   50.0
450.0   60.0   33.333333333333336
450.0   90.0   33.333333333333336
400.0   90.0   33.333333333333336
450.0   90.0   50.0
400.0   60.0   50.0
400.0   90.0   50.0
450.0   90.0   50.0
400.0   90.0   33.333333333333336
400.0   60.0   50.0
450.0   90.0   50.0
450.0   60.0   50.0
450.0   60.0   33.333333333333336
400.0   60.0   50.0
450.0   90.0   50.0
450.0   60.0   33.333333333333336
400.0   90.0   33.333333333333336
400.0   90.0   0.0
450.0   90.0   0.0
400.0   120.0   0.0
400.0   90.0   16.666666666666668
450.0   90.0   0.0
450.0   120.0   0.0
400.0   120.0   0.0
450.0   120.0   16.666666666666668
400.0   90.0   16.666666666666668
400.0   120.0   16.666666666666668
450.0   120.0   16.666666666666668
400.0   120.0   0.0
400.0   90.0   16.666666666666668
450.0   120.0   16.666666666666668
450.0   90.0   16.666666666666668
450.0   90.0   0.0
400.0   90.0   16.666666666666668
450.0   120.0   16.666666666666668
450.0   90.0   0.0
400.0   120.0   0.0
400.0   90.0   16.666666666666668
450.0   90.0   16.666666666666668
400.0   120.0   16.666666666666668
400.0   90.0   33.333333333333336
450.0   90.0   16.666666666666668
450.0   120.0   16.666666666666668
400.0   120.0   16.666666666666668
450.0   120.0   33.333333333333336
400.0   90.0   33.333333333333336
400.0   120.0   33.333333333333336
450.0   120.0   33.333333333333336
400.0   120.0   16.666666666666668
400.0   90.0   33.333333333333336
450.0   120.0   33.333333333333336
450.0   90.0   33.333333333333336
450.0   90.0   16.666666666666668
400.0   90.0   33.333333333333336
450.0   120.0   33.333333333333336
450.0   90.0   16.666666666666668
400.0   120.0   16.666666666666668
400.0   90.0   33.333333333333336
450.0   90.0   33.333333333333336
400.0   120.0   33.333333333333336
400.0   90.0   50.0
450.0   90.0   33.333333333333336
450.0   120.0   33.333333333333336
400.0   120.0   33.333333333333336
450.0   120.0   50.0
400.0   90.0   50.0
400.0   120.0   50.0
450.0   120.0   50.0
400.0   120.0   33.333333333333336
400.0   90.0   50.0
450.0   120.0   50.0
450.0   90.0   50.0
450.0   90.0   33.333333333333336
400.0   90.0   50.0
450.0   120.0   50.0
450.0   90.0   33.333333333333336
400.0   120.0   33.333333333333336
400.0   120.0   0.0
450.0   120.0   0.0
400.0   150.0   0.0
400.0   120.0   16.666666666666668
450.0   120.0   0.0
450.0   150.0   0.0
400.0   150.0   0.0
450.0   150.0   16.666666666666668
400.0   120.0   16.666666666666668
400.0   150.0   16.666666666666668
450.0   150.0   16.666666666666668
400.0   150.0   0.0
400.0   120.0   16.666666666666668
450.0   150.0   16.666666666666668
450.0   120.0   16.666666666666668
450.0   120.0   0.0
400.0   120.0   16.666666666666668
450.0   150.0   16.666666666666668
450.0   120.0   0.0
400.0   150.0   0.0
400.0   120.0   16.666666666666668
450.0   120.0   16.666666666666668
400.0   150.0   16.666666666666668
400.0   120.0   33.333333333333336
450.0   120.0   16.666666666666668
450.0   150.0   16.666666666666668
400.0   150.0   16.666666666666668
450.0   150.0   33.333333333333336
400.0   120.0   33.333333333333336
400.0   150.0   33.333333333333336
450.0   150.0   33.333333333333336
400.0   150.0   16.666666666666668
400.0   120.0   33.333333333333336
450.0   150.0   33.333333333333336
450.0   120.0   33.333333333333336
450.0   120.0   16.666666666666668
400.0   120.0   33.333333333333336
450.0   150.0   33.333333333333336
450.0   120.0   16.666666666666668
400.0   150.0   16.666666666666668
400.0   120.0   33.333333333333336
450.0   120.0   33.333333333333336
400.0   150.0   33.333333333333336
400.0   120.0   50.0
450.0   120.0   33.333333333333336
450.0   150.0   33.333333333333336
400.0   150.0   33.333333333333336
450.0   150.0   50.0
400.0   120.0   50.0
400.0   150.0   50.0
450.0   150.0   50.0
400.0   150.0   33.333333333333336
400.0   120.0   50.0
450.0   150.0   50.0
450.0   120.0   50.0
450.0   120.0   33.333333333333336
400.0   120.0   50.0
450.0   150.0   50.0
450.0   120.0   33.333333333333336
400.0   150.0   33.333333333333336
450.0   0.0   0.0
500.0   0.0   0.0
450.0   30.0   0.0
450.0   0.0   16.666666666666668
500.0   0.0   0.0
500.0   30.0   0.0
450.0   30.0   0.0
500.0   30.0   16.666666666666668
450.0   0.0   16.666666666666668
450.0   30.0   16.666666666666668
500.0   30.0   16.666666666666668
450.0   30.0   0.0
450.0   0.0   16.666666666666668
500.0   30.0   16.666666666666668
500.0   0.0   16.666666666666668
500.0   0.0   0.0
450.0   0.0   16.666666666666668
500.0   30.0   16.666666666666668
500.0   0.0   0.0
450.0   30.0   0.0
450.0   0.0   16.666666666666668
500.0   0.0   16.666666666666668
450.0   30.0   16.666666666666668
450.0   0.0   33.333333333333336
500.0   0.0   16.666666666666668
500.0   30.0   16.666666666666668
450.0   30.0   16.666666666666668
500.0   30.0   33.333333333333336
450.0   0.0   33.333333333333336
450.0   30.0   33.333333333333336
500.0   30.0   33.333333333333336
450.0   30.0   16.666666666666668
450.0   0.0   33.333333333333336
500.0   30.0   33.333333333333336
500.0   0.0   33.333333333333336
500.0   0.0   16.666666666666668
450.0   0.0   33.333333333333336
500.0   30.0   33.333333333333336
500.0   0.0   16.666666666666668
450.0   30.0   16.666666666666668
450.0   0.0   33.333333333333336
500.0   0.0   33.333333333333336
450.0   30.0   33.333333333333336
450.0   0.0   50.0
500.0   0.0   33.333333333333336
500.0   30.0   33.333333333333336
450.0   30.0   33.333333333333336
500.0   30.0   50.0
450.0   0.0   50.0
450.0   30.0   50.0
500.0   30.0   50.0
450.0   30.0   33.333333333333336
450.0   0.0   50.0
500.0   30.0   50.0
500.0   0.0   50.0
500.0   0.0   33.333333333333336
450.0   0.0   50.0
500.0   30.0   50.0
500.0   0.0   33.333333333333336
450.0   30.0   33.333333333333336
450.0   30.0   0.0
500.0   30.0   0.0
450.0   60.0   0.0
450.0   30.0   16.666666666666668
500.0   30.0   0.0
500.0   60.0   0.0
450.0   60.0   0.0
500.0   60.0   16.666666666666668
450.0   30.0   16.666666666666668
450.0   60.0   16.666666666666668
500.0   60.0   16.666666666666668
450.0   60.0   0.0
450.0   30.0   16.666666666666668
500.0   60.0   16.666666666666668
500.0   30.0   16.666666666666668
500.0   30.0   0.0
450.0   30.0   16.666666666666668
500.0   60.0   16.666666666666668
500.0   30.0   0.0
450.0   60.0   0.0
450.0   30.0   16.666666666666668
500.0   30.0   16.666666666666668
450.0   60.0   16.666666666666668
450.0   30.0   33.333333333333336
500.0   30.0   16.666666666666668
500.0   60.0   16.666666666666668
450.0   60.0   16.666666666666668
500.0   60.0   33.333333333333336
450.0   30.0   33.333333333333336
450.0   60.0   33.333333333333336
500.0   60.0   33.333333333333336
450.0   60.0   16.666666666666668
450.0   30.0   33.333333333333336
500.0   60.0   33.333333333333336
500.0   30.0   33.333333333333336
500.0   30.0   16.666666666666668
450.0   30.0   33.333333333333336
500.0   60.0   33.333333333333336
500.0   30.0   16.666666666666668
450.0   60.0   16.666666666666668
450.0   30.0   33.333333333333336
500.0   30.0   33.333333333333336
450.0   60.0   33.333333333333336
450.0   30.0   50.0
500.0   30.0   33.333333333333336
500.0   60.0   33.333333333333336
450.0   60.0   33.333333333333336
500.0   60.0   50.0
450.0   30.0   50.0
450.0   60.0   50.0
500.0   60.0   50.0
450.0   60.0   33.333333333333336
450.0   30.0   50.0
500.0   60.0   50.0
500.0   30.0   50.0
500.0   30.0   33.333333333333336
450.0   30.0   50.0
500.0   60.0   50.0
500.0   30.0   33.333333333333336
450.0   60.0   33.333333333333336
450.0   60.0   0.0
500.0   60.0   0.0
450.0   90.0   0.0
450.0   60.0   16.666666666666668
500.0   60.0   0.0
500.0   90.0   0.0
450.0   90.0   0.0
500.0   90.0   16.666666666666668
450.0   60.0   16.666666666666668
450.0   90.0   16.666666666666668
500.0   90.0   16.666666666666668
450.0   90.0   0.0
450.0   60.0   16.666666666666668
500.0   90.0   16.666666666666668
500.0   60.0   16.666666666666668
500.0   60.0   0.0
450.0   60.0   16.666666666666668
500.0   90.0   16.666666666666668
500.0   60.0   0.0
450.0   90.0   0.0
450.0   60.0   16.666666666666668
500.0   60.0   16.666666666666668
450.0   90.0   16.666666666666668
450.0   60.0   33.333333333333336
500.0   60.0   16.666666666666668
500.0   90.0   16.666666666666668
450.0   90.0   16.666666666666668
500.0   90.0   33.333333333333336
450.0   60.0   33.333333333333336
450.0   90.0   33.333333333333336
500.0   90.0   33.333333333333336
450.0   90.0   16.666666666666668
450.0   60.0   33.333333333333336
500.0   90.0   33.333333333333336
500.0   60.0   33.333333333333336
500.0   60.0   16.666666666666668
450.0   60.0   33.333333333333336
500.0   90.0   33.333333333333336
500.0   60.0   16.666666666666668
450.0   90.0   16.666666666666668
450.0   60.0   33.333333333333336
500.0   60.0   33.333333333333336
450.0   90.0   33.333333333333336
450.0   60.0   50.0
500.0   60.0   33.333333333333336
500.0   90.0   33.333333333333336
450.0   90.0   33.333333333333336
500.0   90.0   50.0
450.0   60.0   50.0
450.0   90.0   50.0
500.0   90.0   50.0
450.0   90.0   33.333333333333336
450.0   60.0   50.0
500.0   90.0   50.0
500.0   60.0   50.0
500.0   60.0   33.333333333333336
450.0   60.0   50.0
500.0   90.0   50.0
500.0   60.0   33.333333333333336
450.0   90.0   33.333333333333336
450.0   90.0   0.0
500.0   90.0   0.0
450.0   120.0   0.0
450.0   90.0   16.666666666666668
500.0   90.0   0.0
500.0   120.0   0.0
450.0   120.0   0.0
500.0   120.0   16.666666666666668
450.0   90.0   16.666666666666668
450.0   120.0   16.666666666666668
500.0   120.0   16.666666666666668
450.0   120.0   0.0
450.0   90.0   16.666666666666668
500.0   120.0   16.666666666666668
500.0   90.0   16.666666666666668
500.0   90.0   0.0
450.0   90.0   16.666666666666668
500.0   120.0   16.666666666666668
500.0   90.0   0.0
450.0   120.0   0.0
450.0   90.0   16.666666666666668
500.0   90.0   16.666666666666668
450.0   120.0   16.666666666666668
450.0   90.0   33.333333333333336
500.0   90.0   16.666666666666668
500.0   120.0   16.666666666666668
450.0   120.0   16.666666666666668
500.0   120.0   33.333333333333336
450.0   90.0   33.333333333333336
450.0   120.0   33.333333333333336
500.0   120.0   33.333333333333336
450.0   120.0   16.666666666666668
450.0   90.0   33.333333333333336
500.0   120.0   33.333333333333336
500.0   90.0   33.333333333333336
500.0   90.0   16.666666666666668
450.0   90.0   33.333333333333336
500.0   120.0   33.333333333333336
500.0   90.0   16.666666666666668
450.0   120.0   16.666666666666668
450.0   90.0   33.333333333333336
500.0   90.0   33.333333333333336
450.0   120.0   33.333333333333336
450.0   90.0   50.0
500.0   90.0   33.333333333333336
500.0   120.0   33.333333333333336
450.0   120.0   33.333333333333336
500.0   120.0   50.0
450.0   90.0   50.0
450.0   120.0   50.0
500.0   120.0   50.0
450.0   120.0   33.333333333333336
450.0   90.0   50.0
500.0   120.0   50.0
500.0   90.0   50.0
500.0   90.0   33.333333333333336
450.0   90.0   50.0
500.0   120.0   50.0
500.0   90.0   33.333333333333336
450.0   120.0   33.333333333333336
450.0   120.0   0.0
500.0   120.0   0.0
450.0   150.0   0.0
450.0   120.0   16.666666666666668
500.0   120.0   0.0
500.0   150.0   0.0
450.0   150.0   0.0
500.0   150.0   16.666666666666668
450.0   120.0   16.666666666666668
450.0   150.0   16.666666666666668
500.0   150.0   16.666666666666668
450.0   150.0   0.0
450.0   120.0   16.666666666666668
500.0   150.0   16.666666666666668
500.0   120.0   16.666666666666668
500.0   120.0   0.0
450.0   120.0   16.666666666666668
500.0   150.0   16.666666666666668
500.0   120.0   0.0
450.0   150.0   0.0
450.0   120.0   16.666666666666668
500.0   120.0   16.666666666666668
450.0   150.0   16.666666666666668
450.0   120.0   33.333333333333336
500.0   120.0   16.666666666666668
500.0   150.0   16.666666666666668
450.0   150.0   16.666666666666668
500.0   150.0   33.333333333333336
450.0   120.0   33.333333333333336
450.0   150.0   33.333333333333336
500.0   150.0   33.333333333333336
450.0   150.0   16.666666666666668
450.0   120.0   33.333333333333336
500.0   150.0   33.333333333333336
500.0   120.0   33.333333333333336
500.0   120.0   16.666666666666668
450.0   120.0   33.333333333333336
500.0   150.0   33.333333333333336
500.0   120.0   16.666666666666668
450.0   150.0   16.666666666666668
450.0   120.0   33.333333333333336
500.0   120.0   33.333333333333336
450.0   150.0   33.333333333333336
450.0   120.0   50.0
500.0   120.0   33.333333333333336
500.0   150.0   33.333333333333336
450.0   150.0   33.333333333333336
500.0   150.0   50.0
450.0   120.0   50.0
450.0   150.0   50.0
500.0   150.0   50.0
450.0   150.0   33.333333333333336
450.0   120.0   50.0
500.0   150.0   50.0
500.0   120.0   50.0
500.0   120.0   33.333333333333336
450.0   120.0   50.0
500.0   150.0   50.0
500.0   120.0   33.333333333333336
450.0   150.0   33.333333333333336
             </DataArray>   
          </Points>  
          <Cells>  
             <DataArray type="Int32" Name="connectivity" format="ascii">   
0   1   2   3
4   5   6   7
8   9   10   11
12   13   14   15
16   17   18   19
20   21   22   23
24   25   26   27
28   29   30   31
32   33   34   35
36   37   38   39
40   41   42   43
44   45   46   47
48   49   50   51
52   53   54   55
56   57   58   59
60   61   62   63
64   65   66   67
68   69   70   71
72   73   74   75
76   77   78   79
80   81   82   83
84   85   86   87
88   89   90   91
92   93   94   95
96   97   98   99
100   101   102   103
104   105   106   107
108   109   110   111
112   113   114   115
116   117   118   119
120   121   122   123
124   125   126   127
128   129   130   131
132   133   134   135
136   137   138   139
140   141   142   143
144   145   146   147
148   149   150   151
152   153   154   155
156   157   158   159
160   161   162   163
164   165   166   167
168   169   170   171
172   173   174   175
176   177   178   179
180   181   182   183
184   185   186   187
188   189   190   191
192   193   194   195
196   197   198   199
200   201   202   203
204   205   206   207
208   209   210   211
212   213   214   215
216   217   218   219
220   221   222   223
224   225   226   227
228   229   230   231
232   233   234   235
236   237   238   239
240   241   242   243
244   245   246   247
248   249   250   251
252   253   254   255
256   257   258   259
260   261   262   263
264   265   266   267
268   269   270   271
272   273   274   275
276   277   278   279
280   281   282   283
284   285   286   287
288   289   290   291
292   293   294   295
296   297   298   299
300   301   302   303
304   305   306   307
308   309   310   311
312   313   314   315
316   317   318   319
320   321   322   323
324   325   326   327
328   329   330   331
332   333   334   335
336   337   338   339
340   341   342   343
344   345   346   347
348   349   350   351
352   353   354   355
356   357   358   359
360   361   362   363
364   365   366   367
368   369   370   371
372   373   374   375
376   377   378   379
380   381   382   383
384   385   386   387
388   389   390   391
392   393   394   395
396   397   398   399
400   401   402   403
404   405   406   407
408   409   410   411
412   413   414   415
416   417   418   419
420   421   422   423
424   425   426   427
428   429   430   431
432   433   434   435
436   437   438   439
440   441   442   443
444   445   446   447
448   449   450   451
452   453   454   455
456   457   458   459
460   461   462   463
464   465   466   467
468   469   470   471
472   473   474   475
476   477   478   479
480   481   482   483
484   485   486   487
488   489   490   491
492   493   494   495
496   497   498   499
500   501   502   503
504   505   506   507
508   509   510   511
512   513   514   515
516   517   518   519
520   521   522   523
524   525   526   527
528   529   530   531
532   533   534   535
536   537   538   539
540   541   542   543
544   545   546   547
548   549   550   551
552   553   554   555
556   557   558   559
560   561   562   563
564   565   566   567
568   569   570   571
572   573   574   575
576   577   578   579
580   581   582   583
584   585   586   587
588   589   590   591
592   593   594   595
596   597   598   599
600   601   602   603
604   605   606   607
608   609   610   611
612   613   614   615
616   617   618   619
620   621   622   623
624   625   626   627
628   629   630   631
632   633   634   635
636   637   638   639
640   641   642   643
644   645   646   647
648   649   650   651
652   653   654   655
656   657   658   659
660   661   662   663
664   665   666   667
668   669   670   671
672   673   674   675
676   677   678   679
680   681   682   683
684   685   686   687
688   689   690   691
692   693   694   695
696   697   698   699
700   701   702   703
704   705   706   707
708   709   710   711
712   713   714   715
716   717   718   719
720   721   722   723
724   725   726   727
728   729   730   731
732   733   734   735
736   737   738   739
740   741   742   743
744   745   746   747
748   749   750   751
752   753   754   755
756   757   758   759
760   761   762   763
764   765   766   767
768   769   770   771
772   773   774   775
776   777   778   779
780   781   782   783
784   785   786   787
788   789   790   791
792   793   794   795
796   797   798   799
800   801   802   803
804   805   806   807
808   809   810   811
812   813   814   815
816   817   818   819
820   821   822   823
824   825   826   827
828   829   830   831
832   833   834   835
836   837   838   839
840   841   842   843
844   845   846   847
848   849   850   851
852   853   854   855
856   857   858   859
860   861   862   863
864   865   866   867
868   869   870   871
872   873   874   875
876   877   878   879
880   881   882   883
884   885   886   887
888   889   890   891
892   893   894   895
896   897   898   899
900   901   902   903
904   905   906   907
908   909   910   911
912   913   914   915
916   917   918   919
920   921   922   923
924   925   926   927
928   929   930   931
932   933   934   935
936   937   938   939
940   941   942   943
944   945   946   947
948   949   950   951
952   953   954   955
956   957   958   959
960   961   962   963
964   965   966   967
968   969   970   971
972   973   974   975
976   977   978   979
980   981   982   983
984   985   986   987
988   989   990   991
992   993   994   995
996   997   998   999
1000   1001   1002   1003
1004   1005   1006   1007
1008   1009   1010   1011
1012   1013   1014   1015
1016   1017   1018   1019
1020   1021   1022   1023
1024   1025   1026   1027
1028   1029   1030   1031
1032   1033   1034   1035
1036   1037   1038   1039
1040   1041   1042   1043
1044   1045   1046   1047
1048   1049   1050   1051
1052   1053   1054   1055
1056   1057   1058   1059
1060   1061   1062   1063
1064   1065   1066   1067
1068   1069   1070   1071
1072   1073   1074   1075
1076   1077   1078   1079
1080   1081   1082   1083
1084   1085   1086   1087
1088   1089   1090   1091
1092   1093   1094   1095
1096   1097   1098   1099
1100   1101   1102   1103
1104   1105   1106   1107
1108   1109   1110   1111
1112   1113   1114   1115
1116   1117   1118   1119
1120   1121   1122   1123
1124   1125   1126   1127
1128   1129   1130   1131
1132   1133   1134   1135
1136   1137   1138   1139
1140   1141   1142   1143
1144   1145   1146   1147
1148   1149   1150   1151
1152   1153   1154   1155
1156   1157   1158   1159
1160   1161   1162   1163
1164   1165   1166   1167
1168   1169   1170   1171
1172   1173   1174   1175
1176   1177   1178   1179
1180   1181   1182   1183
1184   1185   1186   1187
1188   1189   1190   1191
1192   1193   1194   1195
1196   1197   1198   1199
1200   1201   1202   1203
1204   1205   1206   1207
1208   1209   1210   1211
1212   1213   1214   1215
1216   1217   1218   1219
1220   1221   1222   1223
1224   1225   1226   1227
1228   1229   1230   1231
1232   1233   1234   1235
1236   1237   1238   1239
1240   1241   1242   1243
1244   1245   1246   1247
1248   1249   1250   1251
1252   1253   1254   1255
1256   1257   1258   1259
1260   1261   1262   1263
1264   1265   1266   1267
1268   1269   1270   1271
1272   1273   1274   1275
1276   1277   1278   1279
1280   1281   1282   1283
1284   1285   1286   1287
1288   1289   1290   1291
1292   1293   1294   1295
1296   1297   1298   1299
1300   1301   1302   1303
1304   1305   1306   1307
1308   1309   1310   1311
1312   1313   1314   1315
1316   1317   1318   1319
1320   1321   1322   1323
1324   1325   1326   1327
1328   1329   1330   1331
1332   1333   1334   1335
1336   1337   1338   1339
1340   1341   1342   1343
1344   1345   1346   1347
1348   1349   1350   1351
1352   1353   1354   1355
1356   1357   1358   1359
1360   1361   1362   1363
1364   1365   1366   1367
1368   1369   1370   1371
1372   1373   1374   1375
1376   1377   1378   1379
1380   1381   1382   1383
1384   1385   1386   1387
1388   1389   1390   1391
1392   1393   1394   1395
1396   1397   1398   1399
1400   1401   1402   1403
1404   1405   1406   1407
1408   1409   1410   1411
1412   1413   1414   1415
1416   1417   1418   1419
1420   1421   1422   1423
1424   1425   1426   1427
1428   1429   1430   1431
1432   1433   1434   1435
1436   1437   1438   1439
1440   1441   1442   1443
1444   1445   1446   1447
1448   1449   1450   1451
1452   1453   1454   1455
1456   1457   1458   1459
1460   1461   1462   1463
1464   1465   1466   1467
1468   1469   1470   1471
1472   1473   1474   1475
1476   1477   1478   1479
1480   1481   1482   1483
1484   1485   1486   1487
1488   1489   1490   1491
1492   1493   1494   1495
1496   1497   1498   1499
1500   1501   1502   1503
1504   1505   1506   1507
1508   1509   1510   1511
1512   1513   1514   1515
1516   1517   1518   1519
1520   1521   1522   1523
1524   1525   1526   1527
1528   1529   1530   1531
1532   1533   1534   1535
1536   1537   1538   1539
1540   1541   1542   1543
1544   1545   1546   1547
1548   1549   1550   1551
1552   1553   1554   1555
1556   1557   1558   1559
1560   1561   1562   1563
1564   1565   1566   1567
1568   1569   1570   1571
1572   1573   1574   1575
1576   1577   1578   1579
1580   1581   1582   1583
1584   1585   1586   1587
1588   1589   1590   1591
1592   1593   1594   1595
1596   1597   1598   1599
1600   1601   1602   1603
1604   1605   1606   1607
1608   1609   1610   1611
1612   1613   1614   1615
1616   1617   1618   1619
1620   1621   1622   1623
1624   1625   1626   1627
1628   1629   1630   1631
1632   1633   1634   1635
1636   1637   1638   1639
1640   1641   1642   1643
1644   1645   1646   1647
1648   1649   1650   1651
1652   1653   1654   1655
1656   1657   1658   1659
1660   1661   1662   1663
1664   1665   1666   1667
1668   1669   1670   1671
1672   1673   1674   1675
1676   1677   1678   1679
1680   1681   1682   1683
1684   1685   1686   1687
1688   1689   1690   1691
1692   1693   1694   1695
1696   1697   1698   1699
1700   1701   1702   1703
1704   1705   1706   1707
1708   1709   1710   1711
1712   1713   1714   1715
1716   1717   1718   1719
1720   1721   1722   1723
1724   1725   1726   1727
1728   1729   1730   1731
1732   1733   1734   1735
1736   1737   1738   1739
1740   1741   1742   1743
1744   1745   1746   1747
1748   1749   1750   1751
1752   1753   1754   1755
1756   1757   1758   1759
1760   1761   1762   1763
1764   1765   1766   1767
1768   1769   1770   1771
1772   1773   1774   1775
1776   1777   1778   1779
1780   1781   1782   1783
1784   1785   1786   1787
1788   1789   1790   1791
1792   1793   1794   1795
1796   1797   1798   1799
1800   1801   1802   1803
1804   1805   1806   1807
1808   1809   1810   1811
1812   1813   1814   1815
1816   1817   1818   1819
1820   1821   1822   1823
1824   1825   1826   1827
1828   1829   1830   1831
1832   1833   1834   1835
1836   1837   1838   1839
1840   1841   1842   1843
1844   1845   1846   1847
1848   1849   1850   1851
1852   1853   1854   1855
1856   1857   1858   1859
1860   1861   1862   1863
1864   1865   1866   1867
1868   1869   1870   1871
1872   1873   1874   1875
1876   1877   1878   1879
1880   1881   1882   1883
1884   1885   1886   1887
1888   1889   1890   1891
1892   1893   1894   1895
1896   1897   1898   1899
1900   1901   1902   1903
1904   1905   1906   1907
1908   1909   1910   1911
1912   1913   1914   1915
1916   1917   1918   1919
1920   1921   1922   1923
1924   1925   1926   1927
1928   1929   1930   1931
1932   1933   1934   1935
1936   1937   1938   1939
1940   1941   1942   1943
1944   1945   1946   1947
1948   1949   1950   1951
1952   1953   1954   1955
1956   1957   1958   1959
1960   1961   1962   1963
1964   1965   1966   1967
1968   1969   1970   1971
1972   1973   1974   1975
1976   1977   1978   1979
1980   1981   1982   1983
1984   1985   1986   1987
1988   1989   1990   1991
1992   1993   1994   1995
1996   1997   1998   1999
2000   2001   2002   2003
2004   2005   2006   2007
2008   2009   2010   2011
2012   2013   2014   2015
2016   2017   2018   2019
2020   2021   2022   2023
2024   2025   2026   2027
2028   2029   2030   2031
2032   2033   2034   2035
2036   2037   2038   2039
2040   2041   2042   2043
2044   2045   2046   2047
2048   2049   2050   2051
2052   2053   2054   2055
2056   2057   2058   2059
2060   2061   2062   2063
2064   2065   2066   2067
2068   2069   2070   2071
2072   2073   2074   2075
2076   2077   2078   2079
2080   2081   2082   2083
2084   2085   2086   2087
2088   2089   2090   2091
2092   2093   2094   2095
2096   2097   2098   2099
2100   2101   2102   2103
2104   2105   2106   2107
2108   2109   2110   2111
2112   2113   2114   2115
2116   2117   2118   2119
2120   2121   2122   2123
2124   2125   2126   2127
2128   2129   2130   2131
2132   2133   2134   2135
2136   2137   2138   2139
2140   2141   2142   2143
2144   2145   2146   2147
2148   2149   2150   2151
2152   2153   2154   2155
2156   2157   2158   2159
2160   2161   2162   2163
2164   2165   2166   2167
2168   2169   2170   2171
2172   2173   2174   2175
2176   2177   2178   2179
2180   2181   2182   2183
2184   2185   2186   2187
2188   2189   2190   2191
2192   2193   2194   2195
2196   2197   2198   2199
2200   2201   2202   2203
2204   2205   2206   2207
2208   2209   2210   2211
2212   2213   2214   2215
2216   2217   2218   2219
2220   2221   2222   2223
2224   2225   2226   2227
2228   2229   2230   2231
2232   2233   2234   2235
2236   2237   2238   2239
2240   2241   2242   2243
2244   2245   2246   2247
2248   2249   2250   2251
2252   2253   2254   2255
2256   2257   2258   2259
2260   2261   2262   2263
2264   2265   2266   2267
2268   2269   2270   2271
2272   2273   2274   2275
2276   2277   2278   2279
2280   2281   2282   2283
2284   2285   2286   2287
2288   2289   2290   2291
2292   2293   2294   2295
2296   2297   2298   2299
2300   2301   2302   2303
2304   2305   2306   2307
2308   2309   2310   2311
2312   2313   2314   2315
2316   2317   2318   2319
2320   2321   2322   2323
2324   2325   2326   2327
2328   2329   2330   2331
2332   2333   2334   2335
2336   2337   2338   2339
2340   2341   2342   2343
2344   2345   2346   2347
2348   2349   2350   2351
2352   2353   2354   2355
2356   2357   2358   2359
2360   2361   2362   2363
2364   2365   2366   2367
2368   2369   2370   2371
2372   2373   2374   2375
2376   2377   2378   2379
2380   2381   2382   2383
2384   2385   2386   2387
2388   2389   2390   2391
2392   2393   2394   2395
2396   2397   2398   2399
2400   2401   2402   2403
2404   2405   2406   2407
2408   2409   2410   2411
2412   2413   2414   2415
2416   2417   2418   2419
2420   2421   2422   2423
2424   2425   2426   2427
2428   2429   2430   2431
2432   2433   2434   2435
2436   2437   2438   2439
2440   2441   2442   2443
2444   2445   2446   2447
2448   2449   2450   2451
2452   2453   2454   2455
2456   2457   2458   2459
2460   2461   2462   2463
2464   2465   2466   2467
2468   2469   2470   2471
2472   2473   2474   2475
2476   2477   2478   2479
2480   2481   2482   2483
2484   2485   2486   2487
2488   2489   2490   2491
2492   2493   2494   2495
2496   2497   2498   2499
2500   2501   2502   2503
2504   2505   2506   2507
2508   2509   2510   2511
2512   2513   2514   2515
2516   2517   2518   2519
2520   2521   2522   2523
2524   2525   2526   2527
2528   2529   2530   2531
2532   2533   2534   2535
2536   2537   2538   2539
2540   2541   2542   2543
2544   2545   2546   2547
2548   2549   2550   2551
2552   2553   2554   2555
2556   2557   2558   2559
2560   2561   2562   2563
2564   2565   2566   2567
2568   2569   2570   2571
2572   2573   2574   2575
2576   2577   2578   2579
2580   2581   2582   2583
2584   2585   2586   2587
2588   2589   2590   2591
2592   2593   2594   2595
2596   2597   2598   2599
2600   2601   2602   2603
2604   2605   2606   2607
2608   2609   2610   2611
2612   2613   2614   2615
2616   2617   2618   2619
2620   2621   2622   2623
2624   2625   2626   2627
2628   2629   2630   2631
2632   2633   2634   2635
2636   2637   2638   2639
2640   2641   2642   2643
2644   2645   2646   2647
2648   2649   2650   2651
2652   2653   2654   2655
2656   2657   2658   2659
2660   2661   2662   2663
2664   2665   2666   2667
2668   2669   2670   2671
2672   2673   2674   2675
2676   2677   2678   2679
2680   2681   2682   2683
2684   2685   2686   2687
2688   2689   2690   2691
2692   2693   2694   2695
2696   2697   2698   2699
2700   2701   2702   2703
2704   2705   2706   2707
2708   2709   2710   2711
2712   2713   2714   2715
2716   2717   2718   2719
2720   2721   2722   2723
2724   2725   2726   2727
2728   2729   2730   2731
2732   2733   2734   2735
2736   2737   2738   2739
2740   2741   2742   2743
2744   2745   2746   2747
2748   2749   2750   2751
2752   2753   2754   2755
2756   2757   2758   2759
2760   2761   2762   2763
2764   2765   2766   2767
2768   2769   2770   2771
2772   2773   2774   2775
2776   2777   2778   2779
2780   2781   2782   2783
2784   2785   2786   2787
2788   2789   2790   2791
2792   2793   2794   2795
2796   2797   2798   2799
2800   2801   2802   2803
2804   2805   2806   2807
2808   2809   2810   2811
2812   2813   2814   2815
2816   2817   2818   2819
2820   2821   2822   2823
2824   2825   2826   2827
2828   2829   2830   2831
2832   2833   2834   2835
2836   2837   2838   2839
2840   2841   2842   2843
2844   2845   2846   2847
2848   2849   2850   2851
2852   2853   2854   2855
2856   2857   2858   2859
2860   2861   2862   2863
2864   2865   2866   2867
2868   2869   2870   2871
2872   2873   2874   2875
2876   2877   2878   2879
2880   2881   2882   2883
2884   2885   2886   2887
2888   2889   2890   2891
2892   2893   2894   2895
2896   2897   2898   2899
2900   2901   2902   2903
2904   2905   2906   2907
2908   2909   2910   2911
2912   2913   2914   2915
2916   2917   2918   2919
2920   2921   2922   2923
2924   2925   2926   2927
2928   2929   2930   2931
2932   2933   2934   2935
2936   2937   2938   2939
2940   2941   2942   2943
2944   2945   2946   2947
2948   2949   2950   2951
2952   2953   2954   2955
2956   2957   2958   2959
2960   2961   2962   2963
2964   2965   2966   2967
2968   2969   2970   2971
2972   2973   2974   2975
2976   2977   2978   2979
2980   2981   2982   2983
2984   2985   2986   2987
2988   2989   2990   2991
2992   2993   2994   2995
2996   2997   2998   2999
3000   3001   3002   3003
3004   3005   3006   3007
3008   3009   3010   3011
3012   3013   3014   3015
3016   3017   3018   3019
3020   3021   3022   3023
3024   3025   3026   3027
3028   3029   3030   3031
3032   3033   3034   3035
3036   3037   3038   3039
3040   3041   3042   3043
3044   3045   3046   3047
3048   3049   3050   3051
3052   3053   3054   3055
3056   3057   3058   3059
3060   3061   3062   3063
3064   3065   3066   3067
3068   3069   3070   3071
3072   3073   3074   3075
3076   3077   3078   3079
3080   3081   3082   3083
3084   3085   3086   3087
3088   3089   3090   3091
3092   3093   3094   3095
3096   3097   3098   3099
3100   3101   3102   3103
3104   3105   3106   3107
3108   3109   3110   3111
3112   3113   3114   3115
3116   3117   3118   3119
3120   3121   3122   3123
3124   3125   3126   3127
3128   3129   3130   3131
3132   3133   3134   3135
3136   3137   3138   3139
3140   3141   3142   3143
3144   3145   3146   3147
3148   3149   3150   3151
3152   3153   3154   3155
3156   3157   3158   3159
3160   3161   3162   3163
3164   3165   3166   3167
3168   3169   3170   3171
3172   3173   3174   3175
3176   3177   3178   3179
3180   3181   3182   3183
3184   3185   3186   3187
3188   3189   3190   3191
3192   3193   3194   3195
3196   3197   3198   3199
3200   3201   3202   3203
3204   3205   3206   3207
3208   3209   3210   3211
3212   3213   3214   3215
3216   3217   3218   3219
3220   3221   3222   3223
3224   3225   3226   3227
3228   3229   3230   3231
3232   3233   3234   3235
3236   3237   3238   3239
3240   3241   3242   3243
3244   3245   3246   3247
3248   3249   3250   3251
3252   3253   3254   3255
3256   3257   3258   3259
3260   3261   3262   3263
3264   3265   3266   3267
3268   3269   3270   3271
3272   3273   3274   3275
3276   3277   3278   3279
3280   3281   3282   3283
3284   3285   3286   3287
3288   3289   3290   3291
3292   3293   3294   3295
3296   3297   3298   3299
3300   3301   3302   3303
3304   3305   3306   3307
3308   3309   3310   3311
3312   3313   3314   3315
3316   3317   3318   3319
3320   3321   3322   3323
3324   3325   3326   3327
3328   3329   3330   3331
3332   3333   3334   3335
3336   3337   3338   3339
3340   3341   3342   3343
3344   3345   3346   3347
3348   3349   3350   3351
3352   3353   3354   3355
3356   3357   3358   3359
3360   3361   3362   3363
3364   3365   3366   3367
3368   3369   3370   3371
3372   3373   3374   3375
3376   3377   3378   3379
3380   3381   3382   3383
3384   3385   3386   3387
3388   3389   3390   3391
3392   3393   3394   3395
3396   3397   3398   3399
3400   3401   3402   3403
3404   3405   3406   3407
3408   3409   3410   3411
3412   3413   3414   3415
3416   3417   3418   3419
3420   3421   3422   3423
3424   3425   3426   3427
3428   3429   3430   3431
3432   3433   3434   3435
3436   3437   3438   3439
3440   3441   3442   3443
3444   3445   3446   3447
3448   3449   3450   3451
3452   3453   3454   3455
3456   3457   3458   3459
3460   3461   3462   3463
3464   3465   3466   3467
3468   3469   3470   3471
3472   3473   3474   3475
3476   3477   3478   3479
3480   3481   3482   3483
3484   3485   3486   3487
3488   3489   3490   3491
3492   3493   3494   3495
3496   3497   3498   3499
3500   3501   3502   3503
3504   3505   3506   3507
3508   3509   3510   3511
3512   3513   3514   3515
3516   3517   3518   3519
3520   3521   3522   3523
3524   3525   3526   3527
3528   3529   3530   3531
3532   3533   3534   3535
3536   3537   3538   3539
3540   3541   3542   3543
3544   3545   3546   3547
3548   3549   3550   3551
3552   3553   3554   3555
3556   3557   3558   3559
3560   3561   3562   3563
3564   3565   3566   3567
3568   3569   3570   3571
3572   3573   3574   3575
3576   3577   3578   3579
3580   3581   3582   3583
3584   3585   3586   3587
3588   3589   3590   3591
3592   3593   3594   3595
3596   3597   3598   3599
3600   3601   3602   3603
3604   3605   3606   3607
3608   3609   3610   3611
3612   3613   3614   3615
3616   3617   3618   3619
3620   3621   3622   3623
3624   3625   3626   3627
3628   3629   3630   3631
3632   3633   3634   3635
3636   3637   3638   3639
3640   3641   3642   3643
3644   3645   3646   3647
3648   3649   3650   3651
3652   3653   3654   3655
3656   3657   3658   3659
3660   3661   3662   3663
3664   3665   3666   3667
3668   3669   3670   3671
3672   3673   3674   3675
3676   3677   3678   3679
3680   3681   3682   3683
3684   3685   3686   3687
3688   3689   3690   3691
3692   3693   3694   3695
3696   3697   3698   3699
3700   3701   3702   3703
3704   3705   3706   3707
3708   3709   3710   3711
3712   3713   3714   3715
3716   3717   3718   3719
3720   3721   3722   3723
3724   3725   3726   3727
3728   3729   3730   3731
3732   3733   3734   3735
3736   3737   3738   3739
3740   3741   3742   3743
3744   3745   3746   3747
3748   3749   3750   3751
3752   3753   3754   3755
3756   3757   3758   3759
3760   3761   3762   3763
3764   3765   3766   3767
3768   3769   3770   3771
3772   3773   3774   3775
3776   3777   3778   3779
3780   3781   3782   3783
3784   3785   3786   3787
3788   3789   3790   3791
3792   3793   3794   3795
3796   3797   3798   3799
3800   3801   3802   3803
3804   3805   3806   3807
3808   3809   3810   3811
3812   3813   3814   3815
3816   3817   3818   3819
3820   3821   3822   3823
3824   3825   3826   3827
3828   3829   3830   3831
3832   3833   3834   3835
3836   3837   3838   3839
3840   3841   3842   3843
3844   3845   3846   3847
3848   3849   3850   3851
3852   3853   3854   3855
3856   3857   3858   3859
3860   3861   3862   3863
3864   3865   3866   3867
3868   3869   3870   3871
3872   3873   3874   3875
3876   3877   3878   3879
3880   3881   3882   3883
3884   3885   3886   3887
3888   3889   3890   3891
3892   3893   3894   3895
3896   3897   3898   3899
3900   3901   3902   3903
3904   3905   3906   3907
3908   3909   3910   3911
3912   3913   3914   3915
3916   3917   3918   3919
3920   3921   3922   3923
3924   3925   3926   3927
3928   3929   3930   3931
3932   3933   3934   3935
3936   3937   3938   3939
3940   3941   3942   3943
3944   3945   3946   3947
3948   3949   3950   3951
3952   3953   3954   3955
3956   3957   3958   3959
3960   3961   3962   3963
3964   3965   3966   3967
3968   3969   3970   3971
3972   3973   3974   3975
3976   3977   3978   3979
3980   3981   3982   3983
3984   3985   3986   3987
3988   3989   3990   3991
3992   3993   3994   3995
3996   3997   3998   3999
4000   4001   4002   4003
4004   4005   4006   4007
4008   4009   4010   4011
4012   4013   4014   4015
4016   4017   4018   4019
4020   4021   4022   4023
4024   4025   4026   4027
4028   4029   4030   4031
4032   4033   4034   4035
4036   4037   4038   4039
4040   4041   4042   4043
4044   4045   4046   4047
4048   4049   4050   4051
4052   4053   4054   4055
4056   4057   4058   4059
4060   4061   4062   4063
4064   4065   4066   4067
4068   4069   4070   4071
4072   4073   4074   4075
4076   4077   4078   4079
4080   4081   4082   4083
4084   4085   4086   4087
4088   4089   4090   4091
4092   4093   4094   4095
4096   4097   4098   4099
4100   4101   4102   4103
4104   4105   4106   4107
4108   4109   4110   4111
4112   4113   4114   4115
4116   4117   4118   4119
4120   4121   4122   4123
4124   4125   4126   4127
4128   4129   4130   4131
4132   4133   4134   4135
4136   4137   4138   4139
4140   4141   4142   4143
4144   4145   4146   4147
4148   4149   4150   4151
4152   4153   4154   4155
4156   4157   4158   4159
4160   4161   4162   4163
4164   4165   4166   4167
4168   4169   4170   4171
4172   4173   4174   4175
4176   4177   4178   4179
4180   4181   4182   4183
4184   4185   4186   4187
4188   4189   4190   4191
4192   4193   4194   4195
4196   4197   4198   4199
4200   4201   4202   4203
4204   4205   4206   4207
4208   4209   4210   4211
4212   4213   4214   4215
4216   4217   4218   4219
4220   4221   4222   4223
4224   4225   4226   4227
4228   4229   4230   4231
4232   4233   4234   4235
4236   4237   4238   4239
4240   4241   4242   4243
4244   4245   4246   4247
4248   4249   4250   4251
4252   4253   4254   4255
4256   4257   4258   4259
4260   4261   4262   4263
4264   4265   4266   4267
4268   4269   4270   4271
4272   4273   4274   4275
4276   4277   4278   4279
4280   4281   4282   4283
4284   4285   4286   4287
4288   4289   4290   4291
4292   4293   4294   4295
4296   4297   4298   4299
4300   4301   4302   4303
4304   4305   4306   4307
4308   4309   4310   4311
4312   4313   4314   4315
4316   4317   4318   4319
4320   4321   4322   4323
4324   4325   4326   4327
4328   4329   4330   4331
4332   4333   4334   4335
4336   4337   4338   4339
4340   4341   4342   4343
4344   4345   4346   4347
4348   4349   4350   4351
4352   4353   4354   4355
4356   4357   4358   4359
4360   4361   4362   4363
4364   4365   4366   4367
4368   4369   4370   4371
4372   4373   4374   4375
4376   4377   4378   4379
4380   4381   4382   4383
4384   4385   4386   4387
4388   4389   4390   4391
4392   4393   4394   4395
4396   4397   4398   4399
4400   4401   4402   4403
4404   4405   4406   4407
4408   4409   4410   4411
4412   4413   4414   4415
4416   4417   4418   4419
4420   4421   4422   4423
4424   4425   4426   4427
4428   4429   4430   4431
4432   4433   4434   4435
4436   4437   4438   4439
4440   4441   4442   4443
4444   4445   4446   4447
4448   4449   4450   4451
4452   4453   4454   4455
4456   4457   4458   4459
4460   4461   4462   4463
4464   4465   4466   4467
4468   4469   4470   4471
4472   4473   4474   4475
4476   4477   4478   4479
4480   4481   4482   4483
4484   4485   4486   4487
4488   4489   4490   4491
4492   4493   4494   4495
4496   4497   4498   4499
4500   4501   4502   4503
4504   4505   4506   4507
4508   4509   4510   4511
4512   4513   4514   4515
4516   4517   4518   4519
4520   4521   4522   4523
4524   4525   4526   4527
4528   4529   4530   4531
4532   4533   4534   4535
4536   4537   4538   4539
4540   4541   4542   4543
4544   4545   4546   4547
4548   4549   4550   4551
4552   4553   4554   4555
4556   4557   4558   4559
4560   4561   4562   4563
4564   4565   4566   4567
4568   4569   4570   4571
4572   4573   4574   4575
4576   4577   4578   4579
4580   4581   4582   4583
4584   4585   4586   4587
4588   4589   4590   4591
4592   4593   4594   4595
4596   4597   4598   4599
4600   4601   4602   4603
4604   4605   4606   4607
4608   4609   4610   4611
4612   4613   4614   4615
4616   4617   4618   4619
4620   4621   4622   4623
4624   4625   4626   4627
4628   4629   4630   4631
4632   4633   4634   4635
4636   4637   4638   4639
4640   4641   4642   4643
4644   4645   4646   4647
4648   4649   4650   4651
4652   4653   4654   4655
4656   4657   4658   4659
4660   4661   4662   4663
4664   4665   4666   4667
4668   4669   4670   4671
4672   4673   4674   4675
4676   4677   4678   4679
4680   4681   4682   4683
4684   4685   4686   4687
4688   4689   4690   4691
4692   4693   4694   4695
4696   4697   4698   4699
4700   4701   4702   4703
4704   4705   4706   4707
4708   4709   4710   4711
4712   4713   4714   4715
4716   4717   4718   4719
4720   4721   4722   4723
4724   4725   4726   4727
4728   4729   4730   4731
4732   4733   4734   4735
4736   4737   4738   4739
4740   4741   4742   4743
4744   4745   4746   4747
4748   4749   4750   4751
4752   4753   4754   4755
4756   4757   4758   4759
4760   4761   4762   4763
4764   4765   4766   4767
4768   4769   4770   4771
4772   4773   4774   4775
4776   4777   4778   4779
4780   4781   4782   4783
4784   4785   4786   4787
4788   4789   4790   4791
4792   4793   4794   4795
4796   4797   4798   4799
4800   4801   4802   4803
4804   4805   4806   4807
4808   4809   4810   4811
4812   4813   4814   4815
4816   4817   4818   4819
4820   4821   4822   4823
4824   4825   4826   4827
4828   4829   4830   4831
4832   4833   4834   4835
4836   4837   4838   4839
4840   4841   4842   4843
4844   4845   4846   4847
4848   4849   4850   4851
4852   4853   4854   4855
4856   4857   4858   4859
4860   4861   4862   4863
4864   4865   4866   4867
4868   4869   4870   4871
4872   4873   4874   4875
4876   4877   4878   4879
4880   4881   4882   4883
4884   4885   4886   4887
4888   4889   4890   4891
4892   4893   4894   4895
4896   4897   4898   4899
4900   4901   4902   4903
4904   4905   4906   4907
4908   4909   4910   4911
4912   4913   4914   4915
4916   4917   4918   4919
4920   4921   4922   4923
4924   4925   4926   4927
4928   4929   4930   4931
4932   4933   4934   4935
4936   4937   4938   4939
4940   4941   4942   4943
4944   4945   4946   4947
4948   4949   4950   4951
4952   4953   4954   4955
4956   4957   4958   4959
4960   4961   4962   4963
4964   4965   4966   4967
4968   4969   4970   4971
4972   4973   4974   4975
4976   4977   4978   4979
4980   4981   4982   4983
4984   4985   4986   4987
4988   4989   4990   4991
4992   4993   4994   4995
4996   4997   4998   4999
5000   5001   5002   5003
5004   5005   5006   5007
5008   5009   5010   5011
5012   5013   5014   5015
5016   5017   5018   5019
5020   5021   5022   5023
5024   5025   5026   5027
5028   5029   5030   5031
5032   5033   5034   5035
5036   5037   5038   5039
5040   5041   5042   5043
5044   5045   5046   5047
5048   5049   5050   5051
5052   5053   5054   5055
5056   5057   5058   5059
5060   5061   5062   5063
5064   5065   5066   5067
5068   5069   5070   5071
5072   5073   5074   5075
5076   5077   5078   5079
5080   5081   5082   5083
5084   5085   5086   5087
5088   5089   5090   5091
5092   5093   5094   5095
5096   5097   5098   5099
5100   5101   5102   5103
5104   5105   5106   5107
5108   5109   5110   5111
5112   5113   5114   5115
5116   5117   5118   5119
5120   5121   5122   5123
5124   5125   5126   5127
5128   5129   5130   5131
5132   5133   5134   5135
5136   5137   5138   5139
5140   5141   5142   5143
5144   5145   5146   5147
5148   5149   5150   5151
5152   5153   5154   5155
5156   5157   5158   5159
5160   5161   5162   5163
5164   5165   5166   5167
5168   5169   5170   5171
5172   5173   5174   5175
5176   5177   5178   5179
5180   5181   5182   5183
5184   5185   5186   5187
5188   5189   5190   5191
5192   5193   5194   5195
5196   5197   5198   5199
5200   5201   5202   5203
5204   5205   5206   5207
5208   5209   5210   5211
5212   5213   5214   5215
5216   5217   5218   5219
5220   5221   5222   5223
5224   5225   5226   5227
5228   5229   5230   5231
5232   5233   5234   5235
5236   5237   5238   5239
5240   5241   5242   5243
5244   5245   5246   5247
5248   5249   5250   5251
5252   5253   5254   5255
5256   5257   5258   5259
5260   5261   5262   5263
5264   5265   5266   5267
5268   5269   5270   5271
5272   5273   5274   5275
5276   5277   5278   5279
5280   5281   5282   5283
5284   5285   5286   5287
5288   5289   5290   5291
5292   5293   5294   5295
5296   5297   5298   5299
5300   5301   5302   5303
5304   5305   5306   5307
5308   5309   5310   5311
5312   5313   5314   5315
5316   5317   5318   5319
5320   5321   5322   5323
5324   5325   5326   5327
5328   5329   5330   5331
5332   5333   5334   5335
5336   5337   5338   5339
5340   5341   5342   5343
5344   5345   5346   5347
5348   5349   5350   5351
5352   5353   5354   5355
5356   5357   5358   5359
5360   5361   5362   5363
5364   5365   5366   5367
5368   5369   5370   5371
5372   5373   5374   5375
5376   5377   5378   5379
5380   5381   5382   5383
5384   5385   5386   5387
5388   5389   5390   5391
5392   5393   5394   5395
5396   5397   5398   5399
5400   5401   5402   5403
5404   5405   5406   5407
5408   5409   5410   5411
5412   5413   5414   5415
5416   5417   5418   5419
5420   5421   5422   5423
5424   5425   5426   5427
5428   5429   5430   5431
5432   5433   5434   5435
5436   5437   5438   5439
5440   5441   5442   5443
5444   5445   5446   5447
5448   5449   5450   5451
5452   5453   5454   5455
5456   5457   5458   5459
5460   5461   5462   5463
5464   5465   5466   5467
5468   5469   5470   5471
5472   5473   5474   5475
5476   5477   5478   5479
5480   5481   5482   5483
5484   5485   5486   5487
5488   5489   5490   5491
5492   5493   5494   5495
5496   5497   5498   5499
5500   5501   5502   5503
5504   5505   5506   5507
5508   5509   5510   5511
5512   5513   5514   5515
5516   5517   5518   5519
5520   5521   5522   5523
5524   5525   5526   5527
5528   5529   5530   5531
5532   5533   5534   5535
5536   5537   5538   5539
5540   5541   5542   5543
5544   5545   5546   5547
5548   5549   5550   5551
5552   5553   5554   5555
5556   5557   5558   5559
5560   5561   5562   5563
5564   5565   5566   5567
5568   5569   5570   5571
5572   5573   5574   5575
5576   5577   5578   5579
5580   5581   5582   5583
5584   5585   5586   5587
5588   5589   5590   5591
5592   5593   5594   5595
5596   5597   5598   5599
5600   5601   5602   5603
5604   5605   5606   5607
5608   5609   5610   5611
5612   5613   5614   5615
5616   5617   5618   5619
5620   5621   5622   5623
5624   5625   5626   5627
5628   5629   5630   5631
5632   5633   5634   5635
5636   5637   5638   5639
5640   5641   5642   5643
5644   5645   5646   5647
5648   5649   5650   5651
5652   5653   5654   5655
5656   5657   5658   5659
5660   5661   5662   5663
5664   5665   5666   5667
5668   5669   5670   5671
5672   5673   5674   5675
5676   5677   5678   5679
5680   5681   5682   5683
5684   5685   5686   5687
5688   5689   5690   5691
5692   5693   5694   5695
5696   5697   5698   5699
5700   5701   5702   5703
5704   5705   5706   5707
5708   5709   5710   5711
5712   5713   5714   5715
5716   5717   5718   5719
5720   5721   5722   5723
5724   5725   5726   5727
5728   5729   5730   5731
5732   5733   5734   5735
5736   5737   5738   5739
5740   5741   5742   5743
5744   5745   5746   5747
5748   5749   5750   5751
5752   5753   5754   5755
5756   5757   5758   5759
5760   5761   5762   5763
5764   5765   5766   5767
5768   5769   5770   5771
5772   5773   5774   5775
5776   5777   5778   5779
5780   5781   5782   5783
5784   5785   5786   5787
5788   5789   5790   5791
5792   5793   5794   5795
5796   5797   5798   5799
5800   5801   5802   5803
5804   5805   5806   5807
5808   5809   5810   5811
5812   5813   5814   5815
5816   5817   5818   5819
5820   5821   5822   5823
5824   5825   5826   5827
5828   5829   5830   5831
5832   5833   5834   5835
5836   5837   5838   5839
5840   5841   5842   5843
5844   5845   5846   5847
5848   5849   5850   5851
5852   5853   5854   5855
5856   5857   5858   5859
5860   5861   5862   5863
5864   5865   5866   5867
5868   5869   5870   5871
5872   5873   5874   5875
5876   5877   5878   5879
5880   5881   5882   5883
5884   5885   5886   5887
5888   5889   5890   5891
5892   5893   5894   5895
5896   5897   5898   5899
5900   5901   5902   5903
5904   5905   5906   5907
5908   5909   5910   5911
5912   5913   5914   5915
5916   5917   5918   5919
5920   5921   5922   5923
5924   5925   5926   5927
5928   5929   5930   5931
5932   5933   5934   5935
5936   5937   5938   5939
5940   5941   5942   5943
5944   5945   5946   5947
5948   5949   5950   5951
5952   5953   5954   5955
5956   5957   5958   5959
5960   5961   5962   5963
5964   5965   5966   5967
5968   5969   5970   5971
5972   5973   5974   5975
5976   5977   5978   5979
5980   5981   5982   5983
5984   5985   5986   5987
5988   5989   5990   5991
5992   5993   5994   5995
5996   5997   5998   5999
              </DataArray>   
              <DataArray type="Int32" Name="offsets" format="ascii">   
4
8
12
16
20
24
28
32
36
40
44
48
52
56
60
64
68
72
76
80
84
88
92
96
100
104
108
112
116
120
124
128
132
136
140
144
148
152
156
160
164
168
172
176
180
184
188
192
196
200
204
208
212
216
220
224
228
232
236
240
244
248
252
256
260
264
268
272
276
280
284
288
292
296
300
304
308
312
316
320
324
328
332
336
340
344
348
352
356
360
364
368
372
376
380
384
388
392
396
400
404
408
412
416
420
424
428
432
436
440
444
448
452
456
460
464
468
472
476
480
484
488
492
496
500
504
508
512
516
520
524
528
532
536
540
544
548
552
556
560
564
568
572
576
580
584
588
592
596
600
604
608
612
616
620
624
628
632
636
640
644
648
652
656
660
664
668
672
676
680
684
688
692
696
700
704
708
712
716
720
724
728
732
736
740
744
748
752
756
760
764
768
772
776
780
784
788
792
796
800
804
808
812
816
820
824
828
832
836
840
844
848
852
856
860
864
868
872
876
880
884
888
892
896
900
904
908
912
916
920
924
928
932
936
940
944
948
952
956
960
964
968
972
976
980
984
988
992
996
1000
1004
1008
1012
1016
1020
1024
1028
1032
1036
1040
1044
1048
1052
1056
1060
1064
1068
1072
1076
1080
1084
1088
1092
1096
1100
1104
1108
1112
1116
1120
1124
1128
1132
1136
1140
1144
1148
1152
1156
1160
1164
1168
1172
1176
1180
1184
1188
1192
1196
1200
1204
1208
1212
1216
1220
1224
1228
1232
1236
1240
1244
1248
1252
1256
1260
1264
1268
1272
1276
1280
1284
1288
1292
1296
1300
1304
1308
1312
1316
1320
1324
1328
1332
1336
1340
1344
1348
1352
1356
1360
1364
1368
1372
1376
1380
1384
1388
1392
1396
1400
1404
1408
1412
1416
1420
1424
1428
1432
1436
1440
1444
1448
1452
1456
1460
1464
1468
1472
1476
1480
1484
1488
1492
1496
1500
1504
1508
1512
1516
1520
1524
1528
1532
1536
1540
1544
1548
1552
1556
1560
1564
1568
1572
1576
1580
1584
1588
1592
1596
1600
1604
1608
1612
1616
1620
1624
1628
1632
1636
1640
1644
1648
1652
1656
1660
1664
1668
1672
1676
1680
1684
1688
1692
1696
1700
1704
1708
1712
1716
1720
1724
1728
1732
1736
1740
1744
1748
1752
1756
1760
1764
1768
1772
1776
1780
1784
1788
1792
1796
1800
1804
1808
1812
1816
1820
1824
1828
1832
1836
1840
1844
1848
1852
1856
1860
1864
1868
1872
1876
1880
1884
1888
1892
1896
1900
1904
1908
1912
1916
1920
1924
1928
1932
1936
1940
1944
1948
1952
1956
1960
1964
1968
1972
1976
1980
1984
1988
1992
1996
2000
2004
2008
2012
2016
2020
2024
2028
2032
2036
2040
2044
2048
2052
2056
2060
2064
2068
2072
2076
2080
2084
2088
2092
2096
2100
2104
2108
2112
2116
2120
2124
2128
2132
2136
2140
2144
2148
2152
2156
2160
2164
2168
2172
2176
2180
2184
2188
2192
2196
2200
2204
2208
2212
2216
2220
2224
2228
2232
2236
2240
2244
2248
2252
2256
2260
2264
2268
2272
2276
2280
2284
2288
2292
2296
2300
2304
2308
2312
2316
2320
2324
2328
2332
2336
2340
2344
2348
2352
2356
2360
2364
2368
2372
2376
2380
2384
2388
2392
2396
2400
2404
2408
2412
2416
2420
2424
2428
2432
2436
2440
2444
2448
2452
2456
2460
2464
2468
2472
2476
2480
2484
2488
2492
2496
2500
2504
2508
2512
2516
2520
2524
2528
2532
2536
2540
2544
2548
2552
2556
2560
2564
2568
2572
2576
2580
2584
2588
2592
2596
2600
2604
2608
2612
2616
2620
2624
2628
2632
2636
2640
2644
2648
2652
2656
2660
2664
2668
2672
2676
2680
2684
2688
2692
2696
2700
2704
2708
2712
2716
2720
2724
2728
2732
2736
2740
2744
2748
2752
2756
2760
2764
2768
2772
2776
2780
2784
2788
2792
2796
2800
2804
2808
2812
2816
2820
2824
2828
2832
2836
2840
2844
2848
2852
2856
2860
2864
2868
2872
2876
2880
2884
2888
2892
2896
2900
2904
2908
2912
2916
2920
2924
2928
2932
2936
2940
2944
2948
2952
2956
2960
2964
2968
2972
2976
2980
2984
2988
2992
2996
3000
3004
3008
3012
3016
3020
3024
3028
3032
3036
3040
3044
3048
3052
3056
3060
3064
3068
3072
3076
3080
3084
3088
3092
3096
3100
3104
3108
3112
3116
3120
3124
3128
3132
3136
3140
3144
3148
3152
3156
3160
3164
3168
3172
3176
3180
3184
3188
3192
3196
3200
3204
3208
3212
3216
3220
3224
3228
3232
3236
3240
3244
3248
3252
3256
3260
3264
3268
3272
3276
3280
3284
3288
3292
3296
3300
3304
3308
3312
3316
3320
3324
3328
3332
3336
3340
3344
3348
3352
3356
3360
3364
3368
3372
3376
3380
3384
3388
3392
3396
3400
3404
3408
3412
3416
3420
3424
3428
3432
3436
3440
3444
3448
3452
3456
3460
3464
3468
3472
3476
3480
3484
3488
3492
3496
3500
3504
3508
3512
3516
3520
3524
3528
3532
3536
3540
3544
3548
3552
3556
3560
3564
3568
3572
3576
3580
3584
3588
3592
3596
3600
3604
3608
3612
3616
3620
3624
3628
3632
3636
3640
3644
3648
3652
3656
3660
3664
3668
3672
3676
3680
3684
3688
3692
3696
3700
3704
3708
3712
3716
3720
3724
3728
3732
3736
3740
3744
3748
3752
3756
3760
3764
3768
3772
3776
3780
3784
3788
3792
3796
3800
3804
3808
3812
3816
3820
3824
3828
3832
3836
3840
3844
3848
3852
3856
3860
3864
3868
3872
3876
3880
3884
3888
3892
3896
3900
3904
3908
3912
3916
3920
3924
3928
3932
3936
3940
3944
3948
3952
3956
3960
3964
3968
3972
3976
3980
3984
3988
3992
3996
4000
4004
4008
4012
4016
4020
4024
4028
4032
4036
4040
4044
4048
4052
4056
4060
4064
4068
4072
4076
4080
4084
4088
4092
4096
4100
4104
4108
4112
4116
4120
4124
4128
4132
4136
4140
4144
4148
4152
4156
4160
4164
4168
4172
4176
4180
4184
4188
4192
4196
4200
4204
4208
4212
4216
4220
4224
4228
4232
4236
4240
4244
4248
4252
4256
4260
4264
4268
4272
4276
4280
4284
4288
4292
4296
4300
4304
4308
4312
4316
4320
4324
4328
4332
4336
4340
4344
4348
4352
4356
4360
4364
4368
4372
4376
4380
4384
4388
4392
4396
4400
4404
4408
4412
4416
4420
4424
4428
4432
4436
4440
4444
4448
4452
4456
4460
4464
4468
4472
4476
4480
4484
4488
4492
4496
4500
4504
4508
4512
4516
4520
4524
4528
4532
4536
4540
4544
4548
4552
4556
4560
4564
4568
4572
4576
4580
4584
4588
4592
4596
4600
4604
4608
4612
4616
4620
4624
4628
4632
4636
4640
4644
4648
4652
4656
4660
4664
4668
4672
4676
4680
4684
4688
4692
4696
4700
4704
4708
4712
4716
4720
4724
4728
4732
4736
4740
4744
4748
4752
4756
4760
4764
4768
4772
4776
4780
4784
4788
4792
4796
4800
4804
4808
4812
4816
4820
4824
4828
4832
4836
4840
4844
4848
4852
4856
4860
4864
4868
4872
4876
4880
4884
4888
4892
4896
4900
4904
4908
4912
4916
4920
4924
4928
4932
4936
4940
4944
4948
4952
4956
4960
4964
4968
4972
4976
4980
4984
4988
4992
4996
5000
5004
5008
5012
5016
5020
5024
5028
5032
5036
5040
5044
5048
5052
5056
5060
5064
5068
5072
5076
5080
5084
5088
5092
5096
5100
5104
5108
5112
5116
5120
5124
5128
5132
5136
5140
5144
5148
5152
5156
5160
5164
5168
5172
5176
5180
5184
5188
5192
5196
5200
5204
5208
5212
5216
5220
5224
5228
5232
5236
5240
5244
5248
5252
5256
5260
5264
5268
5272
5276
5280
5284
5288
5292
5296
5300
5304
5308
5312
5316
5320
5324
5328
5332
5336
5340
5344
5348
5352
5356
5360
5364
5368
5372
5376
5380
5384
5388
5392
5396
5400
5404
5408
5412
5416
5420
5424
5428
5432
5436
5440
5444
5448
5452
5456
5460
5464
5468
5472
5476
5480
5484
5488
5492
5496
5500
5504
5508
5512
5516
5520
5524
5528
5532
5536
5540
5544
5548
5552
5556
5560
5564
5568
5572
5576
5580
5584
5588
5592
5596
5600
5604
5608
5612
5616
5620
5624
5628
5632
5636
5640
5644
5648
5652
5656
5660
5664
5668
5672
5676
5680
5684
5688
5692
5696
5700
5704
5708
5712
5716
5720
5724
5728
5732
5736
5740
5744
5748
5752
5756
5760
5764
5768
5772
5776
5780
5784
5788
5792
5796
5800
5804
5808
5812
5816
5820
5824
5828
5832
5836
5840
5844
5848
5852
5856
5860
5864
5868
5872
5876
5880
5884
5888
5892
5896
5900
5904
5908
5912
5916
5920
5924
5928
5932
5936
5940
5944
5948
5952
5956
5960
5964
5968
5972
5976
5980
5984
5988
5992
5996
6000
              </DataArray>   
              <DataArray type="UInt8" Name="types" format="ascii">   
10
10
10
10
10
10
10
10
10
10
10
10
10
10
10
10
10
10
10
10
10
10
10
10
10
10
10
10
10
10
10
10
10
10
10
10
10
10
10
10
10
10
10
10
10
10
10
10
10
10
10
10
10
10
10
10
10
10
10
10
10
10
10
10
10
10
10
10
10
10
10
10
10
10
10
10
10
10
10
10
10
10
10
10
10
10
10
10
10
10
10
10
10
10
10
10
10
10
10
10
10
10
10
10
10
10
10
10
10
10
10
10
10
10
10
10
10
10
10
10
10
10
10
10
10
10
10
10
10
10
10
10
10
10
10
10
10
10
10
10
10
10
10
10
10
10
10
10
10
10
10
10
10
10
10
10
10
10
10
10
10
10
10
10
10
10
10
10
10
10
10
10
10
10
10
10
10
10
10
10
10
10
10
10
10
10
10
10
10
10
10
10
10
10
10
10
10
10
10
10
10
10
10
10
10
10
10
10
10
10
10
10
10
10
10
10
10
10
10
10
10
10
10
10
10
10
10
10
10
10
10
10
10
10
10
10
10
10
10
10
10
10
10
10
10
10
10
10
10
10
10
10
10
10
10
10
10
10
10
10
10
10
10
10
10
10
10
10
10
10
10
10
10
10
10
10
10
10
10
10
10
10
10
10
10
10
10
10
10
10
10
10
10
10
10
10
10
10
10
10
10
10
10
10
10
10
10
10
10
10
10
10
10
10
10
10
10
10
10
10
10
10
10
10
10
10
10
10
10
10
10
10
10
10
10
10
10
10
10
10
10
10
10
10
10
10
10
10
10
10
10
10
10
10
10
10
10
10
10
10
10
10
10
10
10
10
10
10
10
10
10
10
10
10
10
10
10
10
10
10
10
10
10
10
10
10
10
10
10
10
10
10
10
10
10
10
10
10
10
10
10
10
10
10
10
10
10
10
10
10
10
10
10
10
10
10
10
10
10
10
10
10
10
10
10
10
10
10
10
10
10
10
10
10
10
10
10
10
10
10
10
10
10
10
10
10
10
10
10
10
10
10
10
10
10
10
10
10
10
10
10
10
10
10
10
10
10
10
10
10
10
10
10
10
10
10
10
10
10
10
10
10
10
10
10
10
10
10
10
10
10
10
10
10
10
10
10
10
10
10
10
10
10
10
10
10
10
10
10
10
10
10
10
10
10
10
10
10
10
10
10
10
10
10
10
10
10
10
10
10
10
10
10
10
10
10
10
10
10
10
10
10
10
10
10
10
10
10
10
10
10
10
10
10
10
10
10
10
10
10
10
10
10
10
10
10
10
10
10
10
10
10
10
10
10
10
10
10
10
10
10
10
10
10
10
10
10
10
10
10
10
10
10
10
10
10
10
10
10
10
10
10
10
10
10
10
10
10
10
10
10
10
10
10
10
10
10
10
10
10
10
10
10
10
10
10
10
10
10
10
10
10
10
10
10
10
10
10
10
10
10
10
10
10
10
10
10
10
10
10
10
10
10
10
10
10
10
10
10
10
10
10
10
10
10
10
10
10
10
10
10
10
10
10
10
10
10
10
10
10
10
10
10
10
10
10
10
10
10
10
10
10
10
10
10
10
10
10
10
10
10
10
10
10
10
10
10
10
10
10
10
10
10
10
10
10
10
10
10
10
10
10
10
10
10
10
10
10
10
10
10
10
10
10
10
10
10
10
10
10
10
10
10
10
10
10
10
10
10
10
10
10
10
10
10
10
10
10
10
10
10
10
10
10
10
10
10
10
10
10
10
10
10
10
10
10
10
10
10
10
10
10
10
10
10
10
10
10
10
10
10
10
10
10
10
10
10
10
10
10
10
10
10
10
10
10
10
10
10
10
10
10
10
10
10
10
10
10
10
10
10
10
10
10
10
10
10
10
10
10
10
10
10
10
10
10
10
10
10
10
10
10
10
10
10
10
10
10
10
10
10
10
10
10
10
10
10
10
10
10
10
10
10
10
10
10
10
10
10
10
10
10
10
10
10
10
10
10
10
10
10
10
10
10
10
10
10
10
10
10
10
10
10
10
10
10
10
10
10
10
10
10
10
10
10
10
10
10
10
10
10
10
10
10
10
10
10
10
10
10
10
10
10
10
10
10
10
10
10
10
10
10
10
10
10
10
10
10
10
10
10
10
10
10
10
10
10
10
10
10
10
10
10
10
10
10
10
10
10
10
10
10
10
10
10
10
10
10
10
10
10
10
10
10
10
10
10
10
10
10
10
10
10
10
10
10
10
10
10
10
10
10
10
10
10
10
10
10
10
10
10
10
10
10
10
10
10
10
10
10
10
10
10
10
10
10
10
10
10
10
10
10
10
10
10
10
10
10
10
10
10
10
10
10
10
10
10
10
10
10
10
10
10
10
10
10
10
10
10
10
10
10
10
10
10
10
10
10
10
10
10
10
10
10
10
10
10
10
10
10
10
10
10
10
10
10
10
10
10
10
10
10
10
10
10
10
10
10
10
10
10
10
10
10
10
10
10
10
10
10
10
10
10
10
10
10
10
10
10
10
10
10
10
10
10
10
10
10
10
10
10
10
10
10
10
10
10
10
10
10
10
10
10
10
10
10
10
10
10
10
10
10
10
10
10
10
10
10
10
10
10
10
10
10
10
10
10
10
10
10
10
10
10
10
10
10
10
10
10
10
10
10
10
10
10
10
10
10
10
10
10
10
10
10
10
10
10
10
10
10
10
10
10
10
10
10
10
10
10
10
10
10
10
10
10
10
10
10
10
10
10
10
10
10
10
10
10
10
10
10
10
10
10
10
10
10
10
10
10
10
10
10
10
10
10
10
10
10
10
10
10
10
10
10
10
10
10
10
10
10
10
10
10
10
10
10
10
10
10
10
10
10
10
10
10
10
10
10
10
10
10
10
10
10
10
10
10
10
10
10
10
10
10
10
10
10
10
10
10
10
10
10
10
10
10
10
10
10
10
10
10
10
10
10
10
10
10
10
10
10
10
10
10
10
10
10
10
10
10
10
10
10
10
10
10
10
10
10
10
10
10
10
10
10
10
10
10
10
10
10
10
10
10
10
10
10
10
10
10
10
10
10
10
10
10
10
10
10
10
10
10
10
10
10
10
10
10
10
10
10
10
10
10
10
10
10
10
10
10
10
10
10
10
10
10
10
10
10
10
10
10
10
10
10
10
10
10
10
10
10
10
10
10
10
10
10
10
10
10
10
10
10
10
10
10
10
10
10
10
10
10
10
10
10
10
10
10
10
10
10
10
10
10
10
10
10
10
10
10
10
10
10
10
10
10
10
10
10
10
10
10
10
10
10
10
10
10
10
10
10
10
10
10
10
10
10
10
10
10
10
10
10
10
10
10
10
10
10
10
10
10
10
10
10
10
10
10
10
10
10
10
10
10
10
10
10
10
10
10
10
              </DataArray>   
          </Cells>  
          <PointData>  
             <DataArray type="Float64" NumberOfComponents="3" Name="Strains" format="ascii">   
-5.0563138292276295e-05   0.0   -3.3306510373250724e-05
-5.0563138292276295e-05   0.0   -3.3306510373250724e-05
-5.0563138292276295e-05   0.0   -3.3306510373250724e-05
-5.0563138292276295e-05   0.0   -3.3306510373250724e-05
-3.2162252911422126e-05   5.585260096377719e-06   7.127879859994516e-07
-3.2162252911422126e-05   5.585260096377719e-06   7.127879859994516e-07
-3.2162252911422126e-05   5.585260096377719e-06   7.127879859994516e-07
-3.2162252911422126e-05   5.585260096377719e-06   7.127879859994516e-07
-3.1517942177978746e-05   0.0   -3.145082094114929e-05
-3.1517942177978746e-05   0.0   -3.145082094114929e-05
-3.1517942177978746e-05   0.0   -3.145082094114929e-05
-3.1517942177978746e-05   0.0   -3.145082094114929e-05
-5.290652083237735e-05   6.7103096631653645e-06   1.7062435161597383e-07
-5.290652083237735e-05   6.7103096631653645e-06   1.7062435161597383e-07
-5.290652083237735e-05   6.7103096631653645e-06   1.7062435161597383e-07
-5.290652083237735e-05   6.7103096631653645e-06   1.7062435161597383e-07
-4.104054023512745e-05   1.5464078600845274e-06   -1.650766889528535e-05
-4.104054023512745e-05   1.5464078600845274e-06   -1.650766889528535e-05
-4.104054023512745e-05   1.5464078600845274e-06   -1.650766889528535e-05
-4.104054023512745e-05   1.5464078600845274e-06   -1.650766889528535e-05
-5.290652083237744e-05   0.0   -3.547700673904852e-05
-5.290652083237744e-05   0.0   -3.547700673904852e-05
-5.290652083237744e-05   0.0   -3.547700673904852e-05
-5.290652083237744e-05   0.0   -3.547700673904852e-05
-3.1517942177978746e-05   6.710309663165378e-06   4.196810149515201e-06
-3.1517942177978746e-05   6.710309663165378e-06   4.196810149515201e-06
-3.1517942177978746e-05   6.710309663165378e-06   4.196810149515201e-06
-3.1517942177978746e-05   6.710309663165378e-06   4.196810149515201e-06
-3.15979123117802e-05   0.0   -3.221822667534116e-05
-3.15979123117802e-05   0.0   -3.221822667534116e-05
-3.15979123117802e-05   0.0   -3.221822667534116e-05
-3.15979123117802e-05   0.0   -3.221822667534116e-05
-5.4548162252191785e-05   7.191186078055829e-06   1.71747824517813e-06
-5.4548162252191785e-05   7.191186078055829e-06   1.71747824517813e-06
-5.4548162252191785e-05   7.191186078055829e-06   1.71747824517813e-06
-5.4548162252191785e-05   7.191186078055829e-06   1.71747824517813e-06
-4.2252216572078753e-05   2.7156500530894654e-06   -1.6090442940030432e-05
-4.2252216572078753e-05   2.7156500530894654e-06   -1.6090442940030432e-05
-4.2252216572078753e-05   2.7156500530894654e-06   -1.6090442940030432e-05
-4.2252216572078753e-05   2.7156500530894654e-06   -1.6090442940030432e-05
-5.454816225219188e-05   0.0   -3.653293832217467e-05
-5.454816225219188e-05   0.0   -3.653293832217467e-05
-5.454816225219188e-05   0.0   -3.653293832217467e-05
-5.454816225219188e-05   0.0   -3.653293832217467e-05
-3.159791231178015e-05   7.191186078055829e-06   6.032189892011626e-06
-3.159791231178015e-05   7.191186078055829e-06   6.032189892011626e-06
-3.159791231178015e-05   7.191186078055829e-06   6.032189892011626e-06
-3.159791231178015e-05   7.191186078055829e-06   6.032189892011626e-06
-3.157125288341876e-05   0.0   -3.2416825308899464e-05
-3.157125288341876e-05   0.0   -3.2416825308899464e-05
-3.157125288341876e-05   0.0   -3.2416825308899464e-05
-3.157125288341876e-05   0.0   -3.2416825308899464e-05
-5.809355832668389e-05   8.198794460607454e-06   6.867740420178105e-06
-5.809355832668389e-05   8.198794460607454e-06   6.867740420178105e-06
-5.809355832668389e-05   8.198794460607454e-06   6.867740420178105e-06
-5.809355832668389e-05   8.198794460607454e-06   6.867740420178105e-06
-4.3059707567805246e-05   3.4300941777293283e-06   -1.5327457341559423e-05
-4.3059707567805246e-05   3.4300941777293283e-06   -1.5327457341559423e-05
-4.3059707567805246e-05   3.4300941777293283e-06   -1.5327457341559423e-05
-4.3059707567805246e-05   3.4300941777293283e-06   -1.5327457341559423e-05
-3.216225291142218e-05   0.0   -2.995535431542409e-05
-3.216225291142218e-05   0.0   -2.995535431542409e-05
-3.216225291142218e-05   0.0   -2.995535431542409e-05
-3.216225291142218e-05   0.0   -2.995535431542409e-05
-1.4657174646693428e-05   2.045334662580205e-06   4.469769233386035e-07
-1.4657174646693428e-05   2.045334662580205e-06   4.469769233386035e-07
-1.4657174646693428e-05   2.045334662580205e-06   4.469769233386035e-07
-1.4657174646693428e-05   2.045334662580205e-06   4.469769233386035e-07
-1.408837330164017e-05   0.0   -2.9700471844037468e-05
-1.408837330164017e-05   0.0   -2.9700471844037468e-05
-1.408837330164017e-05   0.0   -2.9700471844037468e-05
-1.408837330164017e-05   0.0   -2.9700471844037468e-05
-3.1517942177978746e-05   2.917248495186287e-06   -2.4015394805850413e-06
-3.1517942177978746e-05   2.917248495186287e-06   -2.4015394805850413e-06
-3.1517942177978746e-05   2.917248495186287e-06   -2.4015394805850413e-06
-3.1517942177978746e-05   2.917248495186287e-06   -2.4015394805850413e-06
-2.3125313106531147e-05   2.1240205948880813e-07   -1.4766346738245779e-05
-2.3125313106531147e-05   2.1240205948880813e-07   -1.4766346738245779e-05
-2.3125313106531147e-05   2.1240205948880813e-07   -1.4766346738245779e-05
-2.3125313106531147e-05   2.1240205948880813e-07   -1.4766346738245779e-05
-3.151794217797872e-05   0.0   -3.145082094114926e-05
-3.151794217797872e-05   0.0   -3.145082094114926e-05
-3.151794217797872e-05   0.0   -3.145082094114926e-05
-3.151794217797872e-05   0.0   -3.145082094114926e-05
-1.408837330164017e-05   2.9172484951862804e-06   -6.511903834732697e-07
-1.408837330164017e-05   2.9172484951862804e-06   -6.511903834732697e-07
-1.408837330164017e-05   2.9172484951862804e-06   -6.511903834732697e-07
-1.408837330164017e-05   2.9172484951862804e-06   -6.511903834732697e-07
-1.376527229999005e-05   0.0   -3.0071449042221833e-05
-1.376527229999005e-05   0.0   -3.0071449042221833e-05
-1.376527229999005e-05   0.0   -3.0071449042221833e-05
-1.376527229999005e-05   0.0   -3.0071449042221833e-05
-3.15979123117802e-05   3.5779627218654534e-06   -2.4971599890242938e-06
-3.15979123117802e-05   3.5779627218654534e-06   -2.4971599890242938e-06
-3.15979123117802e-05   3.5779627218654534e-06   -2.4971599890242938e-06
-3.15979123117802e-05   3.5779627218654534e-06   -2.4971599890242938e-06
-2.2641607238984406e-05   1.149476582439503e-06   -1.5967243426695005e-05
-2.2641607238984406e-05   1.149476582439503e-06   -1.5967243426695005e-05
-2.2641607238984406e-05   1.149476582439503e-06   -1.5967243426695005e-05
-2.2641607238984406e-05   1.149476582439503e-06   -1.5967243426695005e-05
-3.15979123117802e-05   0.0   -3.221822667534116e-05
-3.15979123117802e-05   0.0   -3.221822667534116e-05
-3.15979123117802e-05   0.0   -3.221822667534116e-05
-3.15979123117802e-05   0.0   -3.221822667534116e-05
-1.3765272299990075e-05   3.5779627218654534e-06   -3.503823559050163e-07
-1.3765272299990075e-05   3.5779627218654534e-06   -3.503823559050163e-07
-1.3765272299990075e-05   3.5779627218654534e-06   -3.503823559050163e-07
-1.3765272299990075e-05   3.5779627218654534e-06   -3.503823559050163e-07
-1.34695906503329e-05   0.0   -2.9917530057068514e-05
-1.34695906503329e-05   0.0   -2.9917530057068514e-05
-1.34695906503329e-05   0.0   -2.9917530057068514e-05
-1.34695906503329e-05   0.0   -2.9917530057068514e-05
-3.157125288341868e-05   4.165492086384869e-06   -2.247388253756362e-06
-3.157125288341868e-05   4.165492086384869e-06   -2.247388253756362e-06
-3.157125288341868e-05   4.165492086384869e-06   -2.247388253756362e-06
-3.157125288341868e-05   4.165492086384869e-06   -2.247388253756362e-06
-2.2533751481056543e-05   1.9172471818938484e-06   -1.596094364833209e-05
-2.2533751481056543e-05   1.9172471818938484e-06   -1.596094364833209e-05
-2.2533751481056543e-05   1.9172471818938484e-06   -1.596094364833209e-05
-2.2533751481056543e-05   1.9172471818938484e-06   -1.596094364833209e-05
-1.4657174646693453e-05   0.0   -2.8728153517875966e-05
-1.4657174646693453e-05   0.0   -2.8728153517875966e-05
-1.4657174646693453e-05   0.0   -2.8728153517875966e-05
-1.4657174646693453e-05   0.0   -2.8728153517875966e-05
1.8742159409546021e-06   -2.6438502896974924e-07   -1.3344668891776941e-06
1.8742159409546021e-06   -2.6438502896974924e-07   -1.3344668891776941e-06
1.8742159409546021e-06   -2.6438502896974924e-07   -1.3344668891776941e-06
1.8742159409546021e-06   -2.6438502896974924e-07   -1.3344668891776941e-06
2.2414139848588784e-06   0.0   -2.9389541628511375e-05
2.2414139848588784e-06   0.0   -2.9389541628511375e-05
2.2414139848588784e-06   0.0   -2.9389541628511375e-05
2.2414139848588784e-06   0.0   -2.9389541628511375e-05
-1.408837330164017e-05   5.182170258767323e-07   -2.484159699872384e-06
-1.408837330164017e-05   5.182170258767323e-07   -2.484159699872384e-06
-1.408837330164017e-05   5.182170258767323e-07   -2.484159699872384e-06
-1.408837330164017e-05   5.182170258767323e-07   -2.484159699872384e-06
-6.207880330917272e-06   -5.511567588629283e-07   -1.4976690380233403e-05
-6.207880330917272e-06   -5.511567588629283e-07   -1.4976690380233403e-05
-6.207880330917272e-06   -5.511567588629283e-07   -1.4976690380233403e-05
-6.207880330917272e-06   -5.511567588629283e-07   -1.4976690380233403e-05
-1.4088373301640194e-05   0.0   -2.9700471844037522e-05
-1.4088373301640194e-05   0.0   -2.9700471844037522e-05
-1.4088373301640194e-05   0.0   -2.9700471844037522e-05
-1.4088373301640194e-05   0.0   -2.9700471844037522e-05
2.2414139848588827e-06   5.182170258767323e-07   -2.173229484346343e-06
2.2414139848588827e-06   5.182170258767323e-07   -2.173229484346343e-06
2.2414139848588827e-06   5.182170258767323e-07   -2.173229484346343e-06
2.2414139848588827e-06   5.182170258767323e-07   -2.173229484346343e-06
2.5324084289560408e-06   0.0   -2.934681076410455e-05
2.5324084289560408e-06   0.0   -2.934681076410455e-05
2.5324084289560408e-06   0.0   -2.934681076410455e-05
2.5324084289560408e-06   0.0   -2.934681076410455e-05
-1.3765272299990027e-05   1.2077304635287929e-06   -2.9086478273116822e-06
-1.3765272299990027e-05   1.2077304635287929e-06   -2.9086478273116822e-06
-1.3765272299990027e-05   1.2077304635287929e-06   -2.9086478273116822e-06
-1.3765272299990027e-05   1.2077304635287929e-06   -2.9086478273116822e-06
-5.777982436342065e-06   2.9471756661076273e-07   -1.567298986190749e-05
-5.777982436342065e-06   2.9471756661076273e-07   -1.567298986190749e-05
-5.777982436342065e-06   2.9471756661076273e-07   -1.567298986190749e-05
-5.777982436342065e-06   2.9471756661076273e-07   -1.567298986190749e-05
-1.3765272299990075e-05   0.0   -3.0071449042221884e-05
-1.3765272299990075e-05   0.0   -3.0071449042221884e-05
-1.3765272299990075e-05   0.0   -3.0071449042221884e-05
-1.3765272299990075e-05   0.0   -3.0071449042221884e-05
2.5324084289560454e-06   1.2077304635288064e-06   -2.184009549194409e-06
2.5324084289560454e-06   1.2077304635288064e-06   -2.184009549194409e-06
2.5324084289560454e-06   1.2077304635288064e-06   -2.184009549194409e-06
2.5324084289560454e-06   1.2077304635288064e-06   -2.184009549194409e-06
2.9209831097378217e-06   0.0   -2.8714030474046585e-05
2.9209831097378217e-06   0.0   -2.8714030474046585e-05
2.9209831097378217e-06   0.0   -2.8714030474046585e-05
2.9209831097378217e-06   0.0   -2.8714030474046585e-05
-1.346959065033289e-05   2.005832638369838e-06   -2.5999071236173074e-06
-1.346959065033289e-05   2.005832638369838e-06   -2.5999071236173074e-06
-1.346959065033289e-05   2.005832638369838e-06   -2.5999071236173074e-06
-1.346959065033289e-05   2.005832638369838e-06   -2.5999071236173074e-06
-5.422144595126115e-06   1.1311821401460406e-06   -1.5487526916694304e-05
-5.422144595126115e-06   1.1311821401460406e-06   -1.5487526916694304e-05
-5.422144595126115e-06   1.1311821401460406e-06   -1.5487526916694304e-05
-5.422144595126115e-06   1.1311821401460406e-06   -1.5487526916694304e-05
1.8742159409546055e-06   0.0   -2.8886784535257814e-05
1.8742159409546055e-06   0.0   -2.8886784535257814e-05
1.8742159409546055e-06   0.0   -2.8886784535257814e-05
1.8742159409546055e-06   0.0   -2.8886784535257814e-05
1.982637583732677e-05   -2.3254783560621e-06   -3.618050549413361e-07
1.982637583732677e-05   -2.3254783560621e-06   -3.618050549413361e-07
1.982637583732677e-05   -2.3254783560621e-06   -3.618050549413361e-07
1.982637583732677e-05   -2.3254783560621e-06   -3.618050549413361e-07
1.987252772158897e-05   0.0   -3.043989549149874e-05
1.987252772158897e-05   0.0   -3.043989549149874e-05
1.987252772158897e-05   0.0   -3.043989549149874e-05
1.987252772158897e-05   0.0   -3.043989549149874e-05
2.2414139848588827e-06   -1.750589771645429e-06   -4.3520672946744936e-09
2.2414139848588827e-06   -1.750589771645429e-06   -4.3520672946744936e-09
2.2414139848588827e-06   -1.750589771645429e-06   -4.3520672946744936e-09
2.2414139848588827e-06   -1.750589771645429e-06   -4.3520672946744936e-09
1.0873371831271787e-05   -1.2942591302007716e-06   -1.466474686284963e-05
1.0873371831271787e-05   -1.2942591302007716e-06   -1.466474686284963e-05
1.0873371831271787e-05   -1.2942591302007716e-06   -1.466474686284963e-05
1.0873371831271787e-05   -1.2942591302007716e-06   -1.466474686284963e-05
2.2414139848588865e-06   0.0   -2.938954162851148e-05
2.2414139848588865e-06   0.0   -2.938954162851148e-05
2.2414139848588865e-06   0.0   -2.938954162851148e-05
2.2414139848588865e-06   0.0   -2.938954162851148e-05
1.9872527721588937e-05   -1.750589771645429e-06   -1.0547059302819361e-06
1.9872527721588937e-05   -1.750589771645429e-06   -1.0547059302819361e-06
1.9872527721588937e-05   -1.750589771645429e-06   -1.0547059302819361e-06
1.9872527721588937e-05   -1.750589771645429e-06   -1.0547059302819361e-06
1.9796807612471932e-05   0.0   -3.0005303346386365e-05
1.9796807612471932e-05   0.0   -3.0005303346386365e-05
1.9796807612471932e-05   0.0   -3.0005303346386365e-05
1.9796807612471932e-05   0.0   -3.0005303346386365e-05
2.5324084289560454e-06   -1.0974876371362707e-06   -5.72812124911461e-07
2.5324084289560454e-06   -1.0974876371362707e-06   -5.72812124911461e-07
2.5324084289560454e-06   -1.0974876371362707e-06   -5.72812124911461e-07
2.5324084289560454e-06   -1.0974876371362707e-06   -5.72812124911461e-07
1.101911079866541e-05   -5.131347648957387e-07   -1.5067927797771374e-05
1.101911079866541e-05   -5.131347648957387e-07   -1.5067927797771374e-05
1.101911079866541e-05   -5.131347648957387e-07   -1.5067927797771374e-05
1.101911079866541e-05   -5.131347648957387e-07   -1.5067927797771374e-05
2.5324084289560454e-06   0.0   -2.9346810764104606e-05
2.5324084289560454e-06   0.0   -2.9346810764104606e-05
2.5324084289560454e-06   0.0   -2.9346810764104606e-05
2.5324084289560454e-06   0.0   -2.9346810764104606e-05
1.9796807612471898e-05   -1.0974876371362707e-06   -1.2313047071932224e-06
1.9796807612471898e-05   -1.0974876371362707e-06   -1.2313047071932224e-06
1.9796807612471898e-05   -1.0974876371362707e-06   -1.2313047071932224e-06
1.9796807612471898e-05   -1.0974876371362707e-06   -1.2313047071932224e-06
2.0189235753833504e-05   0.0   -2.8846292355598133e-05
2.0189235753833504e-05   0.0   -2.8846292355598133e-05
2.0189235753833504e-05   0.0   -2.8846292355598133e-05
2.0189235753833504e-05   0.0   -2.8846292355598133e-05
2.9209831097378268e-06   -2.2043646925249934e-07   6.639059944615619e-08
2.9209831097378268e-06   -2.2043646925249934e-07   6.639059944615619e-08
2.9209831097378268e-06   -2.2043646925249934e-07   6.639059944615619e-08
2.9209831097378268e-06   -2.2043646925249934e-07   6.639059944615619e-08
1.1360822091394775e-05   4.1709867375539113e-07   -1.4382528789120142e-05
1.1360822091394775e-05   4.1709867375539113e-07   -1.4382528789120142e-05
1.1360822091394775e-05   4.1709867375539113e-07   -1.4382528789120142e-05
1.1360822091394775e-05   4.1709867375539113e-07   -1.4382528789120142e-05
1.9826375837326836e-05   0.0   -3.0282071548895077e-05
1.9826375837326836e-05   0.0   -3.0282071548895077e-05
1.9826375837326836e-05   0.0   -3.0282071548895077e-05
1.9826375837326836e-05   0.0   -3.0282071548895077e-05
4.4818492616071575e-05   -5.902407897992366e-06   7.830011676884216e-06
4.4818492616071575e-05   -5.902407897992366e-06   7.830011676884216e-06
4.4818492616071575e-05   -5.902407897992366e-06   7.830011676884216e-06
4.4818492616071575e-05   -5.902407897992366e-06   7.830011676884216e-06
4.210595204936367e-05   0.0   -3.3449648038128304e-05
4.210595204936367e-05   0.0   -3.3449648038128304e-05
4.210595204936367e-05   0.0   -3.3449648038128304e-05
4.210595204936367e-05   0.0   -3.3449648038128304e-05
1.9872527721588937e-05   -5.016254244382601e-06   6.615811721459082e-06
1.9872527721588937e-05   -5.016254244382601e-06   6.615811721459082e-06
1.9872527721588937e-05   -5.016254244382601e-06   6.615811721459082e-06
1.9872527721588937e-05   -5.016254244382601e-06   6.615811721459082e-06
3.0966163943345256e-05   -2.6396470743610287e-06   -1.3299546283480981e-05
3.0966163943345256e-05   -2.6396470743610287e-06   -1.3299546283480981e-05
3.0966163943345256e-05   -2.6396470743610287e-06   -1.3299546283480981e-05
3.0966163943345256e-05   -2.6396470743610287e-06   -1.3299546283480981e-05
1.9872527721588954e-05   0.0   -3.0439895491498714e-05
1.9872527721588954e-05   0.0   -3.0439895491498714e-05
1.9872527721588954e-05   0.0   -3.0439895491498714e-05
1.9872527721588954e-05   0.0   -3.0439895491498714e-05
4.210595204936367e-05   -5.0162542443826075e-06   3.606059174829525e-06
4.210595204936367e-05   -5.0162542443826075e-06   3.606059174829525e-06
4.210595204936367e-05   -5.0162542443826075e-06   3.606059174829525e-06
4.210595204936367e-05   -5.0162542443826075e-06   3.606059174829525e-06
4.085933297451609e-05   0.0   -3.275431449443473e-05
4.085933297451609e-05   0.0   -3.275431449443473e-05
4.085933297451609e-05   0.0   -3.275431449443473e-05
4.085933297451609e-05   0.0   -3.275431449443473e-05
1.9796807612471898e-05   -4.581685246747267e-06   5.09890559035389e-06
1.9796807612471898e-05   -4.581685246747267e-06   5.09890559035389e-06
1.9796807612471898e-05   -4.581685246747267e-06   5.09890559035389e-06
1.9796807612471898e-05   -4.581685246747267e-06   5.09890559035389e-06
3.036593034805251e-05   -1.928682502446661e-06   -1.4108100615527446e-05
3.036593034805251e-05   -1.928682502446661e-06   -1.4108100615527446e-05
3.036593034805251e-05   -1.928682502446661e-06   -1.4108100615527446e-05
3.036593034805251e-05   -1.928682502446661e-06   -1.4108100615527446e-05
1.9796807612471932e-05   0.0   -3.0005303346386365e-05
1.9796807612471932e-05   0.0   -3.0005303346386365e-05
1.9796807612471932e-05   0.0   -3.0005303346386365e-05
1.9796807612471932e-05   0.0   -3.0005303346386365e-05
4.085933297451602e-05   -4.581685246747267e-06   2.3498944423055274e-06
4.085933297451602e-05   -4.581685246747267e-06   2.3498944423055274e-06
4.085933297451602e-05   -4.581685246747267e-06   2.3498944423055274e-06
4.085933297451602e-05   -4.581685246747267e-06   2.3498944423055274e-06
3.899690401126673e-05   0.0   -3.097883096028168e-05
3.899690401126673e-05   0.0   -3.097883096028168e-05
3.899690401126673e-05   0.0   -3.097883096028168e-05
3.899690401126673e-05   0.0   -3.097883096028168e-05
2.018923575383345e-05   -3.554231007805902e-06   2.499821406790592e-06
2.018923575383345e-05   -3.554231007805902e-06   2.499821406790592e-06
2.018923575383345e-05   -3.554231007805902e-06   2.499821406790592e-06
2.018923575383345e-05   -3.554231007805902e-06   2.499821406790592e-06
2.939685581186928e-05   -8.112730115794245e-07   -1.4491986821004988e-05
2.939685581186928e-05   -8.112730115794245e-07   -1.4491986821004988e-05
2.939685581186928e-05   -8.112730115794245e-07   -1.4491986821004988e-05
2.939685581186928e-05   -8.112730115794245e-07   -1.4491986821004988e-05
-4.378051475921768e-05   5.585260096377702e-06   -2.880669767062047e-05
-4.378051475921768e-05   5.585260096377702e-06   -2.880669767062047e-05
-4.378051475921768e-05   5.585260096377702e-06   -2.880669767062047e-05
-4.378051475921768e-05   5.585260096377702e-06   -2.880669767062047e-05
-2.8049172551469514e-05   5.017267864357468e-06   -2.928589330252333e-06
-2.8049172551469514e-05   5.017267864357468e-06   -2.928589330252333e-06
-2.8049172551469514e-05   5.017267864357468e-06   -2.928589330252333e-06
-2.8049172551469514e-05   5.017267864357468e-06   -2.928589330252333e-06
-2.875018636319251e-05   6.710309663165358e-06   -2.420068907802945e-05
-2.875018636319251e-05   6.710309663165358e-06   -2.420068907802945e-05
-2.875018636319251e-05   6.710309663165358e-06   -2.420068907802945e-05
-2.875018636319251e-05   6.710309663165358e-06   -2.420068907802945e-05
-4.4244568344002786e-05   6.0268308788220565e-06   2.0333681605936714e-06
-4.4244568344002786e-05   6.0268308788220565e-06   2.0333681605936714e-06
-4.4244568344002786e-05   6.0268308788220565e-06   2.0333681605936714e-06
-4.4244568344002786e-05   6.0268308788220565e-06   2.0333681605936714e-06
-3.4771503924432865e-05   5.836551382563268e-06   -1.3640904840934369e-05
-3.4771503924432865e-05   5.836551382563268e-06   -1.3640904840934369e-05
-3.4771503924432865e-05   5.836551382563268e-06   -1.3640904840934369e-05
-3.4771503924432865e-05   5.836551382563268e-06   -1.3640904840934369e-05
-4.4244568344002786e-05   6.7103096631653586e-06   -2.3790601807423462e-05
-4.4244568344002786e-05   6.7103096631653586e-06   -2.3790601807423462e-05
-4.4244568344002786e-05   6.7103096631653586e-06   -2.3790601807423462e-05
-4.4244568344002786e-05   6.7103096631653586e-06   -2.3790601807423462e-05
-2.8750186363192613e-05   6.0268308788220565e-06   1.623280889987791e-06
-2.8750186363192613e-05   6.0268308788220565e-06   1.623280889987791e-06
-2.8750186363192613e-05   6.0268308788220565e-06   1.623280889987791e-06
-2.8750186363192613e-05   6.0268308788220565e-06   1.623280889987791e-06
-2.889206627012282e-05   7.191186078055822e-06   -2.1763399572807975e-05
-2.889206627012282e-05   7.191186078055822e-06   -2.1763399572807975e-05
-2.889206627012282e-05   7.191186078055822e-06   -2.1763399572807975e-05
-2.889206627012282e-05   7.191186078055822e-06   -2.1763399572807975e-05
-4.4547421840092065e-05   6.4826665898120315e-06   4.753971403420295e-06
-4.4547421840092065e-05   6.4826665898120315e-06   4.753971403420295e-06
-4.4547421840092065e-05   6.4826665898120315e-06   4.753971403420295e-06
-4.4547421840092065e-05   6.4826665898120315e-06   4.753971403420295e-06
-3.578748166405638e-05   6.471095168883285e-06   -9.838986037415234e-06
-3.578748166405638e-05   6.471095168883285e-06   -9.838986037415234e-06
-3.578748166405638e-05   6.471095168883285e-06   -9.838986037415234e-06
-3.578748166405638e-05   6.471095168883285e-06   -9.838986037415234e-06
-4.454742184009199e-05   7.19118607805582e-06   -2.1338287879861677e-05
-4.454742184009199e-05   7.19118607805582e-06   -2.1338287879861677e-05
-4.454742184009199e-05   7.19118607805582e-06   -2.1338287879861677e-05
-4.454742184009199e-05   7.19118607805582e-06   -2.1338287879861677e-05
-2.8892066270122874e-05   6.4826665898120315e-06   4.328859710473943e-06
-2.8892066270122874e-05   6.4826665898120315e-06   4.328859710473943e-06
-2.8892066270122874e-05   6.4826665898120315e-06   4.328859710473943e-06
-2.8892066270122874e-05   6.4826665898120315e-06   4.328859710473943e-06
-2.8722420280943118e-05   8.19879446060744e-06   -1.609769597436648e-05
-2.8722420280943118e-05   8.19879446060744e-06   -1.609769597436648e-05
-2.8722420280943118e-05   8.19879446060744e-06   -1.609769597436648e-05
-2.8722420280943118e-05   8.19879446060744e-06   -1.609769597436648e-05
-4.329968005781974e-05   6.847800556026239e-06   9.00833332984313e-06
-4.329968005781974e-05   6.847800556026239e-06   9.00833332984313e-06
-4.329968005781974e-05   6.847800556026239e-06   9.00833332984313e-06
-4.329968005781974e-05   6.847800556026239e-06   9.00833332984313e-06
-3.484889330909084e-05   7.100961992169934e-06   -5.228208113057886e-06
-3.484889330909084e-05   7.100961992169934e-06   -5.228208113057886e-06
-3.484889330909084e-05   7.100961992169934e-06   -5.228208113057886e-06
-3.484889330909084e-05   7.100961992169934e-06   -5.228208113057886e-06
-2.8049172551469514e-05   2.0453346625801992e-06   -3.064050487004158e-05
-2.8049172551469514e-05   2.0453346625801992e-06   -3.064050487004158e-05
-2.8049172551469514e-05   2.0453346625801992e-06   -3.064050487004158e-05
-2.8049172551469514e-05   2.0453346625801992e-06   -3.064050487004158e-05
-1.330576135138945e-05   2.3347833841641465e-06   -5.894483636957732e-06
-1.330576135138945e-05   2.3347833841641465e-06   -5.894483636957732e-06
-1.330576135138945e-05   2.3347833841641465e-06   -5.894483636957732e-06
-1.330576135138945e-05   2.3347833841641465e-06   -5.894483636957732e-06
-1.361863864253675e-05   2.9172484951862804e-06   -3.0591572654544544e-05
-1.361863864253675e-05   2.9172484951862804e-06   -3.0591572654544544e-05
-1.361863864253675e-05   2.9172484951862804e-06   -3.0591572654544544e-05
-1.361863864253675e-05   2.9172484951862804e-06   -3.0591572654544544e-05
-2.875018636319251e-05   3.26302525116158e-06   -5.579792507036675e-06
-2.875018636319251e-05   3.26302525116158e-06   -5.579792507036675e-06
-2.875018636319251e-05   3.26302525116158e-06   -5.579792507036675e-06
-2.875018636319251e-05   3.26302525116158e-06   -5.579792507036675e-06
-2.0871660291198248e-05   2.626942575672717e-06   -1.8329019688400568e-05
-2.0871660291198248e-05   2.626942575672717e-06   -1.8329019688400568e-05
-2.0871660291198248e-05   2.626942575672717e-06   -1.8329019688400568e-05
-2.0871660291198248e-05   2.626942575672717e-06   -1.8329019688400568e-05
-2.8750186363192484e-05   2.9172484951862753e-06   -3.079903870812962e-05
-2.8750186363192484e-05   2.9172484951862753e-06   -3.079903870812962e-05
-2.8750186363192484e-05   2.9172484951862753e-06   -3.079903870812962e-05
-2.8750186363192484e-05   2.9172484951862753e-06   -3.079903870812962e-05
-1.3618638642536725e-05   3.26302525116158e-06   -5.372326453451447e-06
-1.3618638642536725e-05   3.26302525116158e-06   -5.372326453451447e-06
-1.3618638642536725e-05   3.26302525116158e-06   -5.372326453451447e-06
-1.3618638642536725e-05   3.26302525116158e-06   -5.372326453451447e-06
-1.371329624101651e-05   3.5779627218654534e-06   -3.0020348689571114e-05
-1.371329624101651e-05   3.5779627218654534e-06   -3.0020348689571114e-05
-1.371329624101651e-05   3.5779627218654534e-06   -3.0020348689571114e-05
-1.371329624101651e-05   3.5779627218654534e-06   -3.0020348689571114e-05
-2.8892066270122823e-05   4.031963995653447e-06   -4.994799405333298e-06
-2.8892066270122823e-05   4.031963995653447e-06   -4.994799405333298e-06
-2.8892066270122823e-05   4.031963995653447e-06   -4.994799405333298e-06
-2.8892066270122823e-05   4.031963995653447e-06   -4.994799405333298e-06
-2.1030205734378735e-05   3.336692935864189e-06   -1.768073766236656e-05
-2.1030205734378735e-05   3.336692935864189e-06   -1.768073766236656e-05
-2.1030205734378735e-05   3.336692935864189e-06   -1.768073766236656e-05
-2.1030205734378735e-05   3.336692935864189e-06   -1.768073766236656e-05
-2.889206627012282e-05   3.577962721865443e-06   -3.0292749453843875e-05
-2.889206627012282e-05   3.577962721865443e-06   -3.0292749453843875e-05
-2.889206627012282e-05   3.577962721865443e-06   -3.0292749453843875e-05
-2.889206627012282e-05   3.577962721865443e-06   -3.0292749453843875e-05
-1.3713296241016534e-05   4.031963995653447e-06   -4.722398641060554e-06
-1.3713296241016534e-05   4.031963995653447e-06   -4.722398641060554e-06
-1.3713296241016534e-05   4.031963995653447e-06   -4.722398641060554e-06
-1.3713296241016534e-05   4.031963995653447e-06   -4.722398641060554e-06
-1.367491975551741e-05   4.165492086384876e-06   -2.9715504991214368e-05
-1.367491975551741e-05   4.165492086384876e-06   -2.9715504991214368e-05
-1.367491975551741e-05   4.165492086384876e-06   -2.9715504991214368e-05
-1.367491975551741e-05   4.165492086384876e-06   -2.9715504991214368e-05
-2.872242028094309e-05   4.859819308803299e-06   -5.052933782289222e-06
-2.872242028094309e-05   4.859819308803299e-06   -5.052933782289222e-06
-2.872242028094309e-05   4.859819308803299e-06   -5.052933782289222e-06
-2.872242028094309e-05   4.859819308803299e-06   -5.052933782289222e-06
-2.1148981902172266e-05   3.979122482294567e-06   -1.714691298433544e-05
-2.1148981902172266e-05   3.979122482294567e-06   -1.714691298433544e-05
-2.1148981902172266e-05   3.979122482294567e-06   -1.714691298433544e-05
-2.1148981902172266e-05   3.979122482294567e-06   -1.714691298433544e-05
-1.3305761351389425e-05   -2.643850289697453e-07   -3.208964843222566e-05
-1.3305761351389425e-05   -2.643850289697453e-07   -3.208964843222566e-05
-1.3305761351389425e-05   -2.643850289697453e-07   -3.208964843222566e-05
-1.3305761351389425e-05   -2.643850289697453e-07   -3.208964843222566e-05
1.2508115736555911e-06   -7.098301060034628e-08   -7.712652346128982e-06
1.2508115736555911e-06   -7.098301060034628e-08   -7.712652346128982e-06
1.2508115736555911e-06   -7.098301060034628e-08   -7.712652346128982e-06
1.2508115736555911e-06   -7.098301060034628e-08   -7.712652346128982e-06
1.1956273738826178e-06   5.18217025876739e-07   -3.226475131477999e-05
1.1956273738826178e-06   5.18217025876739e-07   -3.226475131477999e-05
1.1956273738826178e-06   5.18217025876739e-07   -3.226475131477999e-05
1.1956273738826178e-06   5.18217025876739e-07   -3.226475131477999e-05
-1.3618638642536726e-05   7.845347861494035e-07   -7.734098610244676e-06
-1.3618638642536726e-05   7.845347861494035e-07   -7.734098610244676e-06
-1.3618638642536726e-05   7.845347861494035e-07   -7.734098610244676e-06
-1.3618638642536726e-05   7.845347861494035e-07   -7.734098610244676e-06
-6.155868639327893e-06   2.6100151458735457e-07   -1.985792865265551e-05
-6.155868639327893e-06   2.6100151458735457e-07   -1.985792865265551e-05
-6.155868639327893e-06   2.6100151458735457e-07   -1.985792865265551e-05
-6.155868639327893e-06   2.6100151458735457e-07   -1.985792865265551e-05
-1.3618638642536725e-05   5.18217025876737e-07   -3.2424541970943594e-05
-1.3618638642536725e-05   5.18217025876737e-07   -3.2424541970943594e-05
-1.3618638642536725e-05   5.18217025876737e-07   -3.2424541970943594e-05
-1.3618638642536725e-05   5.18217025876737e-07   -3.2424541970943594e-05
1.1956273738826195e-06   7.845347861494035e-07   -7.574307954081031e-06
1.1956273738826195e-06   7.845347861494035e-07   -7.574307954081031e-06
1.1956273738826195e-06   7.845347861494035e-07   -7.574307954081031e-06
1.1956273738826195e-06   7.845347861494035e-07   -7.574307954081031e-06
1.1192331430340023e-06   1.2077304635287997e-06   -3.233088295462899e-05
1.1192331430340023e-06   1.2077304635287997e-06   -3.233088295462899e-05
1.1192331430340023e-06   1.2077304635287997e-06   -3.233088295462899e-05
1.1192331430340023e-06   1.2077304635287997e-06   -3.233088295462899e-05
-1.3713296241016485e-05   1.6206158074433697e-06   -7.857731854226923e-06
-1.3713296241016485e-05   1.6206158074433697e-06   -7.857731854226923e-06
-1.3713296241016485e-05   1.6206158074433697e-06   -7.857731854226923e-06
-1.3713296241016485e-05   1.6206158074433697e-06   -7.857731854226923e-06
-6.265756028527853e-06   9.856153660107433e-07   -1.988929861018175e-05
-6.265756028527853e-06   9.856153660107433e-07   -1.988929861018175e-05
-6.265756028527853e-06   9.856153660107433e-07   -1.988929861018175e-05
-6.265756028527853e-06   9.856153660107433e-07   -1.988929861018175e-05
-1.3713296241016487e-05   1.207730463528802e-06   -3.257861416097774e-05
-1.3713296241016487e-05   1.207730463528802e-06   -3.257861416097774e-05
-1.3713296241016487e-05   1.207730463528802e-06   -3.257861416097774e-05
-1.3713296241016487e-05   1.207730463528802e-06   -3.257861416097774e-05
1.1192331430340023e-06   1.6206158074433697e-06   -7.610000647878212e-06
1.1192331430340023e-06   1.6206158074433697e-06   -7.610000647878212e-06
1.1192331430340023e-06   1.6206158074433697e-06   -7.610000647878212e-06
1.1192331430340023e-06   1.6206158074433697e-06   -7.610000647878212e-06
9.597986972541577e-07   2.005832638369838e-06   -3.2275905509517634e-05
9.597986972541577e-07   2.005832638369838e-06   -3.2275905509517634e-05
9.597986972541577e-07   2.005832638369838e-06   -3.2275905509517634e-05
9.597986972541577e-07   2.005832638369838e-06   -3.2275905509517634e-05
-1.3674919755517397e-05   2.4915219773508014e-06   -8.176121691620327e-06
-1.3674919755517397e-05   2.4915219773508014e-06   -8.176121691620327e-06
-1.3674919755517397e-05   2.4915219773508014e-06   -8.176121691620327e-06
-1.3674919755517397e-05   2.4915219773508014e-06   -8.176121691620327e-06
-6.3303022563188544e-06   1.7300206617152167e-06   -1.9960250067569843e-05
-6.3303022563188544e-06   1.7300206617152167e-06   -1.9960250067569843e-05
-6.3303022563188544e-06   1.7300206617152167e-06   -1.9960250067569843e-05
-6.3303022563188544e-06   1.7300206617152167e-06   -1.9960250067569843e-05
1.2508115736555911e-06   -2.325478356062101e-06   -2.960565837333041e-05
1.2508115736555911e-06   -2.325478356062101e-06   -2.960565837333041e-05
1.2508115736555911e-06   -2.325478356062101e-06   -2.960565837333041e-05
1.2508115736555911e-06   -2.325478356062101e-06   -2.960565837333041e-05
1.625134259538085e-05   -2.390389163382735e-06   -4.643719821514016e-06
1.625134259538085e-05   -2.390389163382735e-06   -4.643719821514016e-06
1.625134259538085e-05   -2.390389163382735e-06   -4.643719821514016e-06
1.625134259538085e-05   -2.390389163382735e-06   -4.643719821514016e-06
1.639024309463847e-05   -1.750589771645429e-06   -3.0012751545781178e-05
1.639024309463847e-05   -1.750589771645429e-06   -3.0012751545781178e-05
1.639024309463847e-05   -1.750589771645429e-06   -3.0012751545781178e-05
1.639024309463847e-05   -1.750589771645429e-06   -3.0012751545781178e-05
1.1956273738826195e-06   -1.6120525184002029e-06   -4.771514363135218e-06
1.1956273738826195e-06   -1.6120525184002029e-06   -4.771514363135218e-06
1.1956273738826195e-06   -1.6120525184002029e-06   -4.771514363135218e-06
1.1956273738826195e-06   -1.6120525184002029e-06   -4.771514363135218e-06
8.660004254325958e-06   -1.9313809302819797e-06   -1.7020545450078384e-05
8.660004254325958e-06   -1.9313809302819797e-06   -1.7020545450078384e-05
8.660004254325958e-06   -1.9313809302819797e-06   -1.7020545450078384e-05
8.660004254325958e-06   -1.9313809302819797e-06   -1.7020545450078384e-05
1.1956273738826178e-06   -1.7505897716454316e-06   -3.0095873897728327e-05
1.1956273738826178e-06   -1.7505897716454316e-06   -3.0095873897728327e-05
1.1956273738826178e-06   -1.7505897716454316e-06   -3.0095873897728327e-05
1.1956273738826178e-06   -1.7505897716454316e-06   -3.0095873897728327e-05
1.639024309463847e-05   -1.6120525184001758e-06   -4.6883920111880165e-06
1.639024309463847e-05   -1.6120525184001758e-06   -4.6883920111880165e-06
1.639024309463847e-05   -1.6120525184001758e-06   -4.6883920111880165e-06
1.639024309463847e-05   -1.6120525184001758e-06   -4.6883920111880165e-06
1.6315193260219977e-05   -1.0974876371362707e-06   -3.057135335791231e-05
1.6315193260219977e-05   -1.0974876371362707e-06   -3.057135335791231e-05
1.6315193260219977e-05   -1.0974876371362707e-06   -3.057135335791231e-05
1.6315193260219977e-05   -1.0974876371362707e-06   -3.057135335791231e-05
1.1192331430340023e-06   -8.502673497465826e-07   -5.393085335036139e-06
1.1192331430340023e-06   -8.502673497465826e-07   -5.393085335036139e-06
1.1192331430340023e-06   -8.502673497465826e-07   -5.393085335036139e-06
1.1192331430340023e-06   -8.502673497465826e-07   -5.393085335036139e-06
8.5720530404442e-06   -1.310945819524398e-06   -1.7538044748853122e-05
8.5720530404442e-06   -1.310945819524398e-06   -1.7538044748853122e-05
8.5720530404442e-06   -1.310945819524398e-06   -1.7538044748853122e-05
8.5720530404442e-06   -1.310945819524398e-06   -1.7538044748853122e-05
1.1192331430340023e-06   -1.097487637136263e-06   -3.071968553034606e-05
1.1192331430340023e-06   -1.097487637136263e-06   -3.071968553034606e-05
1.1192331430340023e-06   -1.097487637136263e-06   -3.071968553034606e-05
1.1192331430340023e-06   -1.097487637136263e-06   -3.071968553034606e-05
1.6315193260219977e-05   -8.502673497466097e-07   -5.244753162602386e-06
1.6315193260219977e-05   -8.502673497466097e-07   -5.244753162602386e-06
1.6315193260219977e-05   -8.502673497466097e-07   -5.244753162602386e-06
1.6315193260219977e-05   -8.502673497466097e-07   -5.244753162602386e-06
1.5842458114552947e-05   -2.2043646925249256e-07   -3.062614023488829e-05
1.5842458114552947e-05   -2.2043646925249256e-07   -3.062614023488829e-05
1.5842458114552947e-05   -2.2043646925249256e-07   -3.062614023488829e-05
1.5842458114552947e-05   -2.2043646925249256e-07   -3.062614023488829e-05
9.597986972541579e-07   9.117542172716229e-08   -6.008675007311448e-06
9.597986972541579e-07   9.117542172716229e-08   -6.008675007311448e-06
9.597986972541579e-07   9.117542172716229e-08   -6.008675007311448e-06
9.597986972541579e-07   9.117542172716229e-08   -6.008675007311448e-06
8.482772359083383e-06   -5.863596688959413e-07   -1.8140443389319617e-05
8.482772359083383e-06   -5.863596688959413e-07   -1.8140443389319617e-05
8.482772359083383e-06   -5.863596688959413e-07   -1.8140443389319617e-05
8.482772359083383e-06   -5.863596688959413e-07   -1.8140443389319617e-05
1.625134259538085e-05   -5.902407897992355e-06   -1.7911343387101843e-05
1.625134259538085e-05   -5.902407897992355e-06   -1.7911343387101843e-05
1.625134259538085e-05   -5.902407897992355e-06   -1.7911343387101843e-05
1.625134259538085e-05   -5.902407897992355e-06   -1.7911343387101843e-05
3.1045530670046695e-05   -4.438184212150336e-06   7.624170948846435e-06
3.1045530670046695e-05   -4.438184212150336e-06   7.624170948846435e-06
3.1045530670046695e-05   -4.438184212150336e-06   7.624170948846435e-06
3.1045530670046695e-05   -4.438184212150336e-06   7.624170948846435e-06
3.223958793059271e-05   -5.0162542443826075e-06   -2.174544527913384e-05
3.223958793059271e-05   -5.0162542443826075e-06   -2.174544527913384e-05
3.223958793059271e-05   -5.0162542443826075e-06   -2.174544527913384e-05
3.223958793059271e-05   -5.0162542443826075e-06   -2.174544527913384e-05
1.63902430946385e-05   -4.021606552871969e-06   4.073340832550164e-06
1.63902430946385e-05   -4.021606552871969e-06   4.073340832550164e-06
1.63902430946385e-05   -4.021606552871969e-06   4.073340832550164e-06
1.63902430946385e-05   -4.021606552871969e-06   4.073340832550164e-06
2.2866119037501736e-05   -4.8228986882000585e-06   -6.239010457691739e-06
2.2866119037501736e-05   -4.8228986882000585e-06   -6.239010457691739e-06
2.2866119037501736e-05   -4.8228986882000585e-06   -6.239010457691739e-06
2.2866119037501736e-05   -4.8228986882000585e-06   -6.239010457691739e-06
1.6390243094638458e-05   -5.0162542443826e-06   -2.234223389404011e-05
1.6390243094638458e-05   -5.0162542443826e-06   -2.234223389404011e-05
1.6390243094638458e-05   -5.0162542443826e-06   -2.234223389404011e-05
1.6390243094638458e-05   -5.0162542443826e-06   -2.234223389404011e-05
3.223958793059264e-05   -4.0216065528719965e-06   4.670129447456573e-06
3.223958793059264e-05   -4.0216065528719965e-06   4.670129447456573e-06
3.223958793059264e-05   -4.0216065528719965e-06   4.670129447456573e-06
3.223958793059264e-05   -4.0216065528719965e-06   4.670129447456573e-06
3.2127036481322824e-05   -4.581685246747267e-06   -2.3642140565669437e-05
3.2127036481322824e-05   -4.581685246747267e-06   -2.3642140565669437e-05
3.2127036481322824e-05   -4.581685246747267e-06   -2.3642140565669437e-05
3.2127036481322824e-05   -4.581685246747267e-06   -2.3642140565669437e-05
1.6315193260219977e-05   -3.5833477555877093e-06   2.111928974806335e-06
1.6315193260219977e-05   -3.5833477555877093e-06   2.111928974806335e-06
1.6315193260219977e-05   -3.5833477555877093e-06   2.111928974806335e-06
1.6315193260219977e-05   -3.5833477555877093e-06   2.111928974806335e-06
2.367319030511539e-05   -4.255976741741326e-06   -9.747822041660559e-06
2.367319030511539e-05   -4.255976741741326e-06   -9.747822041660559e-06
2.367319030511539e-05   -4.255976741741326e-06   -9.747822041660559e-06
2.367319030511539e-05   -4.255976741741326e-06   -9.747822041660559e-06
1.631519326021995e-05   -4.581685246747265e-06   -2.424114306036515e-05
1.631519326021995e-05   -4.581685246747265e-06   -2.424114306036515e-05
1.631519326021995e-05   -4.581685246747265e-06   -2.424114306036515e-05
1.631519326021995e-05   -4.581685246747265e-06   -2.424114306036515e-05
3.2127036481322824e-05   -3.5833477555877093e-06   2.710931469502014e-06
3.2127036481322824e-05   -3.5833477555877093e-06   2.710931469502014e-06
3.2127036481322824e-05   -3.5833477555877093e-06   2.710931469502014e-06
3.2127036481322824e-05   -3.5833477555877093e-06   2.710931469502014e-06
3.194218570091417e-05   -3.554231007805902e-06   -2.7512305021337178e-05
3.194218570091417e-05   -3.554231007805902e-06   -2.7512305021337178e-05
3.194218570091417e-05   -3.554231007805902e-06   -2.7512305021337178e-05
3.194218570091417e-05   -3.554231007805902e-06   -2.7512305021337178e-05
1.5842458114552964e-05   -2.6406601333805644e-06   -1.2275682353903212e-06
1.5842458114552964e-05   -2.6406601333805644e-06   -1.2275682353903212e-06
1.5842458114552964e-05   -2.6406601333805644e-06   -1.2275682353903212e-06
1.5842458114552964e-05   -2.6406601333805644e-06   -1.2275682353903212e-06
2.3001260928261655e-05   -3.662180449460326e-06   -1.2545994068590297e-05
2.3001260928261655e-05   -3.662180449460326e-06   -1.2545994068590297e-05
2.3001260928261655e-05   -3.662180449460326e-06   -1.2545994068590297e-05
2.3001260928261655e-05   -3.662180449460326e-06   -1.2545994068590297e-05
-3.48009543715147e-05   5.017267864357469e-06   -2.4076412251254744e-05
-3.48009543715147e-05   5.017267864357469e-06   -2.4076412251254744e-05
-3.48009543715147e-05   5.017267864357469e-06   -2.4076412251254744e-05
-3.48009543715147e-05   5.017267864357469e-06   -2.4076412251254744e-05
-2.2833122931552175e-05   3.827257788187907e-06   -4.844032563685597e-06
-2.2833122931552175e-05   3.827257788187907e-06   -4.844032563685597e-06
-2.2833122931552175e-05   3.827257788187907e-06   -4.844032563685597e-06
-2.2833122931552175e-05   3.827257788187907e-06   -4.844032563685597e-06
-2.2940771576231123e-05   6.0268308788220565e-06   -1.999403374486965e-05
-2.2940771576231123e-05   6.0268308788220565e-06   -1.999403374486965e-05
-2.2940771576231123e-05   6.0268308788220565e-06   -1.999403374486965e-05
-2.2940771576231123e-05   6.0268308788220565e-06   -1.999403374486965e-05
-3.426562185716161e-05   4.633373538694206e-06   -2.832088725754421e-07
-3.426562185716161e-05   4.633373538694206e-06   -2.832088725754421e-07
-3.426562185716161e-05   4.633373538694206e-06   -2.832088725754421e-07
-3.426562185716161e-05   4.633373538694206e-06   -2.832088725754421e-07
-2.749549645056962e-05   5.103568895512494e-06   -1.1848868430986532e-05
-2.749549645056962e-05   5.103568895512494e-06   -1.1848868430986532e-05
-2.749549645056962e-05   5.103568895512494e-06   -1.1848868430986532e-05
-2.749549645056962e-05   5.103568895512494e-06   -1.1848868430986532e-05
-3.4265621857161615e-05   6.0268308788220625e-06   -1.9157959340792942e-05
-3.4265621857161615e-05   6.0268308788220625e-06   -1.9157959340792942e-05
-3.4265621857161615e-05   6.0268308788220625e-06   -1.9157959340792942e-05
-3.4265621857161615e-05   6.0268308788220625e-06   -1.9157959340792942e-05
-2.2940771576231123e-05   4.633373538694206e-06   -1.11928327665217e-06
-2.2940771576231123e-05   4.633373538694206e-06   -1.11928327665217e-06
-2.2940771576231123e-05   4.633373538694206e-06   -1.11928327665217e-06
-2.2940771576231123e-05   4.633373538694206e-06   -1.11928327665217e-06
-2.29146208775718e-05   6.4826665898120315e-06   -1.7107591396461354e-05
-2.29146208775718e-05   6.4826665898120315e-06   -1.7107591396461354e-05
-2.29146208775718e-05   6.4826665898120315e-06   -1.7107591396461354e-05
-2.29146208775718e-05   6.4826665898120315e-06   -1.7107591396461354e-05
-3.374535429557312e-05   4.988156630821852e-06   1.8403369422682176e-06
-3.374535429557312e-05   4.988156630821852e-06   1.8403369422682176e-06
-3.374535429557312e-05   4.988156630821852e-06   1.8403369422682176e-06
-3.374535429557312e-05   4.988156630821852e-06   1.8403369422682176e-06
-2.7728798929780777e-05   5.570826361299094e-06   -8.536857172338657e-06
-2.7728798929780777e-05   5.570826361299094e-06   -8.536857172338657e-06
-2.7728798929780777e-05   5.570826361299094e-06   -8.536857172338657e-06
-2.7728798929780777e-05   5.570826361299094e-06   -8.536857172338657e-06
-3.3745354295573114e-05   6.482666589812018e-06   -1.6210885421067298e-05
-3.3745354295573114e-05   6.482666589812018e-06   -1.6210885421067298e-05
-3.3745354295573114e-05   6.482666589812018e-06   -1.6210885421067298e-05
-3.3745354295573114e-05   6.482666589812018e-06   -1.6210885421067298e-05
-2.2914620877571847e-05   4.988156630821906e-06   9.436309668742969e-07
-2.2914620877571847e-05   4.988156630821906e-06   9.436309668742969e-07
-2.2914620877571847e-05   4.988156630821906e-06   9.436309668742969e-07
-2.2914620877571847e-05   4.988156630821906e-06   9.436309668742969e-07
-2.293582694515648e-05   6.847800556026239e-06   -1.3070607303322331e-05
-2.293582694515648e-05   6.847800556026239e-06   -1.3070607303322331e-05
-2.293582694515648e-05   6.847800556026239e-06   -1.3070607303322331e-05
-2.293582694515648e-05   6.847800556026239e-06   -1.3070607303322331e-05
-3.3068167957273844e-05   5.33937526672111e-06   4.721682890456271e-06
-3.3068167957273844e-05   5.33937526672111e-06   4.721682890456271e-06
-3.3068167957273844e-05   5.33937526672111e-06   4.721682890456271e-06
-3.3068167957273844e-05   5.33937526672111e-06   4.721682890456271e-06
-2.7093610765484327e-05   5.81829907414993e-06   -5.523266713649817e-06
-2.7093610765484327e-05   5.81829907414993e-06   -5.523266713649817e-06
-2.7093610765484327e-05   5.81829907414993e-06   -5.523266713649817e-06
-2.7093610765484327e-05   5.81829907414993e-06   -5.523266713649817e-06
-2.2833122931552175e-05   2.334783384164123e-06   -2.792998183661224e-05
-2.2833122931552175e-05   2.334783384164123e-06   -2.792998183661224e-05
-2.2833122931552175e-05   2.334783384164123e-06   -2.792998183661224e-05
-2.2833122931552175e-05   2.334783384164123e-06   -2.792998183661224e-05
-1.1640714803729472e-05   1.9108248107007372e-06   -9.530343434319058e-06
-1.1640714803729472e-05   1.9108248107007372e-06   -9.530343434319058e-06
-1.1640714803729472e-05   1.9108248107007372e-06   -9.530343434319058e-06
-1.1640714803729472e-05   1.9108248107007372e-06   -9.530343434319058e-06
-1.177987118328704e-05   3.26302525116158e-06   -2.753243087668685e-05
-1.177987118328704e-05   3.26302525116158e-06   -2.753243087668685e-05
-1.177987118328704e-05   3.26302525116158e-06   -2.753243087668685e-05
-1.177987118328704e-05   3.26302525116158e-06   -2.753243087668685e-05
-2.2940771576231123e-05   2.704152359840205e-06   -8.595606486987227e-06
-2.2940771576231123e-05   2.704152359840205e-06   -8.595606486987227e-06
-2.2940771576231123e-05   2.704152359840205e-06   -8.595606486987227e-06
-2.2940771576231123e-05   2.704152359840205e-06   -8.595606486987227e-06
-1.7150183491326852e-05   2.695992434009688e-06   -1.8241690672996026e-05
-1.7150183491326852e-05   2.695992434009688e-06   -1.8241690672996026e-05
-1.7150183491326852e-05   2.695992434009688e-06   -1.8241690672996026e-05
-1.7150183491326852e-05   2.695992434009688e-06   -1.8241690672996026e-05
-2.2940771576231103e-05   3.2630252511615755e-06   -2.7197107141893967e-05
-2.2940771576231103e-05   3.2630252511615755e-06   -2.7197107141893967e-05
-2.2940771576231103e-05   3.2630252511615755e-06   -2.7197107141893967e-05
-2.2940771576231103e-05   3.2630252511615755e-06   -2.7197107141893967e-05
-1.177987118328706e-05   2.704152359840205e-06   -8.930930221780068e-06
-1.177987118328706e-05   2.704152359840205e-06   -8.930930221780068e-06
-1.177987118328706e-05   2.704152359840205e-06   -8.930930221780068e-06
-1.177987118328706e-05   2.704152359840205e-06   -8.930930221780068e-06
-1.1869342677092625e-05   4.0319639956534195e-06   -2.6804590018170534e-05
-1.1869342677092625e-05   4.0319639956534195e-06   -2.6804590018170534e-05
-1.1869342677092625e-05   4.0319639956534195e-06   -2.6804590018170534e-05
-1.1869342677092625e-05   4.0319639956534195e-06   -2.6804590018170534e-05
-2.2914620877571802e-05   3.409731485816967e-06   -8.022453511469994e-06
-2.2914620877571802e-05   3.409731485816967e-06   -8.022453511469994e-06
-2.2914620877571802e-05   3.409731485816967e-06   -8.022453511469994e-06
-2.2914620877571802e-05   3.409731485816967e-06   -8.022453511469994e-06
-1.7179910404710792e-05   3.349184665535235e-06   -1.754397620740257e-05
-1.7179910404710792e-05   3.349184665535235e-06   -1.754397620740257e-05
-1.7179910404710792e-05   3.349184665535235e-06   -1.754397620740257e-05
-1.7179910404710792e-05   3.349184665535235e-06   -1.754397620740257e-05
-2.29146208775718e-05   4.031963995653426e-06   -2.6431250512268635e-05
-2.29146208775718e-05   4.031963995653426e-06   -2.6431250512268635e-05
-2.29146208775718e-05   4.031963995653426e-06   -2.6431250512268635e-05
-2.29146208775718e-05   4.031963995653426e-06   -2.6431250512268635e-05
-1.1869342677092646e-05   3.409731485816967e-06   -8.395793017371791e-06
-1.1869342677092646e-05   3.409731485816967e-06   -8.395793017371791e-06
-1.1869342677092646e-05   3.409731485816967e-06   -8.395793017371791e-06
-1.1869342677092646e-05   3.409731485816967e-06   -8.395793017371791e-06
-1.1985944594454221e-05   4.859819308803272e-06   -2.674050340679656e-05
-1.1985944594454221e-05   4.859819308803272e-06   -2.674050340679656e-05
-1.1985944594454221e-05   4.859819308803272e-06   -2.674050340679656e-05
-1.1985944594454221e-05   4.859819308803272e-06   -2.674050340679656e-05
-2.293582694515646e-05   4.161110418652279e-06   -8.071474154868944e-06
-2.293582694515646e-05   4.161110418652279e-06   -8.071474154868944e-06
-2.293582694515646e-05   4.161110418652279e-06   -8.071474154868944e-06
-2.293582694515646e-05   4.161110418652279e-06   -8.071474154868944e-06
-1.7381406377205448e-05   3.996857687878734e-06   -1.723029012965623e-05
-1.7381406377205448e-05   3.996857687878734e-06   -1.723029012965623e-05
-1.7381406377205448e-05   3.996857687878734e-06   -1.723029012965623e-05
-1.7381406377205448e-05   3.996857687878734e-06   -1.723029012965623e-05
-1.1640714803729452e-05   -7.09830106003353e-08   -3.0118566900883155e-05
-1.1640714803729452e-05   -7.09830106003353e-08   -3.0118566900883155e-05
-1.1640714803729452e-05   -7.09830106003353e-08   -3.0118566900883155e-05
-1.1640714803729452e-05   -7.09830106003353e-08   -3.0118566900883155e-05
-5.711249291472864e-07   1.0221038329263519e-07   -1.1565334406910409e-05
-5.711249291472864e-07   1.0221038329263519e-07   -1.1565334406910409e-05
-5.711249291472864e-07   1.0221038329263519e-07   -1.1565334406910409e-05
-5.711249291472864e-07   1.0221038329263519e-07   -1.1565334406910409e-05
-6.824977387533378e-07   7.845347861494035e-07   -2.9834622323096307e-05
-6.824977387533378e-07   7.845347861494035e-07   -2.9834622323096307e-05
-6.824977387533378e-07   7.845347861494035e-07   -2.9834622323096307e-05
-6.824977387533378e-07   7.845347861494035e-07   -2.9834622323096307e-05
-1.177987118328702e-05   8.838359701223071e-07   -1.1398580625923861e-05
-1.177987118328702e-05   8.838359701223071e-07   -1.1398580625923861e-05
-1.177987118328702e-05   8.838359701223071e-07   -1.1398580625923861e-05
-1.177987118328702e-05   8.838359701223071e-07   -1.1398580625923861e-05
-6.133561376128721e-06   5.154938828394961e-07   -2.058809171881804e-05
-6.133561376128721e-06   5.154938828394961e-07   -2.058809171881804e-05
-6.133561376128721e-06   5.154938828394961e-07   -2.058809171881804e-05
-6.133561376128721e-06   5.154938828394961e-07   -2.058809171881804e-05
-1.177987118328704e-05   7.845347861494149e-07   -2.9894203033480025e-05
-1.177987118328704e-05   7.845347861494149e-07   -2.9894203033480025e-05
-1.177987118328704e-05   7.845347861494149e-07   -2.9894203033480025e-05
-1.177987118328704e-05   7.845347861494149e-07   -2.9894203033480025e-05
-6.824977387533378e-07   8.838359701223071e-07   -1.1338999915540144e-05
-6.824977387533378e-07   8.838359701223071e-07   -1.1338999915540144e-05
-6.824977387533378e-07   8.838359701223071e-07   -1.1338999915540144e-05
-6.824977387533378e-07   8.838359701223071e-07   -1.1338999915540144e-05
-7.621985467205003e-07   1.6206158074433968e-06   -2.9914369752692655e-05
-7.621985467205003e-07   1.6206158074433968e-06   -2.9914369752692655e-05
-7.621985467205003e-07   1.6206158074433968e-06   -2.9914369752692655e-05
-7.621985467205003e-07   1.6206158074433968e-06   -2.9914369752692655e-05
-1.1869342677092624e-05   1.663204938517275e-06   -1.1428016347383435e-05
-1.1869342677092624e-05   1.663204938517275e-06   -1.1428016347383435e-05
-1.1869342677092624e-05   1.663204938517275e-06   -1.1428016347383435e-05
-1.1869342677092624e-05   1.663204938517275e-06   -1.1428016347383435e-05
-6.277956459964677e-06   1.2049963501217754e-06   -2.0472068222892704e-05
-6.277956459964677e-06   1.2049963501217754e-06   -2.0472068222892704e-05
-6.277956459964677e-06   1.2049963501217754e-06   -2.0472068222892704e-05
-6.277956459964677e-06   1.2049963501217754e-06   -2.0472068222892704e-05
-1.1869342677092625e-05   1.62061580744339e-06   -2.993992323133696e-05
-1.1869342677092625e-05   1.62061580744339e-06   -2.993992323133696e-05
-1.1869342677092625e-05   1.62061580744339e-06   -2.993992323133696e-05
-1.1869342677092625e-05   1.62061580744339e-06   -2.993992323133696e-05
-7.621985467205003e-07   1.663204938517275e-06   -1.1402462868738994e-05
-7.621985467205003e-07   1.663204938517275e-06   -1.1402462868738994e-05
-7.621985467205003e-07   1.663204938517275e-06   -1.1402462868738994e-05
-7.621985467205003e-07   1.663204938517275e-06   -1.1402462868738994e-05
-8.886947553257614e-07   2.4915219773508285e-06   -3.0298833003552204e-05
-8.886947553257614e-07   2.4915219773508285e-06   -3.0298833003552204e-05
-8.886947553257614e-07   2.4915219773508285e-06   -3.0298833003552204e-05
-8.886947553257614e-07   2.4915219773508285e-06   -3.0298833003552204e-05
-1.1985944594454233e-05   2.4606130540616986e-06   -1.1784871251031357e-05
-1.1985944594454233e-05   2.4606130540616986e-06   -1.1784871251031357e-05
-1.1985944594454233e-05   2.4606130540616986e-06   -1.1784871251031357e-05
-1.1985944594454233e-05   2.4606130540616986e-06   -1.1784871251031357e-05
-6.431477666286349e-06   1.902696721321149e-06   -2.0707566331666615e-05
-6.431477666286349e-06   1.902696721321149e-06   -2.0707566331666615e-05
-6.431477666286349e-06   1.902696721321149e-06   -2.0707566331666615e-05
-6.431477666286349e-06   1.902696721321149e-06   -2.0707566331666615e-05
-5.711249291472872e-07   -2.3903891633827303e-06   -2.6906771855540003e-05
-5.711249291472872e-07   -2.3903891633827303e-06   -2.6906771855540003e-05
-5.711249291472872e-07   -2.3903891633827303e-06   -2.6906771855540003e-05
-5.711249291472872e-07   -2.3903891633827303e-06   -2.6906771855540003e-05
1.0438042956542272e-05   -1.5986308730350264e-06   -8.083103738515537e-06
1.0438042956542272e-05   -1.5986308730350264e-06   -8.083103738515537e-06
1.0438042956542272e-05   -1.5986308730350264e-06   -8.083103738515537e-06
1.0438042956542272e-05   -1.5986308730350264e-06   -8.083103738515537e-06
1.043225023023816e-05   -1.6120525184001758e-06   -2.6593292515435317e-05
1.043225023023816e-05   -1.6120525184001758e-06   -2.6593292515435317e-05
1.043225023023816e-05   -1.6120525184001758e-06   -2.6593292515435317e-05
1.043225023023816e-05   -1.6120525184001758e-06   -2.6593292515435317e-05
-6.82497738753338e-07   -8.811588238749981e-07   -8.507248783831303e-06
-6.82497738753338e-07   -8.811588238749981e-07   -8.507248783831303e-06
-6.82497738753338e-07   -8.811588238749981e-07   -8.507248783831303e-06
-6.82497738753338e-07   -8.811588238749981e-07   -8.507248783831303e-06
4.86708192023966e-06   -1.5636526955104034e-06   -1.734705189250504e-05
4.86708192023966e-06   -1.5636526955104034e-06   -1.734705189250504e-05
4.86708192023966e-06   -1.5636526955104034e-06   -1.734705189250504e-05
4.86708192023966e-06   -1.5636526955104034e-06   -1.734705189250504e-05
-6.824977387533378e-07   -1.6120525184001745e-06   -2.7031828732150456e-05
-6.824977387533378e-07   -1.6120525184001745e-06   -2.7031828732150456e-05
-6.824977387533378e-07   -1.6120525184001745e-06   -2.7031828732150456e-05
-6.824977387533378e-07   -1.6120525184001745e-06   -2.7031828732150456e-05
1.043225023023818e-05   -8.811588238749439e-07   -8.06871256711617e-06
1.043225023023818e-05   -8.811588238749439e-07   -8.06871256711617e-06
1.043225023023818e-05   -8.811588238749439e-07   -8.06871256711617e-06
1.043225023023818e-05   -8.811588238749439e-07   -8.06871256711617e-06
1.048491329608728e-05   -8.502673497466097e-07   -2.7293504453855137e-05
1.048491329608728e-05   -8.502673497466097e-07   -2.7293504453855137e-05
1.048491329608728e-05   -8.502673497466097e-07   -2.7293504453855137e-05
1.048491329608728e-05   -8.502673497466097e-07   -2.7293504453855137e-05
-7.621985467205018e-07   -1.7701737308752855e-07   -8.952268035170998e-06
-7.621985467205018e-07   -1.7701737308752855e-07   -8.952268035170998e-06
-7.621985467205018e-07   -1.7701737308752855e-07   -8.952268035170998e-06
-7.621985467205018e-07   -1.7701737308752855e-07   -8.952268035170998e-06
4.718522700274927e-06   -9.417644844049423e-07   -1.7627955180039585e-05
4.718522700274927e-06   -9.417644844049423e-07   -1.7627955180039585e-05
4.718522700274927e-06   -9.417644844049423e-07   -1.7627955180039585e-05
4.718522700274927e-06   -9.417644844049423e-07   -1.7627955180039585e-05
-7.621985467205003e-07   -8.502673497466125e-07   -2.7697454439850607e-05
-7.621985467205003e-07   -8.502673497466125e-07   -2.7697454439850607e-05
-7.621985467205003e-07   -8.502673497466125e-07   -2.7697454439850607e-05
-7.621985467205003e-07   -8.502673497466125e-07   -2.7697454439850607e-05
1.04849132960873e-05   -1.7701737308752855e-07   -8.548318049175389e-06
1.04849132960873e-05   -1.7701737308752855e-07   -8.548318049175389e-06
1.04849132960873e-05   -1.7701737308752855e-07   -8.548318049175389e-06
1.04849132960873e-05   -1.7701737308752855e-07   -8.548318049175389e-06
1.040695401526446e-05   9.117542172716229e-08   -2.809027993833213e-05
1.040695401526446e-05   9.117542172716229e-08   -2.809027993833213e-05
1.040695401526446e-05   9.117542172716229e-08   -2.809027993833213e-05
1.040695401526446e-05   9.117542172716229e-08   -2.809027993833213e-05
-8.88694755325763e-07   6.453753955601958e-07   -9.596718638315015e-06
-8.88694755325763e-07   6.453753955601958e-07   -9.596718638315015e-06
-8.88694755325763e-07   6.453753955601958e-07   -9.596718638315015e-06
-8.88694755325763e-07   6.453753955601958e-07   -9.596718638315015e-06
4.667654114618297e-06   -2.77112713706069e-07   -1.8303807222661836e-05
4.667654114618297e-06   -2.77112713706069e-07   -1.8303807222661836e-05
4.667654114618297e-06   -2.77112713706069e-07   -1.8303807222661836e-05
4.667654114618297e-06   -2.77112713706069e-07   -1.8303807222661836e-05
1.0438042956542251e-05   -4.438184212150342e-06   -1.5042360322476144e-05
1.0438042956542251e-05   -4.438184212150342e-06   -1.5042360322476144e-05
1.0438042956542251e-05   -4.438184212150342e-06   -1.5042360322476144e-05
1.0438042956542251e-05   -4.438184212150342e-06   -1.5042360322476144e-05
2.072817216724763e-05   -2.8929067895475287e-06   3.0350214822612016e-06
2.072817216724763e-05   -2.8929067895475287e-06   3.0350214822612016e-06
2.072817216724763e-05   -2.8929067895475287e-06   3.0350214822612016e-06
2.072817216724763e-05   -2.8929067895475287e-06   3.0350214822612016e-06
2.1436092758815117e-05   -4.021606552871969e-06   -1.690530963451758e-05
2.1436092758815117e-05   -4.021606552871969e-06   -1.690530963451758e-05
2.1436092758815117e-05   -4.021606552871969e-06   -1.690530963451758e-05
2.1436092758815117e-05   -4.021606552871969e-06   -1.690530963451758e-05
1.0432250230238161e-05   -2.4778564909061084e-06   5.081778759311907e-07
1.0432250230238161e-05   -2.4778564909061084e-06   5.081778759311907e-07
1.0432250230238161e-05   -2.4778564909061084e-06   5.081778759311907e-07
1.0432250230238161e-05   -2.4778564909061084e-06   5.081778759311907e-07
1.508530001283782e-05   -3.416331351321011e-06   -6.683820178819314e-06
1.508530001283782e-05   -3.416331351321011e-06   -6.683820178819314e-06
1.508530001283782e-05   -3.416331351321011e-06   -6.683820178819314e-06
1.508530001283782e-05   -3.416331351321011e-06   -6.683820178819314e-06
1.0432250230238153e-05   -4.02160655287199e-06   -1.7831559671697034e-05
1.0432250230238153e-05   -4.02160655287199e-06   -1.7831559671697034e-05
1.0432250230238153e-05   -4.02160655287199e-06   -1.7831559671697034e-05
1.0432250230238153e-05   -4.02160655287199e-06   -1.7831559671697034e-05
2.1436092758815117e-05   -2.4778564909061084e-06   1.4344279131107344e-06
2.1436092758815117e-05   -2.4778564909061084e-06   1.4344279131107344e-06
2.1436092758815117e-05   -2.4778564909061084e-06   1.4344279131107344e-06
2.1436092758815117e-05   -2.4778564909061084e-06   1.4344279131107344e-06
2.1981974253774313e-05   -3.5833477555877364e-06   -1.906105530960931e-05
2.1981974253774313e-05   -3.5833477555877364e-06   -1.906105530960931e-05
2.1981974253774313e-05   -3.5833477555877364e-06   -1.906105530960931e-05
2.1981974253774313e-05   -3.5833477555877364e-06   -1.906105530960931e-05
1.0484913296087262e-05   -2.123736077525788e-06   -7.750540536347831e-07
1.0484913296087262e-05   -2.123736077525788e-06   -7.750540536347831e-07
1.0484913296087262e-05   -2.123736077525788e-06   -7.750540536347831e-07
1.0484913296087262e-05   -2.123736077525788e-06   -7.750540536347831e-07
1.5602911951715282e-05   -3.1487227127930306e-06   -8.690059831854396e-06
1.5602911951715282e-05   -3.1487227127930306e-06   -8.690059831854396e-06
1.5602911951715282e-05   -3.1487227127930306e-06   -8.690059831854396e-06
1.5602911951715282e-05   -3.1487227127930306e-06   -8.690059831854396e-06
1.048491329608728e-05   -3.583347755587725e-06   -1.9936822316446456e-05
1.048491329608728e-05   -3.583347755587725e-06   -1.9936822316446456e-05
1.048491329608728e-05   -3.583347755587725e-06   -1.9936822316446456e-05
1.048491329608728e-05   -3.583347755587725e-06   -1.9936822316446456e-05
2.1981974253774286e-05   -2.123736077525788e-06   1.0071295320249977e-07
2.1981974253774286e-05   -2.123736077525788e-06   1.0071295320249977e-07
2.1981974253774286e-05   -2.123736077525788e-06   1.0071295320249977e-07
2.1981974253774286e-05   -2.123736077525788e-06   1.0071295320249977e-07
2.2565188726854807e-05   -2.6406601333805644e-06   -2.2733007636564423e-05
2.2565188726854807e-05   -2.6406601333805644e-06   -2.2733007636564423e-05
2.2565188726854807e-05   -2.6406601333805644e-06   -2.2733007636564423e-05
2.2565188726854807e-05   -2.6406601333805644e-06   -2.2733007636564423e-05
1.0406954015264414e-05   -1.3687723593233257e-06   -3.232415781681422e-06
1.0406954015264414e-05   -1.3687723593233257e-06   -3.232415781681422e-06
1.0406954015264414e-05   -1.3687723593233257e-06   -3.232415781681422e-06
1.0406954015264414e-05   -1.3687723593233257e-06   -3.232415781681422e-06
1.5541564641794803e-05   -2.710251795481444e-06   -1.0985212497537149e-05
1.5541564641794803e-05   -2.710251795481444e-06   -1.0985212497537149e-05
1.5541564641794803e-05   -2.710251795481444e-06   -1.0985212497537149e-05
1.5541564641794803e-05   -2.710251795481444e-06   -1.0985212497537149e-05
-2.494457310208331e-05   3.827257788187889e-06   -1.9019231880086613e-05
-2.494457310208331e-05   3.827257788187889e-06   -1.9019231880086613e-05
-2.494457310208331e-05   3.827257788187889e-06   -1.9019231880086613e-05
-2.494457310208331e-05   3.827257788187889e-06   -1.9019231880086613e-05
-1.7009678862162772e-05   2.4285447682586723e-06   -6.633635958843282e-06
-1.7009678862162772e-05   2.4285447682586723e-06   -6.633635958843282e-06
-1.7009678862162772e-05   2.4285447682586723e-06   -6.633635958843282e-06
-1.7009678862162772e-05   2.4285447682586723e-06   -6.633635958843282e-06
-1.6947270695266765e-05   4.633373538694206e-06   -1.6158826831879714e-05
-1.6947270695266765e-05   4.633373538694206e-06   -1.6158826831879714e-05
-1.6947270695266765e-05   4.633373538694206e-06   -1.6158826831879714e-05
-1.6947270695266765e-05   4.633373538694206e-06   -1.6158826831879714e-05
-2.4192519636831324e-05   3.094407485444077e-06   -3.1600322973220334e-06
-2.4192519636831324e-05   3.094407485444077e-06   -3.1600322973220334e-06
-2.4192519636831324e-05   3.094407485444077e-06   -3.1600322973220334e-06
-2.4192519636831324e-05   3.094407485444077e-06   -3.1600322973220334e-06
-1.9892045954887694e-05   3.686553359759739e-06   -1.0682775958484184e-05
-1.9892045954887694e-05   3.686553359759739e-06   -1.0682775958484184e-05
-1.9892045954887694e-05   3.686553359759739e-06   -1.0682775958484184e-05
-1.9892045954887694e-05   3.686553359759739e-06   -1.0682775958484184e-05
-2.4192519636831314e-05   4.6333735386941925e-06   -1.523544719992962e-05
-2.4192519636831314e-05   4.6333735386941925e-06   -1.523544719992962e-05
-2.4192519636831314e-05   4.6333735386941925e-06   -1.523544719992962e-05
-2.4192519636831314e-05   4.6333735386941925e-06   -1.523544719992962e-05
-1.6947270695266792e-05   3.094407485444077e-06   -4.083411929272122e-06
-1.6947270695266792e-05   3.094407485444077e-06   -4.083411929272122e-06
-1.6947270695266792e-05   3.094407485444077e-06   -4.083411929272122e-06
-1.6947270695266792e-05   3.094407485444077e-06   -4.083411929272122e-06
-1.6818414167772656e-05   4.988156630821852e-06   -1.4090879739554773e-05
-1.6818414167772656e-05   4.988156630821852e-06   -1.4090879739554773e-05
-1.6818414167772656e-05   4.988156630821852e-06   -1.4090879739554773e-05
-1.6818414167772656e-05   4.988156630821852e-06   -1.4090879739554773e-05
-2.3631394559667888e-05   3.40552354971416e-06   -1.7863325710646945e-06
-2.3631394559667888e-05   3.40552354971416e-06   -1.7863325710646945e-06
-2.3631394559667888e-05   3.40552354971416e-06   -1.7863325710646945e-06
-2.3631394559667888e-05   3.40552354971416e-06   -1.7863325710646945e-06
-1.9891202896180674e-05   4.058282395844482e-06   -8.41164065122166e-06
-1.9891202896180674e-05   4.058282395844482e-06   -8.41164065122166e-06
-1.9891202896180674e-05   4.058282395844482e-06   -8.41164065122166e-06
-1.9891202896180674e-05   4.058282395844482e-06   -8.41164065122166e-06
-2.36313945596679e-05   4.988156630821868e-06   -1.3141299890890104e-05
-2.36313945596679e-05   4.988156630821868e-06   -1.3141299890890104e-05
-2.36313945596679e-05   4.988156630821868e-06   -1.3141299890890104e-05
-2.36313945596679e-05   4.988156630821868e-06   -1.3141299890890104e-05
-1.681841416777267e-05   3.40552354971416e-06   -2.735912419729289e-06
-1.681841416777267e-05   3.40552354971416e-06   -2.735912419729289e-06
-1.681841416777267e-05   3.40552354971416e-06   -2.735912419729289e-06
-1.681841416777267e-05   3.40552354971416e-06   -2.735912419729289e-06
-1.6767521519959038e-05   5.339375266721056e-06   -1.1231562683928207e-05
-1.6767521519959038e-05   5.339375266721056e-06   -1.1231562683928207e-05
-1.6767521519959038e-05   5.339375266721056e-06   -1.1231562683928207e-05
-1.6767521519959038e-05   5.339375266721056e-06   -1.1231562683928207e-05
-2.2898435412415768e-05   3.7980889477014245e-06   -8.860107175522438e-08
-2.2898435412415768e-05   3.7980889477014245e-06   -8.860107175522438e-08
-2.2898435412415768e-05   3.7980889477014245e-06   -8.860107175522438e-08
-2.2898435412415768e-05   3.7980889477014245e-06   -8.860107175522438e-08
-1.9301674387874968e-05   4.2613701436327906e-06   -6.361171496881992e-06
-1.9301674387874968e-05   4.2613701436327906e-06   -6.361171496881992e-06
-1.9301674387874968e-05   4.2613701436327906e-06   -6.361171496881992e-06
-1.9301674387874968e-05   4.2613701436327906e-06   -6.361171496881992e-06
-1.7009678862162745e-05   1.910824810700729e-06   -2.4290395418599583e-05
-1.7009678862162745e-05   1.910824810700729e-06   -2.4290395418599583e-05
-1.7009678862162745e-05   1.910824810700729e-06   -2.4290395418599583e-05
-1.7009678862162745e-05   1.910824810700729e-06   -2.4290395418599583e-05
-9.80965356254138e-06   1.2596780463649138e-06   -1.2681041311165503e-05
-9.80965356254138e-06   1.2596780463649138e-06   -1.2681041311165503e-05
-9.80965356254138e-06   1.2596780463649138e-06   -1.2681041311165503e-05
-9.80965356254138e-06   1.2596780463649138e-06   -1.2681041311165503e-05
-9.814660019733242e-06   2.704152359840205e-06   -2.407969263142751e-05
-9.814660019733242e-06   2.704152359840205e-06   -2.407969263142751e-05
-9.814660019733242e-06   2.704152359840205e-06   -2.407969263142751e-05
-9.814660019733242e-06   2.704152359840205e-06   -2.407969263142751e-05
-1.6947270695266772e-05   1.9632480444856755e-06   -1.1747465582992184e-05
-1.6947270695266772e-05   1.9632480444856755e-06   -1.1747465582992184e-05
-1.6947270695266772e-05   1.9632480444856755e-06   -1.1747465582992184e-05
-1.6947270695266772e-05   1.9632480444856755e-06   -1.1747465582992184e-05
-1.327160974229457e-05   2.0926306338765873e-06   -1.795119672491379e-05
-1.327160974229457e-05   2.0926306338765873e-06   -1.795119672491379e-05
-1.327160974229457e-05   2.0926306338765873e-06   -1.795119672491379e-05
-1.327160974229457e-05   2.0926306338765873e-06   -1.795119672491379e-05
-1.694727069526675e-05   2.7041523598401978e-06   -2.3635150042214696e-05
-1.694727069526675e-05   2.7041523598401978e-06   -2.3635150042214696e-05
-1.694727069526675e-05   2.7041523598401978e-06   -2.3635150042214696e-05
-1.694727069526675e-05   2.7041523598401978e-06   -2.3635150042214696e-05
-9.814660019733208e-06   1.9632480444856755e-06   -1.2192008172204891e-05
-9.814660019733208e-06   1.9632480444856755e-06   -1.2192008172204891e-05
-9.814660019733208e-06   1.9632480444856755e-06   -1.2192008172204891e-05
-9.814660019733208e-06   1.9632480444856755e-06   -1.2192008172204891e-05
-9.807751518954322e-06   3.409731485816967e-06   -2.354020967188197e-05
-9.807751518954322e-06   3.409731485816967e-06   -2.354020967188197e-05
-9.807751518954322e-06   3.409731485816967e-06   -2.354020967188197e-05
-9.807751518954322e-06   3.409731485816967e-06   -2.354020967188197e-05
-1.6818414167772652e-05   2.6043223958451185e-06   -1.1372526469868377e-05
-1.6818414167772652e-05   2.6043223958451185e-06   -1.1372526469868377e-05
-1.6818414167772652e-05   2.6043223958451185e-06   -1.1372526469868377e-05
-1.6818414167772652e-05   2.6043223958451185e-06   -1.1372526469868377e-05
-1.3210175481391918e-05   2.6712377155541523e-06   -1.742640680566155e-05
-1.3210175481391918e-05   2.6712377155541523e-06   -1.742640680566155e-05
-1.3210175481391918e-05   2.6712377155541523e-06   -1.742640680566155e-05
-1.3210175481391918e-05   2.6712377155541523e-06   -1.742640680566155e-05
-1.6818414167772656e-05   3.409731485816949e-06   -2.3056964217898915e-05
-1.6818414167772656e-05   3.409731485816949e-06   -2.3056964217898915e-05
-1.6818414167772656e-05   3.409731485816949e-06   -2.3056964217898915e-05
-1.6818414167772656e-05   3.409731485816949e-06   -2.3056964217898915e-05
-9.807751518954322e-06   2.6043223958451185e-06   -1.1855771923851392e-05
-9.807751518954322e-06   2.6043223958451185e-06   -1.1855771923851392e-05
-9.807751518954322e-06   2.6043223958451185e-06   -1.1855771923851392e-05
-9.807751518954322e-06   2.6043223958451185e-06   -1.1855771923851392e-05
-9.816113327875346e-06   4.161110418652279e-06   -2.363539624223015e-05
-9.816113327875346e-06   4.161110418652279e-06   -2.363539624223015e-05
-9.816113327875346e-06   4.161110418652279e-06   -2.363539624223015e-05
-9.816113327875346e-06   4.161110418652279e-06   -2.363539624223015e-05
-1.6767521519959017e-05   3.301557607719263e-06   -1.1533984235530817e-05
-1.6767521519959017e-05   3.301557607719263e-06   -1.1533984235530817e-05
-1.6767521519959017e-05   3.301557607719263e-06   -1.1533984235530817e-05
-1.6767521519959017e-05   3.301557607719263e-06   -1.1533984235530817e-05
-1.3296085313904893e-05   3.2445652821833245e-06   -1.7285515850299483e-05
-1.3296085313904893e-05   3.2445652821833245e-06   -1.7285515850299483e-05
-1.3296085313904893e-05   3.2445652821833245e-06   -1.7285515850299483e-05
-1.3296085313904893e-05   3.2445652821833245e-06   -1.7285515850299483e-05
-9.8096535625414e-06   1.02210383292638e-07   -2.6819990486128258e-05
-9.8096535625414e-06   1.02210383292638e-07   -2.6819990486128258e-05
-9.8096535625414e-06   1.02210383292638e-07   -2.6819990486128258e-05
-9.8096535625414e-06   1.02210383292638e-07   -2.6819990486128258e-05
-2.7058896966890364e-06   2.1943543591511393e-07   -1.4910049011467524e-05
-2.7058896966890364e-06   2.1943543591511393e-07   -1.4910049011467524e-05
-2.7058896966890364e-06   2.1943543591511393e-07   -1.4910049011467524e-05
-2.7058896966890364e-06   2.1943543591511393e-07   -1.4910049011467524e-05
-2.711434289906623e-06   8.838359701223071e-07   -2.6521003232704332e-05
-2.711434289906623e-06   8.838359701223071e-07   -2.6521003232704332e-05
-2.711434289906623e-06   8.838359701223071e-07   -2.6521003232704332e-05
-2.711434289906623e-06   8.838359701223071e-07   -2.6521003232704332e-05
-9.814660019733211e-06   9.27735641567261e-07   -1.4708633485860294e-05
-9.814660019733211e-06   9.27735641567261e-07   -1.4708633485860294e-05
-9.814660019733211e-06   9.27735641567261e-07   -1.4708633485860294e-05
-9.814660019733211e-06   9.27735641567261e-07   -1.4708633485860294e-05
-6.218607246135569e-06   6.256884432040031e-07   -2.0520826456171755e-05
-6.218607246135569e-06   6.256884432040031e-07   -2.0520826456171755e-05
-6.218607246135569e-06   6.256884432040031e-07   -2.0520826456171755e-05
-6.218607246135569e-06   6.256884432040031e-07   -2.0520826456171755e-05
-9.814660019733222e-06   8.838359701223029e-07   -2.654734303557133e-05
-9.814660019733222e-06   8.838359701223029e-07   -2.654734303557133e-05
-9.814660019733222e-06   8.838359701223029e-07   -2.654734303557133e-05
-9.814660019733222e-06   8.838359701223029e-07   -2.654734303557133e-05
-2.711434289906623e-06   9.27735641567261e-07   -1.4682293682993336e-05
-2.711434289906623e-06   9.27735641567261e-07   -1.4682293682993336e-05
-2.711434289906623e-06   9.27735641567261e-07   -1.4682293682993336e-05
-2.711434289906623e-06   9.27735641567261e-07   -1.4682293682993336e-05
-2.7023363824826364e-06   1.663204938517275e-06   -2.6587367233127054e-05
-2.7023363824826364e-06   1.663204938517275e-06   -2.6587367233127054e-05
-2.7023363824826364e-06   1.663204938517275e-06   -2.6587367233127054e-05
-2.7023363824826364e-06   1.663204938517275e-06   -2.6587367233127054e-05
-9.80775151895432e-06   1.6383145531279975e-06   -1.4730074441107388e-05
-9.80775151895432e-06   1.6383145531279975e-06   -1.4730074441107388e-05
-9.80775151895432e-06   1.6383145531279975e-06   -1.4730074441107388e-05
-9.80775151895432e-06   1.6383145531279975e-06   -1.4730074441107388e-05
-6.260534453149626e-06   1.2458232120280376e-06   -2.0406608079455228e-05
-6.260534453149626e-06   1.2458232120280376e-06   -2.0406608079455228e-05
-6.260534453149626e-06   1.2458232120280376e-06   -2.0406608079455228e-05
-6.260534453149626e-06   1.2458232120280376e-06   -2.0406608079455228e-05
-9.807751518954322e-06   1.663204938517249e-06   -2.6572433001893552e-05
-9.807751518954322e-06   1.663204938517249e-06   -2.6572433001893552e-05
-9.807751518954322e-06   1.663204938517249e-06   -2.6572433001893552e-05
-9.807751518954322e-06   1.663204938517249e-06   -2.6572433001893552e-05
-2.7023363824826364e-06   1.6383145531279975e-06   -1.4745008672340849e-05
-2.7023363824826364e-06   1.6383145531279975e-06   -1.4745008672340849e-05
-2.7023363824826364e-06   1.6383145531279975e-06   -1.4745008672340849e-05
-2.7023363824826364e-06   1.6383145531279975e-06   -1.4745008672340849e-05
-2.7067160140820857e-06   2.4606130540616986e-06   -2.6989145809953896e-05
-2.7067160140820857e-06   2.4606130540616986e-06   -2.6989145809953896e-05
-2.7067160140820857e-06   2.4606130540616986e-06   -2.6989145809953896e-05
-2.7067160140820857e-06   2.4606130540616986e-06   -2.6989145809953896e-05
-9.816113327875356e-06   2.361316711308424e-06   -1.5080572481313112e-05
-9.816113327875356e-06   2.361316711308424e-06   -1.5080572481313112e-05
-9.816113327875356e-06   2.361316711308424e-06   -1.5080572481313112e-05
-9.816113327875356e-06   2.361316711308424e-06   -1.5080572481313112e-05
-6.314639862217187e-06   1.8741096998474752e-06   -2.062403738386684e-05
-6.314639862217187e-06   1.8741096998474752e-06   -2.062403738386684e-05
-6.314639862217187e-06   1.8741096998474752e-06   -2.062403738386684e-05
-6.314639862217187e-06   1.8741096998474752e-06   -2.062403738386684e-05
-2.705889696689032e-06   -1.5986308730350518e-06   -2.374247976036844e-05
-2.705889696689032e-06   -1.5986308730350518e-06   -2.374247976036844e-05
-2.705889696689032e-06   -1.5986308730350518e-06   -2.374247976036844e-05
-2.705889696689032e-06   -1.5986308730350518e-06   -2.374247976036844e-05
4.28861721118148e-06   -7.311940912330659e-07   -1.1564506178169786e-05
4.28861721118148e-06   -7.311940912330659e-07   -1.1564506178169786e-05
4.28861721118148e-06   -7.311940912330659e-07   -1.1564506178169786e-05
4.28861721118148e-06   -7.311940912330659e-07   -1.1564506178169786e-05
4.345516052365601e-06   -8.811588238749981e-07   -2.31984316039909e-05
4.345516052365601e-06   -8.811588238749981e-07   -2.31984316039909e-05
4.345516052365601e-06   -8.811588238749981e-07   -2.31984316039909e-05
4.345516052365601e-06   -8.811588238749981e-07   -2.31984316039909e-05
-2.7114342899066185e-06   -6.312466220066313e-08   -1.1927668197208484e-05
-2.7114342899066185e-06   -6.312466220066313e-08   -1.1927668197208484e-05
-2.7114342899066185e-06   -6.312466220066313e-08   -1.1927668197208484e-05
-2.7114342899066185e-06   -6.312466220066313e-08   -1.1927668197208484e-05
8.091224891834872e-07   -7.568250274326335e-07   -1.7379042609886137e-05
8.091224891834872e-07   -7.568250274326335e-07   -1.7379042609886137e-05
8.091224891834872e-07   -7.568250274326335e-07   -1.7379042609886137e-05
8.091224891834872e-07   -7.568250274326335e-07   -1.7379042609886137e-05
-2.711434289906623e-06   -8.811588238749766e-07   -2.368925210099554e-05
-2.711434289906623e-06   -8.811588238749766e-07   -2.368925210099554e-05
-2.711434289906623e-06   -8.811588238749766e-07   -2.368925210099554e-05
-2.711434289906623e-06   -8.811588238749766e-07   -2.368925210099554e-05
4.345516052365601e-06   -6.312466220071734e-08   -1.14368477002039e-05
4.345516052365601e-06   -6.312466220071734e-08   -1.14368477002039e-05
4.345516052365601e-06   -6.312466220071734e-08   -1.14368477002039e-05
4.345516052365601e-06   -6.312466220071734e-08   -1.14368477002039e-05
4.481098447097134e-06   -1.7701737308752855e-07   -2.3683724597302254e-05
4.481098447097134e-06   -1.7701737308752855e-07   -2.3683724597302254e-05
4.481098447097134e-06   -1.7701737308752855e-07   -2.3683724597302254e-05
4.481098447097134e-06   -1.7701737308752855e-07   -2.3683724597302254e-05
-2.7023363824826313e-06   5.787289640069352e-07   -1.216478101692597e-05
-2.7023363824826313e-06   5.787289640069352e-07   -1.216478101692597e-05
-2.7023363824826313e-06   5.787289640069352e-07   -1.216478101692597e-05
-2.7023363824826313e-06   5.787289640069352e-07   -1.216478101692597e-05
7.683289371113433e-07   -2.0086200794820763e-07   -1.748146863307619e-05
7.683289371113433e-07   -2.0086200794820763e-07   -1.748146863307619e-05
7.683289371113433e-07   -2.0086200794820763e-07   -1.748146863307619e-05
7.683289371113433e-07   -2.0086200794820763e-07   -1.748146863307619e-05
-2.7023363824826364e-06   -1.770173730875326e-07   -2.4137172399558906e-05
-2.7023363824826364e-06   -1.770173730875326e-07   -2.4137172399558906e-05
-2.7023363824826364e-06   -1.770173730875326e-07   -2.4137172399558906e-05
-2.7023363824826364e-06   -1.770173730875326e-07   -2.4137172399558906e-05
4.4810984470971404e-06   5.787289640069352e-07   -1.171133321466926e-05
4.4810984470971404e-06   5.787289640069352e-07   -1.171133321466926e-05
4.4810984470971404e-06   5.787289640069352e-07   -1.171133321466926e-05
4.4810984470971404e-06   5.787289640069352e-07   -1.171133321466926e-05
4.547831718527548e-06   6.4537539556025e-07   -2.4381615610798445e-05
4.547831718527548e-06   6.4537539556025e-07   -2.4381615610798445e-05
4.547831718527548e-06   6.4537539556025e-07   -2.4381615610798445e-05
4.547831718527548e-06   6.4537539556025e-07   -2.4381615610798445e-05
-2.7067160140820857e-06   1.3134291163362341e-06   -1.2691534955581278e-05
-2.7067160140820857e-06   1.3134291163362341e-06   -1.2691534955581278e-05
-2.7067160140820857e-06   1.3134291163362341e-06   -1.2691534955581278e-05
-2.7067160140820857e-06   1.3134291163362341e-06   -1.2691534955581278e-05
7.922925122599861e-07   3.928517678769257e-07   -1.7970869423742533e-05
7.922925122599861e-07   3.928517678769257e-07   -1.7970869423742533e-05
7.922925122599861e-07   3.928517678769257e-07   -1.7970869423742533e-05
7.922925122599861e-07   3.928517678769257e-07   -1.7970869423742533e-05
4.288617211181473e-06   -2.8929067895475816e-06   -1.3031058924072237e-05
4.288617211181473e-06   -2.8929067895475816e-06   -1.3031058924072237e-05
4.288617211181473e-06   -2.8929067895475816e-06   -1.3031058924072237e-05
4.288617211181473e-06   -2.8929067895475816e-06   -1.3031058924072237e-05
1.0478645031123475e-05   -1.3383468937276438e-06   -1.7816099533435998e-06
1.0478645031123475e-05   -1.3383468937276438e-06   -1.7816099533435998e-06
1.0478645031123475e-05   -1.3383468937276438e-06   -1.7816099533435998e-06
1.0478645031123475e-05   -1.3383468937276438e-06   -1.7816099533435998e-06
1.1221739477316965e-05   -2.4778564909061084e-06   -1.3665621781268073e-05
1.1221739477316965e-05   -2.4778564909061084e-06   -1.3665621781268073e-05
1.1221739477316965e-05   -2.4778564909061084e-06   -1.3665621781268073e-05
1.1221739477316965e-05   -2.4778564909061084e-06   -1.3665621781268073e-05
4.3455160523655976e-06   -8.846575247803239e-07   -3.1611687860245643e-06
4.3455160523655976e-06   -8.846575247803239e-07   -3.1611687860245643e-06
4.3455160523655976e-06   -8.846575247803239e-07   -3.1611687860245643e-06
4.3455160523655976e-06   -8.846575247803239e-07   -3.1611687860245643e-06
7.260267158344121e-06   -1.8394307270425277e-06   -7.446223374631451e-06
7.260267158344121e-06   -1.8394307270425277e-06   -7.446223374631451e-06
7.260267158344121e-06   -1.8394307270425277e-06   -7.446223374631451e-06
7.260267158344121e-06   -1.8394307270425277e-06   -7.446223374631451e-06
4.345516052365594e-06   -2.4778564909061037e-06   -1.462154116094343e-05
4.345516052365594e-06   -2.4778564909061037e-06   -1.462154116094343e-05
4.345516052365594e-06   -2.4778564909061037e-06   -1.462154116094343e-05
4.345516052365594e-06   -2.4778564909061037e-06   -1.462154116094343e-05
1.1221739477316965e-05   -8.846575247803781e-07   -2.205249406349167e-06
1.1221739477316965e-05   -8.846575247803781e-07   -2.205249406349167e-06
1.1221739477316965e-05   -8.846575247803781e-07   -2.205249406349167e-06
1.1221739477316965e-05   -8.846575247803781e-07   -2.205249406349167e-06
1.1794678300483018e-05   -2.123736077525788e-06   -1.4979722988157468e-05
1.1794678300483018e-05   -2.123736077525788e-06   -1.4979722988157468e-05
1.1794678300483018e-05   -2.123736077525788e-06   -1.4979722988157468e-05
1.1794678300483018e-05   -2.123736077525788e-06   -1.4979722988157468e-05
4.4810984470971404e-06   -5.725067215190272e-07   -3.7211608461183666e-06
4.4810984470971404e-06   -5.725067215190272e-07   -3.7211608461183666e-06
4.4810984470971404e-06   -5.725067215190272e-07   -3.7211608461183666e-06
4.4810984470971404e-06   -5.725067215190272e-07   -3.7211608461183666e-06
7.712506100688362e-06   -1.6059725965167338e-06   -8.486760743771756e-06
7.712506100688362e-06   -1.6059725965167338e-06   -8.486760743771756e-06
7.712506100688362e-06   -1.6059725965167338e-06   -8.486760743771756e-06
7.712506100688362e-06   -1.6059725965167338e-06   -8.486760743771756e-06
4.481098447097134e-06   -2.123736077525784e-06   -1.5910460601761486e-05
4.481098447097134e-06   -2.123736077525784e-06   -1.5910460601761486e-05
4.481098447097134e-06   -2.123736077525784e-06   -1.5910460601761486e-05
4.481098447097134e-06   -2.123736077525784e-06   -1.5910460601761486e-05
1.179467830048299e-05   -5.725067215190272e-07   -2.7904232325142667e-06
1.179467830048299e-05   -5.725067215190272e-07   -2.7904232325142667e-06
1.179467830048299e-05   -5.725067215190272e-07   -2.7904232325142667e-06
1.179467830048299e-05   -5.725067215190272e-07   -2.7904232325142667e-06
1.2557453727522319e-05   -1.3687723593233257e-06   -1.750509549496079e-05
1.2557453727522319e-05   -1.3687723593233257e-06   -1.750509549496079e-05
1.2557453727522319e-05   -1.3687723593233257e-06   -1.750509549496079e-05
1.2557453727522319e-05   -1.3687723593233257e-06   -1.750509549496079e-05
4.547831718527557e-06   3.91230465167868e-08   -5.000462723473524e-06
4.547831718527557e-06   3.91230465167868e-08   -5.000462723473524e-06
4.547831718527557e-06   3.91230465167868e-08   -5.000462723473524e-06
4.547831718527557e-06   3.91230465167868e-08   -5.000462723473524e-06
7.866376594585161e-06   -1.2615069274111946e-06   -9.750992865879512e-06
7.866376594585161e-06   -1.2615069274111946e-06   -9.750992865879512e-06
7.866376594585161e-06   -1.2615069274111946e-06   -9.750992865879512e-06
7.866376594585161e-06   -1.2615069274111946e-06   -9.750992865879512e-06
-1.504240137092724e-05   2.4285447682586355e-06   -1.4135435197254833e-05
-1.504240137092724e-05   2.4285447682586355e-06   -1.4135435197254833e-05
-1.504240137092724e-05   2.4285447682586355e-06   -1.4135435197254833e-05
-1.504240137092724e-05   2.4285447682586355e-06   -1.4135435197254833e-05
-1.1141216578596292e-05   9.837512200384056e-07   -8.500336672302128e-06
-1.1141216578596292e-05   9.837512200384056e-07   -8.500336672302128e-06
-1.1141216578596292e-05   9.837512200384056e-07   -8.500336672302128e-06
-1.1141216578596292e-05   9.837512200384056e-07   -8.500336672302128e-06
-1.0979251181863453e-05   3.094407485444077e-06   -1.247022951199404e-05
-1.0979251181863453e-05   3.094407485444077e-06   -1.247022951199404e-05
-1.0979251181863453e-05   3.094407485444077e-06   -1.247022951199404e-05
-1.0979251181863453e-05   3.094407485444077e-06   -1.247022951199404e-05
-1.4220818495055147e-05   1.5365935915865898e-06   -6.132928987026521e-06
-1.4220818495055147e-05   1.5365935915865898e-06   -6.132928987026521e-06
-1.4220818495055147e-05   1.5365935915865898e-06   -6.132928987026521e-06
-1.4220818495055147e-05   1.5365935915865898e-06   -6.132928987026521e-06
-1.2301772981786041e-05   2.179555046209129e-06   -9.71711504858252e-06
-1.2301772981786041e-05   2.179555046209129e-06   -9.71711504858252e-06
-1.2301772981786041e-05   2.179555046209129e-06   -9.71711504858252e-06
-1.2301772981786041e-05   2.179555046209129e-06   -9.71711504858252e-06
-1.4220818495055135e-05   3.0944074854440823e-06   -1.1535541175679482e-05
-1.4220818495055135e-05   3.0944074854440823e-06   -1.1535541175679482e-05
-1.4220818495055135e-05   3.0944074854440823e-06   -1.1535541175679482e-05
-1.4220818495055135e-05   3.0944074854440823e-06   -1.1535541175679482e-05
-1.097925118186348e-05   1.5365935915865898e-06   -7.067617323341092e-06
-1.097925118186348e-05   1.5365935915865898e-06   -7.067617323341092e-06
-1.097925118186348e-05   1.5365935915865898e-06   -7.067617323341092e-06
-1.097925118186348e-05   1.5365935915865898e-06   -7.067617323341092e-06
-1.0747505041462289e-05   3.405523549714106e-06   -1.1134437760655083e-05
-1.0747505041462289e-05   3.405523549714106e-06   -1.1134437760655083e-05
-1.0747505041462289e-05   3.405523549714106e-06   -1.1134437760655083e-05
-1.0747505041462289e-05   3.405523549714106e-06   -1.1134437760655083e-05
-1.3567174954780461e-05   1.8169906792008623e-06   -5.481868182816759e-06
-1.3567174954780461e-05   1.8169906792008623e-06   -5.481868182816759e-06
-1.3567174954780461e-05   1.8169906792008623e-06   -5.481868182816759e-06
-1.3567174954780461e-05   1.8169906792008623e-06   -5.481868182816759e-06
-1.2086032036972046e-05   2.478302443192004e-06   -8.347226770892178e-06
-1.2086032036972046e-05   2.478302443192004e-06   -8.347226770892178e-06
-1.2086032036972046e-05   2.478302443192004e-06   -8.347226770892178e-06
-1.2086032036972046e-05   2.478302443192004e-06   -8.347226770892178e-06
-1.3567174954780427e-05   3.405523549714109e-06   -1.0181318038347126e-05
-1.3567174954780427e-05   3.405523549714109e-06   -1.0181318038347126e-05
-1.3567174954780427e-05   3.405523549714109e-06   -1.0181318038347126e-05
-1.3567174954780427e-05   3.405523549714109e-06   -1.0181318038347126e-05
-1.0747505041462302e-05   1.8169906792008623e-06   -6.434987905124689e-06
-1.0747505041462302e-05   1.8169906792008623e-06   -6.434987905124689e-06
-1.0747505041462302e-05   1.8169906792008623e-06   -6.434987905124689e-06
-1.0747505041462302e-05   1.8169906792008623e-06   -6.434987905124689e-06
-1.0591150277099162e-05   3.7980889477014787e-06   -9.4231150326872e-06
-1.0591150277099162e-05   3.7980889477014787e-06   -9.4231150326872e-06
-1.0591150277099162e-05   3.7980889477014787e-06   -9.4231150326872e-06
-1.0591150277099162e-05   3.7980889477014787e-06   -9.4231150326872e-06
-1.2735269465480507e-05   2.2616803005779534e-06   -4.927737863777459e-06
-1.2735269465480507e-05   2.2616803005779534e-06   -4.927737863777459e-06
-1.2735269465480507e-05   2.2616803005779534e-06   -4.927737863777459e-06
-1.2735269465480507e-05   2.2616803005779534e-06   -4.927737863777459e-06
-1.1522412213720598e-05   2.6871131917044055e-06   -7.204426351386508e-06
-1.1522412213720598e-05   2.6871131917044055e-06   -7.204426351386508e-06
-1.1522412213720598e-05   2.6871131917044055e-06   -7.204426351386508e-06
-1.1522412213720598e-05   2.6871131917044055e-06   -7.204426351386508e-06
-1.1141216578596292e-05   1.259678046364884e-06   -2.0659028619907842e-05
-1.1141216578596292e-05   1.259678046364884e-06   -2.0659028619907842e-05
-1.1141216578596292e-05   1.259678046364884e-06   -2.0659028619907842e-05
-1.1141216578596292e-05   1.259678046364884e-06   -2.0659028619907842e-05
-7.967245058155273e-06   5.705794981097391e-07   -1.5782535214792508e-05
-7.967245058155273e-06   5.705794981097391e-07   -1.5782535214792508e-05
-7.967245058155273e-06   5.705794981097391e-07   -1.5782535214792508e-05
-7.967245058155273e-06   5.705794981097391e-07   -1.5782535214792508e-05
-7.862506565352992e-06   1.9632480444856755e-06   -2.0589180576704362e-05
-7.862506565352992e-06   1.9632480444856755e-06   -2.0589180576704362e-05
-7.862506565352992e-06   1.9632480444856755e-06   -2.0589180576704362e-05
-7.862506565352992e-06   1.9632480444856755e-06   -2.0589180576704362e-05
-1.0979251181863494e-05   1.2050856928352057e-06   -1.4939708804863138e-05
-1.0979251181863494e-05   1.2050856928352057e-06   -1.4939708804863138e-05
-1.0979251181863494e-05   1.2050856928352057e-06   -1.4939708804863138e-05
-1.0979251181863494e-05   1.2050856928352057e-06   -1.4939708804863138e-05
-9.395009185365122e-06   1.3728575630678934e-06   -1.7680775254500522e-05
-9.395009185365122e-06   1.3728575630678934e-06   -1.7680775254500522e-05
-9.395009185365122e-06   1.3728575630678934e-06   -1.7680775254500522e-05
-9.395009185365122e-06   1.3728575630678934e-06   -1.7680775254500522e-05
-1.097925118186344e-05   1.9632480444856674e-06   -2.013428316571396e-05
-1.097925118186344e-05   1.9632480444856674e-06   -2.013428316571396e-05
-1.097925118186344e-05   1.9632480444856674e-06   -2.013428316571396e-05
-1.097925118186344e-05   1.9632480444856674e-06   -2.013428316571396e-05
-7.862506565353006e-06   1.2050856928352057e-06   -1.5394606215853566e-05
-7.862506565353006e-06   1.2050856928352057e-06   -1.5394606215853566e-05
-7.862506565353006e-06   1.2050856928352057e-06   -1.5394606215853566e-05
-7.862506565353006e-06   1.2050856928352057e-06   -1.5394606215853566e-05
-7.746653290463945e-06   2.6043223958451185e-06   -2.0256058334443142e-05
-7.746653290463945e-06   2.6043223958451185e-06   -2.0256058334443142e-05
-7.746653290463945e-06   2.6043223958451185e-06   -2.0256058334443142e-05
-7.746653290463945e-06   2.6043223958451185e-06   -2.0256058334443142e-05
-1.0747505041462333e-05   1.7959781897633129e-06   -1.4769632225796733e-05
-1.0747505041462333e-05   1.7959781897633129e-06   -1.4769632225796733e-05
-1.0747505041462333e-05   1.7959781897633129e-06   -1.4769632225796733e-05
-1.0747505041462333e-05   1.7959781897633129e-06   -1.4769632225796733e-05
-9.256590623802694e-06   1.8868569896661773e-06   -1.7309016868504308e-05
-9.256590623802694e-06   1.8868569896661773e-06   -1.7309016868504308e-05
-9.256590623802694e-06   1.8868569896661773e-06   -1.7309016868504308e-05
-9.256590623802694e-06   1.8868569896661773e-06   -1.7309016868504308e-05
-1.0747505041462289e-05   2.6043223958451168e-06   -1.9771051810794015e-05
-1.0747505041462289e-05   2.6043223958451168e-06   -1.9771051810794015e-05
-1.0747505041462289e-05   2.6043223958451168e-06   -1.9771051810794015e-05
-1.0747505041462289e-05   2.6043223958451168e-06   -1.9771051810794015e-05
-7.746653290463931e-06   1.7959781897634213e-06   -1.5254638749445751e-05
-7.746653290463931e-06   1.7959781897634213e-06   -1.5254638749445751e-05
-7.746653290463931e-06   1.7959781897634213e-06   -1.5254638749445751e-05
-7.746653290463931e-06   1.7959781897634213e-06   -1.5254638749445751e-05
-7.644133630218561e-06   3.301557607719263e-06   -2.0452594781658943e-05
-7.644133630218561e-06   3.301557607719263e-06   -2.0452594781658943e-05
-7.644133630218561e-06   3.301557607719263e-06   -2.0452594781658943e-05
-7.644133630218561e-06   3.301557607719263e-06   -2.0452594781658943e-05
-1.0591150277099198e-05   2.453443646705986e-06   -1.5032031993583185e-05
-1.0591150277099198e-05   2.453443646705986e-06   -1.5032031993583185e-05
-1.0591150277099198e-05   2.453443646705986e-06   -1.5032031993583185e-05
-1.0591150277099198e-05   2.453443646705986e-06   -1.5032031993583185e-05
-9.204268130288648e-06   2.4084563995288143e-06   -1.7316509889961086e-05
-9.204268130288648e-06   2.4084563995288143e-06   -1.7316509889961086e-05
-9.204268130288648e-06   2.4084563995288143e-06   -1.7316509889961086e-05
-9.204268130288648e-06   2.4084563995288143e-06   -1.7316509889961086e-05
-7.967245058155246e-06   2.194354359151557e-07   -2.3371830480736376e-05
-7.967245058155246e-06   2.194354359151557e-07   -2.3371830480736376e-05
-7.967245058155246e-06   2.194354359151557e-07   -2.3371830480736376e-05
-7.967245058155246e-06   2.194354359151557e-07   -2.3371830480736376e-05
-4.870780688726851e-06   3.3085058034421425e-07   -1.8144207445031633e-05
-4.870780688726851e-06   3.3085058034421425e-07   -1.8144207445031633e-05
-4.870780688726851e-06   3.3085058034421425e-07   -1.8144207445031633e-05
-4.870780688726851e-06   3.3085058034421425e-07   -1.8144207445031633e-05
-4.7690192751185195e-06   9.277356415673152e-07   -2.3075576184996747e-05
-4.7690192751185195e-06   9.277356415673152e-07   -2.3075576184996747e-05
-4.7690192751185195e-06   9.277356415673152e-07   -2.3075576184996747e-05
-4.7690192751185195e-06   9.277356415673152e-07   -2.3075576184996747e-05
-7.862506565352996e-06   9.781184838389542e-07   -1.7949993739968826e-05
-7.862506565352996e-06   9.781184838389542e-07   -1.7949993739968826e-05
-7.862506565352996e-06   9.781184838389542e-07   -1.7949993739968826e-05
-7.862506565352996e-06   9.781184838389542e-07   -1.7949993739968826e-05
-6.326464554561337e-06   7.047207516473015e-07   -2.034602511864032e-05
-6.326464554561337e-06   7.047207516473015e-07   -2.034602511864032e-05
-6.326464554561337e-06   7.047207516473015e-07   -2.034602511864032e-05
-6.326464554561337e-06   7.047207516473015e-07   -2.034602511864032e-05
-7.862506565352985e-06   9.277356415672573e-07   -2.3105805890359698e-05
-7.862506565352985e-06   9.277356415672573e-07   -2.3105805890359698e-05
-7.862506565352985e-06   9.277356415672573e-07   -2.3105805890359698e-05
-7.862506565352985e-06   9.277356415672573e-07   -2.3105805890359698e-05
-4.769019275118511e-06   9.781184838390626e-07   -1.791976403460585e-05
-4.769019275118511e-06   9.781184838390626e-07   -1.791976403460585e-05
-4.769019275118511e-06   9.781184838390626e-07   -1.791976403460585e-05
-4.769019275118511e-06   9.781184838390626e-07   -1.791976403460585e-05
-4.653957864970119e-06   1.6383145531280517e-06   -2.313474331541997e-05
-4.653957864970119e-06   1.6383145531280517e-06   -2.313474331541997e-05
-4.653957864970119e-06   1.6383145531280517e-06   -2.313474331541997e-05
-4.653957864970119e-06   1.6383145531280517e-06   -2.313474331541997e-05
-7.74665329046393e-06   1.6310104469266203e-06   -1.7975868475875908e-05
-7.74665329046393e-06   1.6310104469266203e-06   -1.7975868475875908e-05
-7.74665329046393e-06   1.6310104469266203e-06   -1.7975868475875908e-05
-7.74665329046393e-06   1.6310104469266203e-06   -1.7975868475875908e-05
-6.259173763880706e-06   1.261525989572983e-06   -2.0233310345769158e-05
-6.259173763880706e-06   1.261525989572983e-06   -2.0233310345769158e-05
-6.259173763880706e-06   1.261525989572983e-06   -2.0233310345769158e-05
-6.259173763880706e-06   1.261525989572983e-06   -2.0233310345769158e-05
-7.746653290463918e-06   1.6383145531280267e-06   -2.313036085169895e-05
-7.746653290463918e-06   1.6383145531280267e-06   -2.313036085169895e-05
-7.746653290463918e-06   1.6383145531280267e-06   -2.313036085169895e-05
-7.746653290463918e-06   1.6383145531280267e-06   -2.313036085169895e-05
-4.653957864970102e-06   1.6310104469266203e-06   -1.7980250939596753e-05
-4.653957864970102e-06   1.6310104469266203e-06   -1.7980250939596753e-05
-4.653957864970102e-06   1.6310104469266203e-06   -1.7980250939596753e-05
-4.653957864970102e-06   1.6310104469266203e-06   -1.7980250939596753e-05
-4.55074888396247e-06   2.361316711308424e-06   -2.352395578993202e-05
-4.55074888396247e-06   2.361316711308424e-06   -2.352395578993202e-05
-4.55074888396247e-06   2.361316711308424e-06   -2.352395578993202e-05
-4.55074888396247e-06   2.361316711308424e-06   -2.352395578993202e-05
-7.644133630218578e-06   2.293809296224111e-06   -1.8327810097121182e-05
-7.644133630218578e-06   2.293809296224111e-06   -1.8327810097121182e-05
-7.644133630218578e-06   2.293809296224111e-06   -1.8327810097121182e-05
-7.644133630218578e-06   2.293809296224111e-06   -1.8327810097121182e-05
-6.204116094251393e-06   1.8257504254635265e-06   -2.044700400127679e-05
-6.204116094251393e-06   1.8257504254635265e-06   -2.044700400127679e-05
-6.204116094251393e-06   1.8257504254635265e-06   -2.044700400127679e-05
-6.204116094251393e-06   1.8257504254635265e-06   -2.044700400127679e-05
-4.870780688726835e-06   -7.311940912330797e-07   -2.0479900629862306e-05
-4.870780688726835e-06   -7.311940912330797e-07   -2.0479900629862306e-05
-4.870780688726835e-06   -7.311940912330797e-07   -2.0479900629862306e-05
-4.870780688726835e-06   -7.311940912330797e-07   -2.0479900629862306e-05
-1.8748153277377746e-06   1.4832758809027978e-07   -1.495891202061997e-05
-1.8748153277377746e-06   1.4832758809027978e-07   -1.495891202061997e-05
-1.8748153277377746e-06   1.4832758809027978e-07   -1.495891202061997e-05
-1.8748153277377746e-06   1.4832758809027978e-07   -1.495891202061997e-05
-1.7213968106203384e-06   -6.312466220071734e-08   -1.981741911080009e-05
-1.7213968106203384e-06   -6.312466220071734e-08   -1.981741911080009e-05
-1.7213968106203384e-06   -6.312466220071734e-08   -1.981741911080009e-05
-1.7213968106203384e-06   -6.312466220071734e-08   -1.981741911080009e-05
-4.769019275118511e-06   7.760946518191184e-07   -1.5241579925048057e-05
-4.769019275118511e-06   7.760946518191184e-07   -1.5241579925048057e-05
-4.769019275118511e-06   7.760946518191184e-07   -1.5241579925048057e-05
-4.769019275118511e-06   7.760946518191184e-07   -1.5241579925048057e-05
-3.2755577211275232e-06   9.787792098440041e-08   -1.732375247653266e-05
-3.2755577211275232e-06   9.787792098440041e-08   -1.732375247653266e-05
-3.2755577211275232e-06   9.787792098440041e-08   -1.732375247653266e-05
-3.2755577211275232e-06   9.787792098440041e-08   -1.732375247653266e-05
-4.769019275118502e-06   -6.312466220067752e-08   -2.0320950699211787e-05
-4.769019275118502e-06   -6.312466220067752e-08   -2.0320950699211787e-05
-4.769019275118502e-06   -6.312466220067752e-08   -2.0320950699211787e-05
-4.769019275118502e-06   -6.312466220067752e-08   -2.0320950699211787e-05
-1.7213968106203316e-06   7.7609465181901e-07   -1.4738048336636323e-05
-1.7213968106203316e-06   7.7609465181901e-07   -1.4738048336636323e-05
-1.7213968106203316e-06   7.7609465181901e-07   -1.4738048336636323e-05
-1.7213968106203316e-06   7.7609465181901e-07   -1.4738048336636323e-05
-1.4913845691348477e-06   5.787289640069352e-07   -2.008161520358542e-05
-1.4913845691348477e-06   5.787289640069352e-07   -2.008161520358542e-05
-1.4913845691348477e-06   5.787289640069352e-07   -2.008161520358542e-05
-1.4913845691348477e-06   5.787289640069352e-07   -2.008161520358542e-05
-4.6539578649701105e-06   1.366896391372845e-06   -1.528356016694609e-05
-4.6539578649701105e-06   1.366896391372845e-06   -1.528356016694609e-05
-4.6539578649701105e-06   1.366896391372845e-06   -1.528356016694609e-05
-4.6539578649701105e-06   1.366896391372845e-06   -1.528356016694609e-05
-3.183462819956815e-06   6.051953356755709e-07   -1.727736460854994e-05
-3.183462819956815e-06   6.051953356755709e-07   -1.727736460854994e-05
-3.183462819956815e-06   6.051953356755709e-07   -1.727736460854994e-05
-3.183462819956815e-06   6.051953356755709e-07   -1.727736460854994e-05
-4.653957864970102e-06   5.787289640069337e-07   -2.055451566000487e-05
-4.653957864970102e-06   5.787289640069337e-07   -2.055451566000487e-05
-4.653957864970102e-06   5.787289640069337e-07   -2.055451566000487e-05
-4.653957864970102e-06   5.787289640069337e-07   -2.055451566000487e-05
-1.4913845691348477e-06   1.366896391372845e-06   -1.4810659710526634e-05
-1.4913845691348477e-06   1.366896391372845e-06   -1.4810659710526634e-05
-1.4913845691348477e-06   1.366896391372845e-06   -1.4810659710526634e-05
-1.4913845691348477e-06   1.366896391372845e-06   -1.4810659710526634e-05
-1.3311688104652381e-06   1.31342911633618e-06   -2.0643028355903494e-05
-1.3311688104652381e-06   1.31342911633618e-06   -2.0643028355903494e-05
-1.3311688104652381e-06   1.31342911633618e-06   -2.0643028355903494e-05
-1.3311688104652381e-06   1.31342911633618e-06   -2.0643028355903494e-05
-4.55074888396247e-06   2.033949287410749e-06   -1.5709373669386078e-05
-4.55074888396247e-06   2.033949287410749e-06   -1.5709373669386078e-05
-4.55074888396247e-06   2.033949287410749e-06   -1.5709373669386078e-05
-4.55074888396247e-06   2.033949287410749e-06   -1.5709373669386078e-05
-3.087462041965209e-06   1.1359259720548735e-06   -1.7609371083501343e-05
-3.087462041965209e-06   1.1359259720548735e-06   -1.7609371083501343e-05
-3.087462041965209e-06   1.1359259720548735e-06   -1.7609371083501343e-05
-3.087462041965209e-06   1.1359259720548735e-06   -1.7609371083501343e-05
-1.8748153277377679e-06   -1.3383468937276751e-06   -1.1102027334934097e-05
-1.8748153277377679e-06   -1.3383468937276751e-06   -1.1102027334934097e-05
-1.8748153277377679e-06   -1.3383468937276751e-06   -1.1102027334934097e-05
-1.8748153277377679e-06   -1.3383468937276751e-06   -1.1102027334934097e-05
3.126781788542537e-07   2.134015207195519e-07   -6.525155775279079e-06
3.126781788542537e-07   2.134015207195519e-07   -6.525155775279079e-06
3.126781788542537e-07   2.134015207195519e-07   -6.525155775279079e-06
3.126781788542537e-07   2.134015207195519e-07   -6.525155775279079e-06
1.1366515325663258e-06   -8.846575247803239e-07   -1.0584612416331411e-05
1.1366515325663258e-06   -8.846575247803239e-07   -1.0584612416331411e-05
1.1366515325663258e-06   -8.846575247803239e-07   -1.0584612416331411e-05
1.1366515325663258e-06   -8.846575247803239e-07   -1.0584612416331411e-05
-1.7213968106203341e-06   7.105554423684352e-07   -6.778326291309464e-06
-1.7213968106203341e-06   7.105554423684352e-07   -6.778326291309464e-06
-1.7213968106203341e-06   7.105554423684352e-07   -6.778326291309464e-06
-1.7213968106203341e-06   7.105554423684352e-07   -6.778326291309464e-06
-5.208952809861469e-07   -2.586192676399309e-07   -8.197657348028376e-06
-5.208952809861469e-07   -2.586192676399309e-07   -8.197657348028376e-06
-5.208952809861469e-07   -2.586192676399309e-07   -8.197657348028376e-06
-5.208952809861469e-07   -2.586192676399309e-07   -8.197657348028376e-06
-1.7213968106203248e-06   -8.846575247803644e-07   -1.154174019662058e-05
-1.7213968106203248e-06   -8.846575247803644e-07   -1.154174019662058e-05
-1.7213968106203248e-06   -8.846575247803644e-07   -1.154174019662058e-05
-1.7213968106203248e-06   -8.846575247803644e-07   -1.154174019662058e-05
1.1366515325663123e-06   7.105554423684352e-07   -5.821198511020268e-06
1.1366515325663123e-06   7.105554423684352e-07   -5.821198511020268e-06
1.1366515325663123e-06   7.105554423684352e-07   -5.821198511020268e-06
1.1366515325663123e-06   7.105554423684352e-07   -5.821198511020268e-06
1.7875926395308895e-06   -5.725067215190272e-07   -1.1154147586770098e-05
1.7875926395308895e-06   -5.725067215190272e-07   -1.1154147586770098e-05
1.7875926395308895e-06   -5.725067215190272e-07   -1.1154147586770098e-05
1.7875926395308895e-06   -5.725067215190272e-07   -1.1154147586770098e-05
-1.4913845691348454e-06   9.896520255882118e-07   -6.626480820591459e-06
-1.4913845691348454e-06   9.896520255882118e-07   -6.626480820591459e-06
-1.4913845691348454e-06   9.896520255882118e-07   -6.626480820591459e-06
-1.4913845691348454e-06   9.896520255882118e-07   -6.626480820591459e-06
-1.0581494706341081e-07   -1.9719221833539025e-08   -8.33014077559078e-06
-1.0581494706341081e-07   -1.9719221833539025e-08   -8.33014077559078e-06
-1.0581494706341081e-07   -1.9719221833539025e-08   -8.33014077559078e-06
-1.0581494706341081e-07   -1.9719221833539025e-08   -8.33014077559078e-06
-1.491384569134841e-06   -5.725067215190414e-07   -1.2091442835034474e-05
-1.491384569134841e-06   -5.725067215190414e-07   -1.2091442835034474e-05
-1.491384569134841e-06   -5.725067215190414e-07   -1.2091442835034474e-05
-1.491384569134841e-06   -5.725067215190414e-07   -1.2091442835034474e-05
1.7875926395308895e-06   9.896520255882118e-07   -5.68918557232711e-06
1.7875926395308895e-06   9.896520255882118e-07   -5.68918557232711e-06
1.7875926395308895e-06   9.896520255882118e-07   -5.68918557232711e-06
1.7875926395308895e-06   9.896520255882118e-07   -5.68918557232711e-06
2.6109906727965677e-06   3.91230465167868e-08   -1.2486911186642633e-05
2.6109906727965677e-06   3.91230465167868e-08   -1.2486911186642633e-05
2.6109906727965677e-06   3.91230465167868e-08   -1.2486911186642633e-05
2.6109906727965677e-06   3.91230465167868e-08   -1.2486911186642633e-05
-1.3311688104652358e-06   1.4822516625480299e-06   -6.782522550824853e-06
-1.3311688104652358e-06   1.4822516625480299e-06   -6.782522550824853e-06
-1.3311688104652358e-06   1.4822516625480299e-06   -6.782522550824853e-06
-1.3311688104652358e-06   1.4822516625480299e-06   -6.782522550824853e-06
2.549246369107222e-07   2.506356887149166e-07   -8.687042045485047e-06
2.549246369107222e-07   2.506356887149166e-07   -8.687042045485047e-06
2.549246369107222e-07   2.506356887149166e-07   -8.687042045485047e-06
2.549246369107222e-07   2.506356887149166e-07   -8.687042045485047e-06
-5.17873265320698e-06   9.837512200384122e-07   -9.374821321510567e-06
-5.17873265320698e-06   9.837512200384122e-07   -9.374821321510567e-06
-5.17873265320698e-06   9.837512200384122e-07   -9.374821321510567e-06
-5.17873265320698e-06   9.837512200384122e-07   -9.374821321510567e-06
-5.307813503597244e-06   -4.6658756172276473e-07   -1.046015934121777e-05
-5.307813503597244e-06   -4.6658756172276473e-07   -1.046015934121777e-05
-5.307813503597244e-06   -4.6658756172276473e-07   -1.046015934121777e-05
-5.307813503597244e-06   -4.6658756172276473e-07   -1.046015934121777e-05
-5.045415763805142e-06   1.5365935915864814e-06   -8.809789419175892e-06
-5.045415763805142e-06   1.5365935915864814e-06   -8.809789419175892e-06
-5.045415763805142e-06   1.5365935915864814e-06   -8.809789419175892e-06
-5.045415763805142e-06   1.5365935915864814e-06   -8.809789419175892e-06
-4.263556609125266e-06   -2.0529093675220392e-08   -9.178614399151929e-06
-4.263556609125266e-06   -2.0529093675220392e-08   -9.178614399151929e-06
-4.263556609125266e-06   -2.0529093675220392e-08   -9.178614399151929e-06
-4.263556609125266e-06   -2.0529093675220392e-08   -9.178614399151929e-06
-4.732829653466362e-06   6.775752270917965e-07   -8.815355251044066e-06
-4.732829653466362e-06   6.775752270917965e-07   -8.815355251044066e-06
-4.732829653466362e-06   6.775752270917965e-07   -8.815355251044066e-06
-4.732829653466362e-06   6.775752270917965e-07   -8.815355251044066e-06
-4.263556609125256e-06   1.5365935915864928e-06   -7.875515808018925e-06
-4.263556609125256e-06   1.5365935915864928e-06   -7.875515808018925e-06
-4.263556609125256e-06   1.5365935915864928e-06   -7.875515808018925e-06
-4.263556609125256e-06   1.5365935915864928e-06   -7.875515808018925e-06
-5.045415763805155e-06   -2.0529093675220392e-08   -1.011288801030914e-05
-5.045415763805155e-06   -2.0529093675220392e-08   -1.011288801030914e-05
-5.045415763805155e-06   -2.0529093675220392e-08   -1.011288801030914e-05
-5.045415763805155e-06   -2.0529093675220392e-08   -1.011288801030914e-05
-4.713697564405917e-06   1.8169906792008623e-06   -8.175004582310031e-06
-4.713697564405917e-06   1.8169906792008623e-06   -8.175004582310031e-06
-4.713697564405917e-06   1.8169906792008623e-06   -8.175004582310031e-06
-4.713697564405917e-06   1.8169906792008623e-06   -8.175004582310031e-06
-3.508767318727473e-06   2.3303737907041586e-07   -9.232849678362577e-06
-3.508767318727473e-06   2.3303737907041586e-07   -9.232849678362577e-06
-3.508767318727473e-06   2.3303737907041586e-07   -9.232849678362577e-06
-3.508767318727473e-06   2.3303737907041586e-07   -9.232849678362577e-06
-4.301446055415679e-06   9.07270847512031e-07   -8.316258531614214e-06
-4.301446055415679e-06   9.07270847512031e-07   -8.316258531614214e-06
-4.301446055415679e-06   9.07270847512031e-07   -8.316258531614214e-06
-4.301446055415679e-06   9.07270847512031e-07   -8.316258531614214e-06
-3.5087673187274586e-06   1.816990679200864e-06   -7.224632602231839e-06
-3.5087673187274586e-06   1.816990679200864e-06   -7.224632602231839e-06
-3.5087673187274586e-06   1.816990679200864e-06   -7.224632602231839e-06
-3.5087673187274586e-06   1.816990679200864e-06   -7.224632602231839e-06
-4.713697564405944e-06   2.3303737907041586e-07   -1.0183221658440877e-05
-4.713697564405944e-06   2.3303737907041586e-07   -1.0183221658440877e-05
-4.713697564405944e-06   2.3303737907041586e-07   -1.0183221658440877e-05
-4.713697564405944e-06   2.3303737907041586e-07   -1.0183221658440877e-05
-4.45663787096884e-06   2.2616803005779534e-06   -7.587171971295149e-06
-4.45663787096884e-06   2.2616803005779534e-06   -7.587171971295149e-06
-4.45663787096884e-06   2.2616803005779534e-06   -7.587171971295149e-06
-4.45663787096884e-06   2.2616803005779534e-06   -7.587171971295149e-06
-2.5768422528606774e-06   7.38330041046161e-07   -9.806154512422992e-06
-2.5768422528606774e-06   7.38330041046161e-07   -9.806154512422992e-06
-2.5768422528606774e-06   7.38330041046161e-07   -9.806154512422992e-06
-2.5768422528606774e-06   7.38330041046161e-07   -9.806154512422992e-06
-3.7637275550973556e-06   1.128955349695925e-06   -8.062387527218057e-06
-3.7637275550973556e-06   1.128955349695925e-06   -8.062387527218057e-06
-3.7637275550973556e-06   1.128955349695925e-06   -8.062387527218057e-06
-3.7637275550973556e-06   1.128955349695925e-06   -8.062387527218057e-06
-5.307813503597244e-06   5.705794981097728e-07   -1.711376400410447e-05
-5.307813503597244e-06   5.705794981097728e-07   -1.711376400410447e-05
-5.307813503597244e-06   5.705794981097728e-07   -1.711376400410447e-05
-5.307813503597244e-06   5.705794981097728e-07   -1.711376400410447e-05
-6.1617465638746355e-06   -9.703444595174273e-08   -1.8937554137670386e-05
-6.1617465638746355e-06   -9.703444595174273e-08   -1.8937554137670386e-05
-6.1617465638746355e-06   -9.703444595174273e-08   -1.8937554137670386e-05
-6.1617465638746355e-06   -9.703444595174273e-08   -1.8937554137670386e-05
-5.951067144313599e-06   1.2050856928352057e-06   -1.7124982190269526e-05
-5.951067144313599e-06   1.2050856928352057e-06   -1.7124982190269526e-05
-5.951067144313599e-06   1.2050856928352057e-06   -1.7124982190269526e-05
-5.951067144313599e-06   1.2050856928352057e-06   -1.7124982190269526e-05
-5.045415763805159e-06   4.665835435493839e-07   -1.819129986821205e-05
-5.045415763805159e-06   4.665835435493839e-07   -1.819129986821205e-05
-5.045415763805159e-06   4.665835435493839e-07   -1.819129986821205e-05
-5.045415763805159e-06   4.665835435493839e-07   -1.819129986821205e-05
-5.551201389311182e-06   6.611537329895539e-07   -1.746506593936647e-05
-5.551201389311182e-06   6.611537329895539e-07   -1.746506593936647e-05
-5.551201389311182e-06   6.611537329895539e-07   -1.746506593936647e-05
-5.551201389311182e-06   6.611537329895539e-07   -1.746506593936647e-05
-5.045415763805142e-06   1.205085692835199e-06   -1.6681880900697925e-05
-5.045415763805142e-06   1.205085692835199e-06   -1.6681880900697925e-05
-5.045415763805142e-06   1.205085692835199e-06   -1.6681880900697925e-05
-5.045415763805142e-06   1.205085692835199e-06   -1.6681880900697925e-05
-5.951067144313592e-06   4.665835435493839e-07   -1.8634401157783653e-05
-5.951067144313592e-06   4.665835435493839e-07   -1.8634401157783653e-05
-5.951067144313592e-06   4.665835435493839e-07   -1.8634401157783653e-05
-5.951067144313592e-06   4.665835435493839e-07   -1.8634401157783653e-05
-5.731833413840676e-06   1.7959781897633129e-06   -1.6981213199908254e-05
-5.731833413840676e-06   1.7959781897633129e-06   -1.6981213199908254e-05
-5.731833413840676e-06   1.7959781897633129e-06   -1.6981213199908254e-05
-5.731833413840676e-06   1.7959781897633129e-06   -1.6981213199908254e-05
-4.713697564405944e-06   1.0100376948864566e-06   -1.820654198537335e-05
-4.713697564405944e-06   1.0100376948864566e-06   -1.820654198537335e-05
-4.713697564405944e-06   1.0100376948864566e-06   -1.820654198537335e-05
-4.713697564405944e-06   1.0100376948864566e-06   -1.820654198537335e-05
-5.340209409217941e-06   1.1166017486099328e-06   -1.7226294009587524e-05
-5.340209409217941e-06   1.1166017486099328e-06   -1.7226294009587524e-05
-5.340209409217941e-06   1.1166017486099328e-06   -1.7226294009587524e-05
-5.340209409217941e-06   1.1166017486099328e-06   -1.7226294009587524e-05
-4.713697564405917e-06   1.7959781897633669e-06   -1.6509648902982184e-05
-4.713697564405917e-06   1.7959781897633669e-06   -1.6509648902982184e-05
-4.713697564405917e-06   1.7959781897633669e-06   -1.6509648902982184e-05
-4.713697564405917e-06   1.7959781897633669e-06   -1.6509648902982184e-05
-5.7318334138406555e-06   1.0100376948864566e-06   -1.867810628229942e-05
-5.7318334138406555e-06   1.0100376948864566e-06   -1.867810628229942e-05
-5.7318334138406555e-06   1.0100376948864566e-06   -1.867810628229942e-05
-5.7318334138406555e-06   1.0100376948864566e-06   -1.867810628229942e-05
-5.525820586365593e-06   2.453443646705986e-06   -1.726282178749546e-05
-5.525820586365593e-06   2.453443646705986e-06   -1.726282178749546e-05
-5.525820586365593e-06   2.453443646705986e-06   -1.726282178749546e-05
-5.525820586365593e-06   2.453443646705986e-06   -1.726282178749546e-05
-4.456637870968845e-06   1.6314421889248925e-06   -1.855159210515468e-05
-4.456637870968845e-06   1.6314421889248925e-06   -1.855159210515468e-05
-4.456637870968845e-06   1.6314421889248925e-06   -1.855159210515468e-05
-4.456637870968845e-06   1.6314421889248925e-06   -1.855159210515468e-05
-5.15512542189286e-06   1.5953066992158973e-06   -1.736576489312229e-05
-5.15512542189286e-06   1.5953066992158973e-06   -1.736576489312229e-05
-5.15512542189286e-06   1.5953066992158973e-06   -1.736576489312229e-05
-5.15512542189286e-06   1.5953066992158973e-06   -1.736576489312229e-05
-6.161746563874608e-06   3.3085058034427576e-07   -1.994285368743786e-05
-6.161746563874608e-06   3.3085058034427576e-07   -1.994285368743786e-05
-6.161746563874608e-06   3.3085058034427576e-07   -1.994285368743786e-05
-6.161746563874608e-06   3.3085058034427576e-07   -1.994285368743786e-05
-7.054665187758189e-06   4.7300994137147723e-07   -2.134575577729419e-05
-7.054665187758189e-06   4.7300994137147723e-07   -2.134575577729419e-05
-7.054665187758189e-06   4.7300994137147723e-07   -2.134575577729419e-05
-7.054665187758189e-06   4.7300994137147723e-07   -2.134575577729419e-05
-6.847932481536447e-06   9.781184838390626e-07   -1.96332756890744e-05
-6.847932481536447e-06   9.781184838390626e-07   -1.96332756890744e-05
-6.847932481536447e-06   9.781184838390626e-07   -1.96332756890744e-05
-6.847932481536447e-06   9.781184838390626e-07   -1.96332756890744e-05
-5.951067144313594e-06   1.0566085260233383e-06   -2.1175145276422944e-05
-5.951067144313594e-06   1.0566085260233383e-06   -2.1175145276422944e-05
-5.951067144313594e-06   1.0566085260233383e-06   -2.1175145276422944e-05
-5.951067144313594e-06   1.0566085260233383e-06   -2.1175145276422944e-05
-6.464660450226943e-06   8.008576627315444e-07   -2.0165705915259238e-05
-6.464660450226943e-06   8.008576627315444e-07   -2.0165705915259238e-05
-6.464660450226943e-06   8.008576627315444e-07   -2.0165705915259238e-05
-6.464660450226943e-06   8.008576627315444e-07   -2.0165705915259238e-05
-5.951067144313578e-06   9.781184838390239e-07   -1.9680369714384922e-05
-5.951067144313578e-06   9.781184838390239e-07   -1.9680369714384922e-05
-5.951067144313578e-06   9.781184838390239e-07   -1.9680369714384922e-05
-5.951067144313578e-06   9.781184838390239e-07   -1.9680369714384922e-05
-6.847932481536447e-06   1.0566085260233383e-06   -2.112805125111249e-05
-6.847932481536447e-06   1.0566085260233383e-06   -2.112805125111249e-05
-6.847932481536447e-06   1.0566085260233383e-06   -2.112805125111249e-05
-6.847932481536447e-06   1.0566085260233383e-06   -2.112805125111249e-05
-6.630020010418852e-06   1.6310104469266203e-06   -1.9689327477019982e-05
-6.630020010418852e-06   1.6310104469266203e-06   -1.9689327477019982e-05
-6.630020010418852e-06   1.6310104469266203e-06   -1.9689327477019982e-05
-6.630020010418852e-06   1.6310104469266203e-06   -1.9689327477019982e-05
-5.7318334138406614e-06   1.6528695291241494e-06   -2.1199420587302004e-05
-5.7318334138406614e-06   1.6528695291241494e-06   -2.1199420587302004e-05
-5.7318334138406614e-06   1.6528695291241494e-06   -2.1199420587302004e-05
-5.7318334138406614e-06   1.6528695291241494e-06   -2.1199420587302004e-05
-6.291881058455713e-06   1.3008148884352446e-06   -2.0054775061863907e-05
-6.291881058455713e-06   1.3008148884352446e-06   -2.0054775061863907e-05
-6.291881058455713e-06   1.3008148884352446e-06   -2.0054775061863907e-05
-6.291881058455713e-06   1.3008148884352446e-06   -2.0054775061863907e-05
-5.7318334138406555e-06   1.6310104469266764e-06   -1.9702442926338424e-05
-5.7318334138406555e-06   1.6310104469266764e-06   -1.9702442926338424e-05
-5.7318334138406555e-06   1.6310104469266764e-06   -1.9702442926338424e-05
-5.7318334138406555e-06   1.6310104469266764e-06   -1.9702442926338424e-05
-6.63002001041884e-06   1.6528695291241494e-06   -2.1186305137983427e-05
-6.63002001041884e-06   1.6528695291241494e-06   -2.1186305137983427e-05
-6.63002001041884e-06   1.6528695291241494e-06   -2.1186305137983427e-05
-6.63002001041884e-06   1.6528695291241494e-06   -2.1186305137983427e-05
-6.4246233223589454e-06   2.293809296224111e-06   -2.0071539010496208e-05
-6.4246233223589454e-06   2.293809296224111e-06   -2.0071539010496208e-05
-6.4246233223589454e-06   2.293809296224111e-06   -2.0071539010496208e-05
-6.4246233223589454e-06   2.293809296224111e-06   -2.0071539010496208e-05
-5.5258205863655985e-06   2.257463469439668e-06   -2.154773607441442e-05
-5.5258205863655985e-06   2.257463469439668e-06   -2.154773607441442e-05
-5.5258205863655985e-06   2.257463469439668e-06   -2.154773607441442e-05
-5.5258205863655985e-06   2.257463469439668e-06   -2.154773607441442e-05
-6.133298714756852e-06   1.8078029866028201e-06   -2.0265476237393254e-05
-6.133298714756852e-06   1.8078029866028201e-06   -2.0265476237393254e-05
-6.133298714756852e-06   1.8078029866028201e-06   -2.0265476237393254e-05
-6.133298714756852e-06   1.8078029866028201e-06   -2.0265476237393254e-05
-7.054665187758177e-06   1.4832758809021792e-07   -1.71999756540039e-05
-7.054665187758177e-06   1.4832758809021792e-07   -1.71999756540039e-05
-7.054665187758177e-06   1.4832758809021792e-07   -1.71999756540039e-05
-7.054665187758177e-06   1.4832758809021792e-07   -1.71999756540039e-05
-8.001972474545166e-06   1.0490717100004963e-06   -1.823837465883614e-05
-8.001972474545166e-06   1.0490717100004963e-06   -1.823837465883614e-05
-8.001972474545166e-06   1.0490717100004963e-06   -1.823837465883614e-05
-8.001972474545166e-06   1.0490717100004963e-06   -1.823837465883614e-05
-7.750896339445678e-06   7.7609465181901e-07   -1.6439630001493664e-05
-7.750896339445678e-06   7.7609465181901e-07   -1.6439630001493664e-05
-7.750896339445678e-06   7.7609465181901e-07   -1.6439630001493664e-05
-7.750896339445678e-06   7.7609465181901e-07   -1.6439630001493664e-05
-6.847932481536446e-06   1.6351972818574563e-06   -1.8460031342698595e-05
-6.847932481536446e-06   1.6351972818574563e-06   -1.8460031342698595e-05
-6.847932481536446e-06   1.6351972818574563e-06   -1.8460031342698595e-05
-6.847932481536446e-06   1.6351972818574563e-06   -1.8460031342698595e-05
-7.356421183301323e-06   9.670558851000884e-07   -1.7211665335036368e-05
-7.356421183301323e-06   9.670558851000884e-07   -1.7211665335036368e-05
-7.356421183301323e-06   9.670558851000884e-07   -1.7211665335036368e-05
-7.356421183301323e-06   9.670558851000884e-07   -1.7211665335036368e-05
-6.847932481536435e-06   7.760946518189978e-07   -1.6955091579516624e-05
-6.847932481536435e-06   7.760946518189978e-07   -1.6955091579516624e-05
-6.847932481536435e-06   7.760946518189978e-07   -1.6955091579516624e-05
-6.847932481536435e-06   7.760946518189978e-07   -1.6955091579516624e-05
-7.750896339445678e-06   1.6351972818574563e-06   -1.7944569764675696e-05
-7.750896339445678e-06   1.6351972818574563e-06   -1.7944569764675696e-05
-7.750896339445678e-06   1.6351972818574563e-06   -1.7944569764675696e-05
-7.750896339445678e-06   1.6351972818574563e-06   -1.7944569764675696e-05
-7.4242829917127545e-06   1.366896391372845e-06   -1.65076345453604e-05
-7.4242829917127545e-06   1.366896391372845e-06   -1.65076345453604e-05
-7.4242829917127545e-06   1.366896391372845e-06   -1.65076345453604e-05
-7.4242829917127545e-06   1.366896391372845e-06   -1.65076345453604e-05
-6.6300200104188404e-06   2.17523332305433e-06   -1.8316408339858995e-05
-6.6300200104188404e-06   2.17523332305433e-06   -1.8316408339858995e-05
-6.6300200104188404e-06   2.17523332305433e-06   -1.8316408339858995e-05
-6.6300200104188404e-06   2.17523332305433e-06   -1.8316408339858995e-05
-7.131893218786195e-06   1.4326693893969896e-06   -1.7034414632385978e-05
-7.131893218786195e-06   1.4326693893969896e-06   -1.7034414632385978e-05
-7.131893218786195e-06   1.4326693893969896e-06   -1.7034414632385978e-05
-7.131893218786195e-06   1.4326693893969896e-06   -1.7034414632385978e-05
-6.630020010418829e-06   1.3668963913727448e-06   -1.6992636704369203e-05
-6.630020010418829e-06   1.3668963913727448e-06   -1.6992636704369203e-05
-6.630020010418829e-06   1.3668963913727448e-06   -1.6992636704369203e-05
-6.630020010418829e-06   1.3668963913727448e-06   -1.6992636704369203e-05
-7.424282991712775e-06   2.1752333230542218e-06   -1.7831406180850184e-05
-7.424282991712775e-06   2.1752333230542218e-06   -1.7831406180850184e-05
-7.424282991712775e-06   2.1752333230542218e-06   -1.7831406180850184e-05
-7.424282991712775e-06   2.1752333230542218e-06   -1.7831406180850184e-05
-7.16824159196398e-06   2.033949287410749e-06   -1.696533491569568e-05
-7.16824159196398e-06   2.033949287410749e-06   -1.696533491569568e-05
-7.16824159196398e-06   2.033949287410749e-06   -1.696533491569568e-05
-7.16824159196398e-06   2.033949287410749e-06   -1.696533491569568e-05
-6.4246233223589454e-06   2.77938798410194e-06   -1.8651961916385583e-05
-6.4246233223589454e-06   2.77938798410194e-06   -1.8651961916385583e-05
-6.4246233223589454e-06   2.77938798410194e-06   -1.8651961916385583e-05
-6.4246233223589454e-06   2.77938798410194e-06   -1.8651961916385583e-05
-6.965526116607962e-06   1.9076057616660824e-06   -1.7227387925842063e-05
-6.965526116607962e-06   1.9076057616660824e-06   -1.7227387925842063e-05
-6.965526116607962e-06   1.9076057616660824e-06   -1.7227387925842063e-05
-6.965526116607962e-06   1.9076057616660824e-06   -1.7227387925842063e-05
-8.001972474545139e-06   2.1340152071956166e-07   -9.156821984185326e-06
-8.001972474545139e-06   2.1340152071956166e-07   -9.156821984185326e-06
-8.001972474545139e-06   2.1340152071956166e-07   -9.156821984185326e-06
-8.001972474545139e-06   2.1340152071956166e-07   -9.156821984185326e-06
-9.7312430954526e-06   1.7670511426636296e-06   -1.1106749912531255e-05
-9.7312430954526e-06   1.7670511426636296e-06   -1.1106749912531255e-05
-9.7312430954526e-06   1.7670511426636296e-06   -1.1106749912531255e-05
-9.7312430954526e-06   1.7670511426636296e-06   -1.1106749912531255e-05
-8.825696920254848e-06   7.105554423684352e-07   -7.5266236107752104e-06
-8.825696920254848e-06   7.105554423684352e-07   -7.5266236107752104e-06
-8.825696920254848e-06   7.105554423684352e-07   -7.5266236107752104e-06
-8.825696920254848e-06   7.105554423684352e-07   -7.5266236107752104e-06
-7.750896339445667e-06   2.2993626846880407e-06   -1.0271242257515457e-05
-7.750896339445667e-06   2.2993626846880407e-06   -1.0271242257515457e-05
-7.750896339445667e-06   2.2993626846880407e-06   -1.0271242257515457e-05
-7.750896339445667e-06   2.2993626846880407e-06   -1.0271242257515457e-05
-8.2303706625031e-06   1.3108548068941316e-06   -8.879013659076902e-06
-8.2303706625031e-06   1.3108548068941316e-06   -8.879013659076902e-06
-8.2303706625031e-06   1.3108548068941316e-06   -8.879013659076902e-06
-8.2303706625031e-06   1.3108548068941316e-06   -8.879013659076902e-06
-7.750896339445645e-06   7.105554423684208e-07   -8.479907956166779e-06
-7.750896339445645e-06   7.105554423684208e-07   -8.479907956166779e-06
-7.750896339445645e-06   7.105554423684208e-07   -8.479907956166779e-06
-7.750896339445645e-06   7.105554423684208e-07   -8.479907956166779e-06
-8.825696920254848e-06   2.2993626846880407e-06   -9.31795791212376e-06
-8.825696920254848e-06   2.2993626846880407e-06   -9.31795791212376e-06
-8.825696920254848e-06   2.2993626846880407e-06   -9.31795791212376e-06
-8.825696920254848e-06   2.2993626846880407e-06   -9.31795791212376e-06
-8.089163292736968e-06   9.896520255882118e-07   -7.391442297253711e-06
-8.089163292736968e-06   9.896520255882118e-07   -7.391442297253711e-06
-8.089163292736968e-06   9.896520255882118e-07   -7.391442297253711e-06
-8.089163292736968e-06   9.896520255882118e-07   -7.391442297253711e-06
-7.424282991712756e-06   2.5430076225408695e-06   -9.431589490465554e-06
-7.424282991712756e-06   2.5430076225408695e-06   -9.431589490465554e-06
-7.424282991712756e-06   2.5430076225408695e-06   -9.431589490465554e-06
-7.424282991712756e-06   2.5430076225408695e-06   -9.431589490465554e-06
-7.848478244870457e-06   1.558404085236437e-06   -8.133835279486824e-06
-7.848478244870457e-06   1.558404085236437e-06   -8.133835279486824e-06
-7.848478244870457e-06   1.558404085236437e-06   -8.133835279486824e-06
-7.848478244870457e-06   1.558404085236437e-06   -8.133835279486824e-06
-7.424282991712748e-06   9.896520255882387e-07   -8.323455655425305e-06
-7.424282991712748e-06   9.896520255882387e-07   -8.323455655425305e-06
-7.424282991712748e-06   9.896520255882387e-07   -8.323455655425305e-06
-7.424282991712748e-06   9.896520255882387e-07   -8.323455655425305e-06
-8.089163292736981e-06   2.543007622540978e-06   -8.499576132294027e-06
-8.089163292736981e-06   2.543007622540978e-06   -8.499576132294027e-06
-8.089163292736981e-06   2.543007622540978e-06   -8.499576132294027e-06
-8.089163292736981e-06   2.543007622540978e-06   -8.499576132294027e-06
-7.186015896298284e-06   1.4822516625480299e-06   -7.609376054549752e-06
-7.186015896298284e-06   1.4822516625480299e-06   -7.609376054549752e-06
-7.186015896298284e-06   1.4822516625480299e-06   -7.609376054549752e-06
-7.186015896298284e-06   1.4822516625480299e-06   -7.609376054549752e-06
-7.1682415919639676e-06   2.917951404597316e-06   -8.500419740336404e-06
-7.1682415919639676e-06   2.917951404597316e-06   -8.500419740336404e-06
-7.1682415919639676e-06   2.917951404597316e-06   -8.500419740336404e-06
-7.1682415919639676e-06   2.917951404597316e-06   -8.500419740336404e-06
-7.278436721627618e-06   1.7568161715261982e-06   -7.620080051054393e-06
-7.278436721627618e-06   1.7568161715261982e-06   -7.620080051054393e-06
-7.278436721627618e-06   1.7568161715261982e-06   -7.620080051054393e-06
-7.278436721627618e-06   1.7568161715261982e-06   -7.620080051054393e-06
4.728962021139792e-06   -4.665875617227337e-07   -4.691305541297097e-06
4.728962021139792e-06   -4.665875617227337e-07   -4.691305541297097e-06
4.728962021139792e-06   -4.665875617227337e-07   -4.691305541297097e-06
4.728962021139792e-06   -4.665875617227337e-07   -4.691305541297097e-06
4.961752147296779e-07   -1.9372823439119547e-06   -1.2628367087960766e-05
4.961752147296779e-07   -1.9372823439119547e-06   -1.2628367087960766e-05
4.961752147296779e-07   -1.9372823439119547e-06   -1.2628367087960766e-05
4.961752147296779e-07   -1.9372823439119547e-06   -1.2628367087960766e-05
8.550907711591348e-07   -2.0529093675220392e-08   -5.195943068424182e-06
8.550907711591348e-07   -2.0529093675220392e-08   -5.195943068424182e-06
8.550907711591348e-07   -2.0529093675220392e-08   -5.195943068424182e-06
8.550907711591348e-07   -2.0529093675220392e-08   -5.195943068424182e-06
5.7429495288657e-06   -1.5934947778936063e-06   -1.2398594920737455e-05
5.7429495288657e-06   -1.5934947778936063e-06   -1.2398594920737455e-05
5.7429495288657e-06   -1.5934947778936063e-06   -1.2398594920737455e-05
5.7429495288657e-06   -1.5934947778936063e-06   -1.2398594920737455e-05
2.84488179904435e-06   -8.109101639018883e-07   -8.038032806096903e-06
2.84488179904435e-06   -8.109101639018883e-07   -8.038032806096903e-06
2.84488179904435e-06   -8.109101639018883e-07   -8.038032806096903e-06
2.84488179904435e-06   -8.109101639018883e-07   -8.038032806096903e-06
5.742949528865732e-06   -2.0529093675198207e-08   -4.252163657893172e-06
5.742949528865732e-06   -2.0529093675198207e-08   -4.252163657893172e-06
5.742949528865732e-06   -2.0529093675198207e-08   -4.252163657893172e-06
5.742949528865732e-06   -2.0529093675198207e-08   -4.252163657893172e-06
8.550907711591348e-07   -1.5934947778936063e-06   -1.3342374331268628e-05
8.550907711591348e-07   -1.5934947778936063e-06   -1.3342374331268628e-05
8.550907711591348e-07   -1.5934947778936063e-06   -1.3342374331268628e-05
8.550907711591348e-07   -1.5934947778936063e-06   -1.3342374331268628e-05
1.278830003825703e-06   2.3303737907041586e-07   -5.240104716306587e-06
1.278830003825703e-06   2.3303737907041586e-07   -5.240104716306587e-06
1.278830003825703e-06   2.3303737907041586e-07   -5.240104716306587e-06
1.278830003825703e-06   2.3303737907041586e-07   -5.240104716306587e-06
6.597906310322185e-06   -1.362865006725839e-06   -1.3147690462322924e-05
6.597906310322185e-06   -1.362865006725839e-06   -1.3147690462322924e-05
6.597906310322185e-06   -1.362865006725839e-06   -1.3147690462322924e-05
6.597906310322185e-06   -1.362865006725839e-06   -1.3147690462322924e-05
3.4865352521963253e-06   -6.493786444546849e-07   -8.390163849476324e-06
3.4865352521963253e-06   -6.493786444546849e-07   -8.390163849476324e-06
3.4865352521963253e-06   -6.493786444546849e-07   -8.390163849476324e-06
3.4865352521963253e-06   -6.493786444546849e-07   -8.390163849476324e-06
6.597906310322233e-06   2.3303737907037118e-07   -4.282563284828812e-06
6.597906310322233e-06   2.3303737907037118e-07   -4.282563284828812e-06
6.597906310322233e-06   2.3303737907037118e-07   -4.282563284828812e-06
6.597906310322233e-06   2.3303737907037118e-07   -4.282563284828812e-06
1.2788300038256894e-06   -1.362865006725839e-06   -1.4105231893800753e-05
1.2788300038256894e-06   -1.362865006725839e-06   -1.4105231893800753e-05
1.2788300038256894e-06   -1.362865006725839e-06   -1.4105231893800753e-05
1.2788300038256894e-06   -1.362865006725839e-06   -1.4105231893800753e-05
1.626011375912244e-06   7.38330041046161e-07   -5.753343834880974e-06
1.626011375912244e-06   7.38330041046161e-07   -5.753343834880974e-06
1.626011375912244e-06   7.38330041046161e-07   -5.753343834880974e-06
1.626011375912244e-06   7.38330041046161e-07   -5.753343834880974e-06
7.625108118968188e-06   -7.831339617937749e-07   -1.483896000493691e-05
7.625108118968188e-06   -7.831339617937749e-07   -1.483896000493691e-05
7.625108118968188e-06   -7.831339617937749e-07   -1.483896000493691e-05
7.625108118968188e-06   -7.831339617937749e-07   -1.483896000493691e-05
3.993501196653162e-06   -4.109177303627913e-07   -9.009611539937133e-06
3.993501196653162e-06   -4.109177303627913e-07   -9.009611539937133e-06
3.993501196653162e-06   -4.109177303627913e-07   -9.009611539937133e-06
3.993501196653162e-06   -4.109177303627913e-07   -9.009611539937133e-06
4.961752147296643e-07   -9.703444595167567e-08   -1.36505488406263e-05
4.961752147296643e-07   -9.703444595167567e-08   -1.36505488406263e-05
4.961752147296643e-07   -9.703444595167567e-08   -1.36505488406263e-05
4.961752147296643e-07   -9.703444595167567e-08   -1.36505488406263e-05
-4.416953554210249e-06   -7.604001794919062e-07   -2.2237116228983615e-05
-4.416953554210249e-06   -7.604001794919062e-07   -2.2237116228983615e-05
-4.416953554210249e-06   -7.604001794919062e-07   -2.2237116228983615e-05
-4.416953554210249e-06   -7.604001794919062e-07   -2.2237116228983615e-05
-4.103355264805514e-06   4.665835435493839e-07   -1.3726802457528849e-05
-4.103355264805514e-06   4.665835435493839e-07   -1.3726802457528849e-05
-4.103355264805514e-06   4.665835435493839e-07   -1.3726802457528849e-05
-4.103355264805514e-06   4.665835435493839e-07   -1.3726802457528849e-05
8.550907711591301e-07   -2.8749567512016336e-07   -2.153843165293503e-05
8.550907711591301e-07   -2.8749567512016336e-07   -2.153843165293503e-05
8.550907711591301e-07   -2.8749567512016336e-07   -2.153843165293503e-05
8.550907711591301e-07   -2.8749567512016336e-07   -2.153843165293503e-05
-1.751210250509217e-06   -2.4269505644308048e-08   -1.735253231850665e-05
-1.751210250509217e-06   -2.4269505644308048e-08   -1.735253231850665e-05
-1.751210250509217e-06   -2.4269505644308048e-08   -1.735253231850665e-05
-1.751210250509217e-06   -2.4269505644308048e-08   -1.735253231850665e-05
8.550907711591348e-07   4.665835435493922e-07   -1.327435492632712e-05
8.550907711591348e-07   4.665835435493922e-07   -1.327435492632712e-05
8.550907711591348e-07   4.665835435493922e-07   -1.327435492632712e-05
8.550907711591348e-07   4.665835435493922e-07   -1.327435492632712e-05
-4.103355264805527e-06   -2.8749567512016336e-07   -2.1990879184136786e-05
-4.103355264805527e-06   -2.8749567512016336e-07   -2.1990879184136786e-05
-4.103355264805527e-06   -2.8749567512016336e-07   -2.1990879184136786e-05
-4.103355264805527e-06   -2.8749567512016336e-07   -2.1990879184136786e-05
-3.7879165137395045e-06   1.0100376948864566e-06   -1.3748246725884357e-05
-3.7879165137395045e-06   1.0100376948864566e-06   -1.3748246725884357e-05
-3.7879165137395045e-06   1.0100376948864566e-06   -1.3748246725884357e-05
-3.7879165137395045e-06   1.0100376948864566e-06   -1.3748246725884357e-05
1.2788300038256969e-06   2.0200155714431532e-07   -2.1708002572514416e-05
1.2788300038256969e-06   2.0200155714431532e-07   -2.1708002572514416e-05
1.2788300038256969e-06   2.0200155714431532e-07   -2.1708002572514416e-05
1.2788300038256969e-06   2.0200155714431532e-07   -2.1708002572514416e-05
-1.4742399261483536e-06   3.6514260530375996e-07   -1.721743731812004e-05
-1.4742399261483536e-06   3.6514260530375996e-07   -1.721743731812004e-05
-1.4742399261483536e-06   3.6514260530375996e-07   -1.721743731812004e-05
-1.4742399261483536e-06   3.6514260530375996e-07   -1.721743731812004e-05
1.278830003825703e-06   1.0100376948864204e-06   -1.3263425043239007e-05
1.278830003825703e-06   1.0100376948864204e-06   -1.3263425043239007e-05
1.278830003825703e-06   1.0100376948864204e-06   -1.3263425043239007e-05
1.278830003825703e-06   1.0100376948864204e-06   -1.3263425043239007e-05
-3.7879165137395045e-06   2.0200155714431532e-07   -2.2192824255159657e-05
-3.7879165137395045e-06   2.0200155714431532e-07   -2.2192824255159657e-05
-3.7879165137395045e-06   2.0200155714431532e-07   -2.2192824255159657e-05
-3.7879165137395045e-06   2.0200155714431532e-07   -2.2192824255159657e-05
-3.4869564889072565e-06   1.631442188925001e-06   -1.4094157698460712e-05
-3.4869564889072565e-06   1.631442188925001e-06   -1.4094157698460712e-05
-3.4869564889072565e-06   1.631442188925001e-06   -1.4094157698460712e-05
-3.4869564889072565e-06   1.631442188925001e-06   -1.4094157698460712e-05
1.6260113759122276e-06   7.824648113129813e-07   -2.210638437992609e-05
1.6260113759122276e-06   7.824648113129813e-07   -2.210638437992609e-05
1.6260113759122276e-06   7.824648113129813e-07   -2.210638437992609e-05
1.6260113759122276e-06   7.824648113129813e-07   -2.210638437992609e-05
-1.1649530220288825e-06   7.976010055767667e-07   -1.7463858766582455e-05
-1.1649530220288825e-06   7.976010055767667e-07   -1.7463858766582455e-05
-1.1649530220288825e-06   7.976010055767667e-07   -1.7463858766582455e-05
-1.1649530220288825e-06   7.976010055767667e-07   -1.7463858766582455e-05
-4.416953554210249e-06   4.7300994137143646e-07   -1.6542065536990635e-05
-4.416953554210249e-06   4.7300994137143646e-07   -1.6542065536990635e-05
-4.416953554210249e-06   4.7300994137143646e-07   -1.6542065536990635e-05
-4.416953554210249e-06   4.7300994137143646e-07   -1.6542065536990635e-05
-9.285145492454954e-06   5.959031224452536e-07   -2.4581982858754156e-05
-9.285145492454954e-06   5.959031224452536e-07   -2.4581982858754156e-05
-9.285145492454954e-06   5.959031224452536e-07   -2.4581982858754156e-05
-9.285145492454954e-06   5.959031224452536e-07   -2.4581982858754156e-05
-8.969596458884885e-06   1.0566085260233383e-06   -1.6243159867036804e-05
-8.969596458884885e-06   1.0566085260233383e-06   -1.6243159867036804e-05
-8.969596458884885e-06   1.0566085260233383e-06   -1.6243159867036804e-05
-8.969596458884885e-06   1.0566085260233383e-06   -1.6243159867036804e-05
-4.103355264805532e-06   1.097253041242507e-06   -2.4377948566300608e-05
-4.103355264805532e-06   1.097253041242507e-06   -2.4377948566300608e-05
-4.103355264805532e-06   1.097253041242507e-06   -2.4377948566300608e-05
-4.103355264805532e-06   1.097253041242507e-06   -2.4377948566300608e-05
-6.6550692907386214e-06   9.077703036341079e-07   -2.001140221384703e-05
-6.6550692907386214e-06   9.077703036341079e-07   -2.001140221384703e-05
-6.6550692907386214e-06   9.077703036341079e-07   -2.001140221384703e-05
-6.6550692907386214e-06   9.077703036341079e-07   -2.001140221384703e-05
-4.103355264805527e-06   1.0566085260233046e-06   -1.626754657616837e-05
-4.103355264805527e-06   1.0566085260233046e-06   -1.626754657616837e-05
-4.103355264805527e-06   1.0566085260233046e-06   -1.626754657616837e-05
-4.103355264805527e-06   1.0566085260233046e-06   -1.626754657616837e-05
-8.969596458884867e-06   1.0972530412426155e-06   -2.435356185716904e-05
-8.969596458884867e-06   1.0972530412426155e-06   -2.435356185716904e-05
-8.969596458884867e-06   1.0972530412426155e-06   -2.435356185716904e-05
-8.969596458884867e-06   1.0972530412426155e-06   -2.435356185716904e-05
-8.648582582023399e-06   1.6528695291241494e-06   -1.6284731578808474e-05
-8.648582582023399e-06   1.6528695291241494e-06   -1.6284731578808474e-05
-8.648582582023399e-06   1.6528695291241494e-06   -1.6284731578808474e-05
-8.648582582023399e-06   1.6528695291241494e-06   -1.6284731578808474e-05
-3.7879165137395164e-06   1.627585282588267e-06   -2.437067114469342e-05
-3.7879165137395164e-06   1.627585282588267e-06   -2.437067114469342e-05
-3.7879165137395164e-06   1.627585282588267e-06   -2.437067114469342e-05
-3.7879165137395164e-06   1.627585282588267e-06   -2.437067114469342e-05
-6.37796703418161e-06   1.345968499726416e-06   -1.9884950207573108e-05
-6.37796703418161e-06   1.345968499726416e-06   -1.9884950207573108e-05
-6.37796703418161e-06   1.345968499726416e-06   -1.9884950207573108e-05
-6.37796703418161e-06   1.345968499726416e-06   -1.9884950207573108e-05
-3.787916513739518e-06   1.6528695291241513e-06   -1.6269561030886966e-05
-3.787916513739518e-06   1.6528695291241513e-06   -1.6269561030886966e-05
-3.787916513739518e-06   1.6528695291241513e-06   -1.6269561030886966e-05
-3.787916513739518e-06   1.6528695291241513e-06   -1.6269561030886966e-05
-8.648582582023385e-06   1.627585282588267e-06   -2.438584169261489e-05
-8.648582582023385e-06   1.627585282588267e-06   -2.438584169261489e-05
-8.648582582023385e-06   1.627585282588267e-06   -2.438584169261489e-05
-8.648582582023385e-06   1.627585282588267e-06   -2.438584169261489e-05
-8.34255197027206e-06   2.257463469439668e-06   -1.665129754635931e-05
-8.34255197027206e-06   2.257463469439668e-06   -1.665129754635931e-05
-8.34255197027206e-06   2.257463469439668e-06   -1.665129754635931e-05
-8.34255197027206e-06   2.257463469439668e-06   -1.665129754635931e-05
-3.4869564889072646e-06   2.1671355472604494e-06   -2.4689759928659733e-05
-3.4869564889072646e-06   2.1671355472604494e-06   -2.4689759928659733e-05
-3.4869564889072646e-06   2.1671355472604494e-06   -2.4689759928659733e-05
-3.4869564889072646e-06   2.1671355472604494e-06   -2.4689759928659733e-05
-6.120612658370427e-06   1.7908816707344621e-06   -2.0074580653638945e-05
-6.120612658370427e-06   1.7908816707344621e-06   -2.0074580653638945e-05
-6.120612658370427e-06   1.7908816707344621e-06   -2.0074580653638945e-05
-6.120612658370427e-06   1.7908816707344621e-06   -2.0074580653638945e-05
-9.285145492454969e-06   1.0490717100004713e-06   -1.390139498303448e-05
-9.285145492454969e-06   1.0490717100004713e-06   -1.390139498303448e-05
-9.285145492454969e-06   1.0490717100004713e-06   -1.390139498303448e-05
-9.285145492454969e-06   1.0490717100004713e-06   -1.390139498303448e-05
-1.4104226955037577e-05   1.9148746358496355e-06   -2.1413715665162514e-05
-1.4104226955037577e-05   1.9148746358496355e-06   -2.1413715665162514e-05
-1.4104226955037577e-05   1.9148746358496355e-06   -2.1413715665162514e-05
-1.4104226955037577e-05   1.9148746358496355e-06   -2.1413715665162514e-05
-1.3742986500272037e-05   1.6351972818574563e-06   -1.308619986940872e-05
-1.3742986500272037e-05   1.6351972818574563e-06   -1.308619986940872e-05
-1.3742986500272037e-05   1.6351972818574563e-06   -1.308619986940872e-05
-1.3742986500272037e-05   1.6351972818574563e-06   -1.308619986940872e-05
-8.969596458884868e-06   2.4500974305479827e-06   -2.153079002760155e-05
-8.969596458884868e-06   2.4500974305479827e-06   -2.153079002760155e-05
-8.969596458884868e-06   2.4500974305479827e-06   -2.153079002760155e-05
-8.969596458884868e-06   2.4500974305479827e-06   -2.153079002760155e-05
-1.1445534701624008e-05   1.8310990496740514e-06   -1.7032827261178667e-05
-1.1445534701624008e-05   1.8310990496740514e-06   -1.7032827261178667e-05
-1.1445534701624008e-05   1.8310990496740514e-06   -1.7032827261178667e-05
-1.1445534701624008e-05   1.8310990496740514e-06   -1.7032827261178667e-05
-8.969596458884885e-06   1.6351972818574318e-06   -1.3575139958623024e-05
-8.969596458884885e-06   1.6351972818574318e-06   -1.3575139958623024e-05
-8.969596458884885e-06   1.6351972818574318e-06   -1.3575139958623024e-05
-8.969596458884885e-06   1.6351972818574318e-06   -1.3575139958623024e-05
-1.3742986500272054e-05   2.4500974305478743e-06   -2.104184993838743e-05
-1.3742986500272054e-05   2.4500974305478743e-06   -2.104184993838743e-05
-1.3742986500272054e-05   2.4500974305478743e-06   -2.104184993838743e-05
-1.3742986500272054e-05   2.4500974305478743e-06   -2.104184993838743e-05
-1.3308525378768673e-05   2.1752333230542218e-06   -1.2960978618624299e-05
-1.3308525378768673e-05   2.1752333230542218e-06   -1.2960978618624299e-05
-1.3308525378768673e-05   2.1752333230542218e-06   -1.2960978618624299e-05
-1.3308525378768673e-05   2.1752333230542218e-06   -1.2960978618624299e-05
-8.648582582023399e-06   2.9316602598204126e-06   -2.1181406108592873e-05
-8.648582582023399e-06   2.9316602598204126e-06   -2.1181406108592873e-05
-8.648582582023399e-06   2.9316602598204126e-06   -2.1181406108592873e-05
-8.648582582023399e-06   2.9316602598204126e-06   -2.1181406108592873e-05
-1.1080495962680724e-05   2.2543359853819138e-06   -1.6721822576167864e-05
-1.1080495962680724e-05   2.2543359853819138e-06   -1.6721822576167864e-05
-1.1080495962680724e-05   2.2543359853819138e-06   -1.6721822576167864e-05
-1.1080495962680724e-05   2.2543359853819138e-06   -1.6721822576167864e-05
-8.648582582023399e-06   2.1752333230542624e-06   -1.3414834780684035e-05
-8.648582582023399e-06   2.1752333230542624e-06   -1.3414834780684035e-05
-8.648582582023399e-06   2.1752333230542624e-06   -1.3414834780684035e-05
-8.648582582023399e-06   2.1752333230542624e-06   -1.3414834780684035e-05
-1.3308525378768673e-05   2.9316602598204126e-06   -2.0727549946533198e-05
-1.3308525378768673e-05   2.9316602598204126e-06   -2.0727549946533198e-05
-1.3308525378768673e-05   2.9316602598204126e-06   -2.0727549946533198e-05
-1.3308525378768673e-05   2.9316602598204126e-06   -2.0727549946533198e-05
-1.2947065004154711e-05   2.7793879841020485e-06   -1.33197843455112e-05
-1.2947065004154711e-05   2.7793879841020485e-06   -1.33197843455112e-05
-1.2947065004154711e-05   2.7793879841020485e-06   -1.33197843455112e-05
-1.2947065004154711e-05   2.7793879841020485e-06   -1.33197843455112e-05
-8.34255197027206e-06   3.469273895349411e-06   -2.140790428206429e-05
-8.34255197027206e-06   3.469273895349411e-06   -2.140790428206429e-05
-8.34255197027206e-06   3.469273895349411e-06   -2.140790428206429e-05
-8.34255197027206e-06   3.469273895349411e-06   -2.140790428206429e-05
-1.0838896752661164e-05   2.6706109039223653e-06   -1.6768131849892738e-05
-1.0838896752661164e-05   2.6706109039223653e-06   -1.6768131849892738e-05
-1.0838896752661164e-05   2.6706109039223653e-06   -1.6768131849892738e-05
-1.0838896752661164e-05   2.6706109039223653e-06   -1.6768131849892738e-05
-1.4104226955037577e-05   1.7670511426635489e-06   -7.1824782543864515e-06
-1.4104226955037577e-05   1.7670511426635489e-06   -7.1824782543864515e-06
-1.4104226955037577e-05   1.7670511426635489e-06   -7.1824782543864515e-06
-1.4104226955037577e-05   1.7670511426635489e-06   -7.1824782543864515e-06
-1.9606147691778907e-05   3.2938211325815505e-06   -1.5436284155004613e-05
-1.9606147691778907e-05   3.2938211325815505e-06   -1.5436284155004613e-05
-1.9606147691778907e-05   3.2938211325815505e-06   -1.5436284155004613e-05
-1.9606147691778907e-05   3.2938211325815505e-06   -1.5436284155004613e-05
-1.8601254267446284e-05   2.2993626846879323e-06   -4.482214078355292e-06
-1.8601254267446284e-05   2.2993626846879323e-06   -4.482214078355292e-06
-1.8601254267446284e-05   2.2993626846879323e-06   -4.482214078355292e-06
-1.8601254267446284e-05   2.2993626846879323e-06   -4.482214078355292e-06
-1.3742986500272035e-05   3.850459824510078e-06   -1.3509985307538815e-05
-1.3742986500272035e-05   3.850459824510078e-06   -1.3509985307538815e-05
-1.3742986500272035e-05   3.850459824510078e-06   -1.3509985307538815e-05
-1.3742986500272035e-05   3.850459824510078e-06   -1.3509985307538815e-05
-1.5842041556295906e-05   2.864818574407251e-06   -9.420175464104171e-06
-1.5842041556295906e-05   2.864818574407251e-06   -9.420175464104171e-06
-1.5842041556295906e-05   2.864818574407251e-06   -9.420175464104171e-06
-1.5842041556295906e-05   2.864818574407251e-06   -9.420175464104171e-06
-1.3742986500272047e-05   2.2993626846879827e-06   -5.412872362248514e-06
-1.3742986500272047e-05   2.2993626846879827e-06   -5.412872362248514e-06
-1.3742986500272047e-05   2.2993626846879827e-06   -5.412872362248514e-06
-1.3742986500272047e-05   2.2993626846879827e-06   -5.412872362248514e-06
-1.8601254267446203e-05   3.850459824510078e-06   -1.257932702364566e-05
-1.8601254267446203e-05   3.850459824510078e-06   -1.257932702364566e-05
-1.8601254267446203e-05   3.850459824510078e-06   -1.257932702364566e-05
-1.8601254267446203e-05   3.850459824510078e-06   -1.257932702364566e-05
-1.7770781600420495e-05   2.543007622540978e-06   -3.6568305399664386e-06
-1.7770781600420495e-05   2.543007622540978e-06   -3.6568305399664386e-06
-1.7770781600420495e-05   2.543007622540978e-06   -3.6568305399664386e-06
-1.7770781600420495e-05   2.543007622540978e-06   -3.6568305399664386e-06
-1.3308525378768656e-05   4.050226602996367e-06   -1.1998255630992695e-05
-1.3308525378768656e-05   4.050226602996367e-06   -1.1998255630992695e-05
-1.3308525378768656e-05   4.050226602996367e-06   -1.1998255630992695e-05
-1.3308525378768656e-05   4.050226602996367e-06   -1.1998255630992695e-05
-1.5480372339232906e-05   3.1164652524230153e-06   -7.818253886541699e-06
-1.5480372339232906e-05   3.1164652524230153e-06   -7.818253886541699e-06
-1.5480372339232906e-05   3.1164652524230153e-06   -7.818253886541699e-06
-1.5480372339232906e-05   3.1164652524230153e-06   -7.818253886541699e-06
-1.3308525378768673e-05   2.5430076225409423e-06   -4.561161928239737e-06
-1.3308525378768673e-05   2.5430076225409423e-06   -4.561161928239737e-06
-1.3308525378768673e-05   2.5430076225409423e-06   -4.561161928239737e-06
-1.3308525378768673e-05   2.5430076225409423e-06   -4.561161928239737e-06
-1.777078160042044e-05   4.0502266029962585e-06   -1.1093924242719464e-05
-1.777078160042044e-05   4.0502266029962585e-06   -1.1093924242719464e-05
-1.777078160042044e-05   4.0502266029962585e-06   -1.1093924242719464e-05
-1.777078160042044e-05   4.0502266029962585e-06   -1.1093924242719464e-05
-1.6786139394991818e-05   2.917951404597316e-06   -2.78581550138896e-06
-1.6786139394991818e-05   2.917951404597316e-06   -2.78581550138896e-06
-1.6786139394991818e-05   2.917951404597316e-06   -2.78581550138896e-06
-1.6786139394991818e-05   2.917951404597316e-06   -2.78581550138896e-06
-1.2947065004154703e-05   4.300767881410743e-06   -1.0013962705538735e-05
-1.2947065004154703e-05   4.300767881410743e-06   -1.0013962705538735e-05
-1.2947065004154703e-05   4.300767881410743e-06   -1.0013962705538735e-05
-1.2947065004154703e-05   4.300767881410743e-06   -1.0013962705538735e-05
-1.4697066666157385e-05   3.2369745339369408e-06   -6.4590172603835525e-06
-1.4697066666157385e-05   3.2369745339369408e-06   -6.4590172603835525e-06
-1.4697066666157385e-05   3.2369745339369408e-06   -6.4590172603835525e-06
-1.4697066666157385e-05   3.2369745339369408e-06   -6.4590172603835525e-06
1.4798616402874221e-05   -1.9372823439119166e-06   -1.717856390579149e-08
1.4798616402874221e-05   -1.9372823439119166e-06   -1.717856390579149e-08
1.4798616402874221e-05   -1.9372823439119166e-06   -1.717856390579149e-08
1.4798616402874221e-05   -1.9372823439119166e-06   -1.717856390579149e-08
6.290422581994593e-06   -3.482054980757541e-06   -1.5124365180812496e-05
6.290422581994593e-06   -3.482054980757541e-06   -1.5124365180812496e-05
6.290422581994593e-06   -3.482054980757541e-06   -1.5124365180812496e-05
6.290422581994593e-06   -3.482054980757541e-06   -1.5124365180812496e-05
6.7275813434028924e-06   -1.5934947778936063e-06   -1.5729580379841542e-06
6.7275813434028924e-06   -1.5934947778936063e-06   -1.5729580379841542e-06
6.7275813434028924e-06   -1.5934947778936063e-06   -1.5729580379841542e-06
6.7275813434028924e-06   -1.5934947778936063e-06   -1.5729580379841542e-06
1.590336170382481e-05   -3.2397671591492903e-06   -1.5878161876600543e-05
1.590336170382481e-05   -3.2397671591492903e-06   -1.5878161876600543e-05
1.590336170382481e-05   -3.2397671591492903e-06   -1.5878161876600543e-05
1.590336170382481e-05   -3.2397671591492903e-06   -1.5878161876600543e-05
1.0488418300385188e-05   -2.298869864986652e-06   -7.417794580698913e-06
1.0488418300385188e-05   -2.298869864986652e-06   -7.417794580698913e-06
1.0488418300385188e-05   -2.298869864986652e-06   -7.417794580698913e-06
1.0488418300385188e-05   -2.298869864986652e-06   -7.417794580698913e-06
1.590336170382485e-05   -1.5934947778935766e-06   -5.851946092307438e-07
1.590336170382485e-05   -1.5934947778935766e-06   -5.851946092307438e-07
1.590336170382485e-05   -1.5934947778935766e-06   -5.851946092307438e-07
1.590336170382485e-05   -1.5934947778935766e-06   -5.851946092307438e-07
6.727581343402865e-06   -3.239767159149507e-06   -1.6865925305354062e-05
6.727581343402865e-06   -3.239767159149507e-06   -1.6865925305354062e-05
6.727581343402865e-06   -3.239767159149507e-06   -1.6865925305354062e-05
6.727581343402865e-06   -3.239767159149507e-06   -1.6865925305354062e-05
7.212321517464235e-06   -1.3628650067259475e-06   -2.257582508326055e-06
7.212321517464235e-06   -1.3628650067259475e-06   -2.257582508326055e-06
7.212321517464235e-06   -1.3628650067259475e-06   -2.257582508326055e-06
7.212321517464235e-06   -1.3628650067259475e-06   -2.257582508326055e-06
1.6829541532686187e-05   -3.02975471691818e-06   -1.7286148707580467e-05
1.6829541532686187e-05   -3.02975471691818e-06   -1.7286148707580467e-05
1.6829541532686187e-05   -3.02975471691818e-06   -1.7286148707580467e-05
1.6829541532686187e-05   -3.02975471691818e-06   -1.7286148707580467e-05
1.1317878322100194e-05   -2.2052717844880595e-06   -8.594733116061787e-06
1.1317878322100194e-05   -2.2052717844880595e-06   -8.594733116061787e-06
1.1317878322100194e-05   -2.2052717844880595e-06   -8.594733116061787e-06
1.1317878322100194e-05   -2.2052717844880595e-06   -8.594733116061787e-06
1.6829541532686204e-05   -1.3628650067259123e-06   -1.2574486822105853e-06
1.6829541532686204e-05   -1.3628650067259123e-06   -1.2574486822105853e-06
1.6829541532686204e-05   -1.3628650067259123e-06   -1.2574486822105853e-06
1.6829541532686204e-05   -1.3628650067259123e-06   -1.2574486822105853e-06
7.212321517464235e-06   -3.02975471691818e-06   -1.8286282533695882e-05
7.212321517464235e-06   -3.02975471691818e-06   -1.8286282533695882e-05
7.212321517464235e-06   -3.02975471691818e-06   -1.8286282533695882e-05
7.212321517464235e-06   -3.02975471691818e-06   -1.8286282533695882e-05
7.61154122709727e-06   -7.831339617937749e-07   -3.83181939934453e-06
7.61154122709727e-06   -7.831339617937749e-07   -3.83181939934453e-06
7.61154122709727e-06   -7.831339617937749e-07   -3.83181939934453e-06
7.61154122709727e-06   -7.831339617937749e-07   -3.83181939934453e-06
1.79052054763927e-05   -2.3676182480416013e-06   -2.0037235909754823e-05
1.79052054763927e-05   -2.3676182480416013e-06   -2.0037235909754823e-05
1.79052054763927e-05   -2.3676182480416013e-06   -2.0037235909754823e-05
1.79052054763927e-05   -2.3676182480416013e-06   -2.0037235909754823e-05
1.1762073515147939e-05   -1.944786568694977e-06   -1.0052381648622215e-05
1.1762073515147939e-05   -1.944786568694977e-06   -1.0052381648622215e-05
1.1762073515147939e-05   -1.944786568694977e-06   -1.0052381648622215e-05
1.1762073515147939e-05   -1.944786568694977e-06   -1.0052381648622215e-05
6.290422581994607e-06   -7.604001794919342e-07   -1.0154771846911863e-05
6.290422581994607e-06   -7.604001794919342e-07   -1.0154771846911863e-05
6.290422581994607e-06   -7.604001794919342e-07   -1.0154771846911863e-05
6.290422581994607e-06   -7.604001794919342e-07   -1.0154771846911863e-05
-2.6983090763694313e-06   -1.621383354727347e-06   -2.5652581182659918e-05
-2.6983090763694313e-06   -1.621383354727347e-06   -2.5652581182659918e-05
-2.6983090763694313e-06   -1.621383354727347e-06   -2.5652581182659918e-05
-2.6983090763694313e-06   -1.621383354727347e-06   -2.5652581182659918e-05
-2.2926143267131547e-06   -2.8749567512005494e-07   -1.0365704302040977e-05
-2.2926143267131547e-06   -2.8749567512005494e-07   -1.0365704302040977e-05
-2.2926143267131547e-06   -2.8749567512005494e-07   -1.0365704302040977e-05
-2.2926143267131547e-06   -2.8749567512005494e-07   -1.0365704302040977e-05
6.7275813434028865e-06   -1.281977245770529e-06   -2.4802674809844055e-05
6.7275813434028865e-06   -1.281977245770529e-06   -2.4802674809844055e-05
6.7275813434028865e-06   -1.281977245770529e-06   -2.4802674809844055e-05
6.7275813434028865e-06   -1.281977245770529e-06   -2.4802674809844055e-05
2.028625268657071e-06   -7.822836982924585e-07   -1.7270897480421363e-05
2.028625268657071e-06   -7.822836982924585e-07   -1.7270897480421363e-05
2.028625268657071e-06   -7.822836982924585e-07   -1.7270897480421363e-05
2.028625268657071e-06   -7.822836982924585e-07   -1.7270897480421363e-05
6.7275813434028924e-06   -2.874956751201052e-07   -9.769015359650693e-06
6.7275813434028924e-06   -2.874956751201052e-07   -9.769015359650693e-06
6.7275813434028924e-06   -2.874956751201052e-07   -9.769015359650693e-06
6.7275813434028924e-06   -2.874956751201052e-07   -9.769015359650693e-06
-2.292614326713141e-06   -1.2819772457707459e-06   -2.5399363752234285e-05
-2.292614326713141e-06   -1.2819772457707459e-06   -2.5399363752234285e-05
-2.292614326713141e-06   -1.2819772457707459e-06   -2.5399363752234285e-05
-2.292614326713141e-06   -1.2819772457707459e-06   -2.5399363752234285e-05
-1.9052975421394487e-06   2.0200155714431532e-07   -1.050197497302755e-05
-1.9052975421394487e-06   2.0200155714431532e-07   -1.050197497302755e-05
-1.9052975421394487e-06   2.0200155714431532e-07   -1.050197497302755e-05
-1.9052975421394487e-06   2.0200155714431532e-07   -1.050197497302755e-05
7.212321517464232e-06   -8.673680861688484e-07   -2.505638495304562e-05
7.212321517464232e-06   -8.673680861688484e-07   -2.505638495304562e-05
7.212321517464232e-06   -8.673680861688484e-07   -2.505638495304562e-05
7.212321517464232e-06   -8.673680861688484e-07   -2.505638495304562e-05
2.3491646049732762e-06   -4.813875821951634e-07   -1.7182711734611378e-05
2.3491646049732762e-06   -4.813875821951634e-07   -1.7182711734611378e-05
2.3491646049732762e-06   -4.813875821951634e-07   -1.7182711734611378e-05
2.3491646049732762e-06   -4.813875821951634e-07   -1.7182711734611378e-05
7.212321517464235e-06   2.0200155714433626e-07   -9.860353187039609e-06
7.212321517464235e-06   2.0200155714433626e-07   -9.860353187039609e-06
7.212321517464235e-06   2.0200155714433626e-07   -9.860353187039609e-06
7.212321517464235e-06   2.0200155714433626e-07   -9.860353187039609e-06
-1.9052975421394487e-06   -8.673680861690652e-07   -2.5698006739033753e-05
-1.9052975421394487e-06   -8.673680861690652e-07   -2.5698006739033753e-05
-1.9052975421394487e-06   -8.673680861690652e-07   -2.5698006739033753e-05
-1.9052975421394487e-06   -8.673680861690652e-07   -2.5698006739033753e-05
-1.5418697554977167e-06   7.824648113129813e-07   -1.0862889846957125e-05
-1.5418697554977167e-06   7.824648113129813e-07   -1.0862889846957125e-05
-1.5418697554977167e-06   7.824648113129813e-07   -1.0862889846957125e-05
-1.5418697554977167e-06   7.824648113129813e-07   -1.0862889846957125e-05
7.611541227097256e-06   -3.4507597923257374e-07   -2.5442050343621312e-05
7.611541227097256e-06   -3.4507597923257374e-07   -2.5442050343621312e-05
7.611541227097256e-06   -3.4507597923257374e-07   -2.5442050343621312e-05
7.611541227097256e-06   -3.4507597923257374e-07   -2.5442050343621312e-05
2.7512254278680093e-06   -1.0987944038302021e-07   -1.7482641934882752e-05
2.7512254278680093e-06   -1.0987944038302021e-07   -1.7482641934882752e-05
2.7512254278680093e-06   -1.0987944038302021e-07   -1.7482641934882752e-05
2.7512254278680093e-06   -1.0987944038302021e-07   -1.7482641934882752e-05
-2.6983090763694313e-06   5.959031224453132e-07   -1.3089964290468096e-05
-2.6983090763694313e-06   5.959031224453132e-07   -1.3089964290468096e-05
-2.6983090763694313e-06   5.959031224453132e-07   -1.3089964290468096e-05
-2.6983090763694313e-06   5.959031224453132e-07   -1.3089964290468096e-05
-1.152864342478987e-05   3.1346086540144646e-07   -2.797665355872838e-05
-1.152864342478987e-05   3.1346086540144646e-07   -2.797665355872838e-05
-1.152864342478987e-05   3.1346086540144646e-07   -2.797665355872838e-05
-1.152864342478987e-05   3.1346086540144646e-07   -2.797665355872838e-05
-1.109211059453334e-05   1.0972530412426155e-06   -1.2993904528639478e-05
-1.109211059453334e-05   1.0972530412426155e-06   -1.2993904528639478e-05
-1.109211059453334e-05   1.0972530412426155e-06   -1.2993904528639478e-05
-1.109211059453334e-05   1.0972530412426155e-06   -1.2993904528639478e-05
-2.2926143267131466e-06   6.953683005183307e-07   -2.7418600797238593e-05
-2.2926143267131466e-06   6.953683005183307e-07   -2.7418600797238593e-05
-2.2926143267131466e-06   6.953683005183307e-07   -2.7418600797238593e-05
-2.2926143267131466e-06   6.953683005183307e-07   -2.7418600797238593e-05
-6.856028747559754e-06   8.177915281131973e-07   -1.9886364032384524e-05
-6.856028747559754e-06   8.177915281131973e-07   -1.9886364032384524e-05
-6.856028747559754e-06   8.177915281131973e-07   -1.9886364032384524e-05
-6.856028747559754e-06   8.177915281131973e-07   -1.9886364032384524e-05
-2.2926143267131547e-06   1.0972530412425594e-06   -1.2752773684204799e-05
-2.2926143267131547e-06   1.0972530412425594e-06   -1.2752773684204799e-05
-2.2926143267131547e-06   1.0972530412425594e-06   -1.2752773684204799e-05
-2.2926143267131547e-06   1.0972530412425594e-06   -1.2752773684204799e-05
-1.109211059453334e-05   6.953683005183307e-07   -2.7659731641673218e-05
-1.109211059453334e-05   6.953683005183307e-07   -2.7659731641673218e-05
-1.109211059453334e-05   6.953683005183307e-07   -2.7659731641673218e-05
-1.109211059453334e-05   6.953683005183307e-07   -2.7659731641673218e-05
-1.067082257983554e-05   1.627585282588267e-06   -1.2974414601623339e-05
-1.067082257983554e-05   1.627585282588267e-06   -1.2974414601623339e-05
-1.067082257983554e-05   1.627585282588267e-06   -1.2974414601623339e-05
-1.067082257983554e-05   1.627585282588267e-06   -1.2974414601623339e-05
-1.905297542139449e-06   1.1365973841513666e-06   -2.728903025872149e-05
-1.905297542139449e-06   1.1365973841513666e-06   -2.728903025872149e-05
-1.905297542139449e-06   1.1365973841513666e-06   -2.728903025872149e-05
-1.905297542139449e-06   1.1365973841513666e-06   -2.728903025872149e-05
-6.480929001143757e-06   1.1755254748150971e-06   -1.9686334681445766e-05
-6.480929001143757e-06   1.1755254748150971e-06   -1.9686334681445766e-05
-6.480929001143757e-06   1.1755254748150971e-06   -1.9686334681445766e-05
-6.480929001143757e-06   1.1755254748150971e-06   -1.9686334681445766e-05
-1.9052975421394487e-06   1.6275852825882683e-06   -1.2679821862561329e-05
-1.9052975421394487e-06   1.6275852825882683e-06   -1.2679821862561329e-05
-1.9052975421394487e-06   1.6275852825882683e-06   -1.2679821862561329e-05
-1.9052975421394487e-06   1.6275852825882683e-06   -1.2679821862561329e-05
-1.067082257983554e-05   1.1365973841513666e-06   -2.758362299778354e-05
-1.067082257983554e-05   1.1365973841513666e-06   -2.758362299778354e-05
-1.067082257983554e-05   1.1365973841513666e-06   -2.758362299778354e-05
-1.067082257983554e-05   1.1365973841513666e-06   -2.758362299778354e-05
-1.0281571654756113e-05   2.167135547260341e-06   -1.328172121023072e-05
-1.0281571654756113e-05   2.167135547260341e-06   -1.328172121023072e-05
-1.0281571654756113e-05   2.167135547260341e-06   -1.328172121023072e-05
-1.0281571654756113e-05   2.167135547260341e-06   -1.328172121023072e-05
-1.5418697554977196e-06   1.5923984787486085e-06   -2.750304880122097e-05
-1.5418697554977196e-06   1.5923984787486085e-06   -2.750304880122097e-05
-1.5418697554977196e-06   1.5923984787486085e-06   -2.750304880122097e-05
-1.5418697554977196e-06   1.5923984787486085e-06   -2.750304880122097e-05
-6.146277721352876e-06   1.5425640777133511e-06   -1.9799134884174947e-05
-6.146277721352876e-06   1.5425640777133511e-06   -1.9799134884174947e-05
-6.146277721352876e-06   1.5425640777133511e-06   -1.9799134884174947e-05
-6.146277721352876e-06   1.5425640777133511e-06   -1.9799134884174947e-05
-1.1528643424789887e-05   1.9148746358496614e-06   -1.0610644206612081e-05
-1.1528643424789887e-05   1.9148746358496614e-06   -1.0610644206612081e-05
-1.1528643424789887e-05   1.9148746358496614e-06   -1.0610644206612081e-05
-1.1528643424789887e-05   1.9148746358496614e-06   -1.0610644206612081e-05
-2.0206013579326593e-05   2.3179045405084114e-06   -2.483110985471138e-05
-2.0206013579326593e-05   2.3179045405084114e-06   -2.483110985471138e-05
-2.0206013579326593e-05   2.3179045405084114e-06   -2.483110985471138e-05
-2.0206013579326593e-05   2.3179045405084114e-06   -2.483110985471138e-05
-1.967918421983115e-05   2.4500974305479827e-06   -9.960232855855088e-06
-1.967918421983115e-05   2.4500974305479827e-06   -9.960232855855088e-06
-1.967918421983115e-05   2.4500974305479827e-06   -9.960232855855088e-06
-1.967918421983115e-05   2.4500974305479827e-06   -9.960232855855088e-06
-1.1092110594533353e-05   2.801597169243067e-06   -2.4482922074568413e-05
-1.1092110594533353e-05   2.801597169243067e-06   -2.4482922074568413e-05
-1.1092110594533353e-05   2.801597169243067e-06   -2.4482922074568413e-05
-1.1092110594533353e-05   2.801597169243067e-06   -2.4482922074568413e-05
-1.5512536816973313e-05   2.4706704773375717e-06   -1.6916989022025236e-05
-1.5512536816973313e-05   2.4706704773375717e-06   -1.6916989022025236e-05
-1.5512536816973313e-05   2.4706704773375717e-06   -1.6916989022025236e-05
-1.5512536816973313e-05   2.4706704773375717e-06   -1.6916989022025236e-05
-1.1092110594533356e-05   2.4500974305479658e-06   -1.0171132699072116e-05
-1.1092110594533356e-05   2.4500974305479658e-06   -1.0171132699072116e-05
-1.1092110594533356e-05   2.4500974305479658e-06   -1.0171132699072116e-05
-1.1092110594533356e-05   2.4500974305479658e-06   -1.0171132699072116e-05
-1.967918421983115e-05   2.801597169243067e-06   -2.4272022231351512e-05
-1.967918421983115e-05   2.801597169243067e-06   -2.4272022231351512e-05
-1.967918421983115e-05   2.801597169243067e-06   -2.4272022231351512e-05
-1.967918421983115e-05   2.801597169243067e-06   -2.4272022231351512e-05
-1.9094743488389937e-05   2.9316602598204126e-06   -9.598200764458754e-06
-1.9094743488389937e-05   2.9316602598204126e-06   -9.598200764458754e-06
-1.9094743488389937e-05   2.9316602598204126e-06   -9.598200764458754e-06
-1.9094743488389937e-05   2.9316602598204126e-06   -9.598200764458754e-06
-1.0670822579835557e-05   3.2179573483911202e-06   -2.3809847198525175e-05
-1.0670822579835557e-05   3.2179573483911202e-06   -2.3809847198525175e-05
-1.0670822579835557e-05   3.2179573483911202e-06   -2.3809847198525175e-05
-1.0670822579835557e-05   3.2179573483911202e-06   -2.3809847198525175e-05
-1.4978138462994642e-05   2.848076072731404e-06   -1.6409058627864213e-05
-1.4978138462994642e-05   2.848076072731404e-06   -1.6409058627864213e-05
-1.4978138462994642e-05   2.848076072731404e-06   -1.6409058627864213e-05
-1.4978138462994642e-05   2.848076072731404e-06   -1.6409058627864213e-05
-1.0670822579835557e-05   2.931660259820432e-06   -9.769979017601222e-06
-1.0670822579835557e-05   2.931660259820432e-06   -9.769979017601222e-06
-1.0670822579835557e-05   2.931660259820432e-06   -9.769979017601222e-06
-1.0670822579835557e-05   2.931660259820432e-06   -9.769979017601222e-06
-1.9094743488389937e-05   3.2179573483911202e-06   -2.363806894538291e-05
-1.9094743488389937e-05   3.2179573483911202e-06   -2.363806894538291e-05
-1.9094743488389937e-05   3.2179573483911202e-06   -2.363806894538291e-05
-1.9094743488389937e-05   3.2179573483911202e-06   -2.363806894538291e-05
-1.860128108417008e-05   3.469273895349411e-06   -9.820702487629927e-06
-1.860128108417008e-05   3.469273895349411e-06   -9.820702487629927e-06
-1.860128108417008e-05   3.469273895349411e-06   -9.820702487629927e-06
-1.860128108417008e-05   3.469273895349411e-06   -9.820702487629927e-06
-1.028157165475613e-05   3.677551099845553e-06   -2.3811851192684282e-05
-1.028157165475613e-05   3.677551099845553e-06   -2.3811851192684282e-05
-1.028157165475613e-05   3.677551099845553e-06   -2.3811851192684282e-05
-1.028157165475613e-05   3.677551099845553e-06   -2.3811851192684282e-05
-1.4649409910143633e-05   3.1953032918405344e-06   -1.624277208223564e-05
-1.4649409910143633e-05   3.1953032918405344e-06   -1.624277208223564e-05
-1.4649409910143633e-05   3.1953032918405344e-06   -1.624277208223564e-05
-1.4649409910143633e-05   3.1953032918405344e-06   -1.624277208223564e-05
-2.0206013579326593e-05   3.2938211325815657e-06   -5.307456747609754e-06
-2.0206013579326593e-05   3.2938211325815657e-06   -5.307456747609754e-06
-2.0206013579326593e-05   3.2938211325815657e-06   -5.307456747609754e-06
-2.0206013579326593e-05   3.2938211325815657e-06   -5.307456747609754e-06
-2.9360561495925117e-05   4.540732943189357e-06   -1.9816889522242622e-05
-2.9360561495925117e-05   4.540732943189357e-06   -1.9816889522242622e-05
-2.9360561495925117e-05   4.540732943189357e-06   -1.9816889522242622e-05
-2.9360561495925117e-05   4.540732943189357e-06   -1.9816889522242622e-05
-2.8140155637636925e-05   3.850459824510078e-06   -1.6284861276650783e-06
-2.8140155637636925e-05   3.850459824510078e-06   -1.6284861276650783e-06
-2.8140155637636925e-05   3.850459824510078e-06   -1.6284861276650783e-06
-2.8140155637636925e-05   3.850459824510078e-06   -1.6284861276650783e-06
-1.9679184219831114e-05   5.183596653412842e-06   -1.652998725468296e-05
-1.9679184219831114e-05   5.183596653412842e-06   -1.652998725468296e-05
-1.9679184219831114e-05   5.183596653412842e-06   -1.652998725468296e-05
-1.9679184219831114e-05   5.183596653412842e-06   -1.652998725468296e-05
-2.334055906875213e-05   4.325378384806245e-06   -9.912764878650769e-06
-2.334055906875213e-05   4.325378384806245e-06   -9.912764878650769e-06
-2.334055906875213e-05   4.325378384806245e-06   -9.912764878650769e-06
-2.334055906875213e-05   4.325378384806245e-06   -9.912764878650769e-06
-1.967918421983113e-05   3.850459824510087e-06   -2.4283682250065414e-06
-1.967918421983113e-05   3.850459824510087e-06   -2.4283682250065414e-06
-1.967918421983113e-05   3.850459824510087e-06   -2.4283682250065414e-06
-1.967918421983113e-05   3.850459824510087e-06   -2.4283682250065414e-06
-2.8140155637636878e-05   5.183596653412842e-06   -1.5730105157341426e-05
-2.8140155637636878e-05   5.183596653412842e-06   -1.5730105157341426e-05
-2.8140155637636878e-05   5.183596653412842e-06   -1.5730105157341426e-05
-2.8140155637636878e-05   5.183596653412842e-06   -1.5730105157341426e-05
-2.7136101965832376e-05   4.050226602996367e-06   -8.707742174345577e-08
-2.7136101965832376e-05   4.050226602996367e-06   -8.707742174345577e-08
-2.7136101965832376e-05   4.050226602996367e-06   -8.707742174345577e-08
-2.7136101965832376e-05   4.050226602996367e-06   -8.707742174345577e-08
-1.9094743488389937e-05   5.353274981621499e-06   -1.4271170577989228e-05
-1.9094743488389937e-05   5.353274981621499e-06   -1.4271170577989228e-05
-1.9094743488389937e-05   5.353274981621499e-06   -1.4271170577989228e-05
-1.9094743488389937e-05   5.353274981621499e-06   -1.4271170577989228e-05
-2.2933125608957208e-05   4.583314761265507e-06   -7.411890911496622e-06
-2.2933125608957208e-05   4.583314761265507e-06   -7.411890911496622e-06
-2.2933125608957208e-05   4.583314761265507e-06   -7.411890911496622e-06
-2.2933125608957208e-05   4.583314761265507e-06   -7.411890911496622e-06
-1.9094743488389937e-05   4.050226602996348e-06   -8.689064489185352e-07
-1.9094743488389937e-05   4.050226602996348e-06   -8.689064489185352e-07
-1.9094743488389937e-05   4.050226602996348e-06   -8.689064489185352e-07
-1.9094743488389937e-05   4.050226602996348e-06   -8.689064489185352e-07
-2.713610196583228e-05   5.353274981621282e-06   -1.3489341550814208e-05
-2.713610196583228e-05   5.353274981621282e-06   -1.3489341550814208e-05
-2.713610196583228e-05   5.353274981621282e-06   -1.3489341550814208e-05
-2.713610196583228e-05   5.353274981621282e-06   -1.3489341550814208e-05
-2.6050277108833685e-05   4.300767881410743e-06   1.876627710677213e-06
-2.6050277108833685e-05   4.300767881410743e-06   1.876627710677213e-06
-2.6050277108833685e-05   4.300767881410743e-06   1.876627710677213e-06
-2.6050277108833685e-05   4.300767881410743e-06   1.876627710677213e-06
-1.8601281084170066e-05   5.496301495627742e-06   -1.1255685832292369e-05
-1.8601281084170066e-05   5.496301495627742e-06   -1.1255685832292369e-05
-1.8601281084170066e-05   5.496301495627742e-06   -1.1255685832292369e-05
-1.8601281084170066e-05   5.496301495627742e-06   -1.1255685832292369e-05
-2.19106536624816e-05   4.624951719282323e-06   -5.217255002633024e-06
-2.19106536624816e-05   4.624951719282323e-06   -5.217255002633024e-06
-2.19106536624816e-05   4.624951719282323e-06   -5.217255002633024e-06
-2.19106536624816e-05   4.624951719282323e-06   -5.217255002633024e-06
2.501024073029001e-05   -3.4820549807574137e-06   5.051363344617471e-06
2.501024073029001e-05   -3.4820549807574137e-06   5.051363344617471e-06
2.501024073029001e-05   -3.4820549807574137e-06   5.051363344617471e-06
2.501024073029001e-05   -3.4820549807574137e-06   5.051363344617471e-06
1.203200948301364e-05   -5.141849713694328e-06   -1.7574898907271987e-05
1.203200948301364e-05   -5.141849713694328e-06   -1.7574898907271987e-05
1.203200948301364e-05   -5.141849713694328e-06   -1.7574898907271987e-05
1.203200948301364e-05   -5.141849713694328e-06   -1.7574898907271987e-05
1.2515917822068562e-05   -3.239767159149507e-06   2.4848847975675412e-06
1.2515917822068562e-05   -3.239767159149507e-06   2.4848847975675412e-06
1.2515917822068562e-05   -3.239767159149507e-06   2.4848847975675412e-06
1.2515917822068562e-05   -3.239767159149507e-06   2.4848847975675412e-06
2.6141892325086633e-05   -5.023424752720459e-06   -1.9154878151320147e-05
2.6141892325086633e-05   -5.023424752720459e-06   -1.9154878151320147e-05
2.6141892325086633e-05   -5.023424752720459e-06   -1.9154878151320147e-05
2.6141892325086633e-05   -5.023424752720459e-06   -1.9154878151320147e-05
1.815460543365475e-05   -3.8094380743715003e-06   -6.571125339276395e-06
1.815460543365475e-05   -3.8094380743715003e-06   -6.571125339276395e-06
1.815460543365475e-05   -3.8094380743715003e-06   -6.571125339276395e-06
1.815460543365475e-05   -3.8094380743715003e-06   -6.571125339276395e-06
2.6141892325086684e-05   -3.239767159149409e-06   3.5550793537100474e-06
2.6141892325086684e-05   -3.239767159149409e-06   3.5550793537100474e-06
2.6141892325086684e-05   -3.239767159149409e-06   3.5550793537100474e-06
2.6141892325086684e-05   -3.239767159149409e-06   3.5550793537100474e-06
1.2515917822068548e-05   -5.023424752720459e-06   -2.022507270746279e-05
1.2515917822068548e-05   -5.023424752720459e-06   -2.022507270746279e-05
1.2515917822068548e-05   -5.023424752720459e-06   -2.022507270746279e-05
1.2515917822068548e-05   -5.023424752720459e-06   -2.022507270746279e-05
1.2997525395633247e-05   -3.02975471691818e-06   1.225385625690115e-06
1.2997525395633247e-05   -3.02975471691818e-06   1.225385625690115e-06
1.2997525395633247e-05   -3.02975471691818e-06   1.225385625690115e-06
1.2997525395633247e-05   -3.02975471691818e-06   1.225385625690115e-06
2.7009261539218036e-05   -4.848468339657859e-06   -2.1036279773307297e-05
2.7009261539218036e-05   -4.848468339657859e-06   -2.1036279773307297e-05
2.7009261539218036e-05   -4.848468339657859e-06   -2.1036279773307297e-05
2.7009261539218036e-05   -4.848468339657859e-06   -2.1036279773307297e-05
1.9109025744415588e-05   -3.7964970559828826e-06   -8.500402885508365e-06
1.9109025744415588e-05   -3.7964970559828826e-06   -8.500402885508365e-06
1.9109025744415588e-05   -3.7964970559828826e-06   -8.500402885508365e-06
1.9109025744415588e-05   -3.7964970559828826e-06   -8.500402885508365e-06
2.700926153921803e-05   -3.0297547169181547e-06   2.3166137993339874e-06
2.700926153921803e-05   -3.0297547169181547e-06   2.3166137993339874e-06
2.700926153921803e-05   -3.0297547169181547e-06   2.3166137993339874e-06
2.700926153921803e-05   -3.0297547169181547e-06   2.3166137993339874e-06
1.2997525395633247e-05   -4.848468339658076e-06   -2.212750794695125e-05
1.2997525395633247e-05   -4.848468339658076e-06   -2.212750794695125e-05
1.2997525395633247e-05   -4.848468339658076e-06   -2.212750794695125e-05
1.2997525395633247e-05   -4.848468339658076e-06   -2.212750794695125e-05
1.3323220385334393e-05   -2.3676182480416013e-06   -1.3049633073793261e-06
1.3323220385334393e-05   -2.3676182480416013e-06   -1.3049633073793261e-06
1.3323220385334393e-05   -2.3676182480416013e-06   -1.3049633073793261e-06
1.3323220385334393e-05   -2.3676182480416013e-06   -1.3049633073793261e-06
2.7926913594141633e-05   -4.1680780820095315e-06   -2.4564176088344295e-05
2.7926913594141633e-05   -4.1680780820095315e-06   -2.4564176088344295e-05
2.7926913594141633e-05   -4.1680780820095315e-06   -2.4564176088344295e-05
2.7926913594141633e-05   -4.1680780820095315e-06   -2.4564176088344295e-05
1.936955098049572e-05   -3.5036396775732503e-06   -1.0700568108262869e-05
1.936955098049572e-05   -3.5036396775732503e-06   -1.0700568108262869e-05
1.936955098049572e-05   -3.5036396775732503e-06   -1.0700568108262869e-05
1.936955098049572e-05   -3.5036396775732503e-06   -1.0700568108262869e-05
1.2032009483013654e-05   -1.6213833547274804e-06   -5.956139591850877e-06
1.2032009483013654e-05   -1.6213833547274804e-06   -5.956139591850877e-06
1.2032009483013654e-05   -1.6213833547274804e-06   -5.956139591850877e-06
1.2032009483013654e-05   -1.6213833547274804e-06   -5.956139591850877e-06
-7.65355591975011e-07   -3.3098639934750224e-06   -2.8298169766747053e-05
-7.65355591975011e-07   -3.3098639934750224e-06   -2.8298169766747053e-05
-7.65355591975011e-07   -3.3098639934750224e-06   -2.8298169766747053e-05
-7.65355591975011e-07   -3.3098639934750224e-06   -2.8298169766747053e-05
-2.6943678518029715e-07   -1.281977245770529e-06   -6.5716623424773345e-06
-2.6943678518029715e-07   -1.281977245770529e-06   -6.5716623424773345e-06
-2.6943678518029715e-07   -1.281977245770529e-06   -6.5716623424773345e-06
-2.6943678518029715e-07   -1.281977245770529e-06   -6.5716623424773345e-06
1.2515917822068567e-05   -3.148306638361964e-06   -2.6760789052337298e-05
1.2515917822068567e-05   -3.148306638361964e-06   -2.6760789052337298e-05
1.2515917822068567e-05   -3.148306638361964e-06   -2.6760789052337298e-05
1.2515917822068567e-05   -3.148306638361964e-06   -2.6760789052337298e-05
5.8952754840570304e-06   -2.0034746344942383e-06   -1.6413284357972045e-05
5.8952754840570304e-06   -2.0034746344942383e-06   -1.6413284357972045e-05
5.8952754840570304e-06   -2.0034746344942383e-06   -1.6413284357972045e-05
5.8952754840570304e-06   -2.0034746344942383e-06   -1.6413284357972045e-05
1.2515917822068562e-05   -1.281977245770518e-06   -5.45186470692256e-06
1.2515917822068562e-05   -1.281977245770518e-06   -5.45186470692256e-06
1.2515917822068562e-05   -1.281977245770518e-06   -5.45186470692256e-06
1.2515917822068562e-05   -1.281977245770518e-06   -5.45186470692256e-06
-2.6943678518029715e-07   -3.148306638361964e-06   -2.7880586687892045e-05
-2.6943678518029715e-07   -3.148306638361964e-06   -2.7880586687892045e-05
-2.6943678518029715e-07   -3.148306638361964e-06   -2.7880586687892045e-05
-2.6943678518029715e-07   -3.148306638361964e-06   -2.7880586687892045e-05
1.6729774729523042e-07   -8.673680861690652e-07   -6.734174555975787e-06
1.6729774729523042e-07   -8.673680861690652e-07   -6.734174555975787e-06
1.6729774729523042e-07   -8.673680861690652e-07   -6.734174555975787e-06
1.6729774729523042e-07   -8.673680861690652e-07   -6.734174555975787e-06
1.299752539563325e-05   -2.8497976900291287e-06   -2.692842954088982e-05
1.299752539563325e-05   -2.8497976900291287e-06   -2.692842954088982e-05
1.299752539563325e-05   -2.8497976900291287e-06   -2.692842954088982e-05
1.299752539563325e-05   -2.8497976900291287e-06   -2.692842954088982e-05
6.230918794279612e-06   -1.8357947890635003e-06   -1.62591536125461e-05
6.230918794279612e-06   -1.8357947890635003e-06   -1.62591536125461e-05
6.230918794279612e-06   -1.8357947890635003e-06   -1.62591536125461e-05
6.230918794279612e-06   -1.8357947890635003e-06   -1.62591536125461e-05
1.2997525395633247e-05   -8.673680861689244e-07   -5.544716793659597e-06
1.2997525395633247e-05   -8.673680861689244e-07   -5.544716793659597e-06
1.2997525395633247e-05   -8.673680861689244e-07   -5.544716793659597e-06
1.2997525395633247e-05   -8.673680861689244e-07   -5.544716793659597e-06
1.6729774729521687e-07   -2.849797690028912e-06   -2.8117887303205765e-05
1.6729774729521687e-07   -2.849797690028912e-06   -2.8117887303205765e-05
1.6729774729521687e-07   -2.849797690028912e-06   -2.8117887303205765e-05
1.6729774729521687e-07   -2.849797690028912e-06   -2.8117887303205765e-05
4.775453986922078e-07   -3.4507597923257374e-07   -7.006987698611423e-06
4.775453986922078e-07   -3.4507597923257374e-07   -7.006987698611423e-06
4.775453986922078e-07   -3.4507597923257374e-07   -7.006987698611423e-06
4.775453986922078e-07   -3.4507597923257374e-07   -7.006987698611423e-06
1.3323220385334437e-05   -2.4249101944230893e-06   -2.7168545480567638e-05
1.3323220385334437e-05   -2.4249101944230893e-06   -2.7168545480567638e-05
1.3323220385334437e-05   -2.4249101944230893e-06   -2.7168545480567638e-05
1.3323220385334437e-05   -2.4249101944230893e-06   -2.7168545480567638e-05
6.635638982551817e-06   -1.5417355240195975e-06   -1.6552481278172263e-05
6.635638982551817e-06   -1.5417355240195975e-06   -1.6552481278172263e-05
6.635638982551817e-06   -1.5417355240195975e-06   -1.6552481278172263e-05
6.635638982551817e-06   -1.5417355240195975e-06   -1.6552481278172263e-05
-7.65355591975011e-07   3.134608654016456e-07   -9.123834996941477e-06
-7.65355591975011e-07   3.134608654016456e-07   -9.123834996941477e-06
-7.65355591975011e-07   3.134608654016456e-07   -9.123834996941477e-06
-7.65355591975011e-07   3.134608654016456e-07   -9.123834996941477e-06
-1.3373782003690991e-05   -1.7034830564360316e-06   -3.1348045369570783e-05
-1.3373782003690991e-05   -1.7034830564360316e-06   -3.1348045369570783e-05
-1.3373782003690991e-05   -1.7034830564360316e-06   -3.1348045369570783e-05
-1.3373782003690991e-05   -1.7034830564360316e-06   -3.1348045369570783e-05
-1.2778471816775135e-05   6.953683005181139e-07   -9.915414611398696e-06
-1.2778471816775135e-05   6.953683005181139e-07   -9.915414611398696e-06
-1.2778471816775135e-05   6.953683005181139e-07   -9.915414611398696e-06
-1.2778471816775135e-05   6.953683005181139e-07   -9.915414611398696e-06
-2.694367851803026e-07   -1.512157072677085e-06   -2.9439291106806264e-05
-2.694367851803026e-07   -1.512157072677085e-06   -2.9439291106806264e-05
-2.694367851803026e-07   -1.512157072677085e-06   -2.9439291106806264e-05
-2.694367851803026e-07   -1.512157072677085e-06   -2.9439291106806264e-05
-6.717313576183318e-06   -3.0690211850928177e-07   -1.9415982760968527e-05
-6.717313576183318e-06   -3.0690211850928177e-07   -1.9415982760968527e-05
-6.717313576183318e-06   -3.0690211850928177e-07   -1.9415982760968527e-05
-6.717313576183318e-06   -3.0690211850928177e-07   -1.9415982760968527e-05
-2.6943678518029715e-07   6.953683005181974e-07   -8.590899387481534e-06
-2.6943678518029715e-07   6.953683005181974e-07   -8.590899387481534e-06
-2.6943678518029715e-07   6.953683005181974e-07   -8.590899387481534e-06
-2.6943678518029715e-07   6.953683005181974e-07   -8.590899387481534e-06
-1.2778471816775135e-05   -1.512157072677085e-06   -3.0763806330723494e-05
-1.2778471816775135e-05   -1.512157072677085e-06   -3.0763806330723494e-05
-1.2778471816775135e-05   -1.512157072677085e-06   -3.0763806330723494e-05
-1.2778471816775135e-05   -1.512157072677085e-06   -3.0763806330723494e-05
-1.223234158229256e-05   1.1365973841513666e-06   -9.737706892233447e-06
-1.223234158229256e-05   1.1365973841513666e-06   -9.737706892233447e-06
-1.223234158229256e-05   1.1365973841513666e-06   -9.737706892233447e-06
-1.223234158229256e-05   1.1365973841513666e-06   -9.737706892233447e-06
1.6729774729521526e-07   -1.2175839767985305e-06   -2.899126362497643e-05
1.6729774729521526e-07   -1.2175839767985305e-06   -2.899126362497643e-05
1.6729774729521526e-07   -1.2175839767985305e-06   -2.899126362497643e-05
1.6729774729521526e-07   -1.2175839767985305e-06   -2.899126362497643e-05
-6.233114116543794e-06   -8.906526493819393e-08   -1.9001021745694387e-05
-6.233114116543794e-06   -8.906526493819393e-08   -1.9001021745694387e-05
-6.233114116543794e-06   -8.906526493819393e-08   -1.9001021745694387e-05
-6.233114116543794e-06   -8.906526493819393e-08   -1.9001021745694387e-05
1.6729774729521687e-07   1.136597384151291e-06   -8.325198075663509e-06
1.6729774729521687e-07   1.136597384151291e-06   -8.325198075663509e-06
1.6729774729521687e-07   1.136597384151291e-06   -8.325198075663509e-06
1.6729774729521687e-07   1.136597384151291e-06   -8.325198075663509e-06
-1.223234158229256e-05   -1.2175839767985305e-06   -3.040377244154641e-05
-1.223234158229256e-05   -1.2175839767985305e-06   -3.040377244154641e-05
-1.223234158229256e-05   -1.2175839767985305e-06   -3.040377244154641e-05
-1.223234158229256e-05   -1.2175839767985305e-06   -3.040377244154641e-05
-1.1864387947456834e-05   1.5923984787486085e-06   -9.909569032408002e-06
-1.1864387947456834e-05   1.5923984787486085e-06   -9.909569032408002e-06
-1.1864387947456834e-05   1.5923984787486085e-06   -9.909569032408002e-06
-1.1864387947456834e-05   1.5923984787486085e-06   -9.909569032408002e-06
4.775453986922223e-07   -9.377804387918336e-07   -2.8961350592132212e-05
4.775453986922223e-07   -9.377804387918336e-07   -2.8961350592132212e-05
4.775453986922223e-07   -9.377804387918336e-07   -2.8961350592132212e-05
4.775453986922223e-07   -9.377804387918336e-07   -2.8961350592132212e-05
-5.8884766537670565e-06   1.5510978329069496e-07   -1.9007047971283348e-05
-5.8884766537670565e-06   1.5510978329069496e-07   -1.9007047971283348e-05
-5.8884766537670565e-06   1.5510978329069496e-07   -1.9007047971283348e-05
-5.8884766537670565e-06   1.5510978329069496e-07   -1.9007047971283348e-05
-1.3373782003690991e-05   2.31790454050851e-06   -7.430275588822381e-06
-1.3373782003690991e-05   2.31790454050851e-06   -7.430275588822381e-06
-1.3373782003690991e-05   2.31790454050851e-06   -7.430275588822381e-06
-1.3373782003690991e-05   2.31790454050851e-06   -7.430275588822381e-06
-2.616257541636872e-05   5.064120298548403e-07   -2.983182678301089e-05
-2.616257541636872e-05   5.064120298548403e-07   -2.983182678301089e-05
-2.616257541636872e-05   5.064120298548403e-07   -2.983182678301089e-05
-2.616257541636872e-05   5.064120298548403e-07   -2.983182678301089e-05
-2.531471766794194e-05   2.801597169243067e-06   -7.906199813221214e-06
-2.531471766794194e-05   2.801597169243067e-06   -7.906199813221214e-06
-2.531471766794194e-05   2.801597169243067e-06   -7.906199813221214e-06
-2.531471766794194e-05   2.801597169243067e-06   -7.906199813221214e-06
-1.2778471816775133e-05   8.556058876975619e-07   -2.7632348129572027e-05
-1.2778471816775133e-05   8.556058876975619e-07   -2.7632348129572027e-05
-1.2778471816775133e-05   8.556058876975619e-07   -2.7632348129572027e-05
-1.2778471816775133e-05   8.556058876975619e-07   -2.7632348129572027e-05
-1.9207724565859806e-05   1.7839104735528806e-06   -1.747390963261067e-05
-1.9207724565859806e-05   1.7839104735528806e-06   -1.747390963261067e-05
-1.9207724565859806e-05   1.7839104735528806e-06   -1.747390963261067e-05
-1.9207724565859806e-05   1.7839104735528806e-06   -1.747390963261067e-05
-1.2778471816775135e-05   2.801597169243036e-06   -6.738605044293911e-06
-1.2778471816775135e-05   2.801597169243036e-06   -6.738605044293911e-06
-1.2778471816775135e-05   2.801597169243036e-06   -6.738605044293911e-06
-1.2778471816775135e-05   2.801597169243036e-06   -6.738605044293911e-06
-2.5314717667941983e-05   8.55605887697345e-07   -2.879994289849922e-05
-2.5314717667941983e-05   8.55605887697345e-07   -2.879994289849922e-05
-2.5314717667941983e-05   8.55605887697345e-07   -2.879994289849922e-05
-2.5314717667941983e-05   8.55605887697345e-07   -2.879994289849922e-05
-2.4493553600561176e-05   3.2179573483911202e-06   -7.188756087802162e-06
-2.4493553600561176e-05   3.2179573483911202e-06   -7.188756087802162e-06
-2.4493553600561176e-05   3.2179573483911202e-06   -7.188756087802162e-06
-2.4493553600561176e-05   3.2179573483911202e-06   -7.188756087802162e-06
-1.223234158229258e-05   1.1765823570125244e-06   -2.63992844567561e-05
-1.223234158229258e-05   1.1765823570125244e-06   -2.63992844567561e-05
-1.223234158229258e-05   1.1765823570125244e-06   -2.63992844567561e-05
-1.223234158229258e-05   1.1765823570125244e-06   -2.63992844567561e-05
-1.8439147771829445e-05   2.0878043424526777e-06   -1.6601340665458685e-05
-1.8439147771829445e-05   2.0878043424526777e-06   -1.6601340665458685e-05
-1.8439147771829445e-05   2.0878043424526777e-06   -1.6601340665458685e-05
-1.8439147771829445e-05   2.0878043424526777e-06   -1.6601340665458685e-05
-1.223234158229256e-05   3.2179573483910313e-06   -5.96393109297507e-06
-1.223234158229256e-05   3.2179573483910313e-06   -5.96393109297507e-06
-1.223234158229256e-05   3.2179573483910313e-06   -5.96393109297507e-06
-1.223234158229256e-05   3.2179573483910313e-06   -5.96393109297507e-06
-2.449355360056122e-05   1.1765823570125244e-06   -2.7624109451583286e-05
-2.449355360056122e-05   1.1765823570125244e-06   -2.7624109451583286e-05
-2.449355360056122e-05   1.1765823570125244e-06   -2.7624109451583286e-05
-2.449355360056122e-05   1.1765823570125244e-06   -2.7624109451583286e-05
-2.3872889086638402e-05   3.67755109984577e-06   -7.211818235120849e-06
-2.3872889086638402e-05   3.67755109984577e-06   -7.211818235120849e-06
-2.3872889086638402e-05   3.67755109984577e-06   -7.211818235120849e-06
-2.3872889086638402e-05   3.67755109984577e-06   -7.211818235120849e-06
-1.1864387947456852e-05   1.4470693459178036e-06   -2.5887697748066944e-05
-1.1864387947456852e-05   1.4470693459178036e-06   -2.5887697748066944e-05
-1.1864387947456852e-05   1.4470693459178036e-06   -2.5887697748066944e-05
-1.1864387947456852e-05   1.4470693459178036e-06   -2.5887697748066944e-05
-1.801386767303608e-05   2.3002158794703347e-06   -1.6150452792233167e-05
-1.801386767303608e-05   2.3002158794703347e-06   -1.6150452792233167e-05
-1.801386767303608e-05   2.3002158794703347e-06   -1.6150452792233167e-05
-1.801386767303608e-05   2.3002158794703347e-06   -1.6150452792233167e-05
-2.616257541636872e-05   4.540732943189321e-06   -4.251097849110796e-06
-2.616257541636872e-05   4.540732943189321e-06   -4.251097849110796e-06
-2.616257541636872e-05   4.540732943189321e-06   -4.251097849110796e-06
-2.616257541636872e-05   4.540732943189321e-06   -4.251097849110796e-06
-3.953746442956921e-05   4.301178693340464e-06   -2.668631208768788e-05
-3.953746442956921e-05   4.301178693340464e-06   -2.668631208768788e-05
-3.953746442956921e-05   4.301178693340464e-06   -2.668631208768788e-05
-3.953746442956921e-05   4.301178693340464e-06   -2.668631208768788e-05
-3.785250395859988e-05   5.183596653412842e-06   -1.9144006120261868e-08
-3.785250395859988e-05   5.183596653412842e-06   -1.9144006120261868e-08
-3.785250395859988e-05   5.183596653412842e-06   -1.9144006120261868e-08
-3.785250395859988e-05   5.183596653412842e-06   -1.9144006120261868e-08
-2.5314717667941898e-05   5.425298037466976e-06   -2.106047532098265e-05
-2.5314717667941898e-05   5.425298037466976e-06   -2.106047532098265e-05
-2.5314717667941898e-05   5.425298037466976e-06   -2.106047532098265e-05
-2.5314717667941898e-05   5.425298037466976e-06   -2.106047532098265e-05
-3.0828225898358264e-05   5.112921364331877e-06   -1.1683868933074511e-05
-3.0828225898358264e-05   5.112921364331877e-06   -1.1683868933074511e-05
-3.0828225898358264e-05   5.112921364331877e-06   -1.1683868933074511e-05
-3.0828225898358264e-05   5.112921364331877e-06   -1.1683868933074511e-05
-2.5314717667941962e-05   5.183596653412896e-06   -1.6416483655269914e-07
-2.5314717667941962e-05   5.183596653412896e-06   -1.6416483655269914e-07
-2.5314717667941962e-05   5.183596653412896e-06   -1.6416483655269914e-07
-2.5314717667941962e-05   5.183596653412896e-06   -1.6416483655269914e-07
-3.7852503958599816e-05   5.425298037466976e-06   -2.091545449055027e-05
-3.7852503958599816e-05   5.425298037466976e-06   -2.091545449055027e-05
-3.7852503958599816e-05   5.425298037466976e-06   -2.091545449055027e-05
-3.7852503958599816e-05   5.425298037466976e-06   -2.091545449055027e-05
-3.6456875268930675e-05   5.353274981621282e-06   2.37347209507458e-06
-3.6456875268930675e-05   5.353274981621282e-06   2.37347209507458e-06
-3.6456875268930675e-05   5.353274981621282e-06   2.37347209507458e-06
-3.6456875268930675e-05   5.353274981621282e-06   2.37347209507458e-06
-2.449355360056118e-05   5.678824674093183e-06   -1.7760727167691105e-05
-2.449355360056118e-05   5.678824674093183e-06   -1.7760727167691105e-05
-2.449355360056118e-05   5.678824674093183e-06   -1.7760727167691105e-05
-2.449355360056118e-05   5.678824674093183e-06   -1.7760727167691105e-05
-3.020147251438004e-05   5.4822333881612405e-06   -8.129574206433527e-06
-3.020147251438004e-05   5.4822333881612405e-06   -8.129574206433527e-06
-3.020147251438004e-05   5.4822333881612405e-06   -8.129574206433527e-06
-3.020147251438004e-05   5.4822333881612405e-06   -8.129574206433527e-06
-2.449355360056122e-05   5.353274981621352e-06   2.178142279591461e-06
-2.449355360056122e-05   5.353274981621352e-06   2.178142279591461e-06
-2.449355360056122e-05   5.353274981621352e-06   2.178142279591461e-06
-2.449355360056122e-05   5.353274981621352e-06   2.178142279591461e-06
-3.6456875268930736e-05   5.678824674093183e-06   -1.756539735220798e-05
-3.6456875268930736e-05   5.678824674093183e-06   -1.756539735220798e-05
-3.6456875268930736e-05   5.678824674093183e-06   -1.756539735220798e-05
-3.6456875268930736e-05   5.678824674093183e-06   -1.756539735220798e-05
-3.4995266613343314e-05   5.496301495627742e-06   5.586605060879787e-06
-3.4995266613343314e-05   5.496301495627742e-06   5.586605060879787e-06
-3.4995266613343314e-05   5.496301495627742e-06   5.586605060879787e-06
-3.4995266613343314e-05   5.496301495627742e-06   5.586605060879787e-06
-2.3872889086638426e-05   6.108341926138773e-06   -1.331791507526821e-05
-2.3872889086638426e-05   6.108341926138773e-06   -1.331791507526821e-05
-2.3872889086638426e-05   6.108341926138773e-06   -1.331791507526821e-05
-2.3872889086638426e-05   6.108341926138773e-06   -1.331791507526821e-05
-2.8786372244432668e-05   5.603957604921215e-06   -4.8261458862145035e-06
-2.8786372244432668e-05   5.603957604921215e-06   -4.8261458862145035e-06
-2.8786372244432668e-05   5.603957604921215e-06   -4.8261458862145035e-06
-2.8786372244432668e-05   5.603957604921215e-06   -4.8261458862145035e-06
3.4302434142490076e-05   -5.1418497136942145e-06   1.1775620145048921e-05
3.4302434142490076e-05   -5.1418497136942145e-06   1.1775620145048921e-05
3.4302434142490076e-05   -5.1418497136942145e-06   1.1775620145048921e-05
3.4302434142490076e-05   -5.1418497136942145e-06   1.1775620145048921e-05
1.7220216278073577e-05   -6.491726638845627e-06   -1.750466911740287e-05
1.7220216278073577e-05   -6.491726638845627e-06   -1.750466911740287e-05
1.7220216278073577e-05   -6.491726638845627e-06   -1.750466911740287e-05
1.7220216278073577e-05   -6.491726638845627e-06   -1.750466911740287e-05
1.7633563418209872e-05   -5.023424752720459e-06   8.464695300051603e-06
1.7633563418209872e-05   -5.023424752720459e-06   8.464695300051603e-06
1.7633563418209872e-05   -5.023424752720459e-06   8.464695300051603e-06
1.7633563418209872e-05   -5.023424752720459e-06   8.464695300051603e-06
3.5147623331781625e-05   -6.654199720367883e-06   -1.9746939575312637e-05
3.5147623331781625e-05   -6.654199720367883e-06   -1.9746939575312637e-05
3.5147623331781625e-05   -6.654199720367883e-06   -1.9746939575312637e-05
3.5147623331781625e-05   -6.654199720367883e-06   -1.9746939575312637e-05
2.5035653309954586e-05   -5.251892741828983e-06   -3.735040392724339e-06
2.5035653309954586e-05   -5.251892741828983e-06   -3.735040392724339e-06
2.5035653309954586e-05   -5.251892741828983e-06   -3.735040392724339e-06
2.5035653309954586e-05   -5.251892741828983e-06   -3.735040392724339e-06
3.5147623331781625e-05   -5.023424752720418e-06   9.443160280640252e-06
3.5147623331781625e-05   -5.023424752720418e-06   9.443160280640252e-06
3.5147623331781625e-05   -5.023424752720418e-06   9.443160280640252e-06
3.5147623331781625e-05   -5.023424752720418e-06   9.443160280640252e-06
1.7633563418209872e-05   -6.654199720367883e-06   -2.072540455590134e-05
1.7633563418209872e-05   -6.654199720367883e-06   -2.072540455590134e-05
1.7633563418209872e-05   -6.654199720367883e-06   -2.072540455590134e-05
1.7633563418209872e-05   -6.654199720367883e-06   -2.072540455590134e-05
1.798277010962305e-05   -4.848468339658076e-06   6.688544402297467e-06
1.798277010962305e-05   -4.848468339658076e-06   6.688544402297467e-06
1.798277010962305e-05   -4.848468339658076e-06   6.688544402297467e-06
1.798277010962305e-05   -4.848468339658076e-06   6.688544402297467e-06
3.567360116911803e-05   -6.592473793999619e-06   -2.174977075758926e-05
3.567360116911803e-05   -6.592473793999619e-06   -2.174977075758926e-05
3.567360116911803e-05   -6.592473793999619e-06   -2.174977075758926e-05
3.567360116911803e-05   -6.592473793999619e-06   -2.174977075758926e-05
2.591163278447467e-05   -5.416004399731288e-06   -6.1857050864113174e-06
2.591163278447467e-05   -5.416004399731288e-06   -6.1857050864113174e-06
2.591163278447467e-05   -5.416004399731288e-06   -6.1857050864113174e-06
2.591163278447467e-05   -5.416004399731288e-06   -6.1857050864113174e-06
3.5673601169118035e-05   -4.848468339657977e-06   7.734947674902328e-06
3.5673601169118035e-05   -4.848468339657977e-06   7.734947674902328e-06
3.5673601169118035e-05   -4.848468339657977e-06   7.734947674902328e-06
3.5673601169118035e-05   -4.848468339657977e-06   7.734947674902328e-06
1.798277010962305e-05   -6.592473793999619e-06   -2.2796174030194284e-05
1.798277010962305e-05   -6.592473793999619e-06   -2.2796174030194284e-05
1.798277010962305e-05   -6.592473793999619e-06   -2.2796174030194284e-05
1.798277010962305e-05   -6.592473793999619e-06   -2.2796174030194284e-05
1.834652397123549e-05   -4.1680780820095315e-06   3.2506444449440213e-06
1.834652397123549e-05   -4.1680780820095315e-06   3.2506444449440213e-06
1.834652397123549e-05   -4.1680780820095315e-06   3.2506444449440213e-06
1.834652397123549e-05   -4.1680780820095315e-06   3.2506444449440213e-06
3.61915969514107e-05   -6.221535753370968e-06   -2.5259069252531115e-05
3.61915969514107e-05   -6.221535753370968e-06   -2.5259069252531115e-05
3.61915969514107e-05   -6.221535753370968e-06   -2.5259069252531115e-05
3.61915969514107e-05   -6.221535753370968e-06   -2.5259069252531115e-05
2.5917394055785e-05   -5.210002251377537e-06   -8.742317861017704e-06
2.5917394055785e-05   -5.210002251377537e-06   -8.742317861017704e-06
2.5917394055785e-05   -5.210002251377537e-06   -8.742317861017704e-06
2.5917394055785e-05   -5.210002251377537e-06   -8.742317861017704e-06
1.7220216278073577e-05   -3.3098639934749653e-06   1.255511513731356e-06
1.7220216278073577e-05   -3.3098639934749653e-06   1.255511513731356e-06
1.7220216278073577e-05   -3.3098639934749653e-06   1.255511513731356e-06
1.7220216278073577e-05   -3.3098639934749653e-06   1.255511513731356e-06
1.9837154300752873e-06   -6.4594877537214185e-06   -2.602843082241365e-05
1.9837154300752873e-06   -6.4594877537214185e-06   -2.602843082241365e-05
1.9837154300752873e-06   -6.4594877537214185e-06   -2.602843082241365e-05
1.9837154300752873e-06   -6.4594877537214185e-06   -2.602843082241365e-05
2.4647646852879592e-06   -3.148306638361964e-06   -3.609687585220001e-08
2.4647646852879592e-06   -3.148306638361964e-06   -3.609687585220001e-08
2.4647646852879592e-06   -3.148306638361964e-06   -3.609687585220001e-08
2.4647646852879592e-06   -3.148306638361964e-06   -3.609687585220001e-08
1.7633563418209896e-05   -6.423433023410941e-06   -2.3352352266359477e-05
1.7633563418209896e-05   -6.423433023410941e-06   -2.3352352266359477e-05
1.7633563418209896e-05   -6.423433023410941e-06   -2.3352352266359477e-05
1.7633563418209896e-05   -6.423433023410941e-06   -2.3352352266359477e-05
9.862484850691012e-06   -4.360965554488705e-06   -1.1638035135181263e-05
9.862484850691012e-06   -4.360965554488705e-06   -1.1638035135181263e-05
9.862484850691012e-06   -4.360965554488705e-06   -1.1638035135181263e-05
9.862484850691012e-06   -4.360965554488705e-06   -1.1638035135181263e-05
1.7633563418209845e-05   -3.1483066383619212e-06   1.9289789551772294e-06
1.7633563418209845e-05   -3.1483066383619212e-06   1.9289789551772294e-06
1.7633563418209845e-05   -3.1483066383619212e-06   1.9289789551772294e-06
1.7633563418209845e-05   -3.1483066383619212e-06   1.9289789551772294e-06
2.4647646852879592e-06   -6.423433023410941e-06   -2.531742809738888e-05
2.4647646852879592e-06   -6.423433023410941e-06   -2.531742809738888e-05
2.4647646852879592e-06   -6.423433023410941e-06   -2.531742809738888e-05
2.4647646852879592e-06   -6.423433023410941e-06   -2.531742809738888e-05
2.8989022641205523e-06   -2.849797690028912e-06   -2.0246651491440896e-07
2.8989022641205523e-06   -2.849797690028912e-06   -2.0246651491440896e-07
2.8989022641205523e-06   -2.849797690028912e-06   -2.0246651491440896e-07
2.8989022641205523e-06   -2.849797690028912e-06   -2.0246651491440896e-07
1.7982770109623046e-05   -6.33327989548447e-06   -2.3252156934145394e-05
1.7982770109623046e-05   -6.33327989548447e-06   -2.3252156934145394e-05
1.7982770109623046e-05   -6.33327989548447e-06   -2.3252156934145394e-05
1.7982770109623046e-05   -6.33327989548447e-06   -2.3252156934145394e-05
1.0133107330218368e-05   -4.405463636641526e-06   -1.1326075390442864e-05
1.0133107330218368e-05   -4.405463636641526e-06   -1.1326075390442864e-05
1.0133107330218368e-05   -4.405463636641526e-06   -1.1326075390442864e-05
1.0133107330218368e-05   -4.405463636641526e-06   -1.1326075390442864e-05
1.798277010962305e-05   -2.8497976900288835e-06   1.8876228083588176e-06
1.798277010962305e-05   -2.8497976900288835e-06   1.8876228083588176e-06
1.798277010962305e-05   -2.8497976900288835e-06   1.8876228083588176e-06
1.798277010962305e-05   -2.8497976900288835e-06   1.8876228083588176e-06
2.8989022641205388e-06   -6.33327989548447e-06   -2.5342246257418566e-05
2.8989022641205388e-06   -6.33327989548447e-06   -2.5342246257418566e-05
2.8989022641205388e-06   -6.33327989548447e-06   -2.5342246257418566e-05
2.8989022641205388e-06   -6.33327989548447e-06   -2.5342246257418566e-05
3.5474373424764004e-06   -2.4249101944228725e-06   -5.11932496789335e-07
3.5474373424764004e-06   -2.4249101944228725e-06   -5.11932496789335e-07
3.5474373424764004e-06   -2.4249101944228725e-06   -5.11932496789335e-07
3.5474373424764004e-06   -2.4249101944228725e-06   -5.11932496789335e-07
1.8346523971235507e-05   -6.155715944240617e-06   -2.293859342816394e-05
1.8346523971235507e-05   -6.155715944240617e-06   -2.293859342816394e-05
1.8346523971235507e-05   -6.155715944240617e-06   -2.293859342816394e-05
1.8346523971235507e-05   -6.155715944240617e-06   -2.293859342816394e-05
1.065548364228673e-05   -4.332483130507726e-06   -1.121413256815569e-05
1.065548364228673e-05   -4.332483130507726e-06   -1.121413256815569e-05
1.065548364228673e-05   -4.332483130507726e-06   -1.121413256815569e-05
1.065548364228673e-05   -4.332483130507726e-06   -1.121413256815569e-05
1.9837154300752873e-06   -1.7034830564361182e-06   -2.473971992137617e-06
1.9837154300752873e-06   -1.7034830564361182e-06   -2.473971992137617e-06
1.9837154300752873e-06   -1.7034830564361182e-06   -2.473971992137617e-06
1.9837154300752873e-06   -1.7034830564361182e-06   -2.473971992137617e-06
-1.3092762237026152e-05   -7.736110766896247e-06   -3.1221011396916076e-05
-1.3092762237026152e-05   -7.736110766896247e-06   -3.1221011396916076e-05
-1.3092762237026152e-05   -7.736110766896247e-06   -3.1221011396916076e-05
-1.3092762237026152e-05   -7.736110766896247e-06   -3.1221011396916076e-05
-1.2342788483824325e-05   -1.512157072677085e-06   -5.42916208037922e-06
-1.2342788483824325e-05   -1.512157072677085e-06   -5.42916208037922e-06
-1.2342788483824325e-05   -1.512157072677085e-06   -5.42916208037922e-06
-1.2342788483824325e-05   -1.512157072677085e-06   -5.42916208037922e-06
2.4647646852879567e-06   -7.902758382031822e-06   -2.6274056576620165e-05
2.4647646852879567e-06   -7.902758382031822e-06   -2.6274056576620165e-05
2.4647646852879567e-06   -7.902758382031822e-06   -2.6274056576620165e-05
2.4647646852879567e-06   -7.902758382031822e-06   -2.6274056576620165e-05
-5.075240708622196e-06   -4.360189077681157e-06   -1.583292250271367e-05
-5.075240708622196e-06   -4.360189077681157e-06   -1.583292250271367e-05
-5.075240708622196e-06   -4.360189077681157e-06   -1.583292250271367e-05
-5.075240708622196e-06   -4.360189077681157e-06   -1.583292250271367e-05
2.4647646852879592e-06   -1.512157072677085e-06   -1.5948012947663778e-06
2.4647646852879592e-06   -1.512157072677085e-06   -1.5948012947663778e-06
2.4647646852879592e-06   -1.512157072677085e-06   -1.5948012947663778e-06
2.4647646852879592e-06   -1.512157072677085e-06   -1.5948012947663778e-06
-1.2342788483824346e-05   -7.902758382031822e-06   -3.0108417362233143e-05
-1.2342788483824346e-05   -7.902758382031822e-06   -3.0108417362233143e-05
-1.2342788483824346e-05   -7.902758382031822e-06   -3.0108417362233143e-05
-1.2342788483824346e-05   -7.902758382031822e-06   -3.0108417362233143e-05
-1.1695776588489298e-05   -1.2175839767985305e-06   -5.06155210918595e-06
-1.1695776588489298e-05   -1.2175839767985305e-06   -5.06155210918595e-06
-1.1695776588489298e-05   -1.2175839767985305e-06   -5.06155210918595e-06
-1.1695776588489298e-05   -1.2175839767985305e-06   -5.06155210918595e-06
2.8989022641205388e-06   -7.860432764299815e-06   -2.5400307591034804e-05
2.8989022641205388e-06   -7.860432764299815e-06   -2.5400307591034804e-05
2.8989022641205388e-06   -7.860432764299815e-06   -2.5400307591034804e-05
2.8989022641205388e-06   -7.860432764299815e-06   -2.5400307591034804e-05
-4.543033033404512e-06   -4.455143198410158e-06   -1.5040255834693645e-05
-4.543033033404512e-06   -4.455143198410158e-06   -1.5040255834693645e-05
-4.543033033404512e-06   -4.455143198410158e-06   -1.5040255834693645e-05
-4.543033033404512e-06   -4.455143198410158e-06   -1.5040255834693645e-05
2.8989022641205388e-06   -1.217583976798487e-06   -1.0758428366850056e-06
2.8989022641205388e-06   -1.217583976798487e-06   -1.0758428366850056e-06
2.8989022641205388e-06   -1.217583976798487e-06   -1.0758428366850056e-06
2.8989022641205388e-06   -1.217583976798487e-06   -1.0758428366850056e-06
-1.1695776588489339e-05   -7.860432764299815e-06   -2.9386016863535694e-05
-1.1695776588489339e-05   -7.860432764299815e-06   -2.9386016863535694e-05
-1.1695776588489339e-05   -7.860432764299815e-06   -2.9386016863535694e-05
-1.1695776588489339e-05   -7.860432764299815e-06   -2.9386016863535694e-05
-1.0578978571222934e-05   -9.377804387920505e-07   -5.0412879996317465e-06
-1.0578978571222934e-05   -9.377804387920505e-07   -5.0412879996317465e-06
-1.0578978571222934e-05   -9.377804387920505e-07   -5.0412879996317465e-06
-1.0578978571222934e-05   -9.377804387920505e-07   -5.0412879996317465e-06
3.547437342476418e-06   -7.578531972778817e-06   -2.4600863602072017e-05
3.547437342476418e-06   -7.578531972778817e-06   -2.4600863602072017e-05
3.547437342476418e-06   -7.578531972778817e-06   -2.4600863602072017e-05
3.547437342476418e-06   -7.578531972778817e-06   -2.4600863602072017e-05
-3.851116715518091e-06   -4.351446060342837e-06   -1.4206191719542605e-05
-3.851116715518091e-06   -4.351446060342837e-06   -1.4206191719542605e-05
-3.851116715518091e-06   -4.351446060342837e-06   -1.4206191719542605e-05
-3.851116715518091e-06   -4.351446060342837e-06   -1.4206191719542605e-05
-1.3092762237026131e-05   5.064120298547102e-07   -3.490434525461384e-06
-1.3092762237026131e-05   5.064120298547102e-07   -3.490434525461384e-06
-1.3092762237026131e-05   5.064120298547102e-07   -3.490434525461384e-06
-1.3092762237026131e-05   5.064120298547102e-07   -3.490434525461384e-06
-2.9890555054566017e-05   -9.59079026700946e-06   -3.754507726614633e-05
-2.9890555054566017e-05   -9.59079026700946e-06   -3.754507726614633e-05
-2.9890555054566017e-05   -9.59079026700946e-06   -3.754507726614633e-05
-2.9890555054566017e-05   -9.59079026700946e-06   -3.754507726614633e-05
-2.8990552231051433e-05   8.556058876975619e-07   -9.249979028979325e-06
-2.8990552231051433e-05   8.556058876975619e-07   -9.249979028979325e-06
-2.8990552231051433e-05   8.556058876975619e-07   -9.249979028979325e-06
-2.8990552231051433e-05   8.556058876975619e-07   -9.249979028979325e-06
-1.2342788483824324e-05   -1.07315193618885e-05   -3.004397679127297e-05
-1.2342788483824324e-05   -1.07315193618885e-05   -3.004397679127297e-05
-1.2342788483824324e-05   -1.07315193618885e-05   -3.004397679127297e-05
-1.2342788483824324e-05   -1.07315193618885e-05   -3.004397679127297e-05
-2.0778858183326682e-05   -4.8486088239114294e-06   -1.9513606948221955e-05
-2.0778858183326682e-05   -4.8486088239114294e-06   -1.9513606948221955e-05
-2.0778858183326682e-05   -4.8486088239114294e-06   -1.9513606948221955e-05
-2.0778858183326682e-05   -4.8486088239114294e-06   -1.9513606948221955e-05
-1.2342788483824325e-05   8.556058876974892e-07   -2.2977038792278614e-06
-1.2342788483824325e-05   8.556058876974892e-07   -2.2977038792278614e-06
-1.2342788483824325e-05   8.556058876974892e-07   -2.2977038792278614e-06
-1.2342788483824325e-05   8.556058876974892e-07   -2.2977038792278614e-06
-2.8990552231051484e-05   -1.07315193618885e-05   -3.6996251941024435e-05
-2.8990552231051484e-05   -1.07315193618885e-05   -3.6996251941024435e-05
-2.8990552231051484e-05   -1.07315193618885e-05   -3.6996251941024435e-05
-2.8990552231051484e-05   -1.07315193618885e-05   -3.6996251941024435e-05
-2.812830163231787e-05   1.1765823570125244e-06   -8.234599366960986e-06
-2.812830163231787e-05   1.1765823570125244e-06   -8.234599366960986e-06
-2.812830163231787e-05   1.1765823570125244e-06   -8.234599366960986e-06
-2.812830163231787e-05   1.1765823570125244e-06   -8.234599366960986e-06
-1.169577658848932e-05   -1.0785976380596517e-05   -2.8444605864109778e-05
-1.169577658848932e-05   -1.0785976380596517e-05   -2.8444605864109778e-05
-1.169577658848932e-05   -1.0785976380596517e-05   -2.8444605864109778e-05
-1.169577658848932e-05   -1.0785976380596517e-05   -2.8444605864109778e-05
-1.9901163204783294e-05   -4.860157265444351e-06   -1.8324452972711162e-05
-1.9901163204783294e-05   -4.860157265444351e-06   -1.8324452972711162e-05
-1.9901163204783294e-05   -4.860157265444351e-06   -1.8324452972711162e-05
-1.9901163204783294e-05   -4.860157265444351e-06   -1.8324452972711162e-05
-1.1695776588489318e-05   1.1765823570126106e-06   -1.0570641243956265e-06
-1.1695776588489318e-05   1.1765823570126106e-06   -1.0570641243956265e-06
-1.1695776588489318e-05   1.1765823570126106e-06   -1.0570641243956265e-06
-1.1695776588489318e-05   1.1765823570126106e-06   -1.0570641243956265e-06
-2.8128301632317917e-05   -1.0785976380596517e-05   -3.56221411066753e-05
-2.8128301632317917e-05   -1.0785976380596517e-05   -3.56221411066753e-05
-2.8128301632317917e-05   -1.0785976380596517e-05   -3.56221411066753e-05
-2.8128301632317917e-05   -1.0785976380596517e-05   -3.56221411066753e-05
-2.6711630047131433e-05   1.4470693459180204e-06   -7.204428329773147e-06
-2.6711630047131433e-05   1.4470693459180204e-06   -7.204428329773147e-06
-2.6711630047131433e-05   1.4470693459180204e-06   -7.204428329773147e-06
-2.6711630047131433e-05   1.4470693459180204e-06   -7.204428329773147e-06
-1.057897857122297e-05   -9.811098195300393e-06   -2.7337280264889556e-05
-1.057897857122297e-05   -9.811098195300393e-06   -2.7337280264889556e-05
-1.057897857122297e-05   -9.811098195300393e-06   -2.7337280264889556e-05
-1.057897857122297e-05   -9.811098195300393e-06   -2.7337280264889556e-05
-1.9038600216837454e-05   -4.269597377940838e-06   -1.656281134594777e-05
-1.9038600216837454e-05   -4.269597377940838e-06   -1.656281134594777e-05
-1.9038600216837454e-05   -4.269597377940838e-06   -1.656281134594777e-05
-1.9038600216837454e-05   -4.269597377940838e-06   -1.656281134594777e-05
-2.9890555054566017e-05   4.301178693340264e-06   -6.2595086583476425e-06
-2.9890555054566017e-05   4.301178693340264e-06   -6.2595086583476425e-06
-2.9890555054566017e-05   4.301178693340264e-06   -6.2595086583476425e-06
-2.9890555054566017e-05   4.301178693340264e-06   -6.2595086583476425e-06
-5.1340097945713206e-05   0.0   -4.4589454026263894e-05
-5.1340097945713206e-05   0.0   -4.4589454026263894e-05
-5.1340097945713206e-05   0.0   -4.4589454026263894e-05
-5.1340097945713206e-05   0.0   -4.4589454026263894e-05
-5.002723988690638e-05   5.425298037466976e-06   -4.765690273943039e-06
-5.002723988690638e-05   5.425298037466976e-06   -4.765690273943039e-06
-5.002723988690638e-05   5.425298037466976e-06   -4.765690273943039e-06
-5.002723988690638e-05   5.425298037466976e-06   -4.765690273943039e-06
-2.8990552231051437e-05   0.0   -3.657165754455433e-05
-2.8990552231051437e-05   0.0   -3.657165754455433e-05
-2.8990552231051437e-05   0.0   -3.657165754455433e-05
-2.8990552231051437e-05   0.0   -3.657165754455433e-05
-3.836103232033883e-05   1.6695727124147516e-06   -2.1955934356524293e-05
-3.836103232033883e-05   1.6695727124147516e-06   -2.1955934356524293e-05
-3.836103232033883e-05   1.6695727124147516e-06   -2.1955934356524293e-05
-3.836103232033883e-05   1.6695727124147516e-06   -2.1955934356524293e-05
-2.8990552231051457e-05   5.4252980374670675e-06   -1.5105114514627014e-06
-2.8990552231051457e-05   5.4252980374670675e-06   -1.5105114514627014e-06
-2.8990552231051457e-05   5.4252980374670675e-06   -1.5105114514627014e-06
-2.8990552231051457e-05   5.4252980374670675e-06   -1.5105114514627014e-06
-5.002723988690629e-05   0.0   -3.9826836367034516e-05
-5.002723988690629e-05   0.0   -3.9826836367034516e-05
-5.002723988690629e-05   0.0   -3.9826836367034516e-05
-5.002723988690629e-05   0.0   -3.9826836367034516e-05
-4.891404615374516e-05   5.6788246740934e-06   -1.778511887524795e-06
-4.891404615374516e-05   5.6788246740934e-06   -1.778511887524795e-06
-4.891404615374516e-05   5.6788246740934e-06   -1.778511887524795e-06
-4.891404615374516e-05   5.6788246740934e-06   -1.778511887524795e-06
-2.8128301632317914e-05   0.0   -3.301412461878105e-05
-2.8128301632317914e-05   0.0   -3.301412461878105e-05
-2.8128301632317914e-05   0.0   -3.301412461878105e-05
-2.8128301632317914e-05   0.0   -3.301412461878105e-05
-3.798074292719779e-05   2.6299602557270166e-06   -1.817136528075031e-05
-3.798074292719779e-05   2.6299602557270166e-06   -1.817136528075031e-05
-3.798074292719779e-05   2.6299602557270166e-06   -1.817136528075031e-05
-3.798074292719779e-05   2.6299602557270166e-06   -1.817136528075031e-05
-2.8128301632317917e-05   5.678824674093275e-06   1.6287829169312016e-06
-2.8128301632317917e-05   5.678824674093275e-06   1.6287829169312016e-06
-2.8128301632317917e-05   5.678824674093275e-06   1.6287829169312016e-06
-2.8128301632317917e-05   5.678824674093275e-06   1.6287829169312016e-06
-4.891404615374508e-05   0.0   -3.642141942323694e-05
-4.891404615374508e-05   0.0   -3.642141942323694e-05
-4.891404615374508e-05   0.0   -3.642141942323694e-05
-4.891404615374508e-05   0.0   -3.642141942323694e-05
-4.669036304614271e-05   6.108341926138556e-06   3.0386382396989592e-06
-4.669036304614271e-05   6.108341926138556e-06   3.0386382396989592e-06
-4.669036304614271e-05   6.108341926138556e-06   3.0386382396989592e-06
-4.669036304614271e-05   6.108341926138556e-06   3.0386382396989592e-06
-2.6711630047131453e-05   0.0   -2.65942449363034e-05
-2.6711630047131453e-05   0.0   -2.65942449363034e-05
-2.6711630047131453e-05   0.0   -2.65942449363034e-05
-2.6711630047131453e-05   0.0   -2.65942449363034e-05
-3.603082240587843e-05   3.2392684764450015e-06   -1.30058187575924e-05
-3.603082240587843e-05   3.2392684764450015e-06   -1.30058187575924e-05
-3.603082240587843e-05   3.2392684764450015e-06   -1.30058187575924e-05
-3.603082240587843e-05   3.2392684764450015e-06   -1.30058187575924e-05
3.7948253178493825e-05   -6.491726638845657e-06   2.2607107789021966e-05
3.7948253178493825e-05   -6.491726638845657e-06   2.2607107789021966e-05
3.7948253178493825e-05   -6.491726638845657e-06   2.2607107789021966e-05
3.7948253178493825e-05   -6.491726638845657e-06   2.2607107789021966e-05
1.9659894762137208e-05   -5.024777672501656e-06   -6.993320191765848e-06
1.9659894762137208e-05   -5.024777672501656e-06   -6.993320191765848e-06
1.9659894762137208e-05   -5.024777672501656e-06   -6.993320191765848e-06
1.9659894762137208e-05   -5.024777672501656e-06   -6.993320191765848e-06
1.9171206519246477e-05   -6.654199720367883e-06   1.9940151007447407e-05
1.9171206519246477e-05   -6.654199720367883e-06   1.9940151007447407e-05
1.9171206519246477e-05   -6.654199720367883e-06   1.9940151007447407e-05
1.9171206519246477e-05   -6.654199720367883e-06   1.9940151007447407e-05
3.7550568248000125e-05   -5.520372217628208e-06   -1.1372415042119229e-05
3.7550568248000125e-05   -5.520372217628208e-06   -1.1372415042119229e-05
3.7550568248000125e-05   -5.520372217628208e-06   -1.1372415042119229e-05
3.7550568248000125e-05   -5.520372217628208e-06   -1.1372415042119229e-05
2.741146335389714e-05   -5.605798011549526e-06   5.5773485910718925e-06
2.741146335389714e-05   -5.605798011549526e-06   5.5773485910718925e-06
2.741146335389714e-05   -5.605798011549526e-06   5.5773485910718925e-06
2.741146335389714e-05   -5.605798011549526e-06   5.5773485910718925e-06
3.7550568248000125e-05   -6.654199720367898e-06   1.925985450580345e-05
3.7550568248000125e-05   -6.654199720367898e-06   1.925985450580345e-05
3.7550568248000125e-05   -6.654199720367898e-06   1.925985450580345e-05
3.7550568248000125e-05   -6.654199720367898e-06   1.925985450580345e-05
1.9171206519246477e-05   -5.520372217628208e-06   -1.0692118540475367e-05
1.9171206519246477e-05   -5.520372217628208e-06   -1.0692118540475367e-05
1.9171206519246477e-05   -5.520372217628208e-06   -1.0692118540475367e-05
1.9171206519246477e-05   -5.520372217628208e-06   -1.0692118540475367e-05
1.872857288225124e-05   -6.592473793999619e-06   1.7889687115672077e-05
1.872857288225124e-05   -6.592473793999619e-06   1.7889687115672077e-05
1.872857288225124e-05   -6.592473793999619e-06   1.7889687115672077e-05
1.872857288225124e-05   -6.592473793999619e-06   1.7889687115672077e-05
3.7088503074943257e-05   -5.564270776681462e-06   -1.3327118349205534e-05
3.7088503074943257e-05   -5.564270776681462e-06   -1.3327118349205534e-05
3.7088503074943257e-05   -5.564270776681462e-06   -1.3327118349205534e-05
3.7088503074943257e-05   -5.564270776681462e-06   -1.3327118349205534e-05
2.7397621055936403e-05   -5.704172056767527e-06   2.9082924505242127e-06
2.7397621055936403e-05   -5.704172056767527e-06   2.9082924505242127e-06
2.7397621055936403e-05   -5.704172056767527e-06   2.9082924505242127e-06
2.7397621055936403e-05   -5.704172056767527e-06   2.9082924505242127e-06
3.708850307494333e-05   -6.59247379399963e-06   1.7272765305281312e-05
3.708850307494333e-05   -6.59247379399963e-06   1.7272765305281312e-05
3.708850307494333e-05   -6.59247379399963e-06   1.7272765305281312e-05
3.708850307494333e-05   -6.59247379399963e-06   1.7272765305281312e-05
1.872857288225124e-05   -5.564270776681462e-06   -1.2710196538814607e-05
1.872857288225124e-05   -5.564270776681462e-06   -1.2710196538814607e-05
1.872857288225124e-05   -5.564270776681462e-06   -1.2710196538814607e-05
1.872857288225124e-05   -5.564270776681462e-06   -1.2710196538814607e-05
1.8188248434829704e-05   -6.221535753370968e-06   1.455369664809527e-05
1.8188248434829704e-05   -6.221535753370968e-06   1.455369664809527e-05
1.8188248434829704e-05   -6.221535753370968e-06   1.455369664809527e-05
1.8188248434829704e-05   -6.221535753370968e-06   1.455369664809527e-05
3.6364332754300066e-05   -5.442370951689755e-06   -1.6207276098697388e-05
3.6364332754300066e-05   -5.442370951689755e-06   -1.6207276098697388e-05
3.6364332754300066e-05   -5.442370951689755e-06   -1.6207276098697388e-05
3.6364332754300066e-05   -5.442370951689755e-06   -1.6207276098697388e-05
2.6468586280154644e-05   -5.423480113751983e-06   2.7430018878221577e-07
2.6468586280154644e-05   -5.423480113751983e-06   2.7430018878221577e-07
2.6468586280154644e-05   -5.423480113751983e-06   2.7430018878221577e-07
2.6468586280154644e-05   -5.423480113751983e-06   2.7430018878221577e-07
1.9659894762137208e-05   -6.4594877537213295e-06   1.6853289719965408e-05
1.9659894762137208e-05   -6.4594877537213295e-06   1.6853289719965408e-05
1.9659894762137208e-05   -6.4594877537213295e-06   1.6853289719965408e-05
1.9659894762137208e-05   -6.4594877537213295e-06   1.6853289719965408e-05
4.105725298538272e-06   -3.0812536775703166e-06   -7.043385607008869e-06
4.105725298538272e-06   -3.0812536775703166e-06   -7.043385607008869e-06
4.105725298538272e-06   -3.0812536775703166e-06   -7.043385607008869e-06
4.105725298538272e-06   -3.0812536775703166e-06   -7.043385607008869e-06
3.332441318741494e-06   -6.423433023410941e-06   1.92074765751637e-05
3.332441318741494e-06   -6.423433023410941e-06   1.92074765751637e-05
3.332441318741494e-06   -6.423433023410941e-06   1.92074765751637e-05
3.332441318741494e-06   -6.423433023410941e-06   1.92074765751637e-05
1.9171206519246477e-05   -3.2663108931200915e-06   -9.084738703852356e-06
1.9171206519246477e-05   -3.2663108931200915e-06   -9.084738703852356e-06
1.9171206519246477e-05   -3.2663108931200915e-06   -9.084738703852356e-06
1.9171206519246477e-05   -3.2663108931200915e-06   -9.084738703852356e-06
1.1550013466987789e-05   -4.629208638535403e-06   4.434988363827947e-06
1.1550013466987789e-05   -4.629208638535403e-06   4.434988363827947e-06
1.1550013466987789e-05   -4.629208638535403e-06   4.434988363827947e-06
1.1550013466987789e-05   -4.629208638535403e-06   4.434988363827947e-06
1.9171206519246457e-05   -6.423433023410968e-06   1.7313203296989298e-05
1.9171206519246457e-05   -6.423433023410968e-06   1.7313203296989298e-05
1.9171206519246457e-05   -6.423433023410968e-06   1.7313203296989298e-05
1.9171206519246457e-05   -6.423433023410968e-06   1.7313203296989298e-05
3.3324413187415077e-06   -3.2663108931200915e-06   -7.190465425677942e-06
3.3324413187415077e-06   -3.2663108931200915e-06   -7.190465425677942e-06
3.3324413187415077e-06   -3.2663108931200915e-06   -7.190465425677942e-06
3.3324413187415077e-06   -3.2663108931200915e-06   -7.190465425677942e-06
2.780100488702873e-06   -6.33327989548447e-06   1.9225880747393846e-05
2.780100488702873e-06   -6.33327989548447e-06   1.9225880747393846e-05
2.780100488702873e-06   -6.33327989548447e-06   1.9225880747393846e-05
2.780100488702873e-06   -6.33327989548447e-06   1.9225880747393846e-05
1.8728572882251238e-05   -3.346319002695995e-06   -9.14708311085961e-06
1.8728572882251238e-05   -3.346319002695995e-06   -9.14708311085961e-06
1.8728572882251238e-05   -3.346319002695995e-06   -9.14708311085961e-06
1.8728572882251238e-05   -3.346319002695995e-06   -9.14708311085961e-06
1.088499343673752e-05   -4.532625064007081e-06   4.63733293511687e-06
1.088499343673752e-05   -4.532625064007081e-06   4.63733293511687e-06
1.088499343673752e-05   -4.532625064007081e-06   4.63733293511687e-06
1.088499343673752e-05   -4.532625064007081e-06   4.63733293511687e-06
1.8728572882251275e-05   -6.333279895484388e-06   1.743370421172102e-05
1.8728572882251275e-05   -6.333279895484388e-06   1.743370421172102e-05
1.8728572882251275e-05   -6.333279895484388e-06   1.743370421172102e-05
1.8728572882251275e-05   -6.333279895484388e-06   1.743370421172102e-05
2.780100488702873e-06   -3.346319002695995e-06   -7.3549065751866635e-06
2.780100488702873e-06   -3.346319002695995e-06   -7.3549065751866635e-06
2.780100488702873e-06   -3.346319002695995e-06   -7.3549065751866635e-06
2.780100488702873e-06   -3.346319002695995e-06   -7.3549065751866635e-06
2.1660468310750685e-06   -6.155715944240617e-06   1.983959435358383e-05
2.1660468310750685e-06   -6.155715944240617e-06   1.983959435358383e-05
2.1660468310750685e-06   -6.155715944240617e-06   1.983959435358383e-05
2.1660468310750685e-06   -6.155715944240617e-06   1.983959435358383e-05
1.8188248434829725e-05   -3.2668038137330553e-06   -8.597422264311814e-06
1.8188248434829725e-05   -3.2668038137330553e-06   -8.597422264311814e-06
1.8188248434829725e-05   -3.2668038137330553e-06   -8.597422264311814e-06
1.8188248434829725e-05   -3.2668038137330553e-06   -8.597422264311814e-06
1.0480080381271886e-05   -4.330618703334314e-06   4.887813425378672e-06
1.0480080381271886e-05   -4.330618703334314e-06   4.887813425378672e-06
1.0480080381271886e-05   -4.330618703334314e-06   4.887813425378672e-06
1.0480080381271886e-05   -4.330618703334314e-06   4.887813425378672e-06
4.105725298538286e-06   -7.736110766896147e-06   1.7307226217429706e-05
4.105725298538286e-06   -7.736110766896147e-06   1.7307226217429706e-05
4.105725298538286e-06   -7.736110766896147e-06   1.7307226217429706e-05
4.105725298538286e-06   -7.736110766896147e-06   1.7307226217429706e-05
-1.084188416617498e-05   -1.2560333479232078e-06   -3.7174097723751895e-06
-1.084188416617498e-05   -1.2560333479232078e-06   -3.7174097723751895e-06
-1.084188416617498e-05   -1.2560333479232078e-06   -3.7174097723751895e-06
-1.084188416617498e-05   -1.2560333479232078e-06   -3.7174097723751895e-06
-1.2044138921315927e-05   -7.902758382031822e-06   2.2197477171769062e-05
-1.2044138921315927e-05   -7.902758382031822e-06   2.2197477171769062e-05
-1.2044138921315927e-05   -7.902758382031822e-06   2.2197477171769062e-05
-1.2044138921315927e-05   -7.902758382031822e-06   2.2197477171769062e-05
3.3324413187415026e-06   -1.3250432556372906e-06   -7.3767856374966465e-06
3.3324413187415026e-06   -1.3250432556372906e-06   -7.3767856374966465e-06
3.3324413187415026e-06   -1.3250432556372906e-06   -7.3767856374966465e-06
3.3324413187415026e-06   -1.3250432556372906e-06   -7.3767856374966465e-06
-3.73044874414192e-06   -4.407442299311651e-06   6.244137226846927e-06
-3.73044874414192e-06   -4.407442299311651e-06   6.244137226846927e-06
-3.73044874414192e-06   -4.407442299311651e-06   6.244137226846927e-06
-3.73044874414192e-06   -4.407442299311651e-06   6.244137226846927e-06
3.332441318741494e-06   -7.902758382031875e-06   1.8250848095932278e-05
3.332441318741494e-06   -7.902758382031875e-06   1.8250848095932278e-05
3.332441318741494e-06   -7.902758382031875e-06   1.8250848095932278e-05
3.332441318741494e-06   -7.902758382031875e-06   1.8250848095932278e-05
-1.20441389213159e-05   -1.3250432556372906e-06   -3.4301565616599167e-06
-1.20441389213159e-05   -1.3250432556372906e-06   -3.4301565616599167e-06
-1.20441389213159e-05   -1.3250432556372906e-06   -3.4301565616599167e-06
-1.20441389213159e-05   -1.3250432556372906e-06   -3.4301565616599167e-06
-1.2780465755860443e-05   -7.860432764299815e-06   2.3037969132850417e-05
-1.2780465755860443e-05   -7.860432764299815e-06   2.3037969132850417e-05
-1.2780465755860443e-05   -7.860432764299815e-06   2.3037969132850417e-05
-1.2780465755860443e-05   -7.860432764299815e-06   2.3037969132850417e-05
2.780100488702875e-06   -1.4101832325121456e-06   -6.7664576604944585e-06
2.780100488702875e-06   -1.4101832325121456e-06   -6.7664576604944585e-06
2.780100488702875e-06   -1.4101832325121456e-06   -6.7664576604944585e-06
2.780100488702875e-06   -1.4101832325121456e-06   -6.7664576604944585e-06
-4.54510214211208e-06   -4.3893004769768925e-06   7.229683737542639e-06
-4.54510214211208e-06   -4.3893004769768925e-06   7.229683737542639e-06
-4.54510214211208e-06   -4.3893004769768925e-06   7.229683737542639e-06
-4.54510214211208e-06   -4.3893004769768925e-06   7.229683737542639e-06
2.780100488702873e-06   -7.86043276429992e-06   1.9167819413777663e-05
2.780100488702873e-06   -7.86043276429992e-06   1.9167819413777663e-05
2.780100488702873e-06   -7.86043276429992e-06   1.9167819413777663e-05
2.780100488702873e-06   -7.86043276429992e-06   1.9167819413777663e-05
-1.2780465755860416e-05   -1.4101832325121456e-06   -2.896307941421773e-06
-1.2780465755860416e-05   -1.4101832325121456e-06   -2.896307941421773e-06
-1.2780465755860416e-05   -1.4101832325121456e-06   -2.896307941421773e-06
-1.2780465755860416e-05   -1.4101832325121456e-06   -2.896307941421773e-06
-1.3644704911831814e-05   -7.578531972778817e-06   2.4123768251127888e-05
-1.3644704911831814e-05   -7.578531972778817e-06   2.4123768251127888e-05
-1.3644704911831814e-05   -7.578531972778817e-06   2.4123768251127888e-05
-1.3644704911831814e-05   -7.578531972778817e-06   2.4123768251127888e-05
2.1660468310750753e-06   -1.3985976035099743e-06   -5.935445275278241e-06
2.1660468310750753e-06   -1.3985976035099743e-06   -5.935445275278241e-06
2.1660468310750753e-06   -1.3985976035099743e-06   -5.935445275278241e-06
2.1660468310750753e-06   -1.3985976035099743e-06   -5.935445275278241e-06
-5.209249304076083e-06   -4.209116413770794e-06   8.043026236130121e-06
-5.209249304076083e-06   -4.209116413770794e-06   8.043026236130121e-06
-5.209249304076083e-06   -4.209116413770794e-06   8.043026236130121e-06
-5.209249304076083e-06   -4.209116413770794e-06   8.043026236130121e-06
-1.0841884166175001e-05   -9.590790267009445e-06   2.0929528177701814e-05
-1.0841884166175001e-05   -9.590790267009445e-06   2.0929528177701814e-05
-1.0841884166175001e-05   -9.590790267009445e-06   2.0929528177701814e-05
-1.0841884166175001e-05   -9.590790267009445e-06   2.0929528177701814e-05
-2.7818680567052702e-05   1.463977575595285e-06   -7.322717848649374e-07
-2.7818680567052702e-05   1.463977575595285e-06   -7.322717848649374e-07
-2.7818680567052702e-05   1.463977575595285e-06   -7.322717848649374e-07
-2.7818680567052702e-05   1.463977575595285e-06   -7.322717848649374e-07
-2.9269006585630296e-05   -1.07315193618885e-05   2.9532946346662683e-05
-2.9269006585630296e-05   -1.07315193618885e-05   2.9532946346662683e-05
-2.9269006585630296e-05   -1.07315193618885e-05   2.9532946346662683e-05
-2.9269006585630296e-05   -1.07315193618885e-05   2.9532946346662683e-05
-1.20441389213159e-05   1.3868616446674302e-06   -6.4461950311280465e-06
-1.20441389213159e-05   1.3868616446674302e-06   -6.4461950311280465e-06
-1.20441389213159e-05   1.3868616446674302e-06   -6.4461950311280465e-06
-1.20441389213159e-05   1.3868616446674302e-06   -6.4461950311280465e-06
-1.9717631790034186e-05   -3.9300107455050425e-06   9.533083184172568e-06
-1.9717631790034186e-05   -3.9300107455050425e-06   9.533083184172568e-06
-1.9717631790034186e-05   -3.9300107455050425e-06   9.533083184172568e-06
-1.9717631790034186e-05   -3.9300107455050425e-06   9.533083184172568e-06
-1.20441389213159e-05   -1.0731519361888432e-05   2.2261917742729125e-05
-1.20441389213159e-05   -1.0731519361888432e-05   2.2261917742729125e-05
-1.20441389213159e-05   -1.0731519361888432e-05   2.2261917742729125e-05
-1.20441389213159e-05   -1.0731519361888432e-05   2.2261917742729125e-05
-2.9269006585630255e-05   1.3868616446674302e-06   8.248335728053627e-07
-2.9269006585630255e-05   1.3868616446674302e-06   8.248335728053627e-07
-2.9269006585630255e-05   1.3868616446674302e-06   8.248335728053627e-07
-2.9269006585630255e-05   1.3868616446674302e-06   8.248335728053627e-07
-3.0151882742015318e-05   -1.0785976380596517e-05   3.119350762220089e-05
-3.0151882742015318e-05   -1.0785976380596517e-05   3.119350762220089e-05
-3.0151882742015318e-05   -1.0785976380596517e-05   3.119350762220089e-05
-3.0151882742015318e-05   -1.0785976380596517e-05   3.119350762220089e-05
-1.2780465755860418e-05   1.2375694359446476e-06   -4.9729815113152225e-06
-1.2780465755860418e-05   1.2375694359446476e-06   -4.9729815113152225e-06
-1.2780465755860418e-05   1.2375694359446476e-06   -4.9729815113152225e-06
-1.2780465755860418e-05   1.2375694359446476e-06   -4.9729815113152225e-06
-2.0656009626678503e-05   -4.543537429980158e-06   1.1621589059603114e-05
-2.0656009626678503e-05   -4.543537429980158e-06   1.1621589059603114e-05
-2.0656009626678503e-05   -4.543537429980158e-06   1.1621589059603114e-05
-2.0656009626678503e-05   -4.543537429980158e-06   1.1621589059603114e-05
-1.2780465755860416e-05   -1.078597638059645e-05   2.397938013227617e-05
-1.2780465755860416e-05   -1.078597638059645e-05   2.397938013227617e-05
-1.2780465755860416e-05   -1.078597638059645e-05   2.397938013227617e-05
-1.2780465755860416e-05   -1.078597638059645e-05   2.397938013227617e-05
-3.015188274201527e-05   1.2375694359446476e-06   2.241145978609349e-06
-3.015188274201527e-05   1.2375694359446476e-06   2.241145978609349e-06
-3.015188274201527e-05   1.2375694359446476e-06   2.241145978609349e-06
-3.015188274201527e-05   1.2375694359446476e-06   2.241145978609349e-06
-3.110442696222048e-05   -9.811098195300393e-06   3.189902753396236e-05
-3.110442696222048e-05   -9.811098195300393e-06   3.189902753396236e-05
-3.110442696222048e-05   -9.811098195300393e-06   3.189902753396236e-05
-3.110442696222048e-05   -9.811098195300393e-06   3.189902753396236e-05
-1.3644704911831809e-05   1.0676101801334117e-06   -3.7277342419455504e-06
-1.3644704911831809e-05   1.0676101801334117e-06   -3.7277342419455504e-06
-1.3644704911831809e-05   1.0676101801334117e-06   -3.7277342419455504e-06
-1.3644704911831809e-05   1.0676101801334117e-06   -3.7277342419455504e-06
-2.1627406474107467e-05   -4.573941911356974e-06   1.2961699616741439e-05
-2.1627406474107467e-05   -4.573941911356974e-06   1.2961699616741439e-05
-2.1627406474107467e-05   -4.573941911356974e-06   1.2961699616741439e-05
-2.1627406474107467e-05   -4.573941911356974e-06   1.2961699616741439e-05
-2.781868056705262e-05   -3.6429192995512885e-20   2.3098719339151113e-05
-2.781868056705262e-05   -3.6429192995512885e-20   2.3098719339151113e-05
-2.781868056705262e-05   -3.6429192995512885e-20   2.3098719339151113e-05
-2.781868056705262e-05   -3.6429192995512885e-20   2.3098719339151113e-05
-4.8862329079921076e-05   6.422053690122512e-06   -8.12079596822278e-06
-4.8862329079921076e-05   6.422053690122512e-06   -8.12079596822278e-06
-4.8862329079921076e-05   6.422053690122512e-06   -8.12079596822278e-06
-4.8862329079921076e-05   6.422053690122512e-06   -8.12079596822278e-06
-5.085192704468878e-05   0.0   3.368410371928324e-05
-5.085192704468878e-05   0.0   3.368410371928324e-05
-5.085192704468878e-05   0.0   3.368410371928324e-05
-5.085192704468878e-05   0.0   3.368410371928324e-05
-2.9269006585630252e-05   6.210938293584305e-06   -6.013993355298271e-06
-2.9269006585630252e-05   6.210938293584305e-06   -6.013993355298271e-06
-2.9269006585630252e-05   6.210938293584305e-06   -6.013993355298271e-06
-2.9269006585630252e-05   6.210938293584305e-06   -6.013993355298271e-06
-3.753101103782723e-05   3.8092292944337178e-06   9.19703946452037e-06
-3.753101103782723e-05   3.8092292944337178e-06   9.19703946452037e-06
-3.753101103782723e-05   3.8092292944337178e-06   9.19703946452037e-06
-3.753101103782723e-05   3.8092292944337178e-06   9.19703946452037e-06
-2.9269006585630228e-05   6.765421556309549e-20   2.9957540743132723e-05
-2.9269006585630228e-05   6.765421556309549e-20   2.9957540743132723e-05
-2.9269006585630228e-05   6.765421556309549e-20   2.9957540743132723e-05
-2.9269006585630228e-05   6.765421556309549e-20   2.9957540743132723e-05
-5.085192704468887e-05   6.210938293584305e-06   -2.2874303791476985e-06
-5.085192704468887e-05   6.210938293584305e-06   -2.2874303791476985e-06
-5.085192704468887e-05   6.210938293584305e-06   -2.2874303791476985e-06
-5.085192704468887e-05   6.210938293584305e-06   -2.2874303791476985e-06
-5.1852654999859395e-05   0.0   3.7435333470575206e-05
-5.1852654999859395e-05   0.0   3.7435333470575206e-05
-5.1852654999859395e-05   0.0   3.7435333470575206e-05
-5.1852654999859395e-05   0.0   3.7435333470575206e-05
-3.015188274201527e-05   6.0563489341337005e-06   -2.3664296529786927e-06
-3.015188274201527e-05   6.0563489341337005e-06   -2.3664296529786927e-06
-3.015188274201527e-05   6.0563489341337005e-06   -2.3664296529786927e-06
-3.015188274201527e-05   6.0563489341337005e-06   -2.3664296529786927e-06
-3.946380296033051e-05   3.1841944050511276e-06   1.4876730094996624e-05
-3.946380296033051e-05   3.1841944050511276e-06   1.4876730094996624e-05
-3.946380296033051e-05   3.1841944050511276e-06   1.4876730094996624e-05
-3.946380296033051e-05   3.1841944050511276e-06   1.4876730094996624e-05
-3.015188274201527e-05   6.765421556309549e-20   3.380152411009503e-05
-3.015188274201527e-05   6.765421556309549e-20   3.380152411009503e-05
-3.015188274201527e-05   6.765421556309549e-20   3.380152411009503e-05
-3.015188274201527e-05   6.765421556309549e-20   3.380152411009503e-05
-5.1852654999859477e-05   6.0563489341337005e-06   1.2673797075016605e-06
-5.1852654999859477e-05   6.0563489341337005e-06   1.2673797075016605e-06
-5.1852654999859477e-05   6.0563489341337005e-06   1.2673797075016605e-06
-5.1852654999859477e-05   6.0563489341337005e-06   1.2673797075016605e-06
-5.296205991686346e-05   0.0   4.2434933241703473e-05
-5.296205991686346e-05   0.0   4.2434933241703473e-05
-5.296205991686346e-05   0.0   4.2434933241703473e-05
-5.296205991686346e-05   0.0   4.2434933241703473e-05
-3.1104426962220454e-05   5.063283090706288e-06   2.9675751295410923e-06
-3.1104426962220454e-05   5.063283090706288e-06   2.9675751295410923e-06
-3.1104426962220454e-05   5.063283090706288e-06   2.9675751295410923e-06
-3.1104426962220454e-05   5.063283090706288e-06   2.9675751295410923e-06
-3.9774955634879574e-05   2.2444640136742595e-06   1.9109747696858674e-05
-3.9774955634879574e-05   2.2444640136742595e-06   1.9109747696858674e-05
-3.9774955634879574e-05   2.2444640136742595e-06   1.9109747696858674e-05
-3.9774955634879574e-05   2.2444640136742595e-06   1.9109747696858674e-05
3.3475132073886963e-05   -5.024777672501649e-06   2.3680328723113607e-05
3.3475132073886963e-05   -5.024777672501649e-06   2.3680328723113607e-05
3.3475132073886963e-05   -5.024777672501649e-06   2.3680328723113607e-05
3.3475132073886963e-05   -5.024777672501649e-06   2.3680328723113607e-05
1.6909990172658408e-05   -3.8080833179392464e-06   -3.198224499529798e-06
1.6909990172658408e-05   -3.8080833179392464e-06   -3.198224499529798e-06
1.6909990172658408e-05   -3.8080833179392464e-06   -3.198224499529798e-06
1.6909990172658408e-05   -3.8080833179392464e-06   -3.198224499529798e-06
1.6469436179521268e-05   -5.520372217627991e-06   2.065094338569019e-05
1.6469436179521268e-05   -5.520372217627991e-06   2.065094338569019e-05
1.6469436179521268e-05   -5.520372217627991e-06   2.065094338569019e-05
1.6469436179521268e-05   -5.520372217627991e-06   2.065094338569019e-05
3.269107841555334e-05   -4.3111019482973585e-06   -7.110689169294892e-06
3.269107841555334e-05   -4.3111019482973585e-06   -7.110689169294892e-06
3.269107841555334e-05   -4.3111019482973585e-06   -7.110689169294892e-06
3.269107841555334e-05   -4.3111019482973585e-06   -7.110689169294892e-06
2.3778515975532606e-05   -4.481040084107664e-06   7.84554444555925e-06
2.3778515975532606e-05   -4.481040084107664e-06   7.84554444555925e-06
2.3778515975532606e-05   -4.481040084107664e-06   7.84554444555925e-06
2.3778515975532606e-05   -4.481040084107664e-06   7.84554444555925e-06
3.269107841555328e-05   -5.520372217628059e-06   1.9925381224091855e-05
3.269107841555328e-05   -5.520372217628059e-06   1.9925381224091855e-05
3.269107841555328e-05   -5.520372217628059e-06   1.9925381224091855e-05
3.269107841555328e-05   -5.520372217628059e-06   1.9925381224091855e-05
1.6469436179521295e-05   -4.3111019482973585e-06   -6.385127007696488e-06
1.6469436179521295e-05   -4.3111019482973585e-06   -6.385127007696488e-06
1.6469436179521295e-05   -4.3111019482973585e-06   -6.385127007696488e-06
1.6469436179521295e-05   -4.3111019482973585e-06   -6.385127007696488e-06
1.590186683118216e-05   -5.564270776681462e-06   1.852472102673757e-05
1.590186683118216e-05   -5.564270776681462e-06   1.852472102673757e-05
1.590186683118216e-05   -5.564270776681462e-06   1.852472102673757e-05
1.590186683118216e-05   -5.564270776681462e-06   1.852472102673757e-05
3.1896946286508876e-05   -4.384689675673414e-06   -8.841493392745116e-06
3.1896946286508876e-05   -4.384689675673414e-06   -8.841493392745116e-06
3.1896946286508876e-05   -4.384689675673414e-06   -8.841493392745116e-06
3.1896946286508876e-05   -4.384689675673414e-06   -8.841493392745116e-06
2.3564238882209247e-05   -4.675555713954229e-06   5.220871904056029e-06
2.3564238882209247e-05   -4.675555713954229e-06   5.220871904056029e-06
2.3564238882209247e-05   -4.675555713954229e-06   5.220871904056029e-06
2.3564238882209247e-05   -4.675555713954229e-06   5.220871904056029e-06
3.1896946286508876e-05   -5.56427077668139e-06   1.7816972366132633e-05
3.1896946286508876e-05   -5.56427077668139e-06   1.7816972366132633e-05
3.1896946286508876e-05   -5.56427077668139e-06   1.7816972366132633e-05
3.1896946286508876e-05   -5.56427077668139e-06   1.7816972366132633e-05
1.590186683118216e-05   -4.384689675673414e-06   -8.133744732140443e-06
1.590186683118216e-05   -4.384689675673414e-06   -8.133744732140443e-06
1.590186683118216e-05   -4.384689675673414e-06   -8.133744732140443e-06
1.590186683118216e-05   -4.384689675673414e-06   -8.133744732140443e-06
1.5305954153295467e-05   -5.442370951689755e-06   1.536638021927886e-05
1.5305954153295467e-05   -5.442370951689755e-06   1.536638021927886e-05
1.5305954153295467e-05   -5.442370951689755e-06   1.536638021927886e-05
1.5305954153295467e-05   -5.442370951689755e-06   1.536638021927886e-05
3.090250413582227e-05   -4.3517079116779395e-06   -1.1282267575606066e-05
3.090250413582227e-05   -4.3517079116779395e-06   -1.1282267575606066e-05
3.090250413582227e-05   -4.3517079116779395e-06   -1.1282267575606066e-05
3.090250413582227e-05   -4.3517079116779395e-06   -1.1282267575606066e-05
2.252358368178117e-05   -4.551407269560298e-06   2.802419462525496e-06
2.252358368178117e-05   -4.551407269560298e-06   2.802419462525496e-06
2.252358368178117e-05   -4.551407269560298e-06   2.802419462525496e-06
2.252358368178117e-05   -4.551407269560298e-06   2.802419462525496e-06
1.6909990172658408e-05   -3.0812536775702967e-06   2.233333947491761e-05
1.6909990172658408e-05   -3.0812536775702967e-06   2.233333947491761e-05
1.6909990172658408e-05   -3.0812536775702967e-06   2.233333947491761e-05
1.6909990172658408e-05   -3.0812536775702967e-06   2.233333947491761e-05
1.8046612914568948e-06   -1.3372408866594871e-06   -1.795800985871887e-06
1.8046612914568948e-06   -1.3372408866594871e-06   -1.795800985871887e-06
1.8046612914568948e-06   -1.3372408866594871e-06   -1.795800985871887e-06
1.8046612914568948e-06   -1.3372408866594871e-06   -1.795800985871887e-06
1.366442915552108e-06   -3.2663108931200915e-06   2.325427375239413e-05
1.366442915552108e-06   -3.2663108931200915e-06   2.325427375239413e-05
1.366442915552108e-06   -3.2663108931200915e-06   2.325427375239413e-05
1.366442915552108e-06   -3.2663108931200915e-06   2.325427375239413e-05
1.6469436179521295e-05   -1.6063933429852698e-06   -2.913332217635445e-06
1.6469436179521295e-05   -1.6063933429852698e-06   -2.913332217635445e-06
1.6469436179521295e-05   -1.6063933429852698e-06   -2.913332217635445e-06
1.6469436179521295e-05   -1.6063933429852698e-06   -2.913332217635445e-06
9.049764102200655e-06   -2.160635826602055e-06   9.785333401402327e-06
9.049764102200655e-06   -2.160635826602055e-06   9.785333401402327e-06
9.049764102200655e-06   -2.160635826602055e-06   9.785333401402327e-06
9.049764102200655e-06   -2.160635826602055e-06   9.785333401402327e-06
1.646943617952128e-05   -3.2663108931201143e-06   2.2258323222313216e-05
1.646943617952128e-05   -3.2663108931201143e-06   2.2258323222313216e-05
1.646943617952128e-05   -3.2663108931201143e-06   2.2258323222313216e-05
1.646943617952128e-05   -3.2663108931201143e-06   2.2258323222313216e-05
1.366442915552108e-06   -1.6063933429852698e-06   -1.9173816875544354e-06
1.366442915552108e-06   -1.6063933429852698e-06   -1.9173816875544354e-06
1.366442915552108e-06   -1.6063933429852698e-06   -1.9173816875544354e-06
1.366442915552108e-06   -1.6063933429852698e-06   -1.9173816875544354e-06
8.076657632621003e-07   -3.346319002695995e-06   2.3026848461153e-05
8.076657632621003e-07   -3.346319002695995e-06   2.3026848461153e-05
8.076657632621003e-07   -3.346319002695995e-06   2.3026848461153e-05
8.076657632621003e-07   -3.346319002695995e-06   2.3026848461153e-05
1.590186683118216e-05   -1.781295658595224e-06   -3.06916732517434e-06
1.590186683118216e-05   -1.781295658595224e-06   -3.06916732517434e-06
1.590186683118216e-05   -1.781295658595224e-06   -3.06916732517434e-06
1.590186683118216e-05   -1.781295658595224e-06   -3.06916732517434e-06
8.49303730763285e-06   -2.2616726273224762e-06   9.567108061977943e-06
8.49303730763285e-06   -2.2616726273224762e-06   9.567108061977943e-06
8.49303730763285e-06   -2.2616726273224762e-06   9.567108061977943e-06
8.49303730763285e-06   -2.2616726273224762e-06   9.567108061977943e-06
1.590186683118214e-05   -3.3463190026962227e-06   2.2087834454692363e-05
1.590186683118214e-05   -3.3463190026962227e-06   2.2087834454692363e-05
1.590186683118214e-05   -3.3463190026962227e-06   2.2087834454692363e-05
1.590186683118214e-05   -3.3463190026962227e-06   2.2087834454692363e-05
8.076657632621003e-07   -1.781295658595224e-06   -2.13015331871388e-06
8.076657632621003e-07   -1.781295658595224e-06   -2.13015331871388e-06
8.076657632621003e-07   -1.781295658595224e-06   -2.13015331871388e-06
8.076657632621003e-07   -1.781295658595224e-06   -2.13015331871388e-06
1.9046265651052473e-07   -3.2668038137330553e-06   2.3356473398904913e-05
1.9046265651052473e-07   -3.2668038137330553e-06   2.3356473398904913e-05
1.9046265651052473e-07   -3.2668038137330553e-06   2.3356473398904913e-05
1.9046265651052473e-07   -3.2668038137330553e-06   2.3356473398904913e-05
1.5305954153295453e-05   -1.8539067699846305e-06   -2.683750655319033e-06
1.5305954153295453e-05   -1.8539067699846305e-06   -2.683750655319033e-06
1.5305954153295453e-05   -1.8539067699846305e-06   -2.683750655319033e-06
1.5305954153295453e-05   -1.8539067699846305e-06   -2.683750655319033e-06
8.042070663351911e-06   -2.2379898422192433e-06   9.653171671261256e-06
8.042070663351911e-06   -2.2379898422192433e-06   9.653171671261256e-06
8.042070663351911e-06   -2.2379898422192433e-06   9.653171671261256e-06
8.042070663351911e-06   -2.2379898422192433e-06   9.653171671261256e-06
1.8046612914568948e-06   -1.2560333479232122e-06   2.281767653271381e-05
1.8046612914568948e-06   -1.2560333479232122e-06   2.281767653271381e-05
1.8046612914568948e-06   -1.2560333479232122e-06   2.281767653271381e-05
1.8046612914568948e-06   -1.2560333479232122e-06   2.281767653271381e-05
-1.2833855178583401e-05   1.2024107957011188e-06   -1.0478443117866148e-07
-1.2833855178583401e-05   1.2024107957011188e-06   -1.0478443117866148e-07
-1.2833855178583401e-05   1.2024107957011188e-06   -1.0478443117866148e-07
-1.2833855178583401e-05   1.2024107957011188e-06   -1.0478443117866148e-07
-1.332783958925328e-05   -1.3250432556372906e-06   2.4462096474585533e-05
-1.332783958925328e-05   -1.3250432556372906e-06   2.4462096474585533e-05
-1.332783958925328e-05   -1.3250432556372906e-06   2.4462096474585533e-05
-1.332783958925328e-05   -1.3250432556372906e-06   2.4462096474585533e-05
1.3664429155521025e-06   9.985283010462403e-07   -1.42251730076688e-06
1.3664429155521025e-06   9.985283010462403e-07   -1.42251730076688e-06
1.3664429155521025e-06   9.985283010462403e-07   -1.42251730076688e-06
1.3664429155521025e-06   9.985283010462403e-07   -1.42251730076688e-06
-5.737316469323375e-06   1.2387539849575621e-08   1.1008766130743712e-05
-5.737316469323375e-06   1.2387539849575621e-08   1.1008766130743712e-05
-5.737316469323375e-06   1.2387539849575621e-08   1.1008766130743712e-05
-5.737316469323375e-06   1.2387539849575621e-08   1.1008766130743712e-05
1.366442915552108e-06   -1.325043255637227e-06   2.306795354057548e-05
1.366442915552108e-06   -1.325043255637227e-06   2.306795354057548e-05
1.366442915552108e-06   -1.325043255637227e-06   2.306795354057548e-05
1.366442915552108e-06   -1.325043255637227e-06   2.306795354057548e-05
-1.332783958925328e-05   9.985283010462403e-07   -2.8374366756785813e-08
-1.332783958925328e-05   9.985283010462403e-07   -2.8374366756785813e-08
-1.332783958925328e-05   9.985283010462403e-07   -2.8374366756785813e-08
-1.332783958925328e-05   9.985283010462403e-07   -2.8374366756785813e-08
-1.3988687494045771e-05   -1.4101832325121456e-06   2.494665991297179e-05
-1.3988687494045771e-05   -1.4101832325121456e-06   2.494665991297179e-05
-1.3988687494045771e-05   -1.4101832325121456e-06   2.494665991297179e-05
-1.3988687494045771e-05   -1.4101832325121456e-06   2.494665991297179e-05
8.076657632621036e-07   8.087543293653927e-07   -1.045291386334577e-06
8.076657632621036e-07   8.087543293653927e-07   -1.045291386334577e-06
8.076657632621036e-07   8.087543293653927e-07   -1.045291386334577e-06
8.076657632621036e-07   8.087543293653927e-07   -1.045291386334577e-06
-6.224205215052399e-06   -4.346091761779289e-08   1.118582272571287e-05
-6.224205215052399e-06   -4.346091761779289e-08   1.118582272571287e-05
-6.224205215052399e-06   -4.346091761779289e-08   1.118582272571287e-05
-6.224205215052399e-06   -4.346091761779289e-08   1.118582272571287e-05
8.076657632621003e-07   -1.4101832325121873e-06   2.3615297375845245e-05
8.076657632621003e-07   -1.4101832325121873e-06   2.3615297375845245e-05
8.076657632621003e-07   -1.4101832325121873e-06   2.3615297375845245e-05
8.076657632621003e-07   -1.4101832325121873e-06   2.3615297375845245e-05
-1.3988687494045771e-05   8.087543293653927e-07   2.860711507919134e-07
-1.3988687494045771e-05   8.087543293653927e-07   2.860711507919134e-07
-1.3988687494045771e-05   8.087543293653927e-07   2.860711507919134e-07
-1.3988687494045771e-05   8.087543293653927e-07   2.860711507919134e-07
-1.4692737442983375e-05   -1.3985976035099743e-06   2.5527814670492756e-05
-1.4692737442983375e-05   -1.3985976035099743e-06   2.5527814670492756e-05
-1.4692737442983375e-05   -1.3985976035099743e-06   2.5527814670492756e-05
-1.4692737442983375e-05   -1.3985976035099743e-06   2.5527814670492756e-05
1.9046265651052446e-07   6.7258833125498e-07   -5.20230389522525e-07
1.9046265651052446e-07   6.7258833125498e-07   -5.20230389522525e-07
1.9046265651052446e-07   6.7258833125498e-07   -5.20230389522525e-07
1.9046265651052446e-07   6.7258833125498e-07   -5.20230389522525e-07
-6.844575681544042e-06   -8.273755668368639e-08   1.1658029039998477e-05
-6.844575681544042e-06   -8.273755668368639e-08   1.1658029039998477e-05
-6.844575681544042e-06   -8.273755668368639e-08   1.1658029039998477e-05
-6.844575681544042e-06   -8.273755668368639e-08   1.1658029039998477e-05
-1.283385517858336e-05   1.4639775755952678e-06   2.06450203008359e-05
-1.283385517858336e-05   1.4639775755952678e-06   2.06450203008359e-05
-1.283385517858336e-05   1.4639775755952678e-06   2.06450203008359e-05
-1.283385517858336e-05   1.4639775755952678e-06   2.06450203008359e-05
-2.719110264981625e-05   3.898869788613755e-06   -1.8227901567411005e-06
-2.719110264981625e-05   3.898869788613755e-06   -1.8227901567411005e-06
-2.719110264981625e-05   3.898869788613755e-06   -1.8227901567411005e-06
-2.719110264981625e-05   3.898869788613755e-06   -1.8227901567411005e-06
-2.790754906773632e-05   1.3868616446674302e-06   2.2831333868529027e-05
-2.790754906773632e-05   1.3868616446674302e-06   2.2831333868529027e-05
-2.790754906773632e-05   1.3868616446674302e-06   2.2831333868529027e-05
-2.790754906773632e-05   1.3868616446674302e-06   2.2831333868529027e-05
-1.3327839589253262e-05   3.6956547503532843e-06   -2.8534577923542716e-06
-1.3327839589253262e-05   3.6956547503532843e-06   -2.8534577923542716e-06
-1.3327839589253262e-05   3.6956547503532843e-06   -2.8534577923542716e-06
-1.3327839589253262e-05   3.6956547503532843e-06   -2.8534577923542716e-06
-2.01569241690097e-05   2.6535199327917293e-06   9.153630731110026e-06
-2.01569241690097e-05   2.6535199327917293e-06   9.153630731110026e-06
-2.01569241690097e-05   2.6535199327917293e-06   9.153630731110026e-06
-2.01569241690097e-05   2.6535199327917293e-06   9.153630731110026e-06
-1.332783958925328e-05   1.3868616446674654e-06   2.144605800511747e-05
-1.332783958925328e-05   1.3868616446674654e-06   2.144605800511747e-05
-1.332783958925328e-05   1.3868616446674654e-06   2.144605800511747e-05
-1.332783958925328e-05   1.3868616446674654e-06   2.144605800511747e-05
-2.7907549067736267e-05   3.6956547503532843e-06   -1.4681819289426344e-06
-2.7907549067736267e-05   3.6956547503532843e-06   -1.4681819289426344e-06
-2.7907549067736267e-05   3.6956547503532843e-06   -1.4681819289426344e-06
-2.7907549067736267e-05   3.6956547503532843e-06   -1.4681819289426344e-06
-2.878659044613795e-05   1.2375694359446476e-06   2.4231421089479792e-05
-2.878659044613795e-05   1.2375694359446476e-06   2.4231421089479792e-05
-2.878659044613795e-05   1.2375694359446476e-06   2.4231421089479792e-05
-2.878659044613795e-05   1.2375694359446476e-06   2.4231421089479792e-05
-1.3988687494045773e-05   3.506627346613585e-06   -1.7931852437419644e-06
-1.3988687494045773e-05   3.506627346613585e-06   -1.7931852437419644e-06
-1.3988687494045773e-05   3.506627346613585e-06   -1.7931852437419644e-06
-1.3988687494045773e-05   3.506627346613585e-06   -1.7931852437419644e-06
-2.0688488473628793e-05   2.609111043755776e-06   9.911659503944546e-06
-2.0688488473628793e-05   2.609111043755776e-06   9.911659503944546e-06
-2.0688488473628793e-05   2.609111043755776e-06   9.911659503944546e-06
-2.0688488473628793e-05   2.609111043755776e-06   9.911659503944546e-06
-1.3988687494045771e-05   1.2375694359446488e-06   2.28699863430783e-05
-1.3988687494045771e-05   1.2375694359446488e-06   2.28699863430783e-05
-1.3988687494045771e-05   1.2375694359446488e-06   2.28699863430783e-05
-1.3988687494045771e-05   1.2375694359446488e-06   2.28699863430783e-05
-2.8786590446137897e-05   3.506627346613585e-06   -4.3175049734055313e-07
-2.8786590446137897e-05   3.506627346613585e-06   -4.3175049734055313e-07
-2.8786590446137897e-05   3.506627346613585e-06   -4.3175049734055313e-07
-2.8786590446137897e-05   3.506627346613585e-06   -4.3175049734055313e-07
-2.9715528070530862e-05   1.067610180133195e-06   2.5337766422262303e-05
-2.9715528070530862e-05   1.067610180133195e-06   2.5337766422262303e-05
-2.9715528070530862e-05   1.067610180133195e-06   2.5337766422262303e-05
-2.9715528070530862e-05   1.067610180133195e-06   2.5337766422262303e-05
-1.4692737442983334e-05   3.2512790801300043e-06   -1.0104192969815674e-06
-1.4692737442983334e-05   3.2512790801300043e-06   -1.0104192969815674e-06
-1.4692737442983334e-05   3.2512790801300043e-06   -1.0104192969815674e-06
-1.4692737442983334e-05   3.2512790801300043e-06   -1.0104192969815674e-06
-2.158122042947223e-05   2.4566083384259304e-06   1.0947188125522703e-05
-2.158122042947223e-05   2.4566083384259304e-06   1.0947188125522703e-05
-2.158122042947223e-05   2.4566083384259304e-06   1.0947188125522703e-05
-2.158122042947223e-05   2.4566083384259304e-06   1.0947188125522703e-05
-2.719110264981625e-05   6.422053690122601e-06   1.0864199231215479e-05
-2.719110264981625e-05   6.422053690122601e-06   1.0864199231215479e-05
-2.719110264981625e-05   6.422053690122601e-06   1.0864199231215479e-05
-2.719110264981625e-05   6.422053690122601e-06   1.0864199231215479e-05
-4.096132466437701e-05   6.3408768921555374e-06   -1.2134876871832648e-05
-4.096132466437701e-05   6.3408768921555374e-06   -1.2134876871832648e-05
-4.096132466437701e-05   6.3408768921555374e-06   -1.2134876871832648e-05
-4.096132466437701e-05   6.3408768921555374e-06   -1.2134876871832648e-05
-4.2249157029273314e-05   6.2109382935840885e-06   1.6146740361069846e-05
-4.2249157029273314e-05   6.2109382935840885e-06   1.6146740361069846e-05
-4.2249157029273314e-05   6.2109382935840885e-06   1.6146740361069846e-05
-4.2249157029273314e-05   6.2109382935840885e-06   1.6146740361069846e-05
-2.7907549067736263e-05   6.467993994658736e-06   -7.910172995469943e-06
-2.7907549067736263e-05   6.467993994658736e-06   -7.910172995469943e-06
-2.7907549067736263e-05   6.467993994658736e-06   -7.910172995469943e-06
-2.7907549067736263e-05   6.467993994658736e-06   -7.910172995469943e-06
-3.318547304459637e-05   6.455678058541869e-06   8.937565276336359e-07
-3.318547304459637e-05   6.455678058541869e-06   8.937565276336359e-07
-3.318547304459637e-05   6.455678058541869e-06   8.937565276336359e-07
-3.318547304459637e-05   6.455678058541869e-06   8.937565276336359e-07
-2.790754906773624e-05   6.210938293584314e-06   1.599250694042523e-05
-2.790754906773624e-05   6.210938293584314e-06   1.599250694042523e-05
-2.790754906773624e-05   6.210938293584314e-06   1.599250694042523e-05
-2.790754906773624e-05   6.210938293584314e-06   1.599250694042523e-05
-4.2249157029273314e-05   6.467993994658736e-06   -7.755939574825301e-06
-4.2249157029273314e-05   6.467993994658736e-06   -7.755939574825301e-06
-4.2249157029273314e-05   6.467993994658736e-06   -7.755939574825301e-06
-4.2249157029273314e-05   6.467993994658736e-06   -7.755939574825301e-06
-4.3511947313871075e-05   6.056348934133917e-06   1.9843953076057927e-05
-4.3511947313871075e-05   6.056348934133917e-06   1.9843953076057927e-05
-4.3511947313871075e-05   6.056348934133917e-06   1.9843953076057927e-05
-4.3511947313871075e-05   6.056348934133917e-06   1.9843953076057927e-05
-2.8786590446137904e-05   6.423194964410911e-06   -4.918415988330529e-06
-2.8786590446137904e-05   6.423194964410911e-06   -4.918415988330529e-06
-2.8786590446137904e-05   6.423194964410911e-06   -4.918415988330529e-06
-2.8786590446137904e-05   6.423194964410911e-06   -4.918415988330529e-06
-3.4671646257782125e-05   6.4595655796043094e-06   4.868187995294267e-06
-3.4671646257782125e-05   6.4595655796043094e-06   4.868187995294267e-06
-3.4671646257782125e-05   6.4595655796043094e-06   4.868187995294267e-06
-3.4671646257782125e-05   6.4595655796043094e-06   4.868187995294267e-06
-2.8786590446137897e-05   6.056348934133786e-06   1.96238454578916e-05
-2.8786590446137897e-05   6.056348934133786e-06   1.96238454578916e-05
-2.8786590446137897e-05   6.056348934133786e-06   1.96238454578916e-05
-2.8786590446137897e-05   6.056348934133786e-06   1.96238454578916e-05
-4.3511947313871157e-05   6.423194964410911e-06   -4.698308370164176e-06
-4.3511947313871157e-05   6.423194964410911e-06   -4.698308370164176e-06
-4.3511947313871157e-05   6.423194964410911e-06   -4.698308370164176e-06
-4.3511947313871157e-05   6.423194964410911e-06   -4.698308370164176e-06
-4.500214356626241e-05   5.063283090706505e-06   2.601895835961643e-05
-4.500214356626241e-05   5.063283090706505e-06   2.601895835961643e-05
-4.500214356626241e-05   5.063283090706505e-06   2.601895835961643e-05
-4.500214356626241e-05   5.063283090706505e-06   2.601895835961643e-05
-2.9715528070530824e-05   5.918462409252971e-06   2.8158275602429682e-08
-2.9715528070530824e-05   5.918462409252971e-06   2.8158275602429682e-08
-2.9715528070530824e-05   5.918462409252971e-06   2.8158275602429682e-08
-2.9715528070530824e-05   5.918462409252971e-06   2.8158275602429682e-08
-3.519078166003983e-05   6.156895246745876e-06   9.010521222288471e-06
-3.519078166003983e-05   6.156895246745876e-06   9.010521222288471e-06
-3.519078166003983e-05   6.156895246745876e-06   9.010521222288471e-06
-3.519078166003983e-05   6.156895246745876e-06   9.010521222288471e-06
2.725639353709078e-05   -3.8080833179392155e-06   2.094437223102558e-05
2.725639353709078e-05   -3.8080833179392155e-06   2.094437223102558e-05
2.725639353709078e-05   -3.8080833179392155e-06   2.094437223102558e-05
2.725639353709078e-05   -3.8080833179392155e-06   2.094437223102558e-05
1.3477896889465335e-05   -2.806206289350131e-06   -1.4186626311965414e-06
1.3477896889465335e-05   -2.806206289350131e-06   -1.4186626311965414e-06
1.3477896889465335e-05   -2.806206289350131e-06   -1.4186626311965414e-06
1.3477896889465335e-05   -2.806206289350131e-06   -1.4186626311965414e-06
1.2970106605992208e-05   -4.3111019482973585e-06   1.819997441659157e-05
1.2970106605992208e-05   -4.3111019482973585e-06   1.819997441659157e-05
1.2970106605992208e-05   -4.3111019482973585e-06   1.819997441659157e-05
1.2970106605992208e-05   -4.3111019482973585e-06   1.819997441659157e-05
2.6323301232501886e-05   -3.251569045587899e-06   -4.691069702550226e-06
2.6323301232501886e-05   -3.251569045587899e-06   -4.691069702550226e-06
2.6323301232501886e-05   -3.251569045587899e-06   -4.691069702550226e-06
2.6323301232501886e-05   -3.251569045587899e-06   -4.691069702550226e-06
1.909123175296821e-05   -3.5076510379987175e-06   7.516028625452351e-06
1.909123175296821e-05   -3.5076510379987175e-06   7.516028625452351e-06
1.909123175296821e-05   -3.5076510379987175e-06   7.516028625452351e-06
1.909123175296821e-05   -3.5076510379987175e-06   7.516028625452351e-06
2.6323301232501842e-05   -4.311101948297438e-06   1.7564254674965764e-05
2.6323301232501842e-05   -4.311101948297438e-06   1.7564254674965764e-05
2.6323301232501842e-05   -4.311101948297438e-06   1.7564254674965764e-05
2.6323301232501842e-05   -4.311101948297438e-06   1.7564254674965764e-05
1.2970106605992256e-05   -3.251569045587899e-06   -4.055349960924485e-06
1.2970106605992256e-05   -3.251569045587899e-06   -4.055349960924485e-06
1.2970106605992256e-05   -3.251569045587899e-06   -4.055349960924485e-06
1.2970106605992256e-05   -3.251569045587899e-06   -4.055349960924485e-06
1.2405375805446303e-05   -4.384689675673414e-06   1.6301816421947007e-05
1.2405375805446303e-05   -4.384689675673414e-06   1.6301816421947007e-05
1.2405375805446303e-05   -4.384689675673414e-06   1.6301816421947007e-05
1.2405375805446303e-05   -4.384689675673414e-06   1.6301816421947007e-05
2.5477357168811505e-05   -3.3402413481826553e-06   -6.111488180155994e-06
2.5477357168811505e-05   -3.3402413481826553e-06   -6.111488180155994e-06
2.5477357168811505e-05   -3.3402413481826553e-06   -6.111488180155994e-06
2.5477357168811505e-05   -3.3402413481826553e-06   -6.111488180155994e-06
1.8745386168168275e-05   -3.6806156039294238e-06   5.3126880410306635e-06
1.8745386168168275e-05   -3.6806156039294238e-06   5.3126880410306635e-06
1.8745386168168275e-05   -3.6806156039294238e-06   5.3126880410306635e-06
1.8745386168168275e-05   -3.6806156039294238e-06   5.3126880410306635e-06
2.5477357168811413e-05   -4.3846896756732816e-06   1.567514742545264e-05
2.5477357168811413e-05   -4.3846896756732816e-06   1.567514742545264e-05
2.5477357168811413e-05   -4.3846896756732816e-06   1.567514742545264e-05
2.5477357168811413e-05   -4.3846896756732816e-06   1.567514742545264e-05
1.2405375805446326e-05   -3.3402413481826553e-06   -5.484819183661596e-06
1.2405375805446326e-05   -3.3402413481826553e-06   -5.484819183661596e-06
1.2405375805446326e-05   -3.3402413481826553e-06   -5.484819183661596e-06
1.2405375805446326e-05   -3.3402413481826553e-06   -5.484819183661596e-06
1.1861770450944132e-05   -4.3517079116779395e-06   1.3648209261778047e-05
1.1861770450944132e-05   -4.3517079116779395e-06   1.3648209261778047e-05
1.1861770450944132e-05   -4.3517079116779395e-06   1.3648209261778047e-05
1.1861770450944132e-05   -4.3517079116779395e-06   1.3648209261778047e-05
2.4518312706103743e-05   -3.3720118942969293e-06   -8.03384544058317e-06
2.4518312706103743e-05   -3.3720118942969293e-06   -8.03384544058317e-06
2.4518312706103743e-05   -3.3720118942969293e-06   -8.03384544058317e-06
2.4518312706103743e-05   -3.3720118942969293e-06   -8.03384544058317e-06
1.7790962008156733e-05   -3.6167533697343407e-06   3.3252506079245824e-06
1.7790962008156733e-05   -3.6167533697343407e-06   3.3252506079245824e-06
1.7790962008156733e-05   -3.6167533697343407e-06   3.3252506079245824e-06
1.7790962008156733e-05   -3.6167533697343407e-06   3.3252506079245824e-06
1.3477896889465335e-05   -1.3372408866595299e-06   2.1901514287290657e-05
1.3477896889465335e-05   -1.3372408866595299e-06   2.1901514287290657e-05
1.3477896889465335e-05   -1.3372408866595299e-06   2.1901514287290657e-05
1.3477896889465335e-05   -1.3372408866595299e-06   2.1901514287290657e-05
5.438723403590988e-07   -5.383478685655647e-07   8.241425163034097e-07
5.438723403590988e-07   -5.383478685655647e-07   8.241425163034097e-07
5.438723403590988e-07   -5.383478685655647e-07   8.241425163034097e-07
5.438723403590988e-07   -5.383478685655647e-07   8.241425163034097e-07
5.590249741183062e-08   -1.6063933429854866e-06   2.2123728733180223e-05
5.590249741183062e-08   -1.6063933429854866e-06   2.2123728733180223e-05
5.590249741183062e-08   -1.6063933429854866e-06   2.2123728733180223e-05
5.590249741183062e-08   -1.6063933429854866e-06   2.2123728733180223e-05
1.2970106605992254e-05   -8.531274654393402e-07   1.480956923519163e-07
1.2970106605992254e-05   -8.531274654393402e-07   1.480956923519163e-07
1.2970106605992254e-05   -8.531274654393402e-07   1.480956923519163e-07
1.2970106605992254e-05   -8.531274654393402e-07   1.480956923519163e-07
6.679615060150151e-06   -1.0441810952244949e-06   1.0746880446626462e-05
6.679615060150151e-06   -1.0441810952244949e-06   1.0746880446626462e-05
6.679615060150151e-06   -1.0441810952244949e-06   1.0746880446626462e-05
6.679615060150151e-06   -1.0441810952244949e-06   1.0746880446626462e-05
1.2970106605992246e-05   -1.6063933429853392e-06   2.16717692066526e-05
1.2970106605992246e-05   -1.6063933429853392e-06   2.16717692066526e-05
1.2970106605992246e-05   -1.6063933429853392e-06   2.16717692066526e-05
1.2970106605992246e-05   -1.6063933429853392e-06   2.16717692066526e-05
5.590249741183062e-08   -8.531274654393402e-07   6.000552188796136e-07
5.590249741183062e-08   -8.531274654393402e-07   6.000552188796136e-07
5.590249741183062e-08   -8.531274654393402e-07   6.000552188796136e-07
5.590249741183062e-08   -8.531274654393402e-07   6.000552188796136e-07
-4.513485962278111e-07   -1.781295658595224e-06   2.1783769794930753e-05
-4.513485962278111e-07   -1.781295658595224e-06   2.1783769794930753e-05
-4.513485962278111e-07   -1.781295658595224e-06   2.1783769794930753e-05
-4.513485962278111e-07   -1.781295658595224e-06   2.1783769794930753e-05
1.2405375805446325e-05   -1.0856690485659595e-06   -6.148017387711885e-08
1.2405375805446325e-05   -1.0856690485659595e-06   -6.148017387711885e-08
1.2405375805446325e-05   -1.0856690485659595e-06   -6.148017387711885e-08
1.2405375805446325e-05   -1.0856690485659595e-06   -6.148017387711885e-08
6.1182614391479274e-06   -1.208517439074382e-06   1.0490752804258956e-05
6.1182614391479274e-06   -1.208517439074382e-06   1.0490752804258956e-05
6.1182614391479274e-06   -1.208517439074382e-06   1.0490752804258956e-05
6.1182614391479274e-06   -1.208517439074382e-06   1.0490752804258956e-05
1.2405375805446326e-05   -1.7812956585952377e-06   2.136639382891315e-05
1.2405375805446326e-05   -1.7812956585952377e-06   2.136639382891315e-05
1.2405375805446326e-05   -1.7812956585952377e-06   2.136639382891315e-05
1.2405375805446326e-05   -1.7812956585952377e-06   2.136639382891315e-05
-4.513485962278111e-07   -1.0856690485659595e-06   3.5589579214061196e-07
-4.513485962278111e-07   -1.0856690485659595e-06   3.5589579214061196e-07
-4.513485962278111e-07   -1.0856690485659595e-06   3.5589579214061196e-07
-4.513485962278111e-07   -1.0856690485659595e-06   3.5589579214061196e-07
-9.794467638897842e-07   -1.8539067699846305e-06   2.1944138567021334e-05
-9.794467638897842e-07   -1.8539067699846305e-06   2.1944138567021334e-05
-9.794467638897842e-07   -1.8539067699846305e-06   2.1944138567021334e-05
-9.794467638897842e-07   -1.8539067699846305e-06   2.1944138567021334e-05
1.1861770450944165e-05   -1.2675564217126331e-06   1.9029966666824627e-07
1.1861770450944165e-05   -1.2675564217126331e-06   1.9029966666824627e-07
1.1861770450944165e-05   -1.2675564217126331e-06   1.9029966666824627e-07
1.1861770450944165e-05   -1.2675564217126331e-06   1.9029966666824627e-07
5.69822522585137e-06   -1.2952047799578634e-06   1.0479464056770433e-05
5.69822522585137e-06   -1.2952047799578634e-06   1.0479464056770433e-05
5.69822522585137e-06   -1.2952047799578634e-06   1.0479464056770433e-05
5.69822522585137e-06   -1.2952047799578634e-06   1.0479464056770433e-05
5.438723403590988e-07   1.2024107957011648e-06   2.259680016666551e-05
5.438723403590988e-07   1.2024107957011648e-06   2.259680016666551e-05
5.438723403590988e-07   1.2024107957011648e-06   2.259680016666551e-05
5.438723403590988e-07   1.2024107957011648e-06   2.259680016666551e-05
-1.2015881860254172e-05   1.7349187394117855e-06   1.983381265203109e-06
-1.2015881860254172e-05   1.7349187394117855e-06   1.983381265203109e-06
-1.2015881860254172e-05   1.7349187394117855e-06   1.983381265203109e-06
-1.2015881860254172e-05   1.7349187394117855e-06   1.983381265203109e-06
-1.2526031514475228e-05   9.985283010464571e-07   2.2904160692222247e-05
-1.2526031514475228e-05   9.985283010464571e-07   2.2904160692222247e-05
-1.2526031514475228e-05   9.985283010464571e-07   2.2904160692222247e-05
-1.2526031514475228e-05   9.985283010464571e-07   2.2904160692222247e-05
5.59024974118352e-08   1.4744742548040545e-06   1.648703100156013e-06
5.59024974118352e-08   1.4744742548040545e-06   1.648703100156013e-06
5.59024974118352e-08   1.4744742548040545e-06   1.648703100156013e-06
5.59024974118352e-08   1.4744742548040545e-06   1.648703100156013e-06
-5.994689924865799e-06   1.3666320358037259e-06   1.1797729135352243e-05
-5.994689924865799e-06   1.3666320358037259e-06   1.1797729135352243e-05
-5.994689924865799e-06   1.3666320358037259e-06   1.1797729135352243e-05
-5.994689924865799e-06   1.3666320358037259e-06   1.1797729135352243e-05
5.590249741183062e-08   9.985283010464791e-07   2.261859311996782e-05
5.590249741183062e-08   9.985283010464791e-07   2.261859311996782e-05
5.590249741183062e-08   9.985283010464791e-07   2.261859311996782e-05
5.590249741183062e-08   9.985283010464791e-07   2.261859311996782e-05
-1.2526031514475228e-05   1.4744742548040545e-06   1.9342706724104685e-06
-1.2526031514475228e-05   1.4744742548040545e-06   1.9342706724104685e-06
-1.2526031514475228e-05   1.4744742548040545e-06   1.9342706724104685e-06
-1.2526031514475228e-05   1.4744742548040545e-06   1.9342706724104685e-06
-1.3064340114229582e-05   8.087543293653927e-07   2.3116369330963816e-05
-1.3064340114229582e-05   8.087543293653927e-07   2.3116369330963816e-05
-1.3064340114229582e-05   8.087543293653927e-07   2.3116369330963816e-05
-1.3064340114229582e-05   8.087543293653927e-07   2.3116369330963816e-05
-4.5134859622781027e-07   1.2216503354552273e-06   1.8469791973070555e-06
-4.5134859622781027e-07   1.2216503354552273e-06   1.8469791973070555e-06
-4.5134859622781027e-07   1.2216503354552273e-06   1.8469791973070555e-06
-4.5134859622781027e-07   1.2216503354552273e-06   1.8469791973070555e-06
-6.468337110465678e-06   1.2187834411937423e-06   1.1877013524260347e-05
-6.468337110465678e-06   1.2187834411937423e-06   1.1877013524260347e-05
-6.468337110465678e-06   1.2187834411937423e-06   1.1877013524260347e-05
-6.468337110465678e-06   1.2187834411937423e-06   1.1877013524260347e-05
-4.513485962278111e-07   8.087543293653813e-07   2.286863172731e-05
-4.513485962278111e-07   8.087543293653813e-07   2.286863172731e-05
-4.513485962278111e-07   8.087543293653813e-07   2.286863172731e-05
-4.513485962278111e-07   8.087543293653813e-07   2.286863172731e-05
-1.3064340114229582e-05   1.2216503354552273e-06   2.094716800960829e-06
-1.3064340114229582e-05   1.2216503354552273e-06   2.094716800960829e-06
-1.3064340114229582e-05   1.2216503354552273e-06   2.094716800960829e-06
-1.3064340114229582e-05   1.2216503354552273e-06   2.094716800960829e-06
-1.3619603476903926e-05   6.7258833125498e-07   2.3454387972305767e-05
-1.3619603476903926e-05   6.7258833125498e-07   2.3454387972305767e-05
-1.3619603476903926e-05   6.7258833125498e-07   2.3454387972305767e-05
-1.3619603476903926e-05   6.7258833125498e-07   2.3454387972305767e-05
-9.79446763889789e-07   9.967006074833393e-07   2.192992751545272e-06
-9.79446763889789e-07   9.967006074833393e-07   2.192992751545272e-06
-9.79446763889789e-07   9.967006074833393e-07   2.192992751545272e-06
-9.79446763889789e-07   9.967006074833393e-07   2.192992751545272e-06
-6.9809392993423e-06   1.077310597741906e-06   1.2147114316478068e-05
-6.9809392993423e-06   1.077310597741906e-06   1.2147114316478068e-05
-6.9809392993423e-06   1.077310597741906e-06   1.2147114316478068e-05
-6.9809392993423e-06   1.077310597741906e-06   1.2147114316478068e-05
-1.2015881860254226e-05   3.898869788613603e-06   1.9737363879518345e-05
-1.2015881860254226e-05   3.898869788613603e-06   1.9737363879518345e-05
-1.2015881860254226e-05   3.898869788613603e-06   1.9737363879518345e-05
-1.2015881860254226e-05   3.898869788613603e-06   1.9737363879518345e-05
-2.4195286684907863e-05   3.948573399376737e-06   -5.31821995113156e-07
-2.4195286684907863e-05   3.948573399376737e-06   -5.31821995113156e-07
-2.4195286684907863e-05   3.948573399376737e-06   -5.31821995113156e-07
-2.4195286684907863e-05   3.948573399376737e-06   -5.31821995113156e-07
-2.4787341521291626e-05   3.695654750353501e-06   2.0082400458543213e-05
-2.4787341521291626e-05   3.695654750353501e-06   2.0082400458543213e-05
-2.4787341521291626e-05   3.695654750353501e-06   2.0082400458543213e-05
-2.4787341521291626e-05   3.695654750353501e-06   2.0082400458543213e-05
-1.2526031514475239e-05   3.7011934035506046e-06   -3.5643941140244104e-07
-1.2526031514475239e-05   3.7011934035506046e-06   -3.5643941140244104e-07
-1.2526031514475239e-05   3.7011934035506046e-06   -3.5643941140244104e-07
-1.2526031514475239e-05   3.7011934035506046e-06   -3.5643941140244104e-07
-1.8299064740247785e-05   3.7999401116567844e-06   9.206034606688249e-06
-1.8299064740247785e-05   3.7999401116567844e-06   9.206034606688249e-06
-1.8299064740247785e-05   3.7999401116567844e-06   9.206034606688249e-06
-1.8299064740247785e-05   3.7999401116567844e-06   9.206034606688249e-06
-1.2526031514475242e-05   3.695654750353423e-06   2.0079077266624843e-05
-1.2526031514475242e-05   3.695654750353423e-06   2.0079077266624843e-05
-1.2526031514475242e-05   3.695654750353423e-06   2.0079077266624843e-05
-1.2526031514475242e-05   3.695654750353423e-06   2.0079077266624843e-05
-2.4787341521291558e-05   3.7011934035506046e-06   -3.5311621948404346e-07
-2.4787341521291558e-05   3.7011934035506046e-06   -3.5311621948404346e-07
-2.4787341521291558e-05   3.7011934035506046e-06   -3.5311621948404346e-07
-2.4787341521291558e-05   3.7011934035506046e-06   -3.5311621948404346e-07
-2.5442788390558937e-05   3.506627346613802e-06   2.1016334895429534e-05
-2.5442788390558937e-05   3.506627346613802e-06   2.1016334895429534e-05
-2.5442788390558937e-05   3.506627346613802e-06   2.1016334895429534e-05
-2.5442788390558937e-05   3.506627346613802e-06   2.1016334895429534e-05
-1.3064340114229597e-05   3.471997278279822e-06   4.0636580921443147e-07
-1.3064340114229597e-05   3.471997278279822e-06   4.0636580921443147e-07
-1.3064340114229597e-05   3.471997278279822e-06   4.0636580921443147e-07
-1.3064340114229597e-05   3.471997278279822e-06   4.0636580921443147e-07
-1.8724780145254827e-05   3.660995163425572e-06   9.727033796502228e-06
-1.8724780145254827e-05   3.660995163425572e-06   9.727033796502228e-06
-1.8724780145254827e-05   3.660995163425572e-06   9.727033796502228e-06
-1.8724780145254827e-05   3.660995163425572e-06   9.727033796502228e-06
-1.3064340114229595e-05   3.5066273466137168e-06   2.1037112936429965e-05
-1.3064340114229595e-05   3.5066273466137168e-06   2.1037112936429965e-05
-1.3064340114229595e-05   3.5066273466137168e-06   2.1037112936429965e-05
-1.3064340114229595e-05   3.5066273466137168e-06   2.1037112936429965e-05
-2.5442788390558937e-05   3.471997278279822e-06   3.855877682140815e-07
-2.5442788390558937e-05   3.471997278279822e-06   3.855877682140815e-07
-2.5442788390558937e-05   3.471997278279822e-06   3.855877682140815e-07
-2.5442788390558937e-05   3.471997278279822e-06   3.855877682140815e-07
-2.6067017471339797e-05   3.2512790801300043e-06   2.16853568900773e-05
-2.6067017471339797e-05   3.2512790801300043e-06   2.16853568900773e-05
-2.6067017471339797e-05   3.2512790801300043e-06   2.16853568900773e-05
-2.6067017471339797e-05   3.2512790801300043e-06   2.16853568900773e-05
-1.3619603476903953e-05   3.1910613902789726e-06   9.757975132615763e-07
-1.3619603476903953e-05   3.1910613902789726e-06   9.757975132615763e-07
-1.3619603476903953e-05   3.1910613902789726e-06   9.757975132615763e-07
-1.3619603476903953e-05   3.1910613902789726e-06   9.757975132615763e-07
-1.94072352776963e-05   3.479035632833081e-06   1.0449065969050258e-05
-1.94072352776963e-05   3.479035632833081e-06   1.0449065969050258e-05
-1.94072352776963e-05   3.479035632833081e-06   1.0449065969050258e-05
-1.94072352776963e-05   3.479035632833081e-06   1.0449065969050258e-05
-2.4195286684907823e-05   6.3408768921554544e-06   9.503805409664967e-06
-2.4195286684907823e-05   6.3408768921554544e-06   9.503805409664967e-06
-2.4195286684907823e-05   6.3408768921554544e-06   9.503805409664967e-06
-2.4195286684907823e-05   6.3408768921554544e-06   9.503805409664967e-06
-3.5795088070468404e-05   5.697937988336562e-06   -1.0214960241894172e-05
-3.5795088070468404e-05   5.697937988336562e-06   -1.0214960241894172e-05
-3.5795088070468404e-05   5.697937988336562e-06   -1.0214960241894172e-05
-3.5795088070468404e-05   5.697937988336562e-06   -1.0214960241894172e-05
-3.672775775331202e-05   6.467993994658736e-06   1.3217132569405586e-05
-3.672775775331202e-05   6.467993994658736e-06   1.3217132569405586e-05
-3.672775775331202e-05   6.467993994658736e-06   1.3217132569405586e-05
-3.672775775331202e-05   6.467993994658736e-06   1.3217132569405586e-05
-2.4787341521291616e-05   5.76253262364124e-06   -6.260284328018172e-06
-2.4787341521291616e-05   5.76253262364124e-06   -6.260284328018172e-06
-2.4787341521291616e-05   5.76253262364124e-06   -6.260284328018172e-06
-2.4787341521291616e-05   5.76253262364124e-06   -6.260284328018172e-06
-2.921255839764965e-05   6.029530794689946e-06   9.548782299492991e-07
-2.921255839764965e-05   6.029530794689946e-06   9.548782299492991e-07
-2.921255839764965e-05   6.029530794689946e-06   9.548782299492991e-07
-2.921255839764965e-05   6.029530794689946e-06   9.548782299492991e-07
-2.4787341521291544e-05   6.4679939946586805e-06   1.364040939201604e-05
-2.4787341521291544e-05   6.4679939946586805e-06   1.364040939201604e-05
-2.4787341521291544e-05   6.4679939946586805e-06   1.364040939201604e-05
-2.4787341521291544e-05   6.4679939946586805e-06   1.364040939201604e-05
-3.67277577533121e-05   5.76253262364124e-06   -6.68356115062868e-06
-3.67277577533121e-05   5.76253262364124e-06   -6.68356115062868e-06
-3.67277577533121e-05   5.76253262364124e-06   -6.68356115062868e-06
-3.67277577533121e-05   5.76253262364124e-06   -6.68356115062868e-06
-3.76373646006877e-05   6.423194964410911e-06   1.609591738561489e-05
-3.76373646006877e-05   6.423194964410911e-06   1.609591738561489e-05
-3.76373646006877e-05   6.423194964410911e-06   1.609591738561489e-05
-3.76373646006877e-05   6.423194964410911e-06   1.609591738561489e-05
-2.5442788390558937e-05   5.700274933036166e-06   -3.7946242791085216e-06
-2.5442788390558937e-05   5.700274933036166e-06   -3.7946242791085216e-06
-2.5442788390558937e-05   5.700274933036166e-06   -3.7946242791085216e-06
-2.5442788390558937e-05   5.700274933036166e-06   -3.7946242791085216e-06
-3.036612558106608e-05   6.141219252190711e-06   4.1463711135778945e-06
-3.036612558106608e-05   6.141219252190711e-06   4.1463711135778945e-06
-3.036612558106608e-05   6.141219252190711e-06   4.1463711135778945e-06
-3.036612558106608e-05   6.141219252190711e-06   4.1463711135778945e-06
-2.5442788390558937e-05   6.423194964410812e-06   1.6529669404439693e-05
-2.5442788390558937e-05   6.423194964410812e-06   1.6529669404439693e-05
-2.5442788390558937e-05   6.423194964410812e-06   1.6529669404439693e-05
-2.5442788390558937e-05   6.423194964410812e-06   1.6529669404439693e-05
-3.763736460068781e-05   5.700274933036166e-06   -4.228376297933298e-06
-3.763736460068781e-05   5.700274933036166e-06   -4.228376297933298e-06
-3.763736460068781e-05   5.700274933036166e-06   -4.228376297933298e-06
-3.763736460068781e-05   5.700274933036166e-06   -4.228376297933298e-06
-3.8698571808472765e-05   5.918462409252754e-06   2.1020876347386977e-05
-3.8698571808472765e-05   5.918462409252754e-06   2.1020876347386977e-05
-3.8698571808472765e-05   5.918462409252754e-06   2.1020876347386977e-05
-3.8698571808472765e-05   5.918462409252754e-06   2.1020876347386977e-05
-2.6067017471339774e-05   5.263701117125654e-06   3.6114256077480903e-07
-2.6067017471339774e-05   5.263701117125654e-06   3.6114256077480903e-07
-2.6067017471339774e-05   5.263701117125654e-06   3.6114256077480903e-07
-2.6067017471339774e-05   5.263701117125654e-06   3.6114256077480903e-07
-3.064772406735468e-05   5.960845494396233e-06   7.577366927770759e-06
-3.064772406735468e-05   5.960845494396233e-06   7.577366927770759e-06
-3.064772406735468e-05   5.960845494396233e-06   7.577366927770759e-06
-3.064772406735468e-05   5.960845494396233e-06   7.577366927770759e-06
2.07923109831917e-05   -2.80620628935006e-06   1.7559360331879676e-05
2.07923109831917e-05   -2.80620628935006e-06   1.7559360331879676e-05
2.07923109831917e-05   -2.80620628935006e-06   1.7559360331879676e-05
2.07923109831917e-05   -2.80620628935006e-06   1.7559360331879676e-05
9.779484691907031e-06   -1.8669875289250605e-06   -2.3181889733986296e-07
9.779484691907031e-06   -1.8669875289250605e-06   -2.3181889733986296e-07
9.779484691907031e-06   -1.8669875289250605e-06   -2.3181889733986296e-07
9.779484691907031e-06   -1.8669875289250605e-06   -2.3181889733986296e-07
9.32510936797337e-06   -3.251569045587899e-06   1.5418030208413144e-05
9.32510936797337e-06   -3.251569045587899e-06   1.5418030208413144e-05
9.32510936797337e-06   -3.251569045587899e-06   1.5418030208413144e-05
9.32510936797337e-06   -3.251569045587899e-06   1.5418030208413144e-05
1.9912496707542405e-05   -2.2614878834618587e-06   -2.8216640548107857e-06
1.9912496707542405e-05   -2.2614878834618587e-06   -2.8216640548107857e-06
1.9912496707542405e-05   -2.2614878834618587e-06   -2.8216640548107857e-06
1.9912496707542405e-05   -2.2614878834618587e-06   -2.8216640548107857e-06
1.4249342867567171e-05   -2.5650869147594065e-06   6.79908509725975e-06
1.4249342867567171e-05   -2.5650869147594065e-06   6.79908509725975e-06
1.4249342867567171e-05   -2.5650869147594065e-06   6.79908509725975e-06
1.4249342867567171e-05   -2.5650869147594065e-06   6.79908509725975e-06
1.991249670754237e-05   -3.251569045587914e-06   1.482398151113752e-05
1.991249670754237e-05   -3.251569045587914e-06   1.482398151113752e-05
1.991249670754237e-05   -3.251569045587914e-06   1.482398151113752e-05
1.991249670754237e-05   -3.251569045587914e-06   1.482398151113752e-05
9.325109367973384e-06   -2.2614878834618587e-06   -2.227615357535263e-06
9.325109367973384e-06   -2.2614878834618587e-06   -2.227615357535263e-06
9.325109367973384e-06   -2.2614878834618587e-06   -2.227615357535263e-06
9.325109367973384e-06   -2.2614878834618587e-06   -2.227615357535263e-06
8.822921005045122e-06   -3.3402413481826553e-06   1.391395578605886e-05
8.822921005045122e-06   -3.3402413481826553e-06   1.391395578605886e-05
8.822921005045122e-06   -3.3402413481826553e-06   1.391395578605886e-05
8.822921005045122e-06   -3.3402413481826553e-06   1.391395578605886e-05
1.9140583531398216e-05   -2.366204078407992e-06   -3.866570786394366e-06
1.9140583531398216e-05   -2.366204078407992e-06   -3.866570786394366e-06
1.9140583531398216e-05   -2.366204078407992e-06   -3.866570786394366e-06
1.9140583531398216e-05   -2.366204078407992e-06   -3.866570786394366e-06
1.3889363137060173e-05   -2.7255218588014777e-06   5.101053872405352e-06
1.3889363137060173e-05   -2.7255218588014777e-06   5.101053872405352e-06
1.3889363137060173e-05   -2.7255218588014777e-06   5.101053872405352e-06
1.3889363137060173e-05   -2.7255218588014777e-06   5.101053872405352e-06
1.9140583531398182e-05   -3.340241348182731e-06   1.3329533424193997e-05
1.9140583531398182e-05   -3.340241348182731e-06   1.3329533424193997e-05
1.9140583531398182e-05   -3.340241348182731e-06   1.3329533424193997e-05
1.9140583531398182e-05   -3.340241348182731e-06   1.3329533424193997e-05
8.822921005045136e-06   -2.366204078407992e-06   -3.282148424529679e-06
8.822921005045136e-06   -2.366204078407992e-06   -3.282148424529679e-06
8.822921005045136e-06   -2.366204078407992e-06   -3.282148424529679e-06
8.822921005045136e-06   -2.366204078407992e-06   -3.282148424529679e-06
8.358840509460185e-06   -3.3720118942969293e-06   1.187060763340516e-05
8.358840509460185e-06   -3.3720118942969293e-06   1.187060763340516e-05
8.358840509460185e-06   -3.3720118942969293e-06   1.187060763340516e-05
8.358840509460185e-06   -3.3720118942969293e-06   1.187060763340516e-05
1.8276887985422697e-05   -2.4609398375854963e-06   -5.206114727226001e-06
1.8276887985422697e-05   -2.4609398375854963e-06   -5.206114727226001e-06
1.8276887985422697e-05   -2.4609398375854963e-06   -5.206114727226001e-06
1.8276887985422697e-05   -2.4609398375854963e-06   -5.206114727226001e-06
1.3078829772810916e-05   -2.7083363146242906e-06   3.6057535133502944e-06
1.3078829772810916e-05   -2.7083363146242906e-06   3.6057535133502944e-06
1.3078829772810916e-05   -2.7083363146242906e-06   3.6057535133502944e-06
1.3078829772810916e-05   -2.7083363146242906e-06   3.6057535133502944e-06
9.779484691906994e-06   -5.383478685654963e-07   1.988636092477823e-05
9.779484691906994e-06   -5.383478685654963e-07   1.988636092477823e-05
9.779484691906994e-06   -5.383478685654963e-07   1.988636092477823e-05
9.779484691906994e-06   -5.383478685654963e-07   1.988636092477823e-05
-6.392409537228134e-07   -1.6100973170615068e-08   2.8351663192986883e-06
-6.392409537228134e-07   -1.6100973170615068e-08   2.8351663192986883e-06
-6.392409537228134e-07   -1.6100973170615068e-08   2.8351663192986883e-06
-6.392409537228134e-07   -1.6100973170615068e-08   2.8351663192986883e-06
-1.0667910544076266e-06   -8.531274654393402e-07   1.9918511872573036e-05
-1.0667910544076266e-06   -8.531274654393402e-07   1.9918511872573036e-05
-1.0667910544076266e-06   -8.531274654393402e-07   1.9918511872573036e-05
-1.0667910544076266e-06   -8.531274654393402e-07   1.9918511872573036e-05
9.325109367973385e-06   -3.5806744730013107e-07   2.3016418243878575e-06
9.325109367973385e-06   -3.5806744730013107e-07   2.3016418243878575e-06
9.325109367973385e-06   -3.5806744730013107e-07   2.3016418243878575e-06
9.325109367973385e-06   -3.5806744730013107e-07   2.3016418243878575e-06
4.278972405724175e-06   -4.5401628543588306e-07   1.0769439397684624e-05
4.278972405724175e-06   -4.5401628543588306e-07   1.0769439397684624e-05
4.278972405724175e-06   -4.5401628543588306e-07   1.0769439397684624e-05
4.278972405724175e-06   -4.5401628543588306e-07   1.0769439397684624e-05
9.325109367973346e-06   -8.531274654393429e-07   1.9621475861689294e-05
9.325109367973346e-06   -8.531274654393429e-07   1.9621475861689294e-05
9.325109367973346e-06   -8.531274654393429e-07   1.9621475861689294e-05
9.325109367973346e-06   -8.531274654393429e-07   1.9621475861689294e-05
-1.0667910544076266e-06   -3.5806744730013107e-07   2.5986778352713423e-06
-1.0667910544076266e-06   -3.5806744730013107e-07   2.5986778352713423e-06
-1.0667910544076266e-06   -3.5806744730013107e-07   2.5986778352713423e-06
-1.0667910544076266e-06   -3.5806744730013107e-07   2.5986778352713423e-06
-1.5035906415765708e-06   -1.0856690485659595e-06   1.9612796047373217e-05
-1.5035906415765708e-06   -1.0856690485659595e-06   1.9612796047373217e-05
-1.5035906415765708e-06   -1.0856690485659595e-06   1.9612796047373217e-05
-1.5035906415765708e-06   -1.0856690485659595e-06   1.9612796047373217e-05
8.822921005045137e-06   -6.265002960158684e-07   2.1264420514737674e-06
8.822921005045137e-06   -6.265002960158684e-07   2.1264420514737674e-06
8.822921005045137e-06   -6.265002960158684e-07   2.1264420514737674e-06
8.822921005045137e-06   -6.265002960158684e-07   2.1264420514737674e-06
3.798381650917263e-06   -6.644711237067166e-07   1.0523456804968805e-05
3.798381650917263e-06   -6.644711237067166e-07   1.0523456804968805e-05
3.798381650917263e-06   -6.644711237067166e-07   1.0523456804968805e-05
3.798381650917263e-06   -6.644711237067166e-07   1.0523456804968805e-05
8.822921005045122e-06   -1.0856690485659048e-06   1.9337294795843357e-05
8.822921005045122e-06   -1.0856690485659048e-06   1.9337294795843357e-05
8.822921005045122e-06   -1.0856690485659048e-06   1.9337294795843357e-05
8.822921005045122e-06   -1.0856690485659048e-06   1.9337294795843357e-05
-1.5035906415765708e-06   -6.265002960158684e-07   2.4019433030038166e-06
-1.5035906415765708e-06   -6.265002960158684e-07   2.4019433030038166e-06
-1.5035906415765708e-06   -6.265002960158684e-07   2.4019433030038166e-06
-1.5035906415765708e-06   -6.265002960158684e-07   2.4019433030038166e-06
-1.942853536946067e-06   -1.2675564217126331e-06   1.974323796130866e-05
-1.942853536946067e-06   -1.2675564217126331e-06   1.974323796130866e-05
-1.942853536946067e-06   -1.2675564217126331e-06   1.974323796130866e-05
-1.942853536946067e-06   -1.2675564217126331e-06   1.974323796130866e-05
8.358840509460195e-06   -8.737183699110591e-07   2.337445052884101e-06
8.358840509460195e-06   -8.737183699110591e-07   2.337445052884101e-06
8.358840509460195e-06   -8.737183699110591e-07   2.337445052884101e-06
8.358840509460195e-06   -8.737183699110591e-07   2.337445052884101e-06
3.4330480325427234e-06   -8.189220375102307e-07   1.0514221381639259e-05
3.4330480325427234e-06   -8.189220375102307e-07   1.0514221381639259e-05
3.4330480325427234e-06   -8.189220375102307e-07   1.0514221381639259e-05
3.4330480325427234e-06   -8.189220375102307e-07   1.0514221381639259e-05
-6.392409537228134e-07   1.7349187394116703e-06   2.103944304468865e-05
-6.392409537228134e-07   1.7349187394116703e-06   2.103944304468865e-05
-6.392409537228134e-07   1.7349187394116703e-06   2.103944304468865e-05
-6.392409537228134e-07   1.7349187394116703e-06   2.103944304468865e-05
-1.083922633309419e-05   1.7882659822997336e-06   4.071475758135818e-06
-1.083922633309419e-05   1.7882659822997336e-06   4.071475758135818e-06
-1.083922633309419e-05   1.7882659822997336e-06   4.071475758135818e-06
-1.083922633309419e-05   1.7882659822997336e-06   4.071475758135818e-06
-1.1269455351842227e-05   1.4744742548040545e-06   2.097589992771764e-05
-1.1269455351842227e-05   1.4744742548040545e-06   2.097589992771764e-05
-1.1269455351842227e-05   1.4744742548040545e-06   2.097589992771764e-05
-1.1269455351842227e-05   1.4744742548040545e-06   2.097589992771764e-05
-1.0667910544076272e-06   1.4890412112506923e-06   3.962719258125065e-06
-1.0667910544076272e-06   1.4890412112506923e-06   3.962719258125065e-06
-1.0667910544076272e-06   1.4890412112506923e-06   3.962719258125065e-06
-1.0667910544076272e-06   1.4890412112506923e-06   3.962719258125065e-06
-5.969048396227137e-06   1.592577909200442e-06   1.2071026142387924e-05
-5.969048396227137e-06   1.592577909200442e-06   1.2071026142387924e-05
-5.969048396227137e-06   1.592577909200442e-06   1.2071026142387924e-05
-5.969048396227137e-06   1.592577909200442e-06   1.2071026142387924e-05
-1.0667910544076266e-06   1.474474254803871e-06   2.096715975384957e-05
-1.0667910544076266e-06   1.474474254803871e-06   2.096715975384957e-05
-1.0667910544076266e-06   1.474474254803871e-06   2.096715975384957e-05
-1.0667910544076266e-06   1.474474254803871e-06   2.096715975384957e-05
-1.1269455351842227e-05   1.4890412112506923e-06   3.971459431993283e-06
-1.1269455351842227e-05   1.4890412112506923e-06   3.971459431993283e-06
-1.1269455351842227e-05   1.4890412112506923e-06   3.971459431993283e-06
-1.1269455351842227e-05   1.4890412112506923e-06   3.971459431993283e-06
-1.1710222809566053e-05   1.2216503354552273e-06   2.1087663732692217e-05
-1.1710222809566053e-05   1.2216503354552273e-06   2.1087663732692217e-05
-1.1710222809566053e-05   1.2216503354552273e-06   2.1087663732692217e-05
-1.1710222809566053e-05   1.2216503354552273e-06   2.1087663732692217e-05
-1.5035906415765683e-06   1.1946241357094125e-06   4.09282583922387e-06
-1.5035906415765683e-06   1.1946241357094125e-06   4.09282583922387e-06
-1.5035906415765683e-06   1.1946241357094125e-06   4.09282583922387e-06
-1.5035906415765683e-06   1.1946241357094125e-06   4.09282583922387e-06
-6.368153987101017e-06   1.3919463194829538e-06   1.2082038104834321e-05
-6.368153987101017e-06   1.3919463194829538e-06   1.2082038104834321e-05
-6.368153987101017e-06   1.3919463194829538e-06   1.2082038104834321e-05
-6.368153987101017e-06   1.3919463194829538e-06   1.2082038104834321e-05
-1.5035906415765708e-06   1.2216503354553177e-06   2.1103879452539728e-05
-1.5035906415765708e-06   1.2216503354553177e-06   2.1103879452539728e-05
-1.5035906415765708e-06   1.2216503354553177e-06   2.1103879452539728e-05
-1.5035906415765708e-06   1.2216503354553177e-06   2.1103879452539728e-05
-1.1710222809566093e-05   1.1946241357094125e-06   4.0766101193764545e-06
-1.1710222809566093e-05   1.1946241357094125e-06   4.0766101193764545e-06
-1.1710222809566093e-05   1.1946241357094125e-06   4.0766101193764545e-06
-1.1710222809566093e-05   1.1946241357094125e-06   4.0766101193764545e-06
-1.2150627242419351e-05   9.967006074833393e-07   2.134530679604417e-05
-1.2150627242419351e-05   9.967006074833393e-07   2.134530679604417e-05
-1.2150627242419351e-05   9.967006074833393e-07   2.134530679604417e-05
-1.2150627242419351e-05   9.967006074833393e-07   2.134530679604417e-05
-1.942853536946073e-06   9.153438721859215e-07   4.381164661433696e-06
-1.942853536946073e-06   9.153438721859215e-07   4.381164661433696e-06
-1.942853536946073e-06   9.153438721859215e-07   4.381164661433696e-06
-1.942853536946073e-06   9.153438721859215e-07   4.381164661433696e-06
-6.78615480228057e-06   1.1966034251745944e-06   1.2284577705198071e-05
-6.78615480228057e-06   1.1966034251745944e-06   1.2284577705198071e-05
-6.78615480228057e-06   1.1966034251745944e-06   1.2284577705198071e-05
-6.78615480228057e-06   1.1966034251745944e-06   1.2284577705198071e-05
-1.0839226333094176e-05   3.9485733993768335e-06   1.852642596364732e-05
-1.0839226333094176e-05   3.9485733993768335e-06   1.852642596364732e-05
-1.0839226333094176e-05   3.9485733993768335e-06   1.852642596364732e-05
-1.0839226333094176e-05   3.9485733993768335e-06   1.852642596364732e-05
-2.0824601690499497e-05   3.5264495983422864e-06   1.6308594206844353e-06
-2.0824601690499497e-05   3.5264495983422864e-06   1.6308594206844353e-06
-2.0824601690499497e-05   3.5264495983422864e-06   1.6308594206844353e-06
-2.0824601690499497e-05   3.5264495983422864e-06   1.6308594206844353e-06
-2.1287856449843406e-05   3.7011934035506046e-06   1.84090533477193e-05
-2.1287856449843406e-05   3.7011934035506046e-06   1.84090533477193e-05
-2.1287856449843406e-05   3.7011934035506046e-06   1.84090533477193e-05
-2.1287856449843406e-05   3.7011934035506046e-06   1.84090533477193e-05
-1.1269455351842253e-05   3.2409659099083207e-06   1.9878546805693798e-06
-1.1269455351842253e-05   3.2409659099083207e-06   1.9878546805693798e-06
-1.1269455351842253e-05   3.2409659099083207e-06   1.9878546805693798e-06
-1.1269455351842253e-05   3.2409659099083207e-06   1.9878546805693798e-06
-1.600194703202504e-05   3.5559774452910767e-06   9.686333892977843e-06
-1.600194703202504e-05   3.5559774452910767e-06   9.686333892977843e-06
-1.600194703202504e-05   3.5559774452910767e-06   9.686333892977843e-06
-1.600194703202504e-05   3.5559774452910767e-06   9.686333892977843e-06
-1.1269455351842227e-05   3.701193403550771e-06   1.868518984390465e-05
-1.1269455351842227e-05   3.701193403550771e-06   1.868518984390465e-05
-1.1269455351842227e-05   3.701193403550771e-06   1.868518984390465e-05
-1.1269455351842227e-05   3.701193403550771e-06   1.868518984390465e-05
-2.128785644984338e-05   3.2409659099083207e-06   1.7117181843840311e-06
-2.128785644984338e-05   3.2409659099083207e-06   1.7117181843840311e-06
-2.128785644984338e-05   3.2409659099083207e-06   1.7117181843840311e-06
-2.128785644984338e-05   3.2409659099083207e-06   1.7117181843840311e-06
-2.1797318280099862e-05   3.471997278279822e-06   1.9100487699083134e-05
-2.1797318280099862e-05   3.471997278279822e-06   1.9100487699083134e-05
-2.1797318280099862e-05   3.471997278279822e-06   1.9100487699083134e-05
-2.1797318280099862e-05   3.471997278279822e-06   1.9100487699083134e-05
-1.1710222809566095e-05   2.9739555418419137e-06   2.587486956722823e-06
-1.1710222809566095e-05   2.9739555418419137e-06   2.587486956722823e-06
-1.1710222809566095e-05   2.9739555418419137e-06   2.587486956722823e-06
-1.1710222809566095e-05   2.9739555418419137e-06   2.587486956722823e-06
-1.633232614346527e-05   3.374175018826253e-06   1.0050860827031375e-05
-1.633232614346527e-05   3.374175018826253e-06   1.0050860827031375e-05
-1.633232614346527e-05   3.374175018826253e-06   1.0050860827031375e-05
-1.633232614346527e-05   3.374175018826253e-06   1.0050860827031375e-05
-1.1710222809566093e-05   3.4719972782797577e-06   1.93993127409459e-05
-1.1710222809566093e-05   3.4719972782797577e-06   1.93993127409459e-05
-1.1710222809566093e-05   3.4719972782797577e-06   1.93993127409459e-05
-1.1710222809566093e-05   3.4719972782797577e-06   1.93993127409459e-05
-2.1797318280099862e-05   2.9739555418419137e-06   2.288661914860192e-06
-2.1797318280099862e-05   2.9739555418419137e-06   2.288661914860192e-06
-2.1797318280099862e-05   2.9739555418419137e-06   2.288661914860192e-06
-2.1797318280099862e-05   2.9739555418419137e-06   2.288661914860192e-06
-2.226254410898413e-05   3.1910613902789726e-06   1.961626232539228e-05
-2.226254410898413e-05   3.1910613902789726e-06   1.961626232539228e-05
-2.226254410898413e-05   3.1910613902789726e-06   1.961626232539228e-05
-2.226254410898413e-05   3.1910613902789726e-06   1.961626232539228e-05
-1.2150627242419367e-05   2.6620916125604834e-06   3.0804494144155985e-06
-1.2150627242419367e-05   2.6620916125604834e-06   3.0804494144155985e-06
-1.2150627242419367e-05   2.6620916125604834e-06   3.0804494144155985e-06
-1.2150627242419367e-05   2.6620916125604834e-06   3.0804494144155985e-06
-1.686242280323995e-05   3.1679854989982627e-06   1.062990568392053e-05
-1.686242280323995e-05   3.1679854989982627e-06   1.062990568392053e-05
-1.686242280323995e-05   3.1679854989982627e-06   1.062990568392053e-05
-1.686242280323995e-05   3.1679854989982627e-06   1.062990568392053e-05
-2.0824601690499497e-05   5.697937988336512e-06   8.975776778537151e-06
-2.0824601690499497e-05   5.697937988336512e-06   8.975776778537151e-06
-2.0824601690499497e-05   5.697937988336512e-06   8.975776778537151e-06
-2.0824601690499497e-05   5.697937988336512e-06   8.975776778537151e-06
-3.0331249669679277e-05   4.873241758576556e-06   -7.363454257951815e-06
-3.0331249669679277e-05   4.873241758576556e-06   -7.363454257951815e-06
-3.0331249669679277e-05   4.873241758576556e-06   -7.363454257951815e-06
-3.0331249669679277e-05   4.873241758576556e-06   -7.363454257951815e-06
-3.116500446240239e-05   5.76253262364124e-06   1.1956021602643643e-05
-3.116500446240239e-05   5.76253262364124e-06   1.1956021602643643e-05
-3.116500446240239e-05   5.76253262364124e-06   1.1956021602643643e-05
-3.116500446240239e-05   5.76253262364124e-06   1.1956021602643643e-05
-2.12878564498434e-05   4.852759896072133e-06   -3.9600281150800436e-06
-2.12878564498434e-05   4.852759896072133e-06   -3.9600281150800436e-06
-2.12878564498434e-05   4.852759896072133e-06   -3.9600281150800436e-06
-2.12878564498434e-05   4.852759896072133e-06   -3.9600281150800436e-06
-2.491614667822062e-05   5.21750488654887e-06   1.8682752712626829e-06
-2.491614667822062e-05   5.21750488654887e-06   1.8682752712626829e-06
-2.491614667822062e-05   5.21750488654887e-06   1.8682752712626829e-06
-2.491614667822062e-05   5.21750488654887e-06   1.8682752712626829e-06
-2.128785644984338e-05   5.7625326236411164e-06   1.2501885239185064e-05
-2.128785644984338e-05   5.7625326236411164e-06   1.2501885239185064e-05
-2.128785644984338e-05   5.7625326236411164e-06   1.2501885239185064e-05
-2.128785644984338e-05   5.7625326236411164e-06   1.2501885239185064e-05
-3.1165004462402416e-05   4.852759896072133e-06   -4.505891751621573e-06
-3.1165004462402416e-05   4.852759896072133e-06   -4.505891751621573e-06
-3.1165004462402416e-05   4.852759896072133e-06   -4.505891751621573e-06
-3.1165004462402416e-05   4.852759896072133e-06   -4.505891751621573e-06
-3.1910391533906545e-05   5.700274933036166e-06   1.435320761981548e-05
-3.1910391533906545e-05   5.700274933036166e-06   1.435320761981548e-05
-3.1910391533906545e-05   5.700274933036166e-06   1.435320761981548e-05
-3.1910391533906545e-05   5.700274933036166e-06   1.435320761981548e-05
-2.179731828009991e-05   4.7551615464608375e-06   -1.934846437917192e-06
-2.179731828009991e-05   4.7551615464608375e-06   -1.934846437917192e-06
-2.179731828009991e-05   4.7551615464608375e-06   -1.934846437917192e-06
-2.179731828009991e-05   4.7551615464608375e-06   -1.934846437917192e-06
-2.587997650100562e-05   5.276540509783004e-06   4.556756552266488e-06
-2.587997650100562e-05   5.276540509783004e-06   4.556756552266488e-06
-2.587997650100562e-05   5.276540509783004e-06   4.556756552266488e-06
-2.587997650100562e-05   5.276540509783004e-06   4.556756552266488e-06
-2.1797318280099862e-05   5.700274933036129e-06   1.4920275651760613e-05
-2.1797318280099862e-05   5.700274933036129e-06   1.4920275651760613e-05
-2.1797318280099862e-05   5.700274933036129e-06   1.4920275651760613e-05
-2.1797318280099862e-05   5.700274933036129e-06   1.4920275651760613e-05
-3.19103915339066e-05   4.7551615464608375e-06   -2.5019144698624324e-06
-3.19103915339066e-05   4.7551615464608375e-06   -2.5019144698624324e-06
-3.19103915339066e-05   4.7551615464608375e-06   -2.5019144698624324e-06
-3.19103915339066e-05   4.7551615464608375e-06   -2.5019144698624324e-06
-3.2765808105780645e-05   5.263701117125654e-06   1.8472438258902973e-05
-3.2765808105780645e-05   5.263701117125654e-06   1.8472438258902973e-05
-3.2765808105780645e-05   5.263701117125654e-06   1.8472438258902973e-05
-3.2765808105780645e-05   5.263701117125654e-06   1.8472438258902973e-05
-2.2262544108984114e-05   4.321534903936955e-06   1.5322979921550926e-06
-2.2262544108984114e-05   4.321534903936955e-06   1.5322979921550926e-06
-2.2262544108984114e-05   4.321534903936955e-06   1.5322979921550926e-06
-2.2262544108984114e-05   4.321534903936955e-06   1.5322979921550926e-06
-2.6077096224281274e-05   5.0963819514242715e-06   7.42497662249101e-06
-2.6077096224281274e-05   5.0963819514242715e-06   7.42497662249101e-06
-2.6077096224281274e-05   5.0963819514242715e-06   7.42497662249101e-06
-2.6077096224281274e-05   5.0963819514242715e-06   7.42497662249101e-06
1.4420799046768006e-05   -1.8669875289250563e-06   1.4359833204458149e-05
1.4420799046768006e-05   -1.8669875289250563e-06   1.4359833204458149e-05
1.4420799046768006e-05   -1.8669875289250563e-06   1.4359833204458149e-05
1.4420799046768006e-05   -1.8669875289250563e-06   1.4359833204458149e-05
5.989747070467529e-06   -9.314541064868107e-07   8.693999640868285e-07
5.989747070467529e-06   -9.314541064868107e-07   8.693999640868285e-07
5.989747070467529e-06   -9.314541064868107e-07   8.693999640868285e-07
5.989747070467529e-06   -9.314541064868107e-07   8.693999640868285e-07
5.623092115083829e-06   -2.2614878834618587e-06   1.2899704165407e-05
5.623092115083829e-06   -2.2614878834618587e-06   1.2899704165407e-05
5.623092115083829e-06   -2.2614878834618587e-06   1.2899704165407e-05
5.623092115083829e-06   -2.2614878834618587e-06   1.2899704165407e-05
1.3638782045707913e-05   -1.285803944728564e-06   -1.045189415539854e-06
1.3638782045707913e-05   -1.285803944728564e-06   -1.045189415539854e-06
1.3638782045707913e-05   -1.285803944728564e-06   -1.045189415539854e-06
1.3638782045707913e-05   -1.285803944728564e-06   -1.045189415539854e-06
9.425297748768382e-06   -1.6236568160756708e-06   6.179996135501291e-06
9.425297748768382e-06   -1.6236568160756708e-06   6.179996135501291e-06
9.425297748768382e-06   -1.6236568160756708e-06   6.179996135501291e-06
9.425297748768382e-06   -1.6236568160756708e-06   6.179996135501291e-06
1.3638782045707937e-05   -2.2614878834619257e-06   1.231429380216698e-05
1.3638782045707937e-05   -2.2614878834619257e-06   1.231429380216698e-05
1.3638782045707937e-05   -2.2614878834619257e-06   1.231429380216698e-05
1.3638782045707937e-05   -2.2614878834619257e-06   1.231429380216698e-05
5.623092115083809e-06   -1.285803944728564e-06   -4.597790522998472e-07
5.623092115083809e-06   -1.285803944728564e-06   -4.597790522998472e-07
5.623092115083809e-06   -1.285803944728564e-06   -4.597790522998472e-07
5.623092115083809e-06   -1.285803944728564e-06   -4.597790522998472e-07
5.2105265517829555e-06   -2.366204078407992e-06   1.1816876791740879e-05
5.2105265517829555e-06   -2.366204078407992e-06   1.1816876791740879e-05
5.2105265517829555e-06   -2.366204078407992e-06   1.1816876791740879e-05
5.2105265517829555e-06   -2.366204078407992e-06   1.1816876791740879e-05
1.296669584179764e-05   -1.4069989921801232e-06   -1.6855950766870182e-06
1.296669584179764e-05   -1.4069989921801232e-06   -1.6855950766870182e-06
1.296669584179764e-05   -1.4069989921801232e-06   -1.6855950766870182e-06
1.296669584179764e-05   -1.4069989921801232e-06   -1.6855950766870182e-06
9.081170986119843e-06   -1.7742398434406406e-06   5.010624193532649e-06
9.081170986119843e-06   -1.7742398434406406e-06   5.010624193532649e-06
9.081170986119843e-06   -1.7742398434406406e-06   5.010624193532649e-06
9.081170986119843e-06   -1.7742398434406406e-06   5.010624193532649e-06
1.2966695841797666e-05   -2.3662040784080925e-06   1.1241353740004028e-05
1.2966695841797666e-05   -2.3662040784080925e-06   1.1241353740004028e-05
1.2966695841797666e-05   -2.3662040784080925e-06   1.1241353740004028e-05
1.2966695841797666e-05   -2.3662040784080925e-06   1.1241353740004028e-05
5.210526551782949e-06   -1.4069989921801232e-06   -1.1100720249502616e-06
5.210526551782949e-06   -1.4069989921801232e-06   -1.1100720249502616e-06
5.210526551782949e-06   -1.4069989921801232e-06   -1.1100720249502616e-06
5.210526551782949e-06   -1.4069989921801232e-06   -1.1100720249502616e-06
4.840383387436508e-06   -2.4609398375854963e-06   1.0404976559274192e-05
4.840383387436508e-06   -2.4609398375854963e-06   1.0404976559274192e-05
4.840383387436508e-06   -2.4609398375854963e-06   1.0404976559274192e-05
4.840383387436508e-06   -2.4609398375854963e-06   1.0404976559274192e-05
1.22030855837996e-05   -1.5646721752860405e-06   -2.4039543653773724e-06
1.22030855837996e-05   -1.5646721752860405e-06   -2.4039543653773724e-06
1.22030855837996e-05   -1.5646721752860405e-06   -2.4039543653773724e-06
1.22030855837996e-05   -1.5646721752860405e-06   -2.4039543653773724e-06
8.432464892194104e-06   -1.8020120463195293e-06   4.022817376584988e-06
8.432464892194104e-06   -1.8020120463195293e-06   4.022817376584988e-06
8.432464892194104e-06   -1.8020120463195293e-06   4.022817376584988e-06
8.432464892194104e-06   -1.8020120463195293e-06   4.022817376584988e-06
5.989747070467549e-06   -1.610097317071742e-08   1.767479033732268e-05
5.989747070467549e-06   -1.610097317071742e-08   1.767479033732268e-05
5.989747070467549e-06   -1.610097317071742e-08   1.767479033732268e-05
5.989747070467549e-06   -1.610097317071742e-08   1.767479033732268e-05
-1.9148105182356396e-06   4.6101831962554185e-07   4.786799265161764e-06
-1.9148105182356396e-06   4.6101831962554185e-07   4.786799265161764e-06
-1.9148105182356396e-06   4.6101831962554185e-07   4.786799265161764e-06
-1.9148105182356396e-06   4.6101831962554185e-07   4.786799265161764e-06
-2.252046740680504e-06   -3.5806744730013107e-07   1.770601380439744e-05
-2.252046740680504e-06   -3.5806744730013107e-07   1.770601380439744e-05
-2.252046740680504e-06   -3.5806744730013107e-07   1.770601380439744e-05
-2.252046740680504e-06   -3.5806744730013107e-07   1.770601380439744e-05
5.6230921150838096e-06   1.0368664781228078e-07   4.303729921056302e-06
5.6230921150838096e-06   1.0368664781228078e-07   4.303729921056302e-06
5.6230921150838096e-06   1.0368664781228078e-07   4.303729921056302e-06
5.6230921150838096e-06   1.0368664781228078e-07   4.303729921056302e-06
1.8048883634924168e-06   1.6607016219442536e-08   1.0719650619331241e-05
1.8048883634924168e-06   1.6607016219442536e-08   1.0719650619331241e-05
1.8048883634924168e-06   1.6607016219442536e-08   1.0719650619331241e-05
1.8048883634924168e-06   1.6607016219442536e-08   1.0719650619331241e-05
5.623092115083822e-06   -3.580674473002041e-07   1.742896134733008e-05
5.623092115083822e-06   -3.580674473002041e-07   1.742896134733008e-05
5.623092115083822e-06   -3.580674473002041e-07   1.742896134733008e-05
5.623092115083822e-06   -3.580674473002041e-07   1.742896134733008e-05
-2.252046740680504e-06   1.0368664781228078e-07   4.580782378123672e-06
-2.252046740680504e-06   1.0368664781228078e-07   4.580782378123672e-06
-2.252046740680504e-06   1.0368664781228078e-07   4.580782378123672e-06
-2.252046740680504e-06   1.0368664781228078e-07   4.580782378123672e-06
-2.5970164531008606e-06   -6.265002960158684e-07   1.748877551827337e-05
-2.5970164531008606e-06   -6.265002960158684e-07   1.748877551827337e-05
-2.5970164531008606e-06   -6.265002960158684e-07   1.748877551827337e-05
-2.5970164531008606e-06   -6.265002960158684e-07   1.748877551827337e-05
5.210526551782949e-06   -1.8765321180053054e-07   4.212895592937996e-06
5.210526551782949e-06   -1.8765321180053054e-07   4.212895592937996e-06
5.210526551782949e-06   -1.8765321180053054e-07   4.212895592937996e-06
5.210526551782949e-06   -1.8765321180053054e-07   4.212895592937996e-06
1.433354506589988e-06   -2.2109616142280183e-07   1.0528248104700133e-05
1.433354506589988e-06   -2.2109616142280183e-07   1.0528248104700133e-05
1.433354506589988e-06   -2.2109616142280183e-07   1.0528248104700133e-05
1.433354506589988e-06   -2.2109616142280183e-07   1.0528248104700133e-05
5.210526551782967e-06   -6.265002960159297e-07   1.722546726774419e-05
5.210526551782967e-06   -6.265002960159297e-07   1.722546726774419e-05
5.210526551782967e-06   -6.265002960159297e-07   1.722546726774419e-05
5.210526551782967e-06   -6.265002960159297e-07   1.722546726774419e-05
-2.597016453100874e-06   -1.8765321180063896e-07   4.4762038434671735e-06
-2.597016453100874e-06   -1.8765321180063896e-07   4.4762038434671735e-06
-2.597016453100874e-06   -1.8765321180063896e-07   4.4762038434671735e-06
-2.597016453100874e-06   -1.8765321180063896e-07   4.4762038434671735e-06
-2.939217284482758e-06   -8.737183699110591e-07   1.7642072428409304e-05
-2.939217284482758e-06   -8.737183699110591e-07   1.7642072428409304e-05
-2.939217284482758e-06   -8.737183699110591e-07   1.7642072428409304e-05
-2.939217284482758e-06   -8.737183699110591e-07   1.7642072428409304e-05
4.840383387436489e-06   -4.734194981575318e-07   4.435891985491678e-06
4.840383387436489e-06   -4.734194981575318e-07   4.435891985491678e-06
4.840383387436489e-06   -4.734194981575318e-07   4.435891985491678e-06
4.840383387436489e-06   -4.734194981575318e-07   4.435891985491678e-06
1.1410777322510172e-06   -4.180025285234739e-07   1.0568151229020149e-05
1.1410777322510172e-06   -4.180025285234739e-07   1.0568151229020149e-05
1.1410777322510172e-06   -4.180025285234739e-07   1.0568151229020149e-05
1.1410777322510172e-06   -4.180025285234739e-07   1.0568151229020149e-05
-1.914810518235626e-06   1.7882659822995373e-06   1.9165363006104583e-05
-1.914810518235626e-06   1.7882659822995373e-06   1.9165363006104583e-05
-1.914810518235626e-06   1.7882659822995373e-06   1.9165363006104583e-05
-1.914810518235626e-06   1.7882659822995373e-06   1.9165363006104583e-05
-9.686500089842396e-06   1.7633961623492395e-06   6.1976251614564515e-06
-9.686500089842396e-06   1.7633961623492395e-06   6.1976251614564515e-06
-9.686500089842396e-06   1.7633961623492395e-06   6.1976251614564515e-06
-9.686500089842396e-06   1.7633961623492395e-06   6.1976251614564515e-06
-1.0019582031829268e-05   1.4890412112506923e-06   1.904054857602695e-05
-1.0019582031829268e-05   1.4890412112506923e-06   1.904054857602695e-05
-1.0019582031829268e-05   1.4890412112506923e-06   1.904054857602695e-05
-1.0019582031829268e-05   1.4890412112506923e-06   1.904054857602695e-05
-2.252046740680494e-06   1.4398634592101625e-06   6.1241630753367334e-06
-2.252046740680494e-06   1.4398634592101625e-06   6.1241630753367334e-06
-2.252046740680494e-06   1.4398634592101625e-06   6.1241630753367334e-06
-2.252046740680494e-06   1.4398634592101625e-06   6.1241630753367334e-06
-5.983235977508683e-06   1.5791963008116852e-06   1.2259212098423195e-05
-5.983235977508683e-06   1.5791963008116852e-06   1.2259212098423195e-05
-5.983235977508683e-06   1.5791963008116852e-06   1.2259212098423195e-05
-5.983235977508683e-06   1.5791963008116852e-06   1.2259212098423195e-05
-2.252046740680504e-06   1.4890412112506673e-06   1.9070055227251312e-05
-2.252046740680504e-06   1.4890412112506673e-06   1.9070055227251312e-05
-2.252046740680504e-06   1.4890412112506673e-06   1.9070055227251312e-05
-2.252046740680504e-06   1.4890412112506673e-06   1.9070055227251312e-05
-1.0019582031829268e-05   1.439863459210271e-06   6.09465642411244e-06
-1.0019582031829268e-05   1.439863459210271e-06   6.09465642411244e-06
-1.0019582031829268e-05   1.439863459210271e-06   6.09465642411244e-06
-1.0019582031829268e-05   1.439863459210271e-06   6.09465642411244e-06
-1.0360525613516486e-05   1.1946241357094125e-06   1.9134931019516442e-05
-1.0360525613516486e-05   1.1946241357094125e-06   1.9134931019516442e-05
-1.0360525613516486e-05   1.1946241357094125e-06   1.9134931019516442e-05
-1.0360525613516486e-05   1.1946241357094125e-06   1.9134931019516442e-05
-2.5970164531008564e-06   1.1200790774143921e-06   6.240476120467496e-06
-2.5970164531008564e-06   1.1200790774143921e-06   6.240476120467496e-06
-2.5970164531008564e-06   1.1200790774143921e-06   6.240476120467496e-06
-2.5970164531008564e-06   1.1200790774143921e-06   6.240476120467496e-06
-6.287917167490106e-06   1.3448708070115884e-06   1.2257102273358268e-05
-6.287917167490106e-06   1.3448708070115884e-06   1.2257102273358268e-05
-6.287917167490106e-06   1.3448708070115884e-06   1.2257102273358268e-05
-6.287917167490106e-06   1.3448708070115884e-06   1.2257102273358268e-05
-2.597016453100874e-06   1.1946241357094538e-06   1.917965805449352e-05
-2.597016453100874e-06   1.1946241357094538e-06   1.917965805449352e-05
-2.597016453100874e-06   1.1946241357094538e-06   1.917965805449352e-05
-2.597016453100874e-06   1.1946241357094538e-06   1.917965805449352e-05
-1.0360525613516513e-05   1.1200790774145005e-06   6.19574908549054e-06
-1.0360525613516513e-05   1.1200790774145005e-06   6.19574908549054e-06
-1.0360525613516513e-05   1.1200790774145005e-06   6.19574908549054e-06
-1.0360525613516513e-05   1.1200790774145005e-06   6.19574908549054e-06
-1.069735115755049e-05   9.153438721859215e-07   1.9387711754103405e-05
-1.069735115755049e-05   9.153438721859215e-07   1.9387711754103405e-05
-1.069735115755049e-05   9.153438721859215e-07   1.9387711754103405e-05
-1.069735115755049e-05   9.153438721859215e-07   1.9387711754103405e-05
-2.9392172844827433e-06   8.123814525616948e-07   6.519266084098395e-06
-2.9392172844827433e-06   8.123814525616948e-07   6.519266084098395e-06
-2.9392172844827433e-06   8.123814525616948e-07   6.519266084098395e-06
-2.9392172844827433e-06   8.123814525616948e-07   6.519266084098395e-06
-6.60680043435017e-06   1.116186056467983e-06   1.2449621904866623e-05
-6.60680043435017e-06   1.116186056467983e-06   1.2449621904866623e-05
-6.60680043435017e-06   1.116186056467983e-06   1.2449621904866623e-05
-6.60680043435017e-06   1.116186056467983e-06   1.2449621904866623e-05
-9.686500089842396e-06   3.5264495983423597e-06   1.696309905730364e-05
-9.686500089842396e-06   3.5264495983423597e-06   1.696309905730364e-05
-9.686500089842396e-06   3.5264495983423597e-06   1.696309905730364e-05
-9.686500089842396e-06   3.5264495983423597e-06   1.696309905730364e-05
-1.7335320719242555e-05   3.031297549478348e-06   3.917973445651598e-06
-1.7335320719242555e-05   3.031297549478348e-06   3.917973445651598e-06
-1.7335320719242555e-05   3.031297549478348e-06   3.917973445651598e-06
-1.7335320719242555e-05   3.031297549478348e-06   3.917973445651598e-06
-1.769304832616842e-05   3.2409659099083207e-06   1.6741997619596546e-05
-1.769304832616842e-05   3.2409659099083207e-06   1.6741997619596546e-05
-1.769304832616842e-05   3.2409659099083207e-06   1.6741997619596546e-05
-1.769304832616842e-05   3.2409659099083207e-06   1.6741997619596546e-05
-1.0019582031829237e-05   2.7160555682307274e-06   4.267833334037943e-06
-1.0019582031829237e-05   2.7160555682307274e-06   4.267833334037943e-06
-1.0019582031829237e-05   2.7160555682307274e-06   4.267833334037943e-06
-1.0019582031829237e-05   2.7160555682307274e-06   4.267833334037943e-06
-1.3644692718859586e-05   3.0742301972982262e-06   1.009477970164834e-05
-1.3644692718859586e-05   3.0742301972982262e-06   1.009477970164834e-05
-1.3644692718859586e-05   3.0742301972982262e-06   1.009477970164834e-05
-1.3644692718859586e-05   3.0742301972982262e-06   1.009477970164834e-05
-1.0019582031829268e-05   3.24096590990835e-06   1.705694382460321e-05
-1.0019582031829268e-05   3.24096590990835e-06   1.705694382460321e-05
-1.0019582031829268e-05   3.24096590990835e-06   1.705694382460321e-05
-1.0019582031829268e-05   3.24096590990835e-06   1.705694382460321e-05
-1.769304832616842e-05   2.716055568230836e-06   3.95288712903136e-06
-1.769304832616842e-05   2.716055568230836e-06   3.95288712903136e-06
-1.769304832616842e-05   2.716055568230836e-06   3.95288712903136e-06
-1.769304832616842e-05   2.716055568230836e-06   3.95288712903136e-06
-1.8095242021667906e-05   2.9739555418419137e-06   1.731553513815759e-05
-1.8095242021667906e-05   2.9739555418419137e-06   1.731553513815759e-05
-1.8095242021667906e-05   2.9739555418419137e-06   1.731553513815759e-05
-1.8095242021667906e-05   2.9739555418419137e-06   1.731553513815759e-05
-1.0360525613516479e-05   2.423501010666426e-06   4.7546138432771955e-06
-1.0360525613516479e-05   2.423501010666426e-06   4.7546138432771955e-06
-1.0360525613516479e-05   2.423501010666426e-06   4.7546138432771955e-06
-1.0360525613516479e-05   2.423501010666426e-06   4.7546138432771955e-06
-1.3890698540509125e-05   2.859860469839174e-06   1.037641971276168e-05
-1.3890698540509125e-05   2.859860469839174e-06   1.037641971276168e-05
-1.3890698540509125e-05   2.859860469839174e-06   1.037641971276168e-05
-1.3890698540509125e-05   2.859860469839174e-06   1.037641971276168e-05
-1.0360525613516513e-05   2.973955541841973e-06   1.7645807856862838e-05
-1.0360525613516513e-05   2.973955541841973e-06   1.7645807856862838e-05
-1.0360525613516513e-05   2.973955541841973e-06   1.7645807856862838e-05
-1.0360525613516513e-05   2.973955541841973e-06   1.7645807856862838e-05
-1.8095242021667906e-05   2.4235010106663174e-06   4.424341124571946e-06
-1.8095242021667906e-05   2.4235010106663174e-06   4.424341124571946e-06
-1.8095242021667906e-05   2.4235010106663174e-06   4.424341124571946e-06
-1.8095242021667906e-05   2.4235010106663174e-06   4.424341124571946e-06
-1.8452186073922972e-05   2.6620916125604834e-06   1.77959231904036e-05
-1.8452186073922972e-05   2.6620916125604834e-06   1.77959231904036e-05
-1.8452186073922972e-05   2.6620916125604834e-06   1.77959231904036e-05
-1.8452186073922972e-05   2.6620916125604834e-06   1.77959231904036e-05
-1.0697351157550479e-05   2.0956126827935233e-06   5.211085687642882e-06
-1.0697351157550479e-05   2.0956126827935233e-06   5.211085687642882e-06
-1.0697351157550479e-05   2.0956126827935233e-06   5.211085687642882e-06
-1.0697351157550479e-05   2.0956126827935233e-06   5.211085687642882e-06
-1.429480588570006e-05   2.6332586939855447e-06   1.0884255961176556e-05
-1.429480588570006e-05   2.6332586939855447e-06   1.0884255961176556e-05
-1.429480588570006e-05   2.6332586939855447e-06   1.0884255961176556e-05
-1.429480588570006e-05   2.6332586939855447e-06   1.0884255961176556e-05
-1.7335320719242555e-05   4.873241758576565e-06   8.166511887204922e-06
-1.7335320719242555e-05   4.873241758576565e-06   8.166511887204922e-06
-1.7335320719242555e-05   4.873241758576565e-06   8.166511887204922e-06
-1.7335320719242555e-05   4.873241758576565e-06   8.166511887204922e-06
-2.453009343092105e-05   3.9887313767087785e-06   -4.3554821947131895e-06
-2.453009343092105e-05   3.9887313767087785e-06   -4.3554821947131895e-06
-2.453009343092105e-05   3.9887313767087785e-06   -4.3554821947131895e-06
-2.453009343092105e-05   3.9887313767087785e-06   -4.3554821947131895e-06
-2.5279700808906525e-05   4.852759896072133e-06   1.049246923367662e-05
-2.5279700808906525e-05   4.852759896072133e-06   1.049246923367662e-05
-2.5279700808906525e-05   4.852759896072133e-06   1.049246923367662e-05
-2.5279700808906525e-05   4.852759896072133e-06   1.049246923367662e-05
-1.7693048326168366e-05   3.88978975197885e-06   -1.5741694844309474e-06
-1.7693048326168366e-05   3.88978975197885e-06   -1.5741694844309474e-06
-1.7693048326168366e-05   3.88978975197885e-06   -1.5741694844309474e-06
-1.7693048326168366e-05   3.88978975197885e-06   -1.5741694844309474e-06
-2.041410438253383e-05   4.319614222882541e-06   2.7030292603030066e-06
-2.041410438253383e-05   4.319614222882541e-06   2.7030292603030066e-06
-2.041410438253383e-05   4.319614222882541e-06   2.7030292603030066e-06
-2.041410438253383e-05   4.319614222882541e-06   2.7030292603030066e-06
-1.769304832616842e-05   4.8527598960721195e-06   1.1070251320132417e-05
-1.769304832616842e-05   4.8527598960721195e-06   1.1070251320132417e-05
-1.769304832616842e-05   4.8527598960721195e-06   1.1070251320132417e-05
-1.769304832616842e-05   4.8527598960721195e-06   1.1070251320132417e-05
-2.5279700808906498e-05   3.889789751978742e-06   -2.151951570886798e-06
-2.5279700808906498e-05   3.889789751978742e-06   -2.151951570886798e-06
-2.5279700808906498e-05   3.889789751978742e-06   -2.151951570886798e-06
-2.5279700808906498e-05   3.889789751978742e-06   -2.151951570886798e-06
-2.593262305347613e-05   4.7551615464608375e-06   1.2498274555700442e-05
-2.593262305347613e-05   4.7551615464608375e-06   1.2498274555700442e-05
-2.593262305347613e-05   4.7551615464608375e-06   1.2498274555700442e-05
-2.593262305347613e-05   4.7551615464608375e-06   1.2498274555700442e-05
-1.8095242021667852e-05   3.765574496994656e-06   2.9725065699940257e-08
-1.8095242021667852e-05   3.765574496994656e-06   2.9725065699940257e-08
-1.8095242021667852e-05   3.765574496994656e-06   2.9725065699940257e-08
-1.8095242021667852e-05   3.765574496994656e-06   2.9725065699940257e-08
-2.1211650819576715e-05   4.324022111336194e-06   4.888671160277187e-06
-2.1211650819576715e-05   4.324022111336194e-06   4.888671160277187e-06
-2.1211650819576715e-05   4.324022111336194e-06   4.888671160277187e-06
-2.1211650819576715e-05   4.324022111336194e-06   4.888671160277187e-06
-1.8095242021667906e-05   4.755161546460907e-06   1.309202678538015e-05
-1.8095242021667906e-05   4.755161546460907e-06   1.309202678538015e-05
-1.8095242021667906e-05   4.755161546460907e-06   1.309202678538015e-05
-1.8095242021667906e-05   4.755161546460907e-06   1.309202678538015e-05
-2.5932623053476103e-05   3.7655744969947646e-06   -5.640271639798227e-07
-2.5932623053476103e-05   3.7655744969947646e-06   -5.640271639798227e-07
-2.5932623053476103e-05   3.7655744969947646e-06   -5.640271639798227e-07
-2.5932623053476103e-05   3.7655744969947646e-06   -5.640271639798227e-07
-2.6689054585702835e-05   4.321534903936955e-06   1.597994348862973e-05
-2.6689054585702835e-05   4.321534903936955e-06   1.597994348862973e-05
-2.6689054585702835e-05   4.321534903936955e-06   1.597994348862973e-05
-2.6689054585702835e-05   4.321534903936955e-06   1.597994348862973e-05
-1.8452186073922908e-05   3.346184660362405e-06   2.8370394484745435e-06
-1.8452186073922908e-05   3.346184660362405e-06   2.8370394484745435e-06
-1.8452186073922908e-05   3.346184660362405e-06   2.8370394484745435e-06
-1.8452186073922908e-05   3.346184660362405e-06   2.8370394484745435e-06
-2.1382776706521276e-05   4.141135485783657e-06   7.244386674218253e-06
-2.1382776706521276e-05   4.141135485783657e-06   7.244386674218253e-06
-2.1382776706521276e-05   4.141135485783657e-06   7.244386674218253e-06
-2.1382776706521276e-05   4.141135485783657e-06   7.244386674218253e-06
8.110094230132942e-06   -9.31454106486789e-07   1.1356219791237854e-05
8.110094230132942e-06   -9.31454106486789e-07   1.1356219791237854e-05
8.110094230132942e-06   -9.31454106486789e-07   1.1356219791237854e-05
8.110094230132942e-06   -9.31454106486789e-07   1.1356219791237854e-05
2.160076742409927e-06   -1.0911520731014465e-09   1.9977417510143444e-06
2.160076742409927e-06   -1.0911520731014465e-09   1.9977417510143444e-06
2.160076742409927e-06   -1.0911520731014465e-09   1.9977417510143444e-06
2.160076742409927e-06   -1.0911520731014465e-09   1.9977417510143444e-06
1.8841999974000253e-06   -1.285803944728564e-06   1.057456140350914e-05
1.8841999974000253e-06   -1.285803944728564e-06   1.057456140350914e-05
1.8841999974000253e-06   -1.285803944728564e-06   1.057456140350914e-05
1.8841999974000253e-06   -1.285803944728564e-06   1.057456140350914e-05
7.42701695348801e-06   -3.1959373680248877e-07   7.568070186070286e-07
7.42701695348801e-06   -3.1959373680248877e-07   7.568070186070286e-07
7.42701695348801e-06   -3.1959373680248877e-07   7.568070186070286e-07
7.42701695348801e-06   -3.1959373680248877e-07   7.568070186070286e-07
4.608180304447136e-06   -6.795476561603959e-07   5.670840451956875e-06
4.608180304447136e-06   -6.795476561603959e-07   5.670840451956875e-06
4.608180304447136e-06   -6.795476561603959e-07   5.670840451956875e-06
4.608180304447136e-06   -6.795476561603959e-07   5.670840451956875e-06
7.42701695348802e-06   -1.2858039447285033e-06   9.994835278753539e-06
7.42701695348802e-06   -1.2858039447285033e-06   9.994835278753539e-06
7.42701695348802e-06   -1.2858039447285033e-06   9.994835278753539e-06
7.42701695348802e-06   -1.2858039447285033e-06   9.994835278753539e-06
1.8841999974000236e-06   -3.1959373680248877e-07   1.3365331433625761e-06
1.8841999974000236e-06   -3.1959373680248877e-07   1.3365331433625761e-06
1.8841999974000236e-06   -3.1959373680248877e-07   1.3365331433625761e-06
1.8841999974000236e-06   -3.1959373680248877e-07   1.3365331433625761e-06
1.5619891511112194e-06   -1.4069989921801232e-06   9.915684794062482e-06
1.5619891511112194e-06   -1.4069989921801232e-06   9.915684794062482e-06
1.5619891511112194e-06   -1.4069989921801232e-06   9.915684794062482e-06
1.5619891511112194e-06   -1.4069989921801232e-06   9.915684794062482e-06
6.847859052730202e-06   -4.558025137870944e-07   5.351837376618116e-07
6.847859052730202e-06   -4.558025137870944e-07   5.351837376618116e-07
6.847859052730202e-06   -4.558025137870944e-07   5.351837376618116e-07
6.847859052730202e-06   -4.558025137870944e-07   5.351837376618116e-07
4.2807800599787215e-06   -8.186852270277659e-07   5.031378353525257e-06
4.2807800599787215e-06   -8.186852270277659e-07   5.031378353525257e-06
4.2807800599787215e-06   -8.186852270277659e-07   5.031378353525257e-06
4.2807800599787215e-06   -8.186852270277659e-07   5.031378353525257e-06
6.847859052730214e-06   -1.4069989921799985e-06   9.344966907026773e-06
6.847859052730214e-06   -1.4069989921799985e-06   9.344966907026773e-06
6.847859052730214e-06   -1.4069989921799985e-06   9.344966907026773e-06
6.847859052730214e-06   -1.4069989921799985e-06   9.344966907026773e-06
1.5619891511112143e-06   -4.558025137870944e-07   1.1059016246974798e-06
1.5619891511112143e-06   -4.558025137870944e-07   1.1059016246974798e-06
1.5619891511112143e-06   -4.558025137870944e-07   1.1059016246974798e-06
1.5619891511112143e-06   -4.558025137870944e-07   1.1059016246974798e-06
1.2824570026285896e-06   -1.5646721752860405e-06   9.14739156406474e-06
1.2824570026285896e-06   -1.5646721752860405e-06   9.14739156406474e-06
1.2824570026285896e-06   -1.5646721752860405e-06   9.14739156406474e-06
1.2824570026285896e-06   -1.5646721752860405e-06   9.14739156406474e-06
6.168511946131893e-06   -6.805756454877389e-07   4.73508740346908e-07
6.168511946131893e-06   -6.805756454877389e-07   4.73508740346908e-07
6.168511946131893e-06   -6.805756454877389e-07   4.73508740346908e-07
6.168511946131893e-06   -6.805756454877389e-07   4.73508740346908e-07
3.7908168520822155e-06   -8.88422881764649e-07   4.561042238862665e-06
3.7908168520822155e-06   -8.88422881764649e-07   4.561042238862665e-06
3.7908168520822155e-06   -8.88422881764649e-07   4.561042238862665e-06
3.7908168520822155e-06   -8.88422881764649e-07   4.561042238862665e-06
2.1600767424099305e-06   4.6101831962558394e-07   1.5545565289283212e-05
2.1600767424099305e-06   4.6101831962558394e-07   1.5545565289283212e-05
2.1600767424099305e-06   4.6101831962558394e-07   1.5545565289283212e-05
2.1600767424099305e-06   4.6101831962558394e-07   1.5545565289283212e-05
-3.2540065274206596e-06   8.845740211878284e-07   6.776226593836309e-06
-3.2540065274206596e-06   8.845740211878284e-07   6.776226593836309e-06
-3.2540065274206596e-06   8.845740211878284e-07   6.776226593836309e-06
-3.2540065274206596e-06   8.845740211878284e-07   6.776226593836309e-06
-3.4967379513724082e-06   1.0368664781228078e-07   1.559154869081329e-05
-3.4967379513724082e-06   1.0368664781228078e-07   1.559154869081329e-05
-3.4967379513724082e-06   1.0368664781228078e-07   1.559154869081329e-05
-3.4967379513724082e-06   1.0368664781228078e-07   1.559154869081329e-05
1.8841999974000227e-06   5.261505043923026e-07   6.36984046224465e-06
1.8841999974000227e-06   5.261505043923026e-07   6.36984046224465e-06
1.8841999974000227e-06   5.261505043923026e-07   6.36984046224465e-06
1.8841999974000227e-06   5.261505043923026e-07   6.36984046224465e-06
-7.175830394129155e-07   4.574843042494132e-07   1.074734524368581e-05
-7.175830394129155e-07   4.574843042494132e-07   1.074734524368581e-05
-7.175830394129155e-07   4.574843042494132e-07   1.074734524368581e-05
-7.175830394129155e-07   4.574843042494132e-07   1.074734524368581e-05
1.8841999974000236e-06   1.0368664781219665e-07   1.533807037686519e-05
1.8841999974000236e-06   1.0368664781219665e-07   1.533807037686519e-05
1.8841999974000236e-06   1.0368664781219665e-07   1.533807037686519e-05
1.8841999974000236e-06   1.0368664781219665e-07   1.533807037686519e-05
-3.4967379513724082e-06   5.261505043924111e-07   6.62331877619276e-06
-3.4967379513724082e-06   5.261505043924111e-07   6.62331877619276e-06
-3.4967379513724082e-06   5.261505043924111e-07   6.62331877619276e-06
-3.4967379513724082e-06   5.261505043924111e-07   6.62331877619276e-06
-3.7467171643926244e-06   -1.8765321180063896e-07   1.5485338248491585e-05
-3.7467171643926244e-06   -1.8765321180063896e-07   1.5485338248491585e-05
-3.7467171643926244e-06   -1.8765321180063896e-07   1.5485338248491585e-05
-3.7467171643926244e-06   -1.8765321180063896e-07   1.5485338248491585e-05
1.5619891511112148e-06   2.2348984910099384e-07   6.390808552777627e-06
1.5619891511112148e-06   2.2348984910099384e-07   6.390808552777627e-06
1.5619891511112148e-06   2.2348984910099384e-07   6.390808552777627e-06
1.5619891511112148e-06   2.2348984910099384e-07   6.390808552777627e-06
-9.771439824575386e-07   2.0819938592012317e-07   1.0631871386634277e-05
-9.771439824575386e-07   2.0819938592012317e-07   1.0631871386634277e-05
-9.771439824575386e-07   2.0819938592012317e-07   1.0631871386634277e-05
-9.771439824575386e-07   2.0819938592012317e-07   1.0631871386634277e-05
1.5619891511112194e-06   -1.8765321180056638e-07   1.5238652411950627e-05
1.5619891511112194e-06   -1.8765321180056638e-07   1.5238652411950627e-05
1.5619891511112194e-06   -1.8765321180056638e-07   1.5238652411950627e-05
1.5619891511112194e-06   -1.8765321180056638e-07   1.5238652411950627e-05
-3.7467171643926244e-06   2.2348984910099384e-07   6.637494389318639e-06
-3.7467171643926244e-06   2.2348984910099384e-07   6.637494389318639e-06
-3.7467171643926244e-06   2.2348984910099384e-07   6.637494389318639e-06
-3.7467171643926244e-06   2.2348984910099384e-07   6.637494389318639e-06
-3.993149331642755e-06   -4.734194981575318e-07   1.5682855004966394e-05
-3.993149331642755e-06   -4.734194981575318e-07   1.5682855004966394e-05
-3.993149331642755e-06   -4.734194981575318e-07   1.5682855004966394e-05
-3.993149331642755e-06   -4.734194981575318e-07   1.5682855004966394e-05
1.2824570026285868e-06   -8.445668580377846e-08   6.656800093768767e-06
1.2824570026285868e-06   -8.445668580377846e-08   6.656800093768767e-06
1.2824570026285868e-06   -8.445668580377846e-08   6.656800093768767e-06
1.2824570026285868e-06   -8.445668580377846e-08   6.656800093768767e-06
-1.1961858251825767e-06   -1.4240486030290232e-08   1.0745741753589872e-05
-1.1961858251825767e-06   -1.4240486030290232e-08   1.0745741753589872e-05
-1.1961858251825767e-06   -1.4240486030290232e-08   1.0745741753589872e-05
-1.1961858251825767e-06   -1.4240486030290232e-08   1.0745741753589872e-05
-3.2540065274206596e-06   1.7633961623492573e-06   1.722544649848548e-05
-3.2540065274206596e-06   1.7633961623492573e-06   1.722544649848548e-05
-3.2540065274206596e-06   1.7633961623492573e-06   1.722544649848548e-05
-3.2540065274206596e-06   1.7633961623492573e-06   1.722544649848548e-05
-8.572033067477466e-06   1.6658146164748398e-06   8.303520004199563e-06
-8.572033067477466e-06   1.6658146164748398e-06   8.303520004199563e-06
-8.572033067477466e-06   1.6658146164748398e-06   8.303520004199563e-06
-8.572033067477466e-06   1.6658146164748398e-06   8.303520004199563e-06
-8.805270213509562e-06   1.439863459210271e-06   1.707291103555833e-05
-8.805270213509562e-06   1.439863459210271e-06   1.707291103555833e-05
-8.805270213509562e-06   1.439863459210271e-06   1.707291103555833e-05
-8.805270213509562e-06   1.439863459210271e-06   1.707291103555833e-05
-3.496737951372404e-06   1.3364995384302627e-06   8.287375617797862e-06
-3.496737951372404e-06   1.3364995384302627e-06   8.287375617797862e-06
-3.496737951372404e-06   1.3364995384302627e-06   8.287375617797862e-06
-3.496737951372404e-06   1.3364995384302627e-06   8.287375617797862e-06
-6.043600932712343e-06   1.5133018201390555e-06   1.2426065884339657e-05
-6.043600932712343e-06   1.5133018201390555e-06   1.2426065884339657e-05
-6.043600932712343e-06   1.5133018201390555e-06   1.2426065884339657e-05
-6.043600932712343e-06   1.5133018201390555e-06   1.2426065884339657e-05
-3.4967379513724082e-06   1.439863459210244e-06   1.713492938802642e-05
-3.4967379513724082e-06   1.439863459210244e-06   1.713492938802642e-05
-3.4967379513724082e-06   1.439863459210244e-06   1.713492938802642e-05
-3.4967379513724082e-06   1.439863459210244e-06   1.713492938802642e-05
-8.805270213509562e-06   1.3364995384302627e-06   8.225357265329838e-06
-8.805270213509562e-06   1.3364995384302627e-06   8.225357265329838e-06
-8.805270213509562e-06   1.3364995384302627e-06   8.225357265329838e-06
-8.805270213509562e-06   1.3364995384302627e-06   8.225357265329838e-06
-9.046023646966243e-06   1.1200790774145005e-06   1.7182905382903332e-05
-9.046023646966243e-06   1.1200790774145005e-06   1.7182905382903332e-05
-9.046023646966243e-06   1.1200790774145005e-06   1.7182905382903332e-05
-9.046023646966243e-06   1.1200790774145005e-06   1.7182905382903332e-05
-3.746717164392618e-06   1.0089038397666358e-06   8.417433054535995e-06
-3.746717164392618e-06   1.0089038397666358e-06   8.417433054535995e-06
-3.746717164392618e-06   1.0089038397666358e-06   8.417433054535995e-06
-3.746717164392618e-06   1.0089038397666358e-06   8.417433054535995e-06
-6.250998724194372e-06   1.2633343891126905e-06   1.2438577324597991e-05
-6.250998724194372e-06   1.2633343891126905e-06   1.2438577324597991e-05
-6.250998724194372e-06   1.2633343891126905e-06   1.2438577324597991e-05
-6.250998724194372e-06   1.2633343891126905e-06   1.2438577324597991e-05
-3.7467171643926244e-06   1.12007907741443e-06   1.7249610525492138e-05
-3.7467171643926244e-06   1.12007907741443e-06   1.7249610525492138e-05
-3.7467171643926244e-06   1.12007907741443e-06   1.7249610525492138e-05
-3.7467171643926244e-06   1.12007907741443e-06   1.7249610525492138e-05
-9.046023646966243e-06   1.0089038397666358e-06   8.35072791194742e-06
-9.046023646966243e-06   1.0089038397666358e-06   8.35072791194742e-06
-9.046023646966243e-06   1.0089038397666358e-06   8.35072791194742e-06
-9.046023646966243e-06   1.0089038397666358e-06   8.35072791194742e-06
-9.282927694517854e-06   8.123814525616948e-07   1.745592985315681e-05
-9.282927694517854e-06   8.123814525616948e-07   1.745592985315681e-05
-9.282927694517854e-06   8.123814525616948e-07   1.745592985315681e-05
-9.282927694517854e-06   8.123814525616948e-07   1.745592985315681e-05
-3.9931493316427534e-06   6.955149069546316e-07   8.709752509062727e-06
-3.9931493316427534e-06   6.955149069546316e-07   8.709752509062727e-06
-3.9931493316427534e-06   6.955149069546316e-07   8.709752509062727e-06
-3.9931493316427534e-06   6.955149069546316e-07   8.709752509062727e-06
-6.4717514148057915e-06   1.0185213306824906e-06   1.2646952126764286e-05
-6.4717514148057915e-06   1.0185213306824906e-06   1.2646952126764286e-05
-6.4717514148057915e-06   1.0185213306824906e-06   1.2646952126764286e-05
-6.4717514148057915e-06   1.0185213306824906e-06   1.2646952126764286e-05
-8.572033067477466e-06   3.0312975494783394e-06   1.5184337084474492e-05
-8.572033067477466e-06   3.0312975494783394e-06   1.5184337084474492e-05
-8.572033067477466e-06   3.0312975494783394e-06   1.5184337084474492e-05
-8.572033067477466e-06   3.0312975494783394e-06   1.5184337084474492e-05
-1.3799383111815514e-05   2.4821801350771505e-06   6.1426165619370816e-06
-1.3799383111815514e-05   2.4821801350771505e-06   6.1426165619370816e-06
-1.3799383111815514e-05   2.4821801350771505e-06   6.1426165619370816e-06
-1.3799383111815514e-05   2.4821801350771505e-06   6.1426165619370816e-06
-1.4053978682322638e-05   2.7160555682307274e-06   1.490680387254955e-05
-1.4053978682322638e-05   2.7160555682307274e-06   1.490680387254955e-05
-1.4053978682322638e-05   2.7160555682307274e-06   1.490680387254955e-05
-1.4053978682322638e-05   2.7160555682307274e-06   1.490680387254955e-05
-8.80527021350956e-06   2.1505821133401947e-06   6.498240497462349e-06
-8.80527021350956e-06   2.1505821133401947e-06   6.498240497462349e-06
-8.80527021350956e-06   2.1505821133401947e-06   6.498240497462349e-06
-8.80527021350956e-06   2.1505821133401947e-06   6.498240497462349e-06
-1.1280247218223686e-05   2.5514026137057715e-06   1.038270987176705e-05
-1.1280247218223686e-05   2.5514026137057715e-06   1.038270987176705e-05
-1.1280247218223686e-05   2.5514026137057715e-06   1.038270987176705e-05
-1.1280247218223686e-05   2.5514026137057715e-06   1.038270987176705e-05
-8.805270213509562e-06   2.716055568230721e-06   1.5246087945483913e-05
-8.805270213509562e-06   2.716055568230721e-06   1.5246087945483913e-05
-8.805270213509562e-06   2.716055568230721e-06   1.5246087945483913e-05
-8.805270213509562e-06   2.716055568230721e-06   1.5246087945483913e-05
-1.4053978682322584e-05   2.1505821133401947e-06   6.1589564245280405e-06
-1.4053978682322584e-05   2.1505821133401947e-06   6.1589564245280405e-06
-1.4053978682322584e-05   2.1505821133401947e-06   6.1589564245280405e-06
-1.4053978682322584e-05   2.1505821133401947e-06   6.1589564245280405e-06
-1.4355046217234325e-05   2.423501010666426e-06   1.5396699590853984e-05
-1.4355046217234325e-05   2.423501010666426e-06   1.5396699590853984e-05
-1.4355046217234325e-05   2.423501010666426e-06   1.5396699590853984e-05
-1.4355046217234325e-05   2.423501010666426e-06   1.5396699590853984e-05
-9.046023646966219e-06   1.8483834276061123e-06   6.893399190243391e-06
-9.046023646966219e-06   1.8483834276061123e-06   6.893399190243391e-06
-9.046023646966219e-06   1.8483834276061123e-06   6.893399190243391e-06
-9.046023646966219e-06   1.8483834276061123e-06   6.893399190243391e-06
-1.144406978603862e-05   2.317264579108783e-06   1.060881406446241e-05
-1.144406978603862e-05   2.317264579108783e-06   1.060881406446241e-05
-1.144406978603862e-05   2.317264579108783e-06   1.060881406446241e-05
-1.144406978603862e-05   2.317264579108783e-06   1.060881406446241e-05
-9.046023646966243e-06   2.423501010666419e-06   1.574177014069015e-05
-9.046023646966243e-06   2.423501010666419e-06   1.574177014069015e-05
-9.046023646966243e-06   2.423501010666419e-06   1.574177014069015e-05
-9.046023646966243e-06   2.423501010666419e-06   1.574177014069015e-05
-1.4355046217234298e-05   1.8483834276061123e-06   6.548328640407252e-06
-1.4355046217234298e-05   1.8483834276061123e-06   6.548328640407252e-06
-1.4355046217234298e-05   1.8483834276061123e-06   6.548328640407252e-06
-1.4355046217234298e-05   1.8483834276061123e-06   6.548328640407252e-06
-1.4612837571465148e-05   2.0956126827935233e-06   1.5866963582316274e-05
-1.4612837571465148e-05   2.0956126827935233e-06   1.5866963582316274e-05
-1.4612837571465148e-05   2.0956126827935233e-06   1.5866963582316274e-05
-1.4612837571465148e-05   2.0956126827935233e-06   1.5866963582316274e-05
-9.282927694517827e-06   1.5246738058607512e-06   7.326343780230456e-06
-9.282927694517827e-06   1.5246738058607512e-06   7.326343780230456e-06
-9.282927694517827e-06   1.5246738058607512e-06   7.326343780230456e-06
-9.282927694517827e-06   1.5246738058607512e-06   7.326343780230456e-06
-1.172793990530655e-05   2.0819660927818597e-06   1.1066988759392266e-05
-1.172793990530655e-05   2.0819660927818597e-06   1.1066988759392266e-05
-1.172793990530655e-05   2.0819660927818597e-06   1.1066988759392266e-05
-1.172793990530655e-05   2.0819660927818597e-06   1.1066988759392266e-05
-1.3799383111815514e-05   3.988731376708779e-06   7.112117224589718e-06
-1.3799383111815514e-05   3.988731376708779e-06   7.112117224589718e-06
-1.3799383111815514e-05   3.988731376708779e-06   7.112117224589718e-06
-1.3799383111815514e-05   3.988731376708779e-06   7.112117224589718e-06
-1.8536666761954012e-05   3.0656610666571563e-06   -1.337197711672166e-06
-1.8536666761954012e-05   3.0656610666571563e-06   -1.337197711672166e-06
-1.8536666761954012e-05   3.0656610666571563e-06   -1.337197711672166e-06
-1.8536666761954012e-05   3.0656610666571563e-06   -1.337197711672166e-06
-1.9190342463573976e-05   3.889789751978742e-06   8.7839904586546e-06
-1.9190342463573976e-05   3.889789751978742e-06   8.7839904586546e-06
-1.9190342463573976e-05   3.889789751978742e-06   8.7839904586546e-06
-1.9190342463573976e-05   3.889789751978742e-06   8.7839904586546e-06
-1.4053978682322567e-05   2.8968617512577623e-06   8.191409570017607e-07
-1.4053978682322567e-05   2.8968617512577623e-06   8.191409570017607e-07
-1.4053978682322567e-05   2.8968617512577623e-06   8.191409570017607e-07
-1.4053978682322567e-05   2.8968617512577623e-06   8.191409570017607e-07
-1.579739629168383e-05   3.395081326035103e-06   3.4259052277381885e-06
-1.579739629168383e-05   3.395081326035103e-06   3.4259052277381885e-06
-1.579739629168383e-05   3.395081326035103e-06   3.4259052277381885e-06
-1.579739629168383e-05   3.395081326035103e-06   3.4259052277381885e-06
-1.4053978682322584e-05   3.889789751978827e-06   9.379747259087188e-06
-1.4053978682322584e-05   3.889789751978827e-06   9.379747259087188e-06
-1.4053978682322584e-05   3.889789751978827e-06   9.379747259087188e-06
-1.4053978682322584e-05   3.889789751978827e-06   9.379747259087188e-06
-1.9190342463573976e-05   2.8968617512577623e-06   2.2338415656911886e-07
-1.9190342463573976e-05   2.8968617512577623e-06   2.2338415656911886e-07
-1.9190342463573976e-05   2.8968617512577623e-06   2.2338415656911886e-07
-1.9190342463573976e-05   2.8968617512577623e-06   2.2338415656911886e-07
-1.9752126128191275e-05   3.765574496994656e-06   1.0395353276038913e-05
-1.9752126128191275e-05   3.765574496994656e-06   1.0395353276038913e-05
-1.9752126128191275e-05   3.765574496994656e-06   1.0395353276038913e-05
-1.9752126128191275e-05   3.765574496994656e-06   1.0395353276038913e-05
-1.4355046217234276e-05   2.754357403756541e-06   2.0069503470535282e-06
-1.4355046217234276e-05   2.754357403756541e-06   2.0069503470535282e-06
-1.4355046217234276e-05   2.754357403756541e-06   2.0069503470535282e-06
-1.4355046217234276e-05   2.754357403756541e-06   2.0069503470535282e-06
-1.6427231809546466e-05   3.3522965949731682e-06   5.101829486177584e-06
-1.6427231809546466e-05   3.3522965949731682e-06   5.101829486177584e-06
-1.6427231809546466e-05   3.3522965949731682e-06   5.101829486177584e-06
-1.6427231809546466e-05   3.3522965949731682e-06   5.101829486177584e-06
-1.4355046217234298e-05   3.765574496994662e-06   1.100208353198187e-05
-1.4355046217234298e-05   3.765574496994662e-06   1.100208353198187e-05
-1.4355046217234298e-05   3.765574496994662e-06   1.100208353198187e-05
-1.4355046217234298e-05   3.765574496994662e-06   1.100208353198187e-05
-1.975212612819133e-05   2.754357403756541e-06   1.400220091110735e-06
-1.975212612819133e-05   2.754357403756541e-06   1.400220091110735e-06
-1.975212612819133e-05   2.754357403756541e-06   1.400220091110735e-06
-1.975212612819133e-05   2.754357403756541e-06   1.400220091110735e-06
-2.0423356370304784e-05   3.3461846603622964e-06   1.324371518741322e-05
-2.0423356370304784e-05   3.3461846603622964e-06   1.324371518741322e-05
-2.0423356370304784e-05   3.3461846603622964e-06   1.324371518741322e-05
-2.0423356370304784e-05   3.3461846603622964e-06   1.324371518741322e-05
-1.4612837571465077e-05   2.3643688043708654e-06   4.148606702942051e-06
-1.4612837571465077e-05   2.3643688043708654e-06   4.148606702942051e-06
-1.4612837571465077e-05   2.3643688043708654e-06   4.148606702942051e-06
-1.4612837571465077e-05   2.3643688043708654e-06   4.148606702942051e-06
-1.6579573436591307e-05   3.1749396882648027e-06   6.940157281148972e-06
-1.6579573436591307e-05   3.1749396882648027e-06   6.940157281148972e-06
-1.6579573436591307e-05   3.1749396882648027e-06   6.940157281148972e-06
-1.6579573436591307e-05   3.1749396882648027e-06   6.940157281148972e-06
1.7713464295590172e-06   -1.0911520731047852e-09   8.526719342188429e-06
1.7713464295590172e-06   -1.0911520731047852e-09   8.526719342188429e-06
1.7713464295590172e-06   -1.0911520731047852e-09   8.526719342188429e-06
1.7713464295590172e-06   -1.0911520731047852e-09   8.526719342188429e-06
-1.6771270699265442e-06   8.957942232899968e-07   3.317394734930312e-06
-1.6771270699265442e-06   8.957942232899968e-07   3.317394734930312e-06
-1.6771270699265442e-06   8.957942232899968e-07   3.317394734930312e-06
-1.6771270699265442e-06   8.957942232899968e-07   3.317394734930312e-06
-1.8747451297783281e-06   -3.195937368025972e-07   8.3916079497035e-06
-1.8747451297783281e-06   -3.195937368025972e-07   8.3916079497035e-06
-1.8747451297783281e-06   -3.195937368025972e-07   8.3916079497035e-06
-1.8747451297783281e-06   -3.195937368025972e-07   8.3916079497035e-06
1.1717496274331956e-06   5.985192303095558e-07   2.7632489074170847e-06
1.1717496274331956e-06   5.985192303095558e-07   2.7632489074170847e-06
1.1717496274331956e-06   5.985192303095558e-07   2.7632489074170847e-06
1.1717496274331956e-06   5.985192303095558e-07   2.7632489074170847e-06
-2.3706589361149455e-07   2.4197179377435755e-07   5.325203237746027e-06
-2.3706589361149455e-07   2.4197179377435755e-07   5.325203237746027e-06
-2.3706589361149455e-07   2.4197179377435755e-07   5.325203237746027e-06
-2.3706589361149455e-07   2.4197179377435755e-07   5.325203237746027e-06
1.1717496274331928e-06   -3.1959373680255807e-07   7.840740169436273e-06
1.1717496274331928e-06   -3.1959373680255807e-07   7.840740169436273e-06
1.1717496274331928e-06   -3.1959373680255807e-07   7.840740169436273e-06
1.1717496274331928e-06   -3.1959373680255807e-07   7.840740169436273e-06
-1.8747451297783281e-06   5.985192303095558e-07   3.3141166876842843e-06
-1.8747451297783281e-06   5.985192303095558e-07   3.3141166876842843e-06
-1.8747451297783281e-06   5.985192303095558e-07   3.3141166876842843e-06
-1.8747451297783281e-06   5.985192303095558e-07   3.3141166876842843e-06
-2.1192413272494297e-06   -4.5580251378720283e-07   8.160319893032802e-06
-2.1192413272494297e-06   -4.5580251378720283e-07   8.160319893032802e-06
-2.1192413272494297e-06   -4.5580251378720283e-07   8.160319893032802e-06
-2.1192413272494297e-06   -4.5580251378720283e-07   8.160319893032802e-06
6.504732142523404e-07   4.364611794791884e-07   3.008770774570033e-06
6.504732142523404e-07   4.364611794791884e-07   3.008770774570033e-06
6.504732142523404e-07   4.364611794791884e-07   3.008770774570033e-06
6.504732142523404e-07   4.364611794791884e-07   3.008770774570033e-06
-5.589953149945144e-07   1.1542238071999417e-07   5.217174935903597e-06
-5.589953149945144e-07   1.1542238071999417e-07   5.217174935903597e-06
-5.589953149945144e-07   1.1542238071999417e-07   5.217174935903597e-06
-5.589953149945144e-07   1.1542238071999417e-07   5.217174935903597e-06
6.504732142523383e-07   -4.558025137871101e-07   7.624961677072902e-06
6.504732142523383e-07   -4.558025137871101e-07   7.624961677072902e-06
6.504732142523383e-07   -4.558025137871101e-07   7.624961677072902e-06
6.504732142523383e-07   -4.558025137871101e-07   7.624961677072902e-06
-2.1192413272494263e-06   4.364611794791884e-07   3.5441289905298106e-06
-2.1192413272494263e-06   4.364611794791884e-07   3.5441289905298106e-06
-2.1192413272494263e-06   4.364611794791884e-07   3.5441289905298106e-06
-2.1192413272494263e-06   4.364611794791884e-07   3.5441289905298106e-06
-2.3242154327261696e-06   -6.805756454876305e-07   8.06076239307814e-06
-2.3242154327261696e-06   -6.805756454876305e-07   8.06076239307814e-06
-2.3242154327261696e-06   -6.805756454876305e-07   8.06076239307814e-06
-2.3242154327261696e-06   -6.805756454876305e-07   8.06076239307814e-06
-4.274752384377865e-09   9.427344507091043e-08   3.7292851381734665e-06
-4.274752384377865e-09   9.427344507091043e-08   3.7292851381734665e-06
-4.274752384377865e-09   9.427344507091043e-08   3.7292851381734665e-06
-4.274752384377865e-09   9.427344507091043e-08   3.7292851381734665e-06
-9.113048057762617e-07   1.73845186521044e-09   5.296522889749984e-06
-9.113048057762617e-07   1.73845186521044e-09   5.296522889749984e-06
-9.113048057762617e-07   1.73845186521044e-09   5.296522889749984e-06
-9.113048057762617e-07   1.73845186521044e-09   5.296522889749984e-06
-1.6771270699265442e-06   8.845740211878246e-07   1.3589201989290794e-05
-1.6771270699265442e-06   8.845740211878246e-07   1.3589201989290794e-05
-1.6771270699265442e-06   8.845740211878246e-07   1.3589201989290794e-05
-1.6771270699265442e-06   8.845740211878246e-07   1.3589201989290794e-05
-4.560414361967912e-06   1.064542239946468e-06   8.891704100477053e-06
-4.560414361967912e-06   1.064542239946468e-06   8.891704100477053e-06
-4.560414361967912e-06   1.064542239946468e-06   8.891704100477053e-06
-4.560414361967912e-06   1.064542239946468e-06   8.891704100477053e-06
-4.710235358548393e-06   5.261505043924111e-07   1.3549274195105167e-05
-4.710235358548393e-06   5.261505043924111e-07   1.3549274195105167e-05
-4.710235358548393e-06   5.261505043924111e-07   1.3549274195105167e-05
-4.710235358548393e-06   5.261505043924111e-07   1.3549274195105167e-05
-1.8747451297783283e-06   7.334153819250856e-07   8.699098220635438e-06
-1.8747451297783283e-06   7.334153819250856e-07   8.699098220635438e-06
-1.8747451297783283e-06   7.334153819250856e-07   8.699098220635438e-06
-1.8747451297783283e-06   7.334153819250856e-07   8.699098220635438e-06
-3.2263609886400665e-06   7.628662520870605e-07   1.0934120796641191e-05
-3.2263609886400665e-06   7.628662520870605e-07   1.0934120796641191e-05
-3.2263609886400665e-06   7.628662520870605e-07   1.0934120796641191e-05
-3.2263609886400665e-06   7.628662520870605e-07   1.0934120796641191e-05
-1.874745129778323e-06   5.261505043923917e-07   1.3424915268585422e-05
-1.874745129778323e-06   5.261505043923917e-07   1.3424915268585422e-05
-1.874745129778323e-06   5.261505043923917e-07   1.3424915268585422e-05
-1.874745129778323e-06   5.261505043923917e-07   1.3424915268585422e-05
-4.710235358548393e-06   7.334153819250856e-07   8.823457147155071e-06
-4.710235358548393e-06   7.334153819250856e-07   8.823457147155071e-06
-4.710235358548393e-06   7.334153819250856e-07   8.823457147155071e-06
-4.710235358548393e-06   7.334153819250856e-07   8.823457147155071e-06
-4.864880012962742e-06   2.2348984910099384e-07   1.3568635714188257e-05
-4.864880012962742e-06   2.2348984910099384e-07   1.3568635714188257e-05
-4.864880012962742e-06   2.2348984910099384e-07   1.3568635714188257e-05
-4.864880012962742e-06   2.2348984910099384e-07   1.3568635714188257e-05
-2.119241327249425e-06   4.291713375599495e-07   8.869162344924036e-06
-2.119241327249425e-06   4.291713375599495e-07   8.869162344924036e-06
-2.119241327249425e-06   4.291713375599495e-07   8.869162344924036e-06
-2.119241327249425e-06   4.291713375599495e-07   8.869162344924036e-06
-3.3795821536974725e-06   5.21724943434998e-07   1.0914198225479268e-05
-3.3795821536974725e-06   5.21724943434998e-07   1.0914198225479268e-05
-3.3795821536974725e-06   5.21724943434998e-07   1.0914198225479268e-05
-3.3795821536974725e-06   5.21724943434998e-07   1.0914198225479268e-05
-2.1192413272494263e-06   2.234898491009902e-07   1.344522682111284e-05
-2.1192413272494263e-06   2.234898491009902e-07   1.344522682111284e-05
-2.1192413272494263e-06   2.234898491009902e-07   1.344522682111284e-05
-2.1192413272494263e-06   2.234898491009902e-07   1.344522682111284e-05
-4.864880012962742e-06   4.291713375599495e-07   8.992571237999378e-06
-4.864880012962742e-06   4.291713375599495e-07   8.992571237999378e-06
-4.864880012962742e-06   4.291713375599495e-07   8.992571237999378e-06
-4.864880012962742e-06   4.291713375599495e-07   8.992571237999378e-06
-5.016875473917286e-06   -8.445668580377846e-08   1.3824907708315422e-05
-5.016875473917286e-06   -8.445668580377846e-08   1.3824907708315422e-05
-5.016875473917286e-06   -8.445668580377846e-08   1.3824907708315422e-05
-5.016875473917286e-06   -8.445668580377846e-08   1.3824907708315422e-05
-2.324215432726168e-06   1.0106311368709205e-07   9.225829093302416e-06
-2.324215432726168e-06   1.0106311368709205e-07   9.225829093302416e-06
-2.324215432726168e-06   1.0106311368709205e-07   9.225829093302416e-06
-2.324215432726168e-06   1.0106311368709205e-07   9.225829093302416e-06
-3.5321141448839205e-06   2.860721662634744e-07   1.1127988182019479e-05
-3.5321141448839205e-06   2.860721662634744e-07   1.1127988182019479e-05
-3.5321141448839205e-06   2.860721662634744e-07   1.1127988182019479e-05
-3.5321141448839205e-06   2.860721662634744e-07   1.1127988182019479e-05
-4.560414361967912e-06   1.6658146164748059e-06   1.528302525843385e-05
-4.560414361967912e-06   1.6658146164748059e-06   1.528302525843385e-05
-4.560414361967912e-06   1.6658146164748059e-06   1.528302525843385e-05
-4.560414361967912e-06   1.6658146164748059e-06   1.528302525843385e-05
-7.425906196023606e-06   1.2859623759233765e-06   1.0279294190676839e-05
-7.425906196023606e-06   1.2859623759233765e-06   1.0279294190676839e-05
-7.425906196023606e-06   1.2859623759233765e-06   1.0279294190676839e-05
-7.425906196023606e-06   1.2859623759233765e-06   1.0279294190676839e-05
-7.55322585007352e-06   1.3364995384302627e-06   1.4999569855875727e-05
-7.55322585007352e-06   1.3364995384302627e-06   1.4999569855875727e-05
-7.55322585007352e-06   1.3364995384302627e-06   1.4999569855875727e-05
-7.55322585007352e-06   1.3364995384302627e-06   1.4999569855875727e-05
-4.71023535854839e-06   9.80230903706021e-07   1.0475013550835107e-05
-4.71023535854839e-06   9.80230903706021e-07   1.0475013550835107e-05
-4.71023535854839e-06   9.80230903706021e-07   1.0475013550835107e-05
-4.71023535854839e-06   9.80230903706021e-07   1.0475013550835107e-05
-6.066035529308134e-06   1.2905426400080513e-06   1.2548493460320134e-05
-6.066035529308134e-06   1.2905426400080513e-06   1.2548493460320134e-05
-6.066035529308134e-06   1.2905426400080513e-06   1.2548493460320134e-05
-6.066035529308134e-06   1.2905426400080513e-06   1.2548493460320134e-05
-4.710235358548393e-06   1.3364995384302504e-06   1.5213331036710283e-05
-4.710235358548393e-06   1.3364995384302504e-06   1.5213331036710283e-05
-4.710235358548393e-06   1.3364995384302504e-06   1.5213331036710283e-05
-4.710235358548393e-06   1.3364995384302504e-06   1.5213331036710283e-05
-7.55322585007352e-06   9.80230903706021e-07   1.0261252370000618e-05
-7.55322585007352e-06   9.80230903706021e-07   1.0261252370000618e-05
-7.55322585007352e-06   9.80230903706021e-07   1.0261252370000618e-05
-7.55322585007352e-06   9.80230903706021e-07   1.0261252370000618e-05
-7.68945619204791e-06   1.0089038397666358e-06   1.5145003271257334e-05
-7.68945619204791e-06   1.0089038397666358e-06   1.5145003271257334e-05
-7.68945619204791e-06   1.0089038397666358e-06   1.5145003271257334e-05
-7.68945619204791e-06   1.0089038397666358e-06   1.5145003271257334e-05
-4.8648800129627365e-06   6.696186595194636e-07   1.0640947414263788e-05
-4.8648800129627365e-06   6.696186595194636e-07   1.0640947414263788e-05
-4.8648800129627365e-06   6.696186595194636e-07   1.0640947414263788e-05
-4.8648800129627365e-06   6.696186595194636e-07   1.0640947414263788e-05
-6.1748508105414235e-06   1.0463314268967672e-06   1.2598204416468538e-05
-6.1748508105414235e-06   1.0463314268967672e-06   1.2598204416468538e-05
-6.1748508105414235e-06   1.0463314268967672e-06   1.2598204416468538e-05
-6.1748508105414235e-06   1.0463314268967672e-06   1.2598204416468538e-05
-4.864880012962742e-06   1.008903839766712e-06   1.5348574379405627e-05
-4.864880012962742e-06   1.008903839766712e-06   1.5348574379405627e-05
-4.864880012962742e-06   1.008903839766712e-06   1.5348574379405627e-05
-4.864880012962742e-06   1.008903839766712e-06   1.5348574379405627e-05
-7.68945619204791e-06   6.696186595194636e-07   1.0437376306115441e-05
-7.68945619204791e-06   6.696186595194636e-07   1.0437376306115441e-05
-7.68945619204791e-06   6.696186595194636e-07   1.0437376306115441e-05
-7.68945619204791e-06   6.696186595194636e-07   1.0437376306115441e-05
-7.822886122009313e-06   6.955149069546316e-07   1.54526046313979e-05
-7.822886122009313e-06   6.955149069546316e-07   1.54526046313979e-05
-7.822886122009313e-06   6.955149069546316e-07   1.54526046313979e-05
-7.822886122009313e-06   6.955149069546316e-07   1.54526046313979e-05
-5.016875473917296e-06   3.757185656225268e-07   1.0967798022710568e-05
-5.016875473917296e-06   3.757185656225268e-07   1.0967798022710568e-05
-5.016875473917296e-06   3.757185656225268e-07   1.0967798022710568e-05
-5.016875473917296e-06   3.757185656225268e-07   1.0967798022710568e-05
-6.296047992987294e-06   8.06026043079916e-07   1.2841567734686013e-05
-6.296047992987294e-06   8.06026043079916e-07   1.2841567734686013e-05
-6.296047992987294e-06   8.06026043079916e-07   1.2841567734686013e-05
-6.296047992987294e-06   8.06026043079916e-07   1.2841567734686013e-05
-7.425906196023606e-06   2.482180135077181e-06   1.3223680920481165e-05
-7.425906196023606e-06   2.482180135077181e-06   1.3223680920481165e-05
-7.425906196023606e-06   2.482180135077181e-06   1.3223680920481165e-05
-7.425906196023606e-06   2.482180135077181e-06   1.3223680920481165e-05
-1.024796637413543e-05   1.7445690827282362e-06   8.077680658885521e-06
-1.024796637413543e-05   1.7445690827282362e-06   8.077680658885521e-06
-1.024796637413543e-05   1.7445690827282362e-06   8.077680658885521e-06
-1.024796637413543e-05   1.7445690827282362e-06   8.077680658885521e-06
-1.0388039677637379e-05   2.1505821133401947e-06   1.283593408217521e-05
-1.0388039677637379e-05   2.1505821133401947e-06   1.283593408217521e-05
-1.0388039677637379e-05   2.1505821133401947e-06   1.283593408217521e-05
-1.0388039677637379e-05   2.1505821133401947e-06   1.283593408217521e-05
-7.553225850073517e-06   1.423050436951778e-06   8.547763375401789e-06
-7.553225850073517e-06   1.423050436951778e-06   8.547763375401789e-06
-7.553225850073517e-06   1.423050436951778e-06   8.547763375401789e-06
-7.553225850073517e-06   1.423050436951778e-06   8.547763375401789e-06
-8.884893492391656e-06   1.931926968845696e-06   1.0461883526795637e-05
-8.884893492391656e-06   1.931926968845696e-06   1.0461883526795637e-05
-8.884893492391656e-06   1.931926968845696e-06   1.0461883526795637e-05
-8.884893492391656e-06   1.931926968845696e-06   1.0461883526795637e-05
-7.55322585007352e-06   2.1505821133402248e-06   1.3272453088008238e-05
-7.55322585007352e-06   2.1505821133402248e-06   1.3272453088008238e-05
-7.55322585007352e-06   2.1505821133402248e-06   1.3272453088008238e-05
-7.55322585007352e-06   2.1505821133402248e-06   1.3272453088008238e-05
-1.0388039677637379e-05   1.423050436951778e-06   8.111244369568679e-06
-1.0388039677637379e-05   1.423050436951778e-06   8.111244369568679e-06
-1.0388039677637379e-05   1.423050436951778e-06   8.111244369568679e-06
-1.0388039677637379e-05   1.423050436951778e-06   8.111244369568679e-06
-1.0580545869977824e-05   1.8483834276061123e-06   1.3260519845963007e-05
-1.0580545869977824e-05   1.8483834276061123e-06   1.3260519845963007e-05
-1.0580545869977824e-05   1.8483834276061123e-06   1.3260519845963007e-05
-1.0580545869977824e-05   1.8483834276061123e-06   1.3260519845963007e-05
-7.689456192047902e-06   1.1364589216220555e-06   8.869191753003557e-06
-7.689456192047902e-06   1.1364589216220555e-06   8.869191753003557e-06
-7.689456192047902e-06   1.1364589216220555e-06   8.869191753003557e-06
-7.689456192047902e-06   1.1364589216220555e-06   8.869191753003557e-06
-8.960954481419855e-06   1.6952845726415098e-06   1.0653060178011779e-05
-8.960954481419855e-06   1.6952845726415098e-06   1.0653060178011779e-05
-8.960954481419855e-06   1.6952845726415098e-06   1.0653060178011779e-05
-8.960954481419855e-06   1.6952845726415098e-06   1.0653060178011779e-05
-7.68945619204791e-06   1.848383427606081e-06   1.3687674549553279e-05
-7.68945619204791e-06   1.848383427606081e-06   1.3687674549553279e-05
-7.68945619204791e-06   1.848383427606081e-06   1.3687674549553279e-05
-7.68945619204791e-06   1.848383427606081e-06   1.3687674549553279e-05
-1.058054586997777e-05   1.136458921622164e-06   8.442037049413137e-06
-1.058054586997777e-05   1.136458921622164e-06   8.442037049413137e-06
-1.058054586997777e-05   1.136458921622164e-06   8.442037049413137e-06
-1.058054586997777e-05   1.136458921622164e-06   8.442037049413137e-06
-1.0734624170284776e-05   1.5246738058607512e-06   1.3730858089474902e-05
-1.0734624170284776e-05   1.5246738058607512e-06   1.3730858089474902e-05
-1.0734624170284776e-05   1.5246738058607512e-06   1.3730858089474902e-05
-1.0734624170284776e-05   1.5246738058607512e-06   1.3730858089474902e-05
-7.822886122009298e-06   8.439109051022612e-07   9.286419082804245e-06
-7.822886122009298e-06   8.439109051022612e-07   9.286419082804245e-06
-7.822886122009298e-06   8.439109051022612e-07   9.286419082804245e-06
-7.822886122009298e-06   8.439109051022612e-07   9.286419082804245e-06
-9.120993130596807e-06   1.4696064261970551e-06   1.1074513451126474e-05
-9.120993130596807e-06   1.4696064261970551e-06   1.1074513451126474e-05
-9.120993130596807e-06   1.4696064261970551e-06   1.1074513451126474e-05
-9.120993130596807e-06   1.4696064261970551e-06   1.1074513451126474e-05
-1.024796637413543e-05   3.065661066657128e-06   5.855142201493667e-06
-1.024796637413543e-05   3.065661066657128e-06   5.855142201493667e-06
-1.024796637413543e-05   3.065661066657128e-06   5.855142201493667e-06
-1.024796637413543e-05   3.065661066657128e-06   5.855142201493667e-06
-1.249107856996935e-05   2.0716976839550705e-06   1.5202438454825386e-06
-1.249107856996935e-05   2.0716976839550705e-06   1.5202438454825386e-06
-1.249107856996935e-05   2.0716976839550705e-06   1.5202438454825386e-06
-1.249107856996935e-05   2.0716976839550705e-06   1.5202438454825386e-06
-1.3019043167498647e-05   2.8968617512577623e-06   6.87274685561034e-06
-1.3019043167498647e-05   2.8968617512577623e-06   6.87274685561034e-06
-1.3019043167498647e-05   2.8968617512577623e-06   6.87274685561034e-06
-1.3019043167498647e-05   2.8968617512577623e-06   6.87274685561034e-06
-1.038803967763738e-05   1.8579088195268701e-06   3.1111127982134555e-06
-1.038803967763738e-05   1.8579088195268701e-06   3.1111127982134555e-06
-1.038803967763738e-05   1.8579088195268701e-06   3.1111127982134555e-06
-1.038803967763738e-05   1.8579088195268701e-06   3.1111127982134555e-06
-1.11355783403626e-05   2.4461363139034395e-06   4.00407407279618e-06
-1.11355783403626e-05   2.4461363139034395e-06   4.00407407279618e-06
-1.11355783403626e-05   2.4461363139034395e-06   4.00407407279618e-06
-1.11355783403626e-05   2.4461363139034395e-06   4.00407407279618e-06
-1.0388039677637379e-05   2.8968617512577983e-06   7.496118614648821e-06
-1.0388039677637379e-05   2.8968617512577983e-06   7.496118614648821e-06
-1.0388039677637379e-05   2.8968617512577983e-06   7.496118614648821e-06
-1.0388039677637379e-05   2.8968617512577983e-06   7.496118614648821e-06
-1.3019043167498674e-05   1.8579088195268701e-06   2.4877410391748964e-06
-1.3019043167498674e-05   1.8579088195268701e-06   2.4877410391748964e-06
-1.3019043167498674e-05   1.8579088195268701e-06   2.4877410391748964e-06
-1.3019043167498674e-05   1.8579088195268701e-06   2.4877410391748964e-06
-1.3471516042108547e-05   2.754357403756541e-06   8.092878956096183e-06
-1.3471516042108547e-05   2.754357403756541e-06   8.092878956096183e-06
-1.3471516042108547e-05   2.754357403756541e-06   8.092878956096183e-06
-1.3471516042108547e-05   2.754357403756541e-06   8.092878956096183e-06
-1.0580545869977785e-05   1.7105864095679673e-06   3.900857932391348e-06
-1.0580545869977785e-05   1.7105864095679673e-06   3.900857932391348e-06
-1.0580545869977785e-05   1.7105864095679673e-06   3.900857932391348e-06
-1.0580545869977785e-05   1.7105864095679673e-06   3.900857932391348e-06
-1.158431532901529e-05   2.3632917207754836e-06   5.182183844062971e-06
-1.158431532901529e-05   2.3632917207754836e-06   5.182183844062971e-06
-1.158431532901529e-05   2.3632917207754836e-06   5.182183844062971e-06
-1.158431532901529e-05   2.3632917207754836e-06   5.182183844062971e-06
-1.0580545869977797e-05   2.7543574037565105e-06   8.71914155260923e-06
-1.0580545869977797e-05   2.7543574037565105e-06   8.71914155260923e-06
-1.0580545869977797e-05   2.7543574037565105e-06   8.71914155260923e-06
-1.0580545869977797e-05   2.7543574037565105e-06   8.71914155260923e-06
-1.3471516042108574e-05   1.7105864095678588e-06   3.2745953358781746e-06
-1.3471516042108574e-05   1.7105864095678588e-06   3.2745953358781746e-06
-1.3471516042108574e-05   1.7105864095678588e-06   3.2745953358781746e-06
-1.3471516042108574e-05   1.7105864095678588e-06   3.2745953358781746e-06
-1.4045882368908318e-05   2.3643688043708654e-06   1.0298964429602858e-05
-1.4045882368908318e-05   2.3643688043708654e-06   1.0298964429602858e-05
-1.4045882368908318e-05   2.3643688043708654e-06   1.0298964429602858e-05
-1.4045882368908318e-05   2.3643688043708654e-06   1.0298964429602858e-05
-1.0734624170284737e-05   1.3698356231323008e-06   5.376920673973444e-06
-1.0734624170284737e-05   1.3698356231323008e-06   5.376920673973444e-06
-1.0734624170284737e-05   1.3698356231323008e-06   5.376920673973444e-06
-1.0734624170284737e-05   1.3698356231323008e-06   5.376920673973444e-06
-1.1710305706206163e-05   2.201136575900181e-06   6.504275995514804e-06
-1.1710305706206163e-05   2.201136575900181e-06   6.504275995514804e-06
-1.1710305706206163e-05   2.201136575900181e-06   6.504275995514804e-06
-1.1710305706206163e-05   2.201136575900181e-06   6.504275995514804e-06
-4.8682282157288005e-06   8.957942232899526e-07   6.132633079515462e-06
-4.8682282157288005e-06   8.957942232899526e-07   6.132633079515462e-06
-4.8682282157288005e-06   8.957942232899526e-07   6.132633079515462e-06
-4.8682282157288005e-06   8.957942232899526e-07   6.132633079515462e-06
-5.4309296092869994e-06   1.7114491749357962e-06   5.6841903945726614e-06
-5.4309296092869994e-06   1.7114491749357962e-06   5.6841903945726614e-06
-5.4309296092869994e-06   1.7114491749357962e-06   5.6841903945726614e-06
-5.4309296092869994e-06   1.7114491749357962e-06   5.6841903945726614e-06
-5.5759884163710826e-06   5.985192303095558e-07   6.558480307122675e-06
-5.5759884163710826e-06   5.985192303095558e-07   6.558480307122675e-06
-5.5759884163710826e-06   5.985192303095558e-07   6.558480307122675e-06
-5.5759884163710826e-06   5.985192303095558e-07   6.558480307122675e-06
-5.468100099597687e-06   1.3332124829211326e-06   5.93785049426675e-06
-5.468100099597687e-06   1.3332124829211326e-06   5.93785049426675e-06
-5.468100099597687e-06   1.3332124829211326e-06   5.93785049426675e-06
-5.468100099597687e-06   1.3332124829211326e-06   5.93785049426675e-06
-5.2064854884147615e-06   1.0586326730414137e-06   5.666574028223053e-06
-5.2064854884147615e-06   1.0586326730414137e-06   5.666574028223053e-06
-5.2064854884147615e-06   1.0586326730414137e-06   5.666574028223053e-06
-5.2064854884147615e-06   1.0586326730414137e-06   5.666574028223053e-06
-5.468100099597701e-06   5.985192303094541e-07   6.1176643555557395e-06
-5.468100099597701e-06   5.985192303094541e-07   6.1176643555557395e-06
-5.468100099597701e-06   5.985192303094541e-07   6.1176643555557395e-06
-5.468100099597701e-06   5.985192303094541e-07   6.1176643555557395e-06
-5.5759884163710826e-06   1.3332124829211326e-06   6.378666445833712e-06
-5.5759884163710826e-06   1.3332124829211326e-06   6.378666445833712e-06
-5.5759884163710826e-06   1.3332124829211326e-06   6.378666445833712e-06
-5.5759884163710826e-06   1.3332124829211326e-06   6.378666445833712e-06
-5.764053389648125e-06   4.364611794791884e-07   6.748950595709567e-06
-5.764053389648125e-06   4.364611794791884e-07   6.748950595709567e-06
-5.764053389648125e-06   4.364611794791884e-07   6.748950595709567e-06
-5.764053389648125e-06   4.364611794791884e-07   6.748950595709567e-06
-6.052774705570395e-06   1.073273841420278e-06   6.8480651917486325e-06
-6.052774705570395e-06   1.073273841420278e-06   6.8480651917486325e-06
-6.052774705570395e-06   1.073273841420278e-06   6.8480651917486325e-06
-6.052774705570395e-06   1.073273841420278e-06   6.8480651917486325e-06
-5.562936101854436e-06   8.959491751100892e-07   6.13806231867488e-06
-5.562936101854436e-06   8.959491751100892e-07   6.13806231867488e-06
-5.562936101854436e-06   8.959491751100892e-07   6.13806231867488e-06
-5.562936101854436e-06   8.959491751100892e-07   6.13806231867488e-06
-6.0527747055703945e-06   4.364611794791469e-07   6.366862998544642e-06
-6.0527747055703945e-06   4.364611794791469e-07   6.366862998544642e-06
-6.0527747055703945e-06   4.364611794791469e-07   6.366862998544642e-06
-6.0527747055703945e-06   4.364611794791469e-07   6.366862998544642e-06
-5.764053389648125e-06   1.073273841420278e-06   7.230152788913354e-06
-5.764053389648125e-06   1.073273841420278e-06   7.230152788913354e-06
-5.764053389648125e-06   1.073273841420278e-06   7.230152788913354e-06
-5.764053389648125e-06   1.073273841420278e-06   7.230152788913354e-06
-5.885703923755374e-06   9.427344507091043e-08   7.387800867744547e-06
-5.885703923755374e-06   9.427344507091043e-08   7.387800867744547e-06
-5.885703923755374e-06   9.427344507091043e-08   7.387800867744547e-06
-5.885703923755374e-06   9.427344507091043e-08   7.387800867744547e-06
-6.6760784054780915e-06   4.3478053119951803e-07   8.500787418938473e-06
-6.6760784054780915e-06   4.3478053119951803e-07   8.500787418938473e-06
-6.6760784054780915e-06   4.3478053119951803e-07   8.500787418938473e-06
-6.6760784054780915e-06   4.3478053119951803e-07   8.500787418938473e-06
-5.818786080622238e-06   6.982232198279696e-07   6.913901264334718e-06
-5.818786080622238e-06   6.982232198279696e-07   6.913901264334718e-06
-5.818786080622238e-06   6.982232198279696e-07   6.913901264334718e-06
-5.818786080622238e-06   6.982232198279696e-07   6.913901264334718e-06
-5.4309296092869994e-06   1.0645422399464595e-06   1.2088354484794488e-05
-5.4309296092869994e-06   1.0645422399464595e-06   1.2088354484794488e-05
-5.4309296092869994e-06   1.0645422399464595e-06   1.2088354484794488e-05
-5.4309296092869994e-06   1.0645422399464595e-06   1.2088354484794488e-05
-5.5705092475398645e-06   4.439840105534688e-07   1.1483386816737209e-05
-5.5705092475398645e-06   4.439840105534688e-07   1.1483386816737209e-05
-5.5705092475398645e-06   4.439840105534688e-07   1.1483386816737209e-05
-5.5705092475398645e-06   4.439840105534688e-07   1.1483386816737209e-05
-5.618242901888598e-06   7.334153819250856e-07   1.16293091867182e-05
-5.618242901888598e-06   7.334153819250856e-07   1.16293091867182e-05
-5.618242901888598e-06   7.334153819250856e-07   1.16293091867182e-05
-5.618242901888598e-06   7.334153819250856e-07   1.16293091867182e-05
-5.5759884163710826e-06   2.0982762633230557e-07   1.1873037697544667e-05
-5.5759884163710826e-06   2.0982762633230557e-07   1.1873037697544667e-05
-5.5759884163710826e-06   2.0982762633230557e-07   1.1873037697544667e-05
-5.5759884163710826e-06   2.0982762633230557e-07   1.1873037697544667e-05
-5.533367498354745e-06   5.408334035581245e-07   1.160339936784861e-05
-5.533367498354745e-06   5.408334035581245e-07   1.160339936784861e-05
-5.533367498354745e-06   5.408334035581245e-07   1.160339936784861e-05
-5.533367498354745e-06   5.408334035581245e-07   1.160339936784861e-05
-5.575988416371086e-06   7.334153819251438e-07   1.194346184007377e-05
-5.575988416371086e-06   7.334153819251438e-07   1.194346184007377e-05
-5.575988416371086e-06   7.334153819251438e-07   1.194346184007377e-05
-5.575988416371086e-06   7.334153819251438e-07   1.194346184007377e-05
-5.618242901888598e-06   2.0982762633230557e-07   1.1558885044189005e-05
-5.618242901888598e-06   2.0982762633230557e-07   1.1558885044189005e-05
-5.618242901888598e-06   2.0982762633230557e-07   1.1558885044189005e-05
-5.618242901888598e-06   2.0982762633230557e-07   1.1558885044189005e-05
-5.676822752464849e-06   4.291713375598411e-07   1.1781126369389604e-05
-5.676822752464849e-06   4.291713375598411e-07   1.1781126369389604e-05
-5.676822752464849e-06   4.291713375598411e-07   1.1781126369389604e-05
-5.676822752464849e-06   4.291713375598411e-07   1.1781126369389604e-05
-5.764053389648126e-06   -5.8924630297069874e-08   1.2219368345409237e-05
-5.764053389648126e-06   -5.8924630297069874e-08   1.2219368345409237e-05
-5.764053389648126e-06   -5.8924630297069874e-08   1.2219368345409237e-05
-5.764053389648126e-06   -5.8924630297069874e-08   1.2219368345409237e-05
-5.591249395216521e-06   3.483577197239637e-07   1.1686992278010772e-05
-5.591249395216521e-06   3.483577197239637e-07   1.1686992278010772e-05
-5.591249395216521e-06   3.483577197239637e-07   1.1686992278010772e-05
-5.591249395216521e-06   3.483577197239637e-07   1.1686992278010772e-05
-5.764053389648125e-06   4.291713375598941e-07   1.207398395010361e-05
-5.764053389648125e-06   4.291713375598941e-07   1.207398395010361e-05
-5.764053389648125e-06   4.291713375598941e-07   1.207398395010361e-05
-5.764053389648125e-06   4.291713375598941e-07   1.207398395010361e-05
-5.6768227524648355e-06   -5.8924630297069874e-08   1.1926510764695045e-05
-5.6768227524648355e-06   -5.8924630297069874e-08   1.1926510764695045e-05
-5.6768227524648355e-06   -5.8924630297069874e-08   1.1926510764695045e-05
-5.6768227524648355e-06   -5.8924630297069874e-08   1.1926510764695045e-05
-5.721080492265476e-06   1.0106311368709205e-07   1.211256702223347e-05
-5.721080492265476e-06   1.0106311368709205e-07   1.211256702223347e-05
-5.721080492265476e-06   1.0106311368709205e-07   1.211256702223347e-05
-5.721080492265476e-06   1.0106311368709205e-07   1.211256702223347e-05
-5.885703923755358e-06   -4.103841301545015e-07   1.2693807754354772e-05
-5.885703923755358e-06   -4.103841301545015e-07   1.2693807754354772e-05
-5.885703923755358e-06   -4.103841301545015e-07   1.2693807754354772e-05
-5.885703923755358e-06   -4.103841301545015e-07   1.2693807754354772e-05
-5.68013336299628e-06   1.2384318028501803e-07   1.2030653766825471e-05
-5.68013336299628e-06   1.2384318028501803e-07   1.2030653766825471e-05
-5.68013336299628e-06   1.2384318028501803e-07   1.2030653766825471e-05
-5.68013336299628e-06   1.2384318028501803e-07   1.2030653766825471e-05
-5.5705092475398645e-06   1.2859623759233312e-06   1.3331520981689374e-05
-5.5705092475398645e-06   1.2859623759233312e-06   1.3331520981689374e-05
-5.5705092475398645e-06   1.2859623759233312e-06   1.3331520981689374e-05
-5.5705092475398645e-06   1.2859623759233312e-06   1.3331520981689374e-05
-6.051836627264185e-06   1.249413872207272e-07   1.1832696088927335e-05
-6.051836627264185e-06   1.249413872207272e-07   1.1832696088927335e-05
-6.051836627264185e-06   1.249413872207272e-07   1.1832696088927335e-05
-6.051836627264185e-06   1.249413872207272e-07   1.1832696088927335e-05
-6.070716063917851e-06   9.80230903706021e-07   1.2650044493021852e-05
-6.070716063917851e-06   9.80230903706021e-07   1.2650044493021852e-05
-6.070716063917851e-06   9.80230903706021e-07   1.2650044493021852e-05
-6.070716063917851e-06   9.80230903706021e-07   1.2650044493021852e-05
-5.618242901888593e-06   -7.113759192123445e-08   1.2526743653682777e-05
-5.618242901888593e-06   -7.113759192123445e-08   1.2526743653682777e-05
-5.618242901888593e-06   -7.113759192123445e-08   1.2526743653682777e-05
-5.618242901888593e-06   -7.113759192123445e-08   1.2526743653682777e-05
-5.8185774077509925e-06   5.595460993199184e-07   1.2482224282042123e-05
-5.8185774077509925e-06   5.595460993199184e-07   1.2482224282042123e-05
-5.8185774077509925e-06   5.595460993199184e-07   1.2482224282042123e-05
-5.8185774077509925e-06   5.595460993199184e-07   1.2482224282042123e-05
-5.618242901888598e-06   9.80230903706069e-07   1.3280865590398195e-05
-5.618242901888598e-06   9.80230903706069e-07   1.3280865590398195e-05
-5.618242901888598e-06   9.80230903706069e-07   1.3280865590398195e-05
-5.618242901888598e-06   9.80230903706069e-07   1.3280865590398195e-05
-6.070716063917851e-06   -7.113759192123445e-08   1.1895922556306407e-05
-6.070716063917851e-06   -7.113759192123445e-08   1.1895922556306407e-05
-6.070716063917851e-06   -7.113759192123445e-08   1.1895922556306407e-05
-6.070716063917851e-06   -7.113759192123445e-08   1.1895922556306407e-05
-6.101758640572158e-06   6.696186595194636e-07   1.2844247406483132e-05
-6.101758640572158e-06   6.696186595194636e-07   1.2844247406483132e-05
-6.101758640572158e-06   6.696186595194636e-07   1.2844247406483132e-05
-6.101758640572158e-06   6.696186595194636e-07   1.2844247406483132e-05
-5.676822752464837e-06   -3.0580657243181424e-07   1.2721276065475075e-05
-5.676822752464837e-06   -3.0580657243181424e-07   1.2721276065475075e-05
-5.676822752464837e-06   -3.0580657243181424e-07   1.2721276065475075e-05
-5.676822752464837e-06   -3.0580657243181424e-07   1.2721276065475075e-05
-5.8257986502536925e-06   3.660704034149937e-07   1.2566443042948426e-05
-5.8257986502536925e-06   3.660704034149937e-07   1.2566443042948426e-05
-5.8257986502536925e-06   3.660704034149937e-07   1.2566443042948426e-05
-5.8257986502536925e-06   3.660704034149937e-07   1.2566443042948426e-05
-5.6768227524648355e-06   6.696186595195174e-07   1.3429502545653823e-05
-5.6768227524648355e-06   6.696186595195174e-07   1.3429502545653823e-05
-5.6768227524648355e-06   6.696186595195174e-07   1.3429502545653823e-05
-5.6768227524648355e-06   6.696186595195174e-07   1.3429502545653823e-05
-6.101758640572158e-06   -3.0580657243181424e-07   1.2136020926304303e-05
-6.101758640572158e-06   -3.0580657243181424e-07   1.2136020926304303e-05
-6.101758640572158e-06   -3.0580657243181424e-07   1.2136020926304303e-05
-6.101758640572158e-06   -3.0580657243181424e-07   1.2136020926304303e-05
-6.123260357293825e-06   3.757185656224184e-07   1.3193567737448085e-05
-6.123260357293825e-06   3.757185656224184e-07   1.3193567737448085e-05
-6.123260357293825e-06   3.757185656224184e-07   1.3193567737448085e-05
-6.123260357293825e-06   3.757185656224184e-07   1.3193567737448085e-05
-5.721080492265467e-06   -5.403753252091088e-07   1.3072924296899665e-05
-5.721080492265467e-06   -5.403753252091088e-07   1.3072924296899665e-05
-5.721080492265467e-06   -5.403753252091088e-07   1.3072924296899665e-05
-5.721080492265467e-06   -5.403753252091088e-07   1.3072924296899665e-05
-5.8429237148840295e-06   1.6739560574529277e-07   1.2851333776024075e-05
-5.8429237148840295e-06   1.6739560574529277e-07   1.2851333776024075e-05
-5.8429237148840295e-06   1.6739560574529277e-07   1.2851333776024075e-05
-5.8429237148840295e-06   1.6739560574529277e-07   1.2851333776024075e-05
-6.051836627264185e-06   1.7445690827282843e-06   1.0875861488085818e-05
-6.051836627264185e-06   1.7445690827282843e-06   1.0875861488085818e-05
-6.051836627264185e-06   1.7445690827282843e-06   1.0875861488085818e-05
-6.051836627264185e-06   1.7445690827282843e-06   1.0875861488085818e-05
-6.724104183334809e-06   5.758200363388012e-07   9.054166133467775e-06
-6.724104183334809e-06   5.758200363388012e-07   9.054166133467775e-06
-6.724104183334809e-06   5.758200363388012e-07   9.054166133467775e-06
-6.724104183334809e-06   5.758200363388012e-07   9.054166133467775e-06
-6.739413260216457e-06   1.423050436951778e-06   1.0272868510587856e-05
-6.739413260216457e-06   1.423050436951778e-06   1.0272868510587856e-05
-6.739413260216457e-06   1.423050436951778e-06   1.0272868510587856e-05
-6.739413260216457e-06   1.423050436951778e-06   1.0272868510587856e-05
-6.070716063917842e-06   3.1690545722660004e-07   9.822060171258643e-06
-6.070716063917842e-06   3.1690545722660004e-07   9.822060171258643e-06
-6.070716063917842e-06   3.1690545722660004e-07   9.822060171258643e-06
-6.070716063917842e-06   3.1690545722660004e-07   9.822060171258643e-06
-6.379922324027497e-06   1.0376972238339624e-06   9.904928878143651e-06
-6.379922324027497e-06   1.0376972238339624e-06   9.904928878143651e-06
-6.379922324027497e-06   1.0376972238339624e-06   9.904928878143651e-06
-6.379922324027497e-06   1.0376972238339624e-06   9.904928878143651e-06
-6.070716063917851e-06   1.4230504369518183e-06   1.0936555498422995e-05
-6.070716063917851e-06   1.4230504369518183e-06   1.0936555498422995e-05
-6.070716063917851e-06   1.4230504369518183e-06   1.0936555498422995e-05
-6.070716063917851e-06   1.4230504369518183e-06   1.0936555498422995e-05
-6.739413260216457e-06   3.1690545722660004e-07   9.158373183423597e-06
-6.739413260216457e-06   3.1690545722660004e-07   9.158373183423597e-06
-6.739413260216457e-06   3.1690545722660004e-07   9.158373183423597e-06
-6.739413260216457e-06   3.1690545722660004e-07   9.158373183423597e-06
-6.81595214656707e-06   1.136458921622164e-06   1.0651113621994819e-05
-6.81595214656707e-06   1.136458921622164e-06   1.0651113621994819e-05
-6.81595214656707e-06   1.136458921622164e-06   1.0651113621994819e-05
-6.81595214656707e-06   1.136458921622164e-06   1.0651113621994819e-05
-6.101758640572164e-06   9.487686932792413e-08   1.0085740343379845e-05
-6.101758640572164e-06   9.487686932792413e-08   1.0085740343379845e-05
-6.101758640572164e-06   9.487686932792413e-08   1.0085740343379845e-05
-6.101758640572164e-06   9.487686932792413e-08   1.0085740343379845e-05
-6.365540651819652e-06   8.25793522755676e-07   1.0086827036735616e-05
-6.365540651819652e-06   8.25793522755676e-07   1.0086827036735616e-05
-6.365540651819652e-06   8.25793522755676e-07   1.0086827036735616e-05
-6.365540651819652e-06   8.25793522755676e-07   1.0086827036735616e-05
-6.101758640572158e-06   1.1364589216221324e-06   1.1276062853371167e-05
-6.101758640572158e-06   1.1364589216221324e-06   1.1276062853371167e-05
-6.101758640572158e-06   1.1364589216221324e-06   1.1276062853371167e-05
-6.101758640572158e-06   1.1364589216221324e-06   1.1276062853371167e-05
-6.81595214656707e-06   9.487686932792413e-08   9.46079111200337e-06
-6.81595214656707e-06   9.487686932792413e-08   9.46079111200337e-06
-6.81595214656707e-06   9.487686932792413e-08   9.46079111200337e-06
-6.81595214656707e-06   9.487686932792413e-08   9.46079111200337e-06
-6.862748161021637e-06   8.439109051023696e-07   1.1120226989530784e-05
-6.862748161021637e-06   8.439109051023696e-07   1.1120226989530784e-05
-6.862748161021637e-06   8.439109051023696e-07   1.1120226989530784e-05
-6.862748161021637e-06   8.439109051023696e-07   1.1120226989530784e-05
-6.123260357293838e-06   -1.2915511624815926e-07   1.047158692946132e-05
-6.123260357293838e-06   -1.2915511624815926e-07   1.047158692946132e-05
-6.123260357293838e-06   -1.2915511624815926e-07   1.047158692946132e-05
-6.123260357293838e-06   -1.2915511624815926e-07   1.047158692946132e-05
-6.401530535400156e-06   6.360915118368846e-07   1.0476222582786823e-05
-6.401530535400156e-06   6.360915118368846e-07   1.0476222582786823e-05
-6.401530535400156e-06   6.360915118368846e-07   1.0476222582786823e-05
-6.401530535400156e-06   6.360915118368846e-07   1.0476222582786823e-05
-6.724104183334809e-06   2.0716976839551175e-06   4.21355327647041e-06
-6.724104183334809e-06   2.0716976839551175e-06   4.21355327647041e-06
-6.724104183334809e-06   2.0716976839551175e-06   4.21355327647041e-06
-6.724104183334809e-06   2.0716976839551175e-06   4.21355327647041e-06
-6.701303120924102e-06   9.562274573935597e-07   3.582272911217951e-06
-6.701303120924102e-06   9.562274573935597e-07   3.582272911217951e-06
-6.701303120924102e-06   9.562274573935597e-07   3.582272911217951e-06
-6.701303120924102e-06   9.562274573935597e-07   3.582272911217951e-06
-7.046197171900145e-06   1.8579088195267617e-06   4.621243192167151e-06
-7.046197171900145e-06   1.8579088195267617e-06   4.621243192167151e-06
-7.046197171900145e-06   1.8579088195267617e-06   4.621243192167151e-06
-7.046197171900145e-06   1.8579088195267617e-06   4.621243192167151e-06
-6.7394132602164445e-06   7.720859077509773e-07   4.76143041975972e-06
-6.7394132602164445e-06   7.720859077509773e-07   4.76143041975972e-06
-6.7394132602164445e-06   7.720859077509773e-07   4.76143041975972e-06
-6.7394132602164445e-06   7.720859077509773e-07   4.76143041975972e-06
-6.5811698941767e-06   1.4601537830416966e-06   4.084850751185764e-06
-6.5811698941767e-06   1.4601537830416966e-06   4.084850751185764e-06
-6.5811698941767e-06   1.4601537830416966e-06   4.084850751185764e-06
-6.5811698941767e-06   1.4601537830416966e-06   4.084850751185764e-06
-6.739413260216403e-06   1.857908819526804e-06   5.272736939232578e-06
-6.739413260216403e-06   1.857908819526804e-06   5.272736939232578e-06
-6.739413260216403e-06   1.857908819526804e-06   5.272736939232578e-06
-6.739413260216403e-06   1.857908819526804e-06   5.272736939232578e-06
-7.046197171900145e-06   7.720859077509773e-07   4.109936672694225e-06
-7.046197171900145e-06   7.720859077509773e-07   4.109936672694225e-06
-7.046197171900145e-06   7.720859077509773e-07   4.109936672694225e-06
-7.046197171900145e-06   7.720859077509773e-07   4.109936672694225e-06
-7.348584768291418e-06   1.7105864095678588e-06   5.474727906024405e-06
-7.348584768291418e-06   1.7105864095678588e-06   5.474727906024405e-06
-7.348584768291418e-06   1.7105864095678588e-06   5.474727906024405e-06
-7.348584768291418e-06   1.7105864095678588e-06   5.474727906024405e-06
-6.815952146567043e-06   6.519087446534792e-07   5.222213468765707e-06
-6.815952146567043e-06   6.519087446534792e-07   5.222213468765707e-06
-6.815952146567043e-06   6.519087446534792e-07   5.222213468765707e-06
-6.815952146567043e-06   6.519087446534792e-07   5.222213468765707e-06
-6.828519824530995e-06   1.3540201154214958e-06   4.821892776245144e-06
-6.828519824530995e-06   1.3540201154214958e-06   4.821892776245144e-06
-6.828519824530995e-06   1.3540201154214958e-06   4.821892776245144e-06
-6.828519824530995e-06   1.3540201154214958e-06   4.821892776245144e-06
-6.815952146567043e-06   1.7105864095678872e-06   6.109934504972827e-06
-6.815952146567043e-06   1.7105864095678872e-06   6.109934504972827e-06
-6.815952146567043e-06   1.7105864095678872e-06   6.109934504972827e-06
-6.815952146567043e-06   1.7105864095678872e-06   6.109934504972827e-06
-7.348584768291418e-06   6.519087446534792e-07   4.5870068698170545e-06
-7.348584768291418e-06   6.519087446534792e-07   4.5870068698170545e-06
-7.348584768291418e-06   6.519087446534792e-07   4.5870068698170545e-06
-7.348584768291418e-06   6.519087446534792e-07   4.5870068698170545e-06
-7.794579774701162e-06   1.3698356231323008e-06   7.041814349363607e-06
-7.794579774701162e-06   1.3698356231323008e-06   7.041814349363607e-06
-7.794579774701162e-06   1.3698356231323008e-06   7.041814349363607e-06
-7.794579774701162e-06   1.3698356231323008e-06   7.041814349363607e-06
-6.862748161021601e-06   4.075490034797873e-07   6.066133631688986e-06
-6.862748161021601e-06   4.075490034797873e-07   6.066133631688986e-06
-6.862748161021601e-06   4.075490034797873e-07   6.066133631688986e-06
-6.862748161021601e-06   4.075490034797873e-07   6.066133631688986e-06
-6.91250156064365e-06   1.225765331145615e-06   5.6581261677917825e-06
-6.91250156064365e-06   1.225765331145615e-06   5.6581261677917825e-06
-6.91250156064365e-06   1.225765331145615e-06   5.6581261677917825e-06
-6.91250156064365e-06   1.225765331145615e-06   5.6581261677917825e-06
-1.291506317791744e-05   1.7114491749357953e-06   5.168665560759448e-06
-1.291506317791744e-05   1.7114491749357953e-06   5.168665560759448e-06
-1.291506317791744e-05   1.7114491749357953e-06   5.168665560759448e-06
-1.291506317791744e-05   1.7114491749357953e-06   5.168665560759448e-06
-8.767398237891143e-06   2.363896156274938e-06   1.2472908649606808e-05
-8.767398237891143e-06   2.363896156274938e-06   1.2472908649606808e-05
-8.767398237891143e-06   2.363896156274938e-06   1.2472908649606808e-05
-8.767398237891143e-06   2.363896156274938e-06   1.2472908649606808e-05
-8.766546515807595e-06   1.3332124829211326e-06   5.826326048168453e-06
-8.766546515807595e-06   1.3332124829211326e-06   5.826326048168453e-06
-8.766546515807595e-06   1.3332124829211326e-06   5.826326048168453e-06
-8.766546515807595e-06   1.3332124829211326e-06   5.826326048168453e-06
-1.425284983074558e-05   9.339044979943245e-07   1.520974969735454e-05
-1.425284983074558e-05   9.339044979943245e-07   1.520974969735454e-05
-1.425284983074558e-05   9.339044979943245e-07   1.520974969735454e-05
-1.425284983074558e-05   9.339044979943245e-07   1.520974969735454e-05
-1.059777548083495e-05   1.3952996628038036e-06   8.841122015284434e-06
-1.059777548083495e-05   1.3952996628038036e-06   8.841122015284434e-06
-1.059777548083495e-05   1.3952996628038036e-06   8.841122015284434e-06
-1.059777548083495e-05   1.3952996628038036e-06   8.841122015284434e-06
-1.4252849830745606e-05   1.3332124829211568e-06   6.065910839124451e-06
-1.4252849830745606e-05   1.3332124829211568e-06   6.065910839124451e-06
-1.4252849830745606e-05   1.3332124829211568e-06   6.065910839124451e-06
-1.4252849830745606e-05   1.3332124829211568e-06   6.065910839124451e-06
-8.766546515807582e-06   9.339044979943245e-07   1.497016490639846e-05
-8.766546515807582e-06   9.339044979943245e-07   1.497016490639846e-05
-8.766546515807582e-06   9.339044979943245e-07   1.497016490639846e-05
-8.766546515807582e-06   9.339044979943245e-07   1.497016490639846e-05
-8.894607924204134e-06   1.0732738414203323e-06   6.495740254558712e-06
-8.894607924204134e-06   1.0732738414203323e-06   6.495740254558712e-06
-8.894607924204134e-06   1.0732738414203323e-06   6.495740254558712e-06
-8.894607924204134e-06   1.0732738414203323e-06   6.495740254558712e-06
-1.4310696465884016e-05   6.617285313821933e-07   1.5769481676714788e-05
-1.4310696465884016e-05   6.617285313821933e-07   1.5769481676714788e-05
-1.4310696465884016e-05   6.617285313821933e-07   1.5769481676714788e-05
-1.4310696465884016e-05   6.617285313821933e-07   1.5769481676714788e-05
-1.1322283418358558e-05   8.629747330427266e-07   1.0668045543175929e-05
-1.1322283418358558e-05   8.629747330427266e-07   1.0668045543175929e-05
-1.1322283418358558e-05   8.629747330427266e-07   1.0668045543175929e-05
-1.1322283418358558e-05   8.629747330427266e-07   1.0668045543175929e-05
-1.4310696465884046e-05   1.0732738414202959e-06   6.742667440581682e-06
-1.4310696465884046e-05   1.0732738414202959e-06   6.742667440581682e-06
-1.4310696465884046e-05   1.0732738414202959e-06   6.742667440581682e-06
-1.4310696465884046e-05   1.0732738414202959e-06   6.742667440581682e-06
-8.894607924204117e-06   6.617285313821933e-07   1.5522554490691906e-05
-8.894607924204117e-06   6.617285313821933e-07   1.5522554490691906e-05
-8.894607924204117e-06   6.617285313821933e-07   1.5522554490691906e-05
-8.894607924204117e-06   6.617285313821933e-07   1.5522554490691906e-05
-8.808009168969502e-06   4.3478053119951803e-07   7.664964993256716e-06
-8.808009168969502e-06   4.3478053119951803e-07   7.664964993256716e-06
-8.808009168969502e-06   4.3478053119951803e-07   7.664964993256716e-06
-8.808009168969502e-06   4.3478053119951803e-07   7.664964993256716e-06
-1.447883038451674e-05   -5.00710768835727e-07   1.7677628465856525e-05
-1.447883038451674e-05   -5.00710768835727e-07   1.7677628465856525e-05
-1.447883038451674e-05   -5.00710768835727e-07   1.7677628465856525e-05
-1.447883038451674e-05   -5.00710768835727e-07   1.7677628465856525e-05
-1.1158073000485902e-05   4.0794232203671035e-07   1.1597840971281702e-05
-1.1158073000485902e-05   4.0794232203671035e-07   1.1597840971281702e-05
-1.1158073000485902e-05   4.0794232203671035e-07   1.1597840971281702e-05
-1.1158073000485902e-05   4.0794232203671035e-07   1.1597840971281702e-05
-8.767398237891156e-06   4.4398401055352335e-07   1.173166510936335e-05
-8.767398237891156e-06   4.4398401055352335e-07   1.173166510936335e-05
-8.767398237891156e-06   4.4398401055352335e-07   1.173166510936335e-05
-8.767398237891156e-06   4.4398401055352335e-07   1.173166510936335e-05
-5.402777980843891e-06   -2.745651998106995e-06   1.5425583932579165e-05
-5.402777980843891e-06   -2.745651998106995e-06   1.5425583932579165e-05
-5.402777980843891e-06   -2.745651998106995e-06   1.5425583932579165e-05
-5.402777980843891e-06   -2.745651998106995e-06   1.5425583932579165e-05
-5.419174456318881e-06   2.0982762633230557e-07   9.841093583571003e-06
-5.419174456318881e-06   2.0982762633230557e-07   9.841093583571003e-06
-5.419174456318881e-06   2.0982762633230557e-07   9.841093583571003e-06
-5.419174456318881e-06   2.0982762633230557e-07   9.841093583571003e-06
-8.766546515807583e-06   -2.2561785675150904e-06   1.6899650732360556e-05
-8.766546515807583e-06   -2.2561785675150904e-06   1.6899650732360556e-05
-8.766546515807583e-06   -2.2561785675150904e-06   1.6899650732360556e-05
-8.766546515807583e-06   -2.2561785675150904e-06   1.6899650732360556e-05
-7.053405013504278e-06   -1.3593519352750154e-06   1.3506318915844351e-05
-7.053405013504278e-06   -1.3593519352750154e-06   1.3506318915844351e-05
-7.053405013504278e-06   -1.3593519352750154e-06   1.3506318915844351e-05
-7.053405013504278e-06   -1.3593519352750154e-06   1.3506318915844351e-05
-8.766546515807588e-06   2.0982762633228286e-07   1.1320697299879208e-05
-8.766546515807588e-06   2.0982762633228286e-07   1.1320697299879208e-05
-8.766546515807588e-06   2.0982762633228286e-07   1.1320697299879208e-05
-8.766546515807588e-06   2.0982762633228286e-07   1.1320697299879208e-05
-5.419174456318881e-06   -2.2561785675150904e-06   1.5420047016052142e-05
-5.419174456318881e-06   -2.2561785675150904e-06   1.5420047016052142e-05
-5.419174456318881e-06   -2.2561785675150904e-06   1.5420047016052142e-05
-5.419174456318881e-06   -2.2561785675150904e-06   1.5420047016052142e-05
-5.448236777090657e-06   -5.8924630297124084e-08   1.0137508245560453e-05
-5.448236777090657e-06   -5.8924630297124084e-08   1.0137508245560453e-05
-5.448236777090657e-06   -5.8924630297124084e-08   1.0137508245560453e-05
-5.448236777090657e-06   -5.8924630297124084e-08   1.0137508245560453e-05
-8.894607924204117e-06   -2.3046705727874396e-06   1.722890772291044e-05
-8.894607924204117e-06   -2.3046705727874396e-06   1.722890772291044e-05
-8.894607924204117e-06   -2.3046705727874396e-06   1.722890772291044e-05
-8.894607924204117e-06   -2.3046705727874396e-06   1.722890772291044e-05
-7.007492895897287e-06   -1.1880359098921417e-06   1.3413735211328546e-05
-7.007492895897287e-06   -1.1880359098921417e-06   1.3413735211328546e-05
-7.007492895897287e-06   -1.1880359098921417e-06   1.3413735211328546e-05
-7.007492895897287e-06   -1.1880359098921417e-06   1.3413735211328546e-05
-8.894607924204134e-06   -5.892463029708111e-08   1.1484955811054734e-05
-8.894607924204134e-06   -5.892463029708111e-08   1.1484955811054734e-05
-8.894607924204134e-06   -5.892463029708111e-08   1.1484955811054734e-05
-8.894607924204134e-06   -5.892463029708111e-08   1.1484955811054734e-05
-5.448236777090643e-06   -2.3046705727874396e-06   1.588146015741622e-05
-5.448236777090643e-06   -2.3046705727874396e-06   1.588146015741622e-05
-5.448236777090643e-06   -2.3046705727874396e-06   1.588146015741622e-05
-5.448236777090643e-06   -2.3046705727874396e-06   1.588146015741622e-05
-5.404384065776555e-06   -4.103841301545015e-07   1.0509040391161245e-05
-5.404384065776555e-06   -4.103841301545015e-07   1.0509040391161245e-05
-5.404384065776555e-06   -4.103841301545015e-07   1.0509040391161245e-05
-5.404384065776555e-06   -4.103841301545015e-07   1.0509040391161245e-05
-8.808009168969482e-06   -2.3181186065454704e-06   1.7326389582317303e-05
-8.808009168969482e-06   -2.3181186065454704e-06   1.7326389582317303e-05
-8.808009168969482e-06   -2.3181186065454704e-06   1.7326389582317303e-05
-8.808009168969482e-06   -2.3181186065454704e-06   1.7326389582317303e-05
-7.048366019876511e-06   -1.3288338276754561e-06   1.3800080133173707e-05
-7.048366019876511e-06   -1.3288338276754561e-06   1.3800080133173707e-05
-7.048366019876511e-06   -1.3288338276754561e-06   1.3800080133173707e-05
-7.048366019876511e-06   -1.3288338276754561e-06   1.3800080133173707e-05
-5.402777980843891e-06   1.249413872207384e-07   1.0863805369578679e-05
-5.402777980843891e-06   1.249413872207384e-07   1.0863805369578679e-05
-5.402777980843891e-06   1.249413872207384e-07   1.0863805369578679e-05
-5.402777980843891e-06   1.249413872207384e-07   1.0863805369578679e-05
-4.003683257823294e-06   -2.1457658412146914e-06   1.1833205570885059e-05
-4.003683257823294e-06   -2.1457658412146914e-06   1.1833205570885059e-05
-4.003683257823294e-06   -2.1457658412146914e-06   1.1833205570885059e-05
-4.003683257823294e-06   -2.1457658412146914e-06   1.1833205570885059e-05
-3.974236901960708e-06   -7.113759192123445e-08   9.58717706665618e-06
-3.974236901960708e-06   -7.113759192123445e-08   9.58717706665618e-06
-3.974236901960708e-06   -7.113759192123445e-08   9.58717706665618e-06
-3.974236901960708e-06   -7.113759192123445e-08   9.58717706665618e-06
-5.419174456318879e-06   -2.1074294692688487e-06   1.321718145032836e-05
-5.419174456318879e-06   -2.1074294692688487e-06   1.321718145032836e-05
-5.419174456318879e-06   -2.1074294692688487e-06   1.321718145032836e-05
-5.419174456318879e-06   -2.1074294692688487e-06   1.321718145032836e-05
-4.672045084576904e-06   -1.0826837904117314e-06   1.135711842344418e-05
-4.672045084576904e-06   -1.0826837904117314e-06   1.135711842344418e-05
-4.672045084576904e-06   -1.0826837904117314e-06   1.135711842344418e-05
-4.672045084576904e-06   -1.0826837904117314e-06   1.135711842344418e-05
-5.419174456318881e-06   -7.113759192124052e-08   1.0808952193064667e-05
-5.419174456318881e-06   -7.113759192124052e-08   1.0808952193064667e-05
-5.419174456318881e-06   -7.113759192124052e-08   1.0808952193064667e-05
-5.419174456318881e-06   -7.113759192124052e-08   1.0808952193064667e-05
-3.974236901960708e-06   -2.1074294692688487e-06   1.1995406323919795e-05
-3.974236901960708e-06   -2.1074294692688487e-06   1.1995406323919795e-05
-3.974236901960708e-06   -2.1074294692688487e-06   1.1995406323919795e-05
-3.974236901960708e-06   -2.1074294692688487e-06   1.1995406323919795e-05
-3.951110212205468e-06   -3.0580657243181424e-07   9.81361727630522e-06
-3.951110212205468e-06   -3.0580657243181424e-07   9.81361727630522e-06
-3.951110212205468e-06   -3.0580657243181424e-07   9.81361727630522e-06
-3.951110212205468e-06   -3.0580657243181424e-07   9.81361727630522e-06
-5.448236777090644e-06   -2.1702336891572327e-06   1.3427484487815743e-05
-5.448236777090644e-06   -2.1702336891572327e-06   1.3427484487815743e-05
-5.448236777090644e-06   -2.1702336891572327e-06   1.3427484487815743e-05
-5.448236777090644e-06   -2.1702336891572327e-06   1.3427484487815743e-05
-4.637171576324525e-06   -1.1511699515253087e-06   1.1464270910626218e-05
-4.637171576324525e-06   -1.1511699515253087e-06   1.1464270910626218e-05
-4.637171576324525e-06   -1.1511699515253087e-06   1.1464270910626218e-05
-4.637171576324525e-06   -1.1511699515253087e-06   1.1464270910626218e-05
-5.448236777090643e-06   -3.058065724318326e-07   1.0932273546340537e-05
-5.448236777090643e-06   -3.058065724318326e-07   1.0932273546340537e-05
-5.448236777090643e-06   -3.058065724318326e-07   1.0932273546340537e-05
-5.448236777090643e-06   -3.058065724318326e-07   1.0932273546340537e-05
-3.951110212205468e-06   -2.1702336891572327e-06   1.2308828217780485e-05
-3.951110212205468e-06   -2.1702336891572327e-06   1.2308828217780485e-05
-3.951110212205468e-06   -2.1702336891572327e-06   1.2308828217780485e-05
-3.951110212205468e-06   -2.1702336891572327e-06   1.2308828217780485e-05
-3.882519277848939e-06   -5.40375325209163e-07   1.0165242544697022e-05
-3.882519277848939e-06   -5.40375325209163e-07   1.0165242544697022e-05
-3.882519277848939e-06   -5.40375325209163e-07   1.0165242544697022e-05
-3.882519277848939e-06   -5.40375325209163e-07   1.0165242544697022e-05
-5.4043840657765475e-06   -2.2566798840659434e-06   1.3731466593223701e-05
-5.4043840657765475e-06   -2.2566798840659434e-06   1.3731466593223701e-05
-5.4043840657765475e-06   -2.2566798840659434e-06   1.3731466593223701e-05
-5.4043840657765475e-06   -2.2566798840659434e-06   1.3731466593223701e-05
-4.596882175935023e-06   -1.252549704453378e-06   1.178315200238696e-05
-4.596882175935023e-06   -1.252549704453378e-06   1.178315200238696e-05
-4.596882175935023e-06   -1.252549704453378e-06   1.178315200238696e-05
-4.596882175935023e-06   -1.252549704453378e-06   1.178315200238696e-05
-4.003683257823294e-06   5.758200363388416e-07   7.424100504891561e-06
-4.003683257823294e-06   5.758200363388416e-07   7.424100504891561e-06
-4.003683257823294e-06   5.758200363388416e-07   7.424100504891561e-06
-4.003683257823294e-06   5.758200363388416e-07   7.424100504891561e-06
-3.372016889096154e-06   -8.833950560687754e-07   7.601348730658917e-06
-3.372016889096154e-06   -8.833950560687754e-07   7.601348730658917e-06
-3.372016889096154e-06   -8.833950560687754e-07   7.601348730658917e-06
-3.372016889096154e-06   -8.833950560687754e-07   7.601348730658917e-06
-3.306871587138195e-06   3.1690545722660004e-07   6.704349548992299e-06
-3.306871587138195e-06   3.1690545722660004e-07   6.704349548992299e-06
-3.306871587138195e-06   3.1690545722660004e-07   6.704349548992299e-06
-3.306871587138195e-06   3.1690545722660004e-07   6.704349548992299e-06
-3.974236901960717e-06   -1.0313697638003052e-06   8.625590206312676e-06
-3.974236901960717e-06   -1.0313697638003052e-06   8.625590206312676e-06
-3.974236901960717e-06   -1.0313697638003052e-06   8.625590206312676e-06
-3.974236901960717e-06   -1.0313697638003052e-06   8.625590206312676e-06
-3.6377896228819095e-06   -2.0200693757452043e-07   7.567227045445857e-06
-3.6377896228819095e-06   -2.0200693757452043e-07   7.567227045445857e-06
-3.6377896228819095e-06   -2.0200693757452043e-07   7.567227045445857e-06
-3.6377896228819095e-06   -2.0200693757452043e-07   7.567227045445857e-06
-3.974236901960708e-06   3.16905457226583e-07   7.513314681608361e-06
-3.974236901960708e-06   3.16905457226583e-07   7.513314681608361e-06
-3.974236901960708e-06   3.16905457226583e-07   7.513314681608361e-06
-3.974236901960708e-06   3.16905457226583e-07   7.513314681608361e-06
-3.306871587138168e-06   -1.0313697638003052e-06   7.816625073696533e-06
-3.306871587138168e-06   -1.0313697638003052e-06   7.816625073696533e-06
-3.306871587138168e-06   -1.0313697638003052e-06   7.816625073696533e-06
-3.306871587138168e-06   -1.0313697638003052e-06   7.816625073696533e-06
-3.2817555619205627e-06   9.487686932792413e-08   7.019308767709895e-06
-3.2817555619205627e-06   9.487686932792413e-08   7.019308767709895e-06
-3.2817555619205627e-06   9.487686932792413e-08   7.019308767709895e-06
-3.2817555619205627e-06   9.487686932792413e-08   7.019308767709895e-06
-3.9511102122054795e-06   -1.1451696734568473e-06   8.878927777188902e-06
-3.9511102122054795e-06   -1.1451696734568473e-06   8.878927777188902e-06
-3.9511102122054795e-06   -1.1451696734568473e-06   8.878927777188902e-06
-3.9511102122054795e-06   -1.1451696734568473e-06   8.878927777188902e-06
-3.572950933365998e-06   -3.5868403879012797e-07   7.776770931656215e-06
-3.572950933365998e-06   -3.5868403879012797e-07   7.776770931656215e-06
-3.572950933365998e-06   -3.5868403879012797e-07   7.776770931656215e-06
-3.572950933365998e-06   -3.5868403879012797e-07   7.776770931656215e-06
-3.951110212205495e-06   9.48768693279238e-08   7.763336693380817e-06
-3.951110212205495e-06   9.48768693279238e-08   7.763336693380817e-06
-3.951110212205495e-06   9.48768693279238e-08   7.763336693380817e-06
-3.951110212205495e-06   9.48768693279238e-08   7.763336693380817e-06
-3.2817555619205627e-06   -1.1451696734568473e-06   8.13489985151806e-06
-3.2817555619205627e-06   -1.1451696734568473e-06   8.13489985151806e-06
-3.2817555619205627e-06   -1.1451696734568473e-06   8.13489985151806e-06
-3.2817555619205627e-06   -1.1451696734568473e-06   8.13489985151806e-06
-3.235646080477399e-06   -1.2915511624810505e-07   7.414813424458562e-06
-3.235646080477399e-06   -1.2915511624810505e-07   7.414813424458562e-06
-3.235646080477399e-06   -1.2915511624810505e-07   7.414813424458562e-06
-3.235646080477399e-06   -1.2915511624810505e-07   7.414813424458562e-06
-3.882519277848929e-06   -1.2937352617465366e-06   9.191683507376756e-06
-3.882519277848929e-06   -1.2937352617465366e-06   9.191683507376756e-06
-3.882519277848929e-06   -1.2937352617465366e-06   9.191683507376756e-06
-3.882519277848929e-06   -1.2937352617465366e-06   9.191683507376756e-06
-3.5253024298111465e-06   -4.966743934794863e-07   8.118085573020233e-06
-3.5253024298111465e-06   -4.966743934794863e-07   8.118085573020233e-06
-3.5253024298111465e-06   -4.966743934794863e-07   8.118085573020233e-06
-3.5253024298111465e-06   -4.966743934794863e-07   8.118085573020233e-06
-3.372016889096154e-06   9.562274573935557e-07   1.7459603631341414e-06
-3.372016889096154e-06   9.562274573935557e-07   1.7459603631341414e-06
-3.372016889096154e-06   9.562274573935557e-07   1.7459603631341414e-06
-3.372016889096154e-06   9.562274573935557e-07   1.7459603631341414e-06
-2.0027331293404104e-06   -9.414407214442195e-08   3.397877045004284e-06
-2.0027331293404104e-06   -9.414407214442195e-08   3.397877045004284e-06
-2.0027331293404104e-06   -9.414407214442195e-08   3.397877045004284e-06
-2.0027331293404104e-06   -9.414407214442195e-08   3.397877045004284e-06
-2.1222041736279466e-06   7.720859077509773e-07   1.7642160332811269e-06
-2.1222041736279466e-06   7.720859077509773e-07   1.7642160332811269e-06
-2.1222041736279466e-06   7.720859077509773e-07   1.7642160332811269e-06
-2.1222041736279466e-06   7.720859077509773e-07   1.7642160332811269e-06
-3.306871587138184e-06   -1.3323201232792238e-07   4.281852474512227e-06
-3.306871587138184e-06   -1.3323201232792238e-07   4.281852474512227e-06
-3.306871587138184e-06   -1.3323201232792238e-07   4.281852474512227e-06
-3.306871587138184e-06   -1.3323201232792238e-07   4.281852474512227e-06
-2.607922234968505e-06   4.927355843793724e-07   2.741356329538365e-06
-2.607922234968505e-06   4.927355843793724e-07   2.741356329538365e-06
-2.607922234968505e-06   4.927355843793724e-07   2.741356329538365e-06
-2.607922234968505e-06   4.927355843793724e-07   2.741356329538365e-06
-3.306871587138195e-06   7.720859077509486e-07   2.3074067853282986e-06
-3.306871587138195e-06   7.720859077509486e-07   2.3074067853282986e-06
-3.306871587138195e-06   7.720859077509486e-07   2.3074067853282986e-06
-3.306871587138195e-06   7.720859077509486e-07   2.3074067853282986e-06
-2.122204173628001e-06   -1.3323201232792238e-07   3.7386617224648925e-06
-2.122204173628001e-06   -1.3323201232792238e-07   3.7386617224648925e-06
-2.122204173628001e-06   -1.3323201232792238e-07   3.7386617224648925e-06
-2.122204173628001e-06   -1.3323201232792238e-07   3.7386617224648925e-06
-2.2212049954840798e-06   6.519087446534792e-07   2.278290782819245e-06
-2.2212049954840798e-06   6.519087446534792e-07   2.278290782819245e-06
-2.2212049954840798e-06   6.519087446534792e-07   2.278290782819245e-06
-2.2212049954840798e-06   6.519087446534792e-07   2.278290782819245e-06
-3.2817555619205776e-06   -1.8549182476815316e-07   4.548315401866352e-06
-3.2817555619205776e-06   -1.8549182476815316e-07   4.548315401866352e-06
-3.2817555619205776e-06   -1.8549182476815316e-07   4.548315401866352e-06
-3.2817555619205776e-06   -1.8549182476815316e-07   4.548315401866352e-06
-2.6614834566085152e-06   4.0285944993752884e-07   3.161517794856314e-06
-2.6614834566085152e-06   4.0285944993752884e-07   3.161517794856314e-06
-2.6614834566085152e-06   4.0285944993752884e-07   3.161517794856314e-06
-2.6614834566085152e-06   4.0285944993752884e-07   3.161517794856314e-06
-3.28175556192059e-06   6.519087446534698e-07   2.780731124472376e-06
-3.28175556192059e-06   6.519087446534698e-07   2.780731124472376e-06
-3.28175556192059e-06   6.519087446534698e-07   2.780731124472376e-06
-3.28175556192059e-06   6.519087446534698e-07   2.780731124472376e-06
-2.2212049954840798e-06   -1.8549182476815316e-07   4.045875060213383e-06
-2.2212049954840798e-06   -1.8549182476815316e-07   4.045875060213383e-06
-2.2212049954840798e-06   -1.8549182476815316e-07   4.045875060213383e-06
-2.2212049954840798e-06   -1.8549182476815316e-07   4.045875060213383e-06
-2.4523394731917544e-06   4.075490034797873e-07   3.1979919841843875e-06
-2.4523394731917544e-06   4.075490034797873e-07   3.1979919841843875e-06
-2.4523394731917544e-06   4.075490034797873e-07   3.1979919841843875e-06
-2.4523394731917544e-06   4.075490034797873e-07   3.1979919841843875e-06
-3.235646080477379e-06   -2.511305887072958e-07   4.898710751639163e-06
-3.235646080477379e-06   -2.511305887072958e-07   4.898710751639163e-06
-3.235646080477379e-06   -2.511305887072958e-07   4.898710751639163e-06
-3.235646080477379e-06   -2.511305887072958e-07   4.898710751639163e-06
-2.6738826135432703e-06   3.4087707934604087e-07   3.607233705916796e-06
-2.6738826135432703e-06   3.4087707934604087e-07   3.607233705916796e-06
-2.6738826135432703e-06   3.4087707934604087e-07   3.607233705916796e-06
-2.6738826135432703e-06   3.4087707934604087e-07   3.607233705916796e-06
-3.052097683304484e-05   2.3638961562749706e-06   1.3389542854865027e-05
-3.052097683304484e-05   2.3638961562749706e-06   1.3389542854865027e-05
-3.052097683304484e-05   2.3638961562749706e-06   1.3389542854865027e-05
-3.052097683304484e-05   2.3638961562749706e-06   1.3389542854865027e-05
-7.13939247398561e-06   -1.5294732708022588e-05   4.176367280138524e-05
-7.13939247398561e-06   -1.5294732708022588e-05   4.176367280138524e-05
-7.13939247398561e-06   -1.5294732708022588e-05   4.176367280138524e-05
-7.13939247398561e-06   -1.5294732708022588e-05   4.176367280138524e-05
-8.404291337183219e-06   9.339044979943245e-07   7.318730233612138e-06
-8.404291337183219e-06   9.339044979943245e-07   7.318730233612138e-06
-8.404291337183219e-06   9.339044979943245e-07   7.318730233612138e-06
-8.404291337183219e-06   9.339044979943245e-07   7.318730233612138e-06
-2.7836264414888828e-05   -1.1945301459998296e-05   4.743287560458366e-05
-2.7836264414888828e-05   -1.1945301459998296e-05   4.743287560458366e-05
-2.7836264414888828e-05   -1.1945301459998296e-05   4.743287560458366e-05
-2.7836264414888828e-05   -1.1945301459998296e-05   4.743287560458366e-05
-1.855028553163057e-05   -5.944411728030138e-06   2.8355710293305657e-05
-1.855028553163057e-05   -5.944411728030138e-06   2.8355710293305657e-05
-1.855028553163057e-05   -5.944411728030138e-06   2.8355710293305657e-05
-1.855028553163057e-05   -5.944411728030138e-06   2.8355710293305657e-05
-2.783626441488878e-05   9.339044979943164e-07   1.5046253808407686e-05
-2.783626441488878e-05   9.339044979943164e-07   1.5046253808407686e-05
-2.783626441488878e-05   9.339044979943164e-07   1.5046253808407686e-05
-2.783626441488878e-05   9.339044979943164e-07   1.5046253808407686e-05
-8.404291337183229e-06   -1.1945301459998296e-05   3.9705352029788105e-05
-8.404291337183229e-06   -1.1945301459998296e-05   3.9705352029788105e-05
-8.404291337183229e-06   -1.1945301459998296e-05   3.9705352029788105e-05
-8.404291337183229e-06   -1.1945301459998296e-05   3.9705352029788105e-05
-8.606559063887288e-06   6.617285313821933e-07   8.044623880382122e-06
-8.606559063887288e-06   6.617285313821933e-07   8.044623880382122e-06
-8.606559063887288e-06   6.617285313821933e-07   8.044623880382122e-06
-8.606559063887288e-06   6.617285313821933e-07   8.044623880382122e-06
-2.6266982329299246e-05   -1.0339027929621086e-05   4.4079116532670594e-05
-2.6266982329299246e-05   -1.0339027929621086e-05   4.4079116532670594e-05
-2.6266982329299246e-05   -1.0339027929621086e-05   4.4079116532670594e-05
-2.6266982329299246e-05   -1.0339027929621086e-05   4.4079116532670594e-05
-1.800507366690077e-05   -5.637814182242134e-06   2.748854051357913e-05
-1.800507366690077e-05   -5.637814182242134e-06   2.748854051357913e-05
-1.800507366690077e-05   -5.637814182242134e-06   2.748854051357913e-05
-1.800507366690077e-05   -5.637814182242134e-06   2.748854051357913e-05
-2.6266982329299198e-05   6.617285313822025e-07   1.4645077756984058e-05
-2.6266982329299198e-05   6.617285313822025e-07   1.4645077756984058e-05
-2.6266982329299198e-05   6.617285313822025e-07   1.4645077756984058e-05
-2.6266982329299198e-05   6.617285313822025e-07   1.4645077756984058e-05
-8.606559063887305e-06   -1.0339027929621086e-05   3.747866265606864e-05
-8.606559063887305e-06   -1.0339027929621086e-05   3.747866265606864e-05
-8.606559063887305e-06   -1.0339027929621086e-05   3.747866265606864e-05
-8.606559063887305e-06   -1.0339027929621086e-05   3.747866265606864e-05
-9.452484844641842e-06   -5.00710768835727e-07   1.0062313585415162e-05
-9.452484844641842e-06   -5.00710768835727e-07   1.0062313585415162e-05
-9.452484844641842e-06   -5.00710768835727e-07   1.0062313585415162e-05
-9.452484844641842e-06   -5.00710768835727e-07   1.0062313585415162e-05
-2.4251322237579893e-05   -8.20098973800278e-06   3.934720995514541e-05
-2.4251322237579893e-05   -8.20098973800278e-06   3.934720995514541e-05
-2.4251322237579893e-05   -8.20098973800278e-06   3.934720995514541e-05
-2.4251322237579893e-05   -8.20098973800278e-06   3.934720995514541e-05
-1.733108743309597e-05   -5.206922800241268e-06   2.6017045118348665e-05
-1.733108743309597e-05   -5.206922800241268e-06   2.6017045118348665e-05
-1.733108743309597e-05   -5.206922800241268e-06   2.6017045118348665e-05
-1.733108743309597e-05   -5.206922800241268e-06   2.6017045118348665e-05
-7.1393924739856e-06   -2.7456519981070014e-06   7.660822424455176e-06
-7.1393924739856e-06   -2.7456519981070014e-06   7.660822424455176e-06
-7.1393924739856e-06   -2.7456519981070014e-06   7.660822424455176e-06
-7.1393924739856e-06   -2.7456519981070014e-06   7.660822424455176e-06
-2.4764831856786778e-06   -4.84646550300091e-06   1.417184980203037e-05
-2.4764831856786778e-06   -4.84646550300091e-06   1.417184980203037e-05
-2.4764831856786778e-06   -4.84646550300091e-06   1.417184980203037e-05
-2.4764831856786778e-06   -4.84646550300091e-06   1.417184980203037e-05
-2.7808705347972807e-06   -2.2561785675150904e-06   6.772934875349656e-06
-2.7808705347972807e-06   -2.2561785675150904e-06   6.772934875349656e-06
-2.7808705347972807e-06   -2.2561785675150904e-06   6.772934875349656e-06
-2.7808705347972807e-06   -2.2561785675150904e-06   6.772934875349656e-06
-8.40429133718323e-06   -6.381647207889429e-06   1.8620584063550767e-05
-8.40429133718323e-06   -6.381647207889429e-06   1.8620584063550767e-05
-8.40429133718323e-06   -6.381647207889429e-06   1.8620584063550767e-05
-8.40429133718323e-06   -6.381647207889429e-06   1.8620584063550767e-05
-4.928874269569975e-06   -3.3276472260142286e-06   1.0995822295070196e-05
-4.928874269569975e-06   -3.3276472260142286e-06   1.0995822295070196e-05
-4.928874269569975e-06   -3.3276472260142286e-06   1.0995822295070196e-05
-4.928874269569975e-06   -3.3276472260142286e-06   1.0995822295070196e-05
-8.404291337183209e-06   -2.2561785675150815e-06   9.24821605957418e-06
-8.404291337183209e-06   -2.2561785675150815e-06   9.24821605957418e-06
-8.404291337183209e-06   -2.2561785675150815e-06   9.24821605957418e-06
-8.404291337183209e-06   -2.2561785675150815e-06   9.24821605957418e-06
-2.7808705347972943e-06   -6.381647207889429e-06   1.614530287932616e-05
-2.7808705347972943e-06   -6.381647207889429e-06   1.614530287932616e-05
-2.7808705347972943e-06   -6.381647207889429e-06   1.614530287932616e-05
-2.7808705347972943e-06   -6.381647207889429e-06   1.614530287932616e-05
-3.0427593060216793e-06   -2.3046705727874396e-06   7.617279314469169e-06
-3.0427593060216793e-06   -2.3046705727874396e-06   7.617279314469169e-06
-3.0427593060216793e-06   -2.3046705727874396e-06   7.617279314469169e-06
-3.0427593060216793e-06   -2.3046705727874396e-06   7.617279314469169e-06
-8.606559063887307e-06   -5.8608335696733065e-06   1.9023976709043298e-05
-8.606559063887307e-06   -5.8608335696733065e-06   1.9023976709043298e-05
-8.606559063887307e-06   -5.8608335696733065e-06   1.9023976709043298e-05
-8.606559063887307e-06   -5.8608335696733065e-06   1.9023976709043298e-05
-5.574127027238218e-06   -4.054533786528283e-06   1.2886143444741232e-05
-5.574127027238218e-06   -4.054533786528283e-06   1.2886143444741232e-05
-5.574127027238218e-06   -4.054533786528283e-06   1.2886143444741232e-05
-5.574127027238218e-06   -4.054533786528283e-06   1.2886143444741232e-05
-8.606559063887305e-06   -2.3046705727874494e-06   9.750977112600663e-06
-8.606559063887305e-06   -2.3046705727874494e-06   9.750977112600663e-06
-8.606559063887305e-06   -2.3046705727874494e-06   9.750977112600663e-06
-8.606559063887305e-06   -2.3046705727874494e-06   9.750977112600663e-06
-3.0427593060216793e-06   -5.8608335696733065e-06   1.6890278910911798e-05
-3.0427593060216793e-06   -5.8608335696733065e-06   1.6890278910911798e-05
-3.0427593060216793e-06   -5.8608335696733065e-06   1.6890278910911798e-05
-3.0427593060216793e-06   -5.8608335696733065e-06   1.6890278910911798e-05
-3.471172534864184e-06   -2.3181186065454704e-06   8.34538790687756e-06
-3.471172534864184e-06   -2.3181186065454704e-06   8.34538790687756e-06
-3.471172534864184e-06   -2.3181186065454704e-06   8.34538790687756e-06
-3.471172534864184e-06   -2.3181186065454704e-06   8.34538790687756e-06
-9.452484844641835e-06   -5.5297545649114124e-06   2.0241223331526474e-05
-9.452484844641835e-06   -5.5297545649114124e-06   2.0241223331526474e-05
-9.452484844641835e-06   -5.5297545649114124e-06   2.0241223331526474e-05
-9.452484844641835e-06   -5.5297545649114124e-06   2.0241223331526474e-05
-5.959108846222168e-06   -3.7042660198622972e-06   1.3323636873797563e-05
-5.959108846222168e-06   -3.7042660198622972e-06   1.3323636873797563e-05
-5.959108846222168e-06   -3.7042660198622972e-06   1.3323636873797563e-05
-5.959108846222168e-06   -3.7042660198622972e-06   1.3323636873797563e-05
-2.4764831856786778e-06   -2.1457658412146825e-06   4.170380296885965e-06
-2.4764831856786778e-06   -2.1457658412146825e-06   4.170380296885965e-06
-2.4764831856786778e-06   -2.1457658412146825e-06   4.170380296885965e-06
-2.4764831856786778e-06   -2.1457658412146825e-06   4.170380296885965e-06
-1.3881650938996862e-06   -1.413465130429115e-06   6.4236242096556465e-06
-1.3881650938996862e-06   -1.413465130429115e-06   6.4236242096556465e-06
-1.3881650938996862e-06   -1.413465130429115e-06   6.4236242096556465e-06
-1.3881650938996862e-06   -1.413465130429115e-06   6.4236242096556465e-06
-1.3417924726710892e-06   -2.1074294692688758e-06   4.73614095774285e-06
-1.3417924726710892e-06   -2.1074294692688758e-06   4.73614095774285e-06
-1.3417924726710892e-06   -2.1074294692688758e-06   4.73614095774285e-06
-1.3417924726710892e-06   -2.1074294692688758e-06   4.73614095774285e-06
-2.78087053479729e-06   -1.8306433890739863e-06   6.9685327465028016e-06
-2.78087053479729e-06   -1.8306433890739863e-06   6.9685327465028016e-06
-2.78087053479729e-06   -1.8306433890739863e-06   6.9685327465028016e-06
-2.78087053479729e-06   -1.8306433890739863e-06   6.9685327465028016e-06
-1.8697540566807041e-06   -1.7645298059005724e-06   5.410337133071044e-06
-1.8697540566807041e-06   -1.7645298059005724e-06   5.410337133071044e-06
-1.8697540566807041e-06   -1.7645298059005724e-06   5.410337133071044e-06
-1.8697540566807041e-06   -1.7645298059005724e-06   5.410337133071044e-06
-2.7808705347972807e-06   -2.107429469268855e-06   4.570069309625888e-06
-2.7808705347972807e-06   -2.107429469268855e-06   4.570069309625888e-06
-2.7808705347972807e-06   -2.107429469268855e-06   4.570069309625888e-06
-2.7808705347972807e-06   -2.107429469268855e-06   4.570069309625888e-06
-1.3417924726711163e-06   -1.8306433890739829e-06   7.134604394619723e-06
-1.3417924726711163e-06   -1.8306433890739829e-06   7.134604394619723e-06
-1.3417924726711163e-06   -1.8306433890739829e-06   7.134604394619723e-06
-1.3417924726711163e-06   -1.8306433890739829e-06   7.134604394619723e-06
-1.3519218617827865e-06   -2.17023368915726e-06   5.068986509542512e-06
-1.3519218617827865e-06   -2.17023368915726e-06   5.068986509542512e-06
-1.3519218617827865e-06   -2.17023368915726e-06   5.068986509542512e-06
-1.3519218617827865e-06   -2.17023368915726e-06   5.068986509542512e-06
-3.0427593060216843e-06   -2.3274289147008313e-06   7.98136605193337e-06
-3.0427593060216843e-06   -2.3274289147008313e-06   7.98136605193337e-06
-3.0427593060216843e-06   -2.3274289147008313e-06   7.98136605193337e-06
-3.0427593060216843e-06   -2.3274289147008313e-06   7.98136605193337e-06
-1.9923309350888695e-06   -1.9288040881746917e-06   5.9914772044630425e-06
-1.9923309350888695e-06   -1.9288040881746917e-06   5.9914772044630425e-06
-1.9923309350888695e-06   -1.9288040881746917e-06   5.9914772044630425e-06
-1.9923309350888695e-06   -1.9288040881746917e-06   5.9914772044630425e-06
-3.0427593060216793e-06   -2.1702336891572416e-06   5.163303644868653e-06
-3.0427593060216793e-06   -2.1702336891572416e-06   5.163303644868653e-06
-3.0427593060216793e-06   -2.1702336891572416e-06   5.163303644868653e-06
-3.0427593060216793e-06   -2.1702336891572416e-06   5.163303644868653e-06
-1.3519218617827865e-06   -2.3274289147008313e-06   7.887048916607243e-06
-1.3519218617827865e-06   -2.3274289147008313e-06   7.887048916607243e-06
-1.3519218617827865e-06   -2.3274289147008313e-06   7.887048916607243e-06
-1.3519218617827865e-06   -2.3274289147008313e-06   7.887048916607243e-06
-1.3866780848704563e-06   -2.2566798840659434e-06   5.570090142850367e-06
-1.3866780848704563e-06   -2.2566798840659434e-06   5.570090142850367e-06
-1.3866780848704563e-06   -2.2566798840659434e-06   5.570090142850367e-06
-1.3866780848704563e-06   -2.2566798840659434e-06   5.570090142850367e-06
-3.4711725348641854e-06   -2.798372318679538e-06   9.369263020274625e-06
-3.4711725348641854e-06   -2.798372318679538e-06   9.369263020274625e-06
-3.4711725348641854e-06   -2.798372318679538e-06   9.369263020274625e-06
-3.4711725348641854e-06   -2.798372318679538e-06   9.369263020274625e-06
-2.1338537323900666e-06   -2.099092935671306e-06   6.7208307196795045e-06
-2.1338537323900666e-06   -2.099092935671306e-06   6.7208307196795045e-06
-2.1338537323900666e-06   -2.099092935671306e-06   6.7208307196795045e-06
-2.1338537323900666e-06   -2.099092935671306e-06   6.7208307196795045e-06
-1.3881650938996862e-06   -8.833950560687874e-07   1.2534329385757465e-06
-1.3881650938996862e-06   -8.833950560687874e-07   1.2534329385757465e-06
-1.3881650938996862e-06   -8.833950560687874e-07   1.2534329385757465e-06
-1.3881650938996862e-06   -8.833950560687874e-07   1.2534329385757465e-06
-1.0457651590725777e-06   1.7533801164843312e-07   2.4593393372513166e-06
-1.0457651590725777e-06   1.7533801164843312e-07   2.4593393372513166e-06
-1.0457651590725777e-06   1.7533801164843312e-07   2.4593393372513166e-06
-1.0457651590725777e-06   1.7533801164843312e-07   2.4593393372513166e-06
-8.5281611505463e-07   -1.0313697638003052e-06   1.997448527944767e-06
-8.5281611505463e-07   -1.0313697638003052e-06   1.997448527944767e-06
-8.5281611505463e-07   -1.0313697638003052e-06   1.997448527944767e-06
-8.5281611505463e-07   -1.0313697638003052e-06   1.997448527944767e-06
-1.3417924726710845e-06   2.0503049214890142e-08   2.1812854361630935e-06
-1.3417924726710845e-06   2.0503049214890142e-08   2.1812854361630935e-06
-1.3417924726710845e-06   2.0503049214890142e-08   2.1812854361630935e-06
-1.3417924726710845e-06   2.0503049214890142e-08   2.1812854361630935e-06
-1.0851533318306395e-06   -4.355285094785231e-07   2.0271724699782805e-06
-1.0851533318306395e-06   -4.355285094785231e-07   2.0271724699782805e-06
-1.0851533318306395e-06   -4.355285094785231e-07   2.0271724699782805e-06
-1.0851533318306395e-06   -4.355285094785231e-07   2.0271724699782805e-06
-1.3417924726710892e-06   -1.031369763800306e-06   1.3663248401356797e-06
-1.3417924726710892e-06   -1.031369763800306e-06   1.3663248401356797e-06
-1.3417924726710892e-06   -1.031369763800306e-06   1.3663248401356797e-06
-1.3417924726710892e-06   -1.031369763800306e-06   1.3663248401356797e-06
-8.528161150546029e-07   2.0503049214890142e-08   2.812409123972208e-06
-8.528161150546029e-07   2.0503049214890142e-08   2.812409123972208e-06
-8.528161150546029e-07   2.0503049214890142e-08   2.812409123972208e-06
-8.528161150546029e-07   2.0503049214890142e-08   2.812409123972208e-06
-7.497976093503143e-07   -1.1451696734568473e-06   2.1949974371187524e-06
-7.497976093503143e-07   -1.1451696734568473e-06   2.1949974371187524e-06
-7.497976093503143e-07   -1.1451696734568473e-06   2.1949974371187524e-06
-7.497976093503143e-07   -1.1451696734568473e-06   2.1949974371187524e-06
-1.351921861782799e-06   -2.1865072651044355e-07   2.6426264896716833e-06
-1.351921861782799e-06   -2.1865072651044355e-07   2.6426264896716833e-06
-1.351921861782799e-06   -2.1865072651044355e-07   2.6426264896716833e-06
-1.351921861782799e-06   -2.1865072651044355e-07   2.6426264896716833e-06
-9.897550747048575e-07   -5.533757942144651e-07   2.239850218497565e-06
-9.897550747048575e-07   -5.533757942144651e-07   2.239850218497565e-06
-9.897550747048575e-07   -5.533757942144651e-07   2.239850218497565e-06
-9.897550747048575e-07   -5.533757942144651e-07   2.239850218497565e-06
-1.3519218617827865e-06   -1.1451696734568411e-06   1.639086068950946e-06
-1.3519218617827865e-06   -1.1451696734568411e-06   1.639086068950946e-06
-1.3519218617827865e-06   -1.1451696734568411e-06   1.639086068950946e-06
-1.3519218617827865e-06   -1.1451696734568411e-06   1.639086068950946e-06
-7.497976093503143e-07   -2.1865072651044355e-07   3.1985378578395303e-06
-7.497976093503143e-07   -2.1865072651044355e-07   3.1985378578395303e-06
-7.497976093503143e-07   -2.1865072651044355e-07   3.1985378578395303e-06
-7.497976093503143e-07   -2.1865072651044355e-07   3.1985378578395303e-06
-5.921917762742742e-07   -1.2937352617465637e-06   2.4151581118008565e-06
-5.921917762742742e-07   -1.2937352617465637e-06   2.4151581118008565e-06
-5.921917762742742e-07   -1.2937352617465637e-06   2.4151581118008565e-06
-5.921917762742742e-07   -1.2937352617465637e-06   2.4151581118008565e-06
-1.3866780848704698e-06   -7.019547292742987e-07   3.3842336399777194e-06
-1.3866780848704698e-06   -7.019547292742987e-07   3.3842336399777194e-06
-1.3866780848704698e-06   -7.019547292742987e-07   3.3842336399777194e-06
-1.3866780848704698e-06   -7.019547292742987e-07   3.3842336399777194e-06
-9.152218289549144e-07   -7.306007376534985e-07   2.615660818479392e-06
-9.152218289549144e-07   -7.306007376534985e-07   2.615660818479392e-06
-9.152218289549144e-07   -7.306007376534985e-07   2.615660818479392e-06
-9.152218289549144e-07   -7.306007376534985e-07   2.615660818479392e-06
-1.0457651590725777e-06   -9.41440721444377e-08   -1.6845759887257697e-06
-1.0457651590725777e-06   -9.41440721444377e-08   -1.6845759887257697e-06
-1.0457651590725777e-06   -9.41440721444377e-08   -1.6845759887257697e-06
-1.0457651590725777e-06   -9.41440721444377e-08   -1.6845759887257697e-06
-2.10288935583087e-07   1.4340106794296444e-07   -1.4958853219087858e-07
-2.10288935583087e-07   1.4340106794296444e-07   -1.4958853219087858e-07
-2.10288935583087e-07   1.4340106794296444e-07   -1.4958853219087858e-07
-2.10288935583087e-07   1.4340106794296444e-07   -1.4958853219087858e-07
-2.139831299430078e-08   -1.3323201232792238e-07   -1.3100347037302588e-06
-2.139831299430078e-08   -1.3323201232792238e-07   -1.3100347037302588e-06
-2.139831299430078e-08   -1.3323201232792238e-07   -1.3100347037302588e-06
-2.139831299430078e-08   -1.3323201232792238e-07   -1.3100347037302588e-06
-8.52816115054616e-07   2.455836001874175e-07   -1.5162773447235933e-07
-8.52816115054616e-07   2.455836001874175e-07   -1.5162773447235933e-07
-8.52816115054616e-07   2.455836001874175e-07   -1.5162773447235933e-07
-8.52816115054616e-07   2.455836001874175e-07   -1.5162773447235933e-07
-4.86701612762651e-07   6.820713061890396e-08   -6.55392689884746e-07
-4.86701612762651e-07   6.820713061890396e-08   -6.55392689884746e-07
-4.86701612762651e-07   6.820713061890396e-08   -6.55392689884746e-07
-4.86701612762651e-07   6.820713061890396e-08   -6.55392689884746e-07
-8.528161150546029e-07   -1.3323201232791806e-07   -1.5373240712395793e-06
-8.528161150546029e-07   -1.3323201232791806e-07   -1.5373240712395793e-06
-8.528161150546029e-07   -1.3323201232791806e-07   -1.5373240712395793e-06
-8.528161150546029e-07   -1.3323201232791806e-07   -1.5373240712395793e-06
-2.139831299430078e-08   2.455836001874175e-07   7.566163303681208e-08
-2.139831299430078e-08   2.455836001874175e-07   7.566163303681208e-08
-2.139831299430078e-08   2.455836001874175e-07   7.566163303681208e-08
-2.139831299430078e-08   2.455836001874175e-07   7.566163303681208e-08
7.4552212852891e-08   -1.8549182476815316e-07   -1.1583323858614203e-06
7.4552212852891e-08   -1.8549182476815316e-07   -1.1583323858614203e-06
7.4552212852891e-08   -1.8549182476815316e-07   -1.1583323858614203e-06
7.4552212852891e-08   -1.8549182476815316e-07   -1.1583323858614203e-06
-7.497976093503085e-07   2.0326588635099642e-07   -1.7670642194227062e-08
-7.497976093503085e-07   2.0326588635099642e-07   -1.7670642194227062e-08
-7.497976093503085e-07   2.0326588635099642e-07   -1.7670642194227062e-08
-7.497976093503085e-07   2.0326588635099642e-07   -1.7670642194227062e-08
-3.4863553993508075e-07   4.3974454918069153e-08   -5.906992323595874e-07
-3.4863553993508075e-07   4.3974454918069153e-08   -5.906992323595874e-07
-3.4863553993508075e-07   4.3974454918069153e-08   -5.906992323595874e-07
-3.4863553993508075e-07   4.3974454918069153e-08   -5.906992323595874e-07
-7.497976093503143e-07   -1.854918247681454e-07   -1.3915870125328755e-06
-7.497976093503143e-07   -1.854918247681454e-07   -1.3915870125328755e-06
-7.497976093503143e-07   -1.854918247681454e-07   -1.3915870125328755e-06
-7.497976093503143e-07   -1.854918247681454e-07   -1.3915870125328755e-06
7.45522128529452e-08   2.0326588635099642e-07   2.1558398447722813e-07
7.45522128529452e-08   2.0326588635099642e-07   2.1558398447722813e-07
7.45522128529452e-08   2.0326588635099642e-07   2.1558398447722813e-07
7.45522128529452e-08   2.0326588635099642e-07   2.1558398447722813e-07
1.9197657885784572e-07   -2.511305887072958e-07   -9.318455692210008e-07
1.9197657885784572e-07   -2.511305887072958e-07   -9.318455692210008e-07
1.9197657885784572e-07   -2.511305887072958e-07   -9.318455692210008e-07
1.9197657885784572e-07   -2.511305887072958e-07   -9.318455692210008e-07
-5.921917762742996e-07   1.6090439032046778e-07   1.278807019157945e-07
-5.921917762742996e-07   1.6090439032046778e-07   1.278807019157945e-07
-5.921917762742996e-07   1.6090439032046778e-07   1.278807019157945e-07
-5.921917762742996e-07   1.6090439032046778e-07   1.278807019157945e-07
-2.2436759080875276e-07   1.3298539251155686e-08   -3.9659609655200287e-07
-2.2436759080875276e-07   1.3298539251155686e-08   -3.9659609655200287e-07
-2.2436759080875276e-07   1.3298539251155686e-08   -3.9659609655200287e-07
-2.2436759080875276e-07   1.3298539251155686e-08   -3.9659609655200287e-07
              </DataArray>   
             <DataArray type="Float64" NumberOfComponents="3" Name="Stress" format="ascii">   
-1.5899297929682437   -0.3974824482420609   -0.3974824482420609
-1.5899297929682437   -0.3974824482420609   -0.3974824482420609
-1.5899297929682437   -0.3974824482420609   -0.3974824482420609
-1.5899297929682437   -0.3974824482420609   -0.3974824482420609
-0.9198453352215372   -0.02963315345425757   -0.018634735687197965
-0.9198453352215372   -0.02963315345425757   -0.018634735687197965
-0.9198453352215372   -0.02963315345425757   -0.018634735687197965
-0.9198453352215372   -0.02963315345425757   -0.018634735687197965
-0.9910641818186651   -0.24776604545466627   -0.24776604545466627
-0.9910641818186651   -0.24776604545466627   -0.24776604545466627
-0.9910641818186651   -0.24776604545466627   -0.24776604545466627
-0.9910641818186651   -0.24776604545466627   -0.24776604545466627
-1.532174300067485   -0.126210714214269   -0.048388088341759436
-1.532174300067485   -0.126210714214269   -0.048388088341759436
-1.532174300067485   -0.126210714214269   -0.048388088341759436
-1.532174300067485   -0.126210714214269   -0.048388088341759436
-1.201559722345061   -0.19721752976631174   -0.003344638688458289
-1.201559722345061   -0.19721752976631174   -0.003344638688458289
-1.201559722345061   -0.19721752976631174   -0.003344638688458289
-1.201559722345061   -0.19721752976631174   -0.003344638688458289
-1.6636161550625352   -0.4159040387656338   -0.4159040387656338
-1.6636161550625352   -0.4159040387656338   -0.4159040387656338
-1.6636161550625352   -0.4159040387656338   -0.4159040387656338
-1.6636161550625352   -0.4159040387656338   -0.4159040387656338
-0.8908337028217649   0.010715903098550722   -0.005095599023382497
-0.8908337028217649   0.010715903098550722   -0.005095599023382497
-0.8908337028217649   0.010715903098550722   -0.005095599023382497
-0.8908337028217649   0.010715903098550722   -0.005095599023382497
-0.9935787982481997   -0.24839469956204993   -0.24839469956204993
-0.9935787982481997   -0.24839469956204993   -0.24839469956204993
-0.9935787982481997   -0.24839469956204993   -0.24839469956204993
-0.9935787982481997   -0.24839469956204993   -0.24839469956204993
-1.583352882595763   -0.12733325114075658   -0.07086620315291992
-1.583352882595763   -0.12733325114075658   -0.07086620315291992
-1.583352882595763   -0.12733325114075658   -0.07086620315291992
-1.583352882595763   -0.12733325114075658   -0.07086620315291992
-1.2460743568110366   -0.18558216890081958   -0.06610097020522054
-1.2460743568110366   -0.18558216890081958   -0.06610097020522054
-1.2460743568110366   -0.18558216890081958   -0.06610097020522054
-1.2460743568110366   -0.18558216890081958   -0.06610097020522054
-1.715236657485589   -0.42880916437139727   -0.42880916437139727
-1.715236657485589   -0.42880916437139727   -0.42880916437139727
-1.715236657485589   -0.42880916437139727   -0.42880916437139727
-1.715236657485589   -0.42880916437139727   -0.42880916437139727
-0.8879830414989878   0.026793195527977376   0.0043961890939747394
-0.8879830414989878   0.026793195527977376   0.0043961890939747394
-0.8879830414989878   0.026793195527977376   0.0043961890939747394
-0.8879830414989878   0.026793195527977376   0.0043961890939747394
-0.9927405073341677   -0.24818512683354194   -0.24818512683354194
-0.9927405073341677   -0.24818512683354194   -0.24818512683354194
-0.9927405073341677   -0.24818512683354194   -0.24818512683354194
-0.9927405073341677   -0.24818512683354194   -0.24818512683354194
-1.6748773654024554   -0.11148271216883432   -0.04266561161767114
-1.6748773654024554   -0.11148271216883432   -0.04266561161767114
-1.6748773654024554   -0.11148271216883432   -0.04266561161767114
-1.6748773654024554   -0.11148271216883432   -0.04266561161767114
-1.2789931469893796   -0.18260865582385594   -0.1194084582785999
-1.2789931469893796   -0.18260865582385594   -0.1194084582785999
-1.2789931469893796   -0.18260865582385594   -0.1194084582785999
-1.2789931469893796   -0.18260865582385594   -0.1194084582785999
-1.0113241748813864   -0.2528310437203466   -0.2528310437203466
-1.0113241748813864   -0.2528310437203466   -0.2528310437203466
-1.0113241748813864   -0.2528310437203466   -0.2528310437203466
-1.0113241748813864   -0.2528310437203466   -0.2528310437203466
-0.42232428230650587   -0.028423437762802678   -0.009207761262606577
-0.42232428230650587   -0.028423437762802678   -0.009207761262606577
-0.42232428230650587   -0.028423437762802678   -0.009207761262606577
-0.42232428230650587   -0.028423437762802678   -0.009207761262606577
-0.4430010715960187   -0.11075026789900468   -0.11075026789900468
-0.4430010715960187   -0.11075026789900468   -0.11075026789900468
-0.4430010715960187   -0.11075026789900468   -0.11075026789900468
-0.4430010715960187   -0.11075026789900468   -0.11075026789900468
-0.9205588778015169   -0.10846229775937485   -0.03454327306421699
-0.9205588778015169   -0.10846229775937485   -0.03454327306421699
-0.9205588778015169   -0.10846229775937485   -0.03454327306421699
-0.9205588778015169   -0.10846229775937485   -0.03454327306421699
-0.6791477045686205   -0.12876658856998327   0.005259870301037917
-0.6791477045686205   -0.12876658856998327   0.005259870301037917
-0.6791477045686205   -0.12876658856998327   0.005259870301037917
-0.6791477045686205   -0.12876658856998327   0.005259870301037917
-0.9910641818186642   -0.24776604545466605   -0.24776604545466605
-0.9910641818186642   -0.24776604545466605   -0.24776604545466605
-0.9910641818186642   -0.24776604545466605   -0.24776604545466605
-0.9910641818186642   -0.24776604545466605   -0.24776604545466605
-0.3981951974755722   0.002854049899584918   -0.0003252150953618506
-0.3981951974755722   0.002854049899584918   -0.0003252150953618506
-0.3981951974755722   0.002854049899584918   -0.0003252150953618506
-0.3981951974755722   0.002854049899584918   -0.0003252150953618506
-0.43284134009968717   -0.10821033502492179   -0.10821033502492179
-0.43284134009968717   -0.10821033502492179   -0.10821033502492179
-0.43284134009968717   -0.10821033502492179   -0.10821033502492179
-0.43284134009968717   -0.10821033502492179   -0.10821033502492179
-0.9179720465954073   -0.0884076603852639   -0.03034798047487388
-0.9179720465954073   -0.0884076603852639   -0.03034798047487388
-0.9179720465954073   -0.0884076603852639   -0.03034798047487388
-0.9179720465954073   -0.0884076603852639   -0.03034798047487388
-0.6694211102931391   -0.1083480501712252   -0.03497007697817665
-0.6694211102931391   -0.1083480501712252   -0.03497007697817665
-0.6694211102931391   -0.1083480501712252   -0.03497007697817665
-0.6694211102931391   -0.1083480501712252   -0.03497007697817665
-0.9935787982481997   -0.24839469956204993   -0.24839469956204993
-0.9935787982481997   -0.24839469956204993   -0.24839469956204993
-0.9935787982481997   -0.24839469956204993   -0.24839469956204993
-0.9935787982481997   -0.24839469956204993   -0.24839469956204993
-0.3821264342571953   0.026884858341564247   0.010269000821054836
-0.3821264342571953   0.026884858341564247   0.010269000821054836
-0.3821264342571953   0.026884858341564247   0.010269000821054836
-0.3821264342571953   0.026884858341564247   0.010269000821054836
-0.4235437948938012   -0.1058859487234503   -0.1058859487234503
-0.4235437948938012   -0.1058859487234503   -0.1058859487234503
-0.4235437948938012   -0.1058859487234503   -0.1058859487234503
-0.4235437948938012   -0.1058859487234503   -0.1058859487234503
-0.9109300672417018   -0.06813849837050129   -0.019179554834263764
-0.9109300672417018   -0.06813849837050129   -0.019179554834263764
-0.9109300672417018   -0.06813849837050129   -0.019179554834263764
-0.9109300672417018   -0.06813849837050129   -0.019179554834263764
-0.6724400388199578   -0.09580398701871108   -0.07787037251157719
-0.6724400388199578   -0.09580398701871108   -0.07787037251157719
-0.6724400388199578   -0.09580398701871108   -0.07787037251157719
-0.6724400388199578   -0.09580398701871108   -0.07787037251157719
-0.4608867138904719   -0.11522167847261798   -0.11522167847261798
-0.4608867138904719   -0.11522167847261798   -0.11522167847261798
-0.4608867138904719   -0.11522167847261798   -0.11522167847261798
-0.4608867138904719   -0.11522167847261798   -0.11522167847261798
0.0538049047511459   0.0033695652104299492   0.00045340290022336666
0.0538049047511459   0.0033695652104299492   0.00045340290022336666
0.0538049047511459   0.0033695652104299492   0.00045340290022336666
0.0538049047511459   0.0033695652104299492   0.00045340290022336666
0.07048001752389585   0.017620004380973962   0.017620004380973962
0.07048001752389585   0.017620004380973962   0.017620004380973962
0.07048001752389585   0.017620004380973962   0.017620004380973962
0.07048001752389585   0.017620004380973962   0.017620004380973962
-0.4164434814339168   -0.07197139287664317   -0.016741192110856694
-0.4164434814339168   -0.07197139287664317   -0.016741192110856694
-0.4164434814339168   -0.07197139287664317   -0.016741192110856694
-0.4164434814339168   -0.07197139287664317   -0.016741192110856694
-0.17872404609356093   -0.04531964851927932   0.030114484876268673
-0.17872404609356093   -0.04531964851927932   0.030114484876268673
-0.17872404609356093   -0.04531964851927932   0.030114484876268673
-0.17872404609356093   -0.04531964851927932   0.030114484876268673
-0.4430010715960195   -0.11075026789900487   -0.11075026789900487
-0.4430010715960195   -0.11075026789900487   -0.11075026789900487
-0.4430010715960195   -0.11075026789900487   -0.11075026789900487
-0.4430010715960195   -0.11075026789900487   -0.11075026789900487
0.07177799702351599   0.03113926874085362   0.010590637519194472
0.07177799702351599   0.03113926874085362   0.010590637519194472
0.07177799702351599   0.03113926874085362   0.010590637519194472
0.07177799702351599   0.03113926874085362   0.010590637519194472
0.07963017615495106   0.019907544038737766   0.019907544038737766
0.07963017615495106   0.019907544038737766   0.019907544038737766
0.07963017615495106   0.019907544038737766   0.019907544038737766
0.07963017615495106   0.019907544038737766   0.019907544038737766
-0.4014741771725474   -0.048360861999561904   -0.011223993414586268
-0.4014741771725474   -0.048360861999561904   -0.011223993414586268
-0.4014741771725474   -0.048360861999561904   -0.011223993414586268
-0.4014741771725474   -0.048360861999561904   -0.011223993414586268
-0.17118643890346327   -0.027971930500492407   -0.0103757492744217
-0.17118643890346327   -0.027971930500492407   -0.0103757492744217
-0.17118643890346327   -0.027971930500492407   -0.0103757492744217
-0.17118643890346327   -0.027971930500492407   -0.0103757492744217
-0.4328413400996879   -0.10821033502492197   -0.10821033502492197
-0.4328413400996879   -0.10821033502492197   -0.10821033502492197
-0.4328413400996879   -0.10821033502492197   -0.10821033502492197
-0.4328413400996879   -0.10821033502492197   -0.10821033502492197
0.08624677899194352   0.05500645697395114   0.017891645288486066
0.08624677899194352   0.05500645697395114   0.017891645288486066
0.08624677899194352   0.05500645697395114   0.017891645288486066
0.08624677899194352   0.05500645697395114   0.017891645288486066
0.0918486911173115   0.022962172779327876   0.022962172779327876
0.0918486911173115   0.022962172779327876   0.022962172779327876
0.0918486911173115   0.022962172779327876   0.022962172779327876
0.0918486911173115   0.022962172779327876   0.022962172779327876
-0.3851875783187877   -0.020225512426881684   0.00023469785504716054
-0.3851875783187877   -0.020225512426881684   0.00023469785504716054
-0.3851875783187877   -0.020225512426881684   0.00023469785504716054
-0.3851875783187877   -0.020225512426881684   0.00023469785504716054
-0.16579705476612172   -0.011247765925953362   -0.05050404769430986
-0.16579705476612172   -0.011247765925953362   -0.05050404769430986
-0.16579705476612172   -0.011247765925953362   -0.05050404769430986
-0.16579705476612172   -0.011247765925953362   -0.05050404769430986
0.05893367903223926   0.014733419758059816   0.014733419758059816
0.05893367903223926   0.014733419758059816   0.014733419758059816
0.05893367903223926   0.014733419758059816   0.014733419758059816
0.05893367903223926   0.014733419758059816   0.014733419758059816
0.5752284603006029   0.05281389890651546   0.01789622161476145
0.5752284603006029   0.05281389890651546   0.01789622161476145
0.5752284603006029   0.05281389890651546   0.01789622161476145
0.5752284603006029   0.05281389890651546   0.01789622161476145
0.6248805939121865   0.15622014847804663   0.15622014847804663
0.6248805939121865   0.15622014847804663   0.15622014847804663
0.6248805939121865   0.15622014847804663   0.15622014847804663
0.6248805939121865   0.15622014847804663   0.15622014847804663
0.05366802262676891   -0.0404767326307911   -0.008343233092896208
0.05366802262676891   -0.0404767326307911   -0.008343233092896208
0.05366802262676891   -0.0404767326307911   -0.008343233092896208
0.05366802262676891   -0.0404767326307911   -0.008343233092896208
0.3277777404286304   0.04082444358723583   0.05948214443095801
0.3277777404286304   0.04082444358723583   0.05948214443095801
0.3277777404286304   0.04082444358723583   0.05948214443095801
0.3277777404286304   0.04082444358723583   0.05948214443095801
0.0704800175238961   0.017620004380974025   0.017620004380974025
0.0704800175238961   0.017620004380974025   0.017620004380974025
0.0704800175238961   0.017620004380974025   0.017620004380974025
0.0704800175238961   0.017620004380974025   0.017620004380974025
0.5823857954828838   0.0724406079341067   0.027525696875477915
0.5823857954828838   0.0724406079341067   0.027525696875477915
0.5823857954828838   0.0724406079341067   0.027525696875477915
0.5823857954828838   0.0724406079341067   0.027525696875477915
0.6224996171477285   0.15562490428693213   0.15562490428693213
0.6224996171477285   0.15562490428693213   0.15562490428693213
0.6224996171477285   0.15562490428693213   0.15562490428693213
0.6224996171477285   0.15562490428693213   0.15562490428693213
0.06822692177588567   -0.01737812711612479   0.00017694329827270573
0.06822692177588567   -0.01737812711612479   0.00017694329827270573
0.06822692177588567   -0.01737812711612479   0.00017694329827270573
0.06822692177588567   -0.01737812711612479   0.00017694329827270573
0.32565952495340145   0.053690733746084435   0.015402713009767678
0.32565952495340145   0.053690733746084435   0.015402713009767678
0.32565952495340145   0.053690733746084435   0.015402713009767678
0.32565952495340145   0.053690733746084435   0.015402713009767678
0.0796301761549512   0.0199075440387378   0.0199075440387378
0.0796301761549512   0.0199075440387378   0.0199075440387378
0.0796301761549512   0.0199075440387378   0.0199075440387378
0.0796301761549512   0.0199075440387378   0.0199075440387378
0.5856620548461751   0.09290492520958242   0.03415707185651931
0.5856620548461751   0.09290492520958242   0.03415707185651931
0.5856620548461751   0.09290492520958242   0.03415707185651931
0.5856620548461751   0.09290492520958242   0.03415707185651931
0.6348393020372091   0.15870982550930227   0.15870982550930227
0.6348393020372091   0.15870982550930227   0.15870982550930227
0.6348393020372091   0.15870982550930227   0.15870982550930227
0.6348393020372091   0.15870982550930227   0.15870982550930227
0.08723831501049539   0.013153169939306862   0.009719295085267579
0.08723831501049539   0.013153169939306862   0.009719295085267579
0.08723831501049539   0.013153169939306862   0.009719295085267579
0.08723831501049539   0.013153169939306862   0.009719295085267579
0.3309999611729334   0.07291048390693788   -0.025467003974631787
0.3309999611729334   0.07291048390693788   -0.025467003974631787
0.3309999611729334   0.07291048390693788   -0.025467003974631787
0.3309999611729334   0.07291048390693788   -0.025467003974631787
0.6234293735514994   0.15585734338787485   0.15585734338787485
0.6234293735514994   0.15585734338787485   0.15585734338787485
0.6234293735514994   0.15585734338787485   0.15585734338787485
0.6234293735514994   0.15585734338787485   0.15585734338787485
1.294973234506134   0.09880533071612602   0.034244136640416076
1.294973234506134   0.09880533071612602   0.034244136640416076
1.294973234506134   0.09880533071612602   0.034244136640416076
1.294973234506134   0.09880533071612602   0.034244136640416076
1.3239982699966577   0.3309995674991644   0.3309995674991644
1.3239982699966577   0.3309995674991644   0.3309995674991644
1.3239982699966577   0.3309995674991644   0.3309995674991644
1.3239982699966577   0.3309995674991644   0.3309995674991644
0.5555271924281049   -0.0314332489360572   -0.0028934615282529066
0.5555271924281049   -0.0314332489360572   -0.0028934615282529066
0.5555271924281049   -0.0314332489360572   -0.0028934615282529066
0.5555271924281049   -0.0314332489360572   -0.0028934615282529066
0.9233217729029205   0.13078472973534727   0.10411193679590146
0.9233217729029205   0.13078472973534727   0.10411193679590146
0.9233217729029205   0.13078472973534727   0.10411193679590146
0.9233217729029205   0.13078472973534727   0.10411193679590146
0.624880593912186   0.1562201484780465   0.1562201484780465
0.624880593912186   0.1562201484780465   0.1562201484780465
0.624880593912186   0.1562201484780465   0.1562201484780465
0.624880593912186   0.1562201484780465   0.1562201484780465
1.2271059539888485   0.11580725556133212   0.06173029939795114
1.2271059539888485   0.11580725556133212   0.06173029939795114
1.2271059539888485   0.11580725556133212   0.06173029939795114
1.2271059539888485   0.11580725556133212   0.06173029939795114
1.2847990257542283   0.3211997564385571   0.3211997564385571
1.2847990257542283   0.3211997564385571   0.3211997564385571
1.2847990257542283   0.3211997564385571   0.3211997564385571
1.2847990257542283   0.3211997564385571   0.3211997564385571
0.5577492626224865   -0.017176860640765512   0.004674896588424161
0.5577492626224865   -0.017176860640765512   0.004674896588424161
0.5577492626224865   -0.017176860640765512   0.004674896588424161
0.5577492626224865   -0.017176860640765512   0.004674896588424161
0.8962672751960669   0.13465265547179467   0.049904576259109004
0.8962672751960669   0.13465265547179467   0.049904576259109004
0.8962672751960669   0.13465265547179467   0.049904576259109004
0.8962672751960669   0.13465265547179467   0.049904576259109004
0.6224996171477285   0.15562490428693213   0.15562490428693213
0.6224996171477285   0.15562490428693213   0.15562490428693213
0.6224996171477285   0.15562490428693213   0.15562490428693213
0.6224996171477285   0.15562490428693213   0.15562490428693213
1.1879247123237366   0.11627403260561098   0.04175391311905638
1.1879247123237366   0.11627403260561098   0.04175391311905638
1.1879247123237366   0.11627403260561098   0.04175391311905638
1.1879247123237366   0.11627403260561098   0.04175391311905638
1.2262359816876094   0.30655899542190235   0.30655899542190235
1.2262359816876094   0.30655899542190235   0.30655899542190235
1.2262359816876094   0.30655899542190235   0.30655899542190235
1.2262359816876094   0.30655899542190235   0.30655899542190235
0.5786890071273354   0.018738915998673958   0.017929260470569624
0.5786890071273354   0.018738915998673958   0.017929260470569624
0.5786890071273354   0.018738915998673958   0.017929260470569624
0.5786890071273354   0.018738915998673958   0.017929260470569624
0.8585173654922208   0.14610899407255554   -0.013177263990954563
0.8585173654922208   0.14610899407255554   -0.013177263990954563
0.8585173654922208   0.14610899407255554   -0.013177263990954563
0.8585173654922208   0.14610899407255554   -0.013177263990954563
-1.2540562487503781   -0.08984672507258712   0.014508319749997698
-1.2540562487503781   -0.08984672507258712   0.014508319749997698
-1.2540562487503781   -0.08984672507258712   0.014508319749997698
-1.2540562487503781   -0.08984672507258712   0.014508319749997698
-0.7986106891618425   -0.018793802688589545   -0.00530172708768685
-0.7986106891618425   -0.018793802688589545   -0.00530172708768685
-0.7986106891618425   -0.018793802688589545   -0.00530172708768685
-0.7986106891618425   -0.018793802688589545   -0.00530172708768685
-0.8037106585549589   0.0325660393999809   0.01703203821696521
-0.8037106585549589   0.0325660393999809   0.01703203821696521
-0.8037106585549589   0.0325660393999809   0.01703203821696521
-0.8037106585549589   0.0325660393999809   0.01703203821696521
-1.2725701722679184   -0.08700300726296564   -0.015241433400230882
-1.2725701722679184   -0.08700300726296564   -0.015241433400230882
-1.2725701722679184   -0.08700300726296564   -0.015241433400230882
-1.2725701722679184   -0.08700300726296564   -0.015241433400230882
-0.991656553378656   -0.03398324905533048   -0.004131712530698946
-0.991656553378656   -0.03398324905533048   -0.004131712530698946
-0.991656553378656   -0.03398324905533048   -0.004131712530698946
-0.991656553378656   -0.03398324905533048   -0.004131712530698946
-1.2631423192997646   -0.06145644629738242   0.006351270474954179
-1.2631423192997646   -0.06145644629738242   0.006351270474954179
-1.2631423192997646   -0.06145644629738242   0.006351270474954179
-1.2631423192997646   -0.06145644629738242   0.006351270474954179
-0.8144549955396249   0.0057029944178878245   -0.009826601724257075
-0.8144549955396249   0.0057029944178878245   -0.009826601724257075
-0.8144549955396249   0.0057029944178878245   -0.009826601724257075
-0.8144549955396249   0.0057029944178878245   -0.009826601724257075
-0.8044842707910176   0.04647909708686204   0.01932692618042888
-0.8044842707910176   0.04647909708686204   0.01932692618042888
-0.8044842707910176   0.04647909708686204   0.01932692618042888
-0.8044842707910176   0.04647909708686204   0.01932692618042888
-1.2800255967192973   -0.07656601124739221   -0.020101781976066393
-1.2800255967192973   -0.07656601124739221   -0.020101781976066393
-1.2800255967192973   -0.07656601124739221   -0.020101781976066393
-1.2800255967192973   -0.07656601124739221   -0.020101781976066393
-1.0192734317681678   -0.022675328124673877   -0.009763175252186583
-1.0192734317681678   -0.022675328124673877   -0.009763175252186583
-1.0192734317681678   -0.022675328124673877   -0.009763175252186583
-1.0192734317681678   -0.022675328124673877   -0.009763175252186583
-1.25684755066468   -0.03667871392836061   0.05590115097797811
-1.25684755066468   -0.03667871392836061   0.05590115097797811
-1.25684755066468   -0.03667871392836061   0.05590115097797811
-1.25684755066468   -0.03667871392836061   0.05590115097797811
-0.8180545518061766   0.01619956480728832   -0.01824494661578442
-0.8180545518061766   0.01619956480728832   -0.01824494661578442
-0.8180545518061766   0.01619956480728832   -0.01824494661578442
-0.8180545518061766   0.01619956480728832   -0.01824494661578442
-0.7896438706331649   0.0810814436884024   0.034921672899224196
-0.7896438706331649   0.0810814436884024   0.034921672899224196
-0.7896438706331649   0.0810814436884024   0.034921672899224196
-0.7896438706331649   0.0810814436884024   0.034921672899224196
-1.2442633138732495   -0.06161856273004823   -0.032793278454704713
-1.2442633138732495   -0.06161856273004823   -0.032793278454704713
-1.2442633138732495   -0.06161856273004823   -0.032793278454704713
-1.2442633138732495   -0.06161856273004823   -0.032793278454704713
-0.9800047067814632   0.009312714073269918   0.02178215525576712
-0.9800047067814632   0.009312714073269918   0.02178215525576712
-0.9800047067814632   0.009312714073269918   0.02178215525576712
-0.9800047067814632   0.009312714073269918   0.02178215525576712
-0.8183395555076024   -0.10861076037626333   -0.014129101128812351
-0.8183395555076024   -0.10861076037626333   -0.014129101128812351
-0.8183395555076024   -0.10861076037626333   -0.014129101128812351
-0.8183395555076024   -0.10861076037626333   -0.014129101128812351
-0.3774900322804538   -0.008633852266981448   0.003948922086319822
-0.3774900322804538   -0.008633852266981448   0.003948922086319822
-0.3774900322804538   -0.008633852266981448   0.003948922086319822
-0.3774900322804538   -0.008633852266981448   0.003948922086319822
-0.3828138831028147   0.007157455228486723   0.005810497176389685
-0.3828138831028147   0.007157455228486723   0.005810497176389685
-0.3828138831028147   0.007157455228486723   0.005810497176389685
-0.3828138831028147   0.007157455228486723   0.005810497176389685
-0.8344439751175333   -0.07946573454568263   -0.024602770650243463
-0.8344439751175333   -0.07946573454568263   -0.024602770650243463
-0.8344439751175333   -0.07946573454568263   -0.024602770650243463
-0.8344439751175333   -0.07946573454568263   -0.024602770650243463
-0.6032731813800013   -0.04909779710296101   -0.013928178592493259
-0.6032731813800013   -0.04909779710296101   -0.013928178592493259
-0.6032731813800013   -0.04909779710296101   -0.013928178592493259
-0.6032731813800013   -0.04909779710296101   -0.013928178592493259
-0.8336208341606549   -0.08679716208388917   -0.01315563832764884
-0.8336208341606549   -0.08679716208388917   -0.01315563832764884
-0.8336208341606549   -0.08679716208388917   -0.01315563832764884
-0.8336208341606549   -0.08679716208388917   -0.01315563832764884
-0.38215396891219494   0.015971937914190118   0.0002955854437818907
-0.38215396891219494   0.015971937914190118   0.0002955854437818907
-0.38215396891219494   0.015971937914190118   0.0002955854437818907
-0.38215396891219494   0.015971937914190118   0.0002955854437818907
-0.3812071597317891   0.026578364142843855   0.007817255302046713
-0.3812071597317891   0.026578364142843855   0.007817255302046713
-0.3812071597317891   0.026578364142843855   0.007817255302046713
-0.3812071597317891   0.026578364142843855   0.007817255302046713
-0.8345982006113392   -0.05813982017678218   -0.026623805657534326
-0.8345982006113392   -0.05813982017678218   -0.026623805657534326
-0.8345982006113392   -0.05813982017678218   -0.026623805657534326
-0.8345982006113392   -0.05813982017678218   -0.026623805657534326
-0.6019376007436453   -0.027284907103749687   -0.006628985199885796
-0.6019376007436453   -0.027284907103749687   -0.006628985199885796
-0.6019376007436453   -0.027284907103749687   -0.006628985199885796
-0.6019376007436453   -0.027284907103749687   -0.006628985199885796
-0.8313031662391485   -0.06555164917809195   -0.002736804795271452
-0.8313031662391485   -0.06555164917809195   -0.002736804795271452
-0.8313031662391485   -0.06555164917809195   -0.002736804795271452
-0.8313031662391485   -0.06555164917809195   -0.002736804795271452
-0.381746046787212   0.03674634046092176   -0.005045156293141929
-0.381746046787212   0.03674634046092176   -0.005045156293141929
-0.381746046787212   0.03674634046092176   -0.005045156293141929
-0.381746046787212   0.03674634046092176   -0.005045156293141929
-0.3746667150765828   0.046069664194946194   0.01559790582785375
-0.3746667150765828   0.046069664194946194   0.01559790582785375
-0.3746667150765828   0.046069664194946194   0.01559790582785375
-0.3746667150765828   0.046069664194946194   0.01559790582785375
-0.8254775107165643   -0.033496360391711916   -0.029668723437662095
-0.8254775107165643   -0.033496360391711916   -0.029668723437662095
-0.8254775107165643   -0.033496360391711916   -0.029668723437662095
-0.8254775107165643   -0.033496360391711916   -0.029668723437662095
-0.5992441676492188   -0.0066397059155426374   0.002999806826824325
-0.5992441676492188   -0.0066397059155426374   0.002999806826824325
-0.5992441676492188   -0.0066397059155426374   0.002999806826824325
-0.5992441676492188   -0.0066397059155426374   0.002999806826824325
-0.397986805151631   -0.09042768021456689   -0.01674111432198446
-0.397986805151631   -0.09042768021456689   -0.01674111432198446
-0.397986805151631   -0.09042768021456689   -0.01674111432198446
-0.397986805151631   -0.09042768021456689   -0.01674111432198446
0.040330128560835996   0.009157806282133472   0.015502998849780363
0.040330128560835996   0.009157806282133472   0.015502998849780363
0.040330128560835996   0.009157806282133472   0.015502998849780363
0.040330128560835996   0.009157806282133472   0.015502998849780363
0.03861918596214785   0.02264359192167587   0.0012710644846729252
0.03861918596214785   0.02264359192167587   0.0012710644846729252
0.03861918596214785   0.02264359192167587   0.0012710644846729252
0.03861918596214785   0.02264359192167587   0.0012710644846729252
-0.3995149613587008   -0.05984012133218617   -0.010697317542370693
-0.3995149613587008   -0.05984012133218617   -0.010697317542370693
-0.3995149613587008   -0.05984012133218617   -0.010697317542370693
-0.3995149613587008   -0.05984012133218617   -0.010697317542370693
-0.18137841912153368   -0.030047231325032432   -0.005789451817739136
-0.18137841912153368   -0.030047231325032432   -0.005789451817739136
-0.18137841912153368   -0.030047231325032432   -0.005789451817739136
-0.18137841912153368   -0.030047231325032432   -0.005789451817739136
-0.4022837050230584   -0.06888952550964086   -0.015491631686704244
-0.4022837050230584   -0.06888952550964086   -0.015491631686704244
-0.4022837050230584   -0.06888952550964086   -0.015491631686704244
-0.4022837050230584   -0.06888952550964086   -0.015491631686704244
0.04291230427219944   0.033217370744824434   0.012162877211782129
0.04291230427219944   0.033217370744824434   0.012162877211782129
0.04291230427219944   0.033217370744824434   0.012162877211782129
0.04291230427219944   0.033217370744824434   0.012162877211782129
0.04191198563212073   0.04399904744045637   0.007189390980835964
0.04191198563212073   0.04399904744045637   0.007189390980835964
0.04191198563212073   0.04399904744045637   0.007189390980835964
0.04191198563212073   0.04399904744045637   0.007189390980835964
-0.3980415876358433   -0.036416828492998356   -0.01335969158238534
-0.3980415876358433   -0.036416828492998356   -0.01335969158238534
-0.3980415876358433   -0.036416828492998356   -0.01335969158238534
-0.3980415876358433   -0.036416828492998356   -0.01335969158238534
-0.17837530970484047   -0.0073638009836385875   0.002091730496127351
-0.17837530970484047   -0.0073638009836385875   0.002091730496127351
-0.17837530970484047   -0.0073638009836385875   0.002091730496127351
-0.17837530970484047   -0.0073638009836385875   0.002091730496127351
-0.39912473510028346   -0.04723718865142371   -0.007955068746160593
-0.39912473510028346   -0.04723718865142371   -0.007955068746160593
-0.39912473510028346   -0.04723718865142371   -0.007955068746160593
-0.39912473510028346   -0.04723718865142371   -0.007955068746160593
0.04463710962459963   0.05646138412692054   0.008352674256766272
0.04463710962459963   0.05646138412692054   0.008352674256766272
0.04463710962459963   0.05646138412692054   0.008352674256766272
0.04463710962459963   0.05646138412692054   0.008352674256766272
0.043070909525095596   0.06773987663640706   0.011803155327607624
0.043070909525095596   0.06773987663640706   0.011803155327607624
0.043070909525095596   0.06773987663640706   0.011803155327607624
0.043070909525095596   0.06773987663640706   0.011803155327607624
-0.39264890538706276   -0.011390321186921043   -0.01685306034268086
-0.39264890538706276   -0.011390321186921043   -0.01685306034268086
-0.39264890538706276   -0.011390321186921043   -0.01685306034268086
-0.39264890538706276   -0.011390321186921043   -0.01685306034268086
-0.17373208897346137   0.016357193176842165   0.010720131224969008
-0.17373208897346137   0.016357193176842165   0.010720131224969008
-0.17373208897346137   0.016357193176842165   0.010720131224969008
-0.17373208897346137   0.016357193176842165   0.010720131224969008
0.017999817102545442   -0.06634102040663013   -0.020649731752908806
0.017999817102545442   -0.06634102040663013   -0.020649731752908806
0.017999817102545442   -0.06634102040663013   -0.020649731752908806
0.017999817102545442   -0.06634102040663013   -0.020649731752908806
0.4721108925791709   0.03247671860166297   0.02851276704780098
0.4721108925791709   0.03247671860166297   0.02851276704780098
0.4721108925791709   0.03247671860166297   0.02851276704780098
0.4721108925791709   0.03247671860166297   0.02851276704780098
0.4717004382080131   0.043879129778151074   -0.004596336629429491
0.4717004382080131   0.043879129778151074   -0.004596336629429491
0.4717004382080131   0.043879129778151074   -0.004596336629429491
0.4717004382080131   0.043879129778151074   -0.004596336629429491
0.026480373426103668   -0.03973407736689956   0.0029546710930272464
0.026480373426103668   -0.03973407736689956   0.0029546710930272464
0.026480373426103668   -0.03973407736689956   0.0029546710930272464
0.026480373426103668   -0.03973407736689956   0.0029546710930272464
0.24401692559066096   -0.005763241679676241   0.00045726764585797205
0.24401692559066096   -0.005763241679676241   0.00045726764585797205
0.24401692559066096   -0.005763241679676241   0.00045726764585797205
0.24401692559066096   -0.005763241679676241   0.00045726764585797205
0.021058475708963124   -0.048423145306406706   -0.01546574955316809
0.021058475708963124   -0.048423145306406706   -0.01546574955316809
0.021058475708963124   -0.048423145306406706   -0.01546574955316809
0.021058475708963124   -0.048423145306406706   -0.01546574955316809
0.4798731433146426   0.055319005107147795   0.024827313574721267
0.4798731433146426   0.055319005107147795   0.024827313574721267
0.4798731433146426   0.055319005107147795   0.024827313574721267
0.4798731433146426   0.055319005107147795   0.024827313574721267
0.4756614980883402   0.065012440259022   0.004695203861552156
0.4756614980883402   0.065012440259022   0.004695203861552156
0.4756614980883402   0.065012440259022   0.004695203861552156
0.4756614980883402   0.065012440259022   0.004695203861552156
0.02765876888944393   -0.018788617731964864   -0.0012890275601268068
0.02765876888944393   -0.018788617731964864   -0.0012890275601268068
0.02765876888944393   -0.018788617731964864   -0.0012890275601268068
0.02765876888944393   -0.018788617731964864   -0.0012890275601268068
0.24750406156957888   0.01443000512198609   0.010144797503053872
0.24750406156957888   0.01443000512198609   0.010144797503053872
0.24750406156957888   0.01443000512198609   0.010144797503053872
0.24750406156957888   0.01443000512198609   0.010144797503053872
0.023688691598833314   -0.028588973466848775   -0.011339058278295963
0.023688691598833314   -0.028588973466848775   -0.011339058278295963
0.023688691598833314   -0.028588973466848775   -0.011339058278295963
0.023688691598833314   -0.028588973466848775   -0.011339058278295963
0.4816239975928915   0.07680521820784612   0.022714923435484455
0.4816239975928915   0.07680521820784612   0.022714923435484455
0.4816239975928915   0.07680521820784612   0.022714923435484455
0.4816239975928915   0.07680521820784612   0.022714923435484455
0.46821432842580996   0.0893977311577317   0.009966087762076197
0.46821432842580996   0.0893977311577317   0.009966087762076197
0.46821432842580996   0.0893977311577317   0.009966087762076197
0.46821432842580996   0.0893977311577317   0.009966087762076197
0.02760068124180878   0.007115648993963799   -0.004923758446383247
0.02760068124180878   0.007115648993963799   -0.004923758446383247
0.02760068124180878   0.007115648993963799   -0.004923758446383247
0.02760068124180878   0.007115648993963799   -0.004923758446383247
0.2513889434911995   0.03750857983135378   0.019123848814345062
0.2513889434911995   0.03750857983135378   0.019123848814345062
0.2513889434911995   0.03750857983135378   0.019123848814345062
0.2513889434911995   0.03750857983135378   0.019123848814345062
0.4346948855714629   -0.0877643968972552   -0.0383261524918207
0.4346948855714629   -0.0877643968972552   -0.0383261524918207
0.4346948855714629   -0.0877643968972552   -0.0383261524918207
0.4346948855714629   -0.0877643968972552   -0.0383261524918207
0.8960190066481719   0.0591947306763585   0.027957712752893195
0.8960190066481719   0.0591947306763585   0.027957712752893195
0.8960190066481719   0.0591947306763585   0.027957712752893195
0.8960190066481719   0.0591947306763585   0.027957712752893195
0.906402717284175   0.0277857726576739   -0.05767387841566651
0.906402717284175   0.0277857726576739   -0.05767387841566651
0.906402717284175   0.0277857726576739   -0.05767387841566651
0.906402717284175   0.0277857726576739   -0.05767387841566651
0.463655360466232   -0.017724093720889858   0.016781498160702443
0.463655360466232   -0.017724093720889858   0.016781498160702443
0.463655360466232   -0.017724093720889858   0.016781498160702443
0.463655360466232   -0.017724093720889858   0.016781498160702443
0.6415882891422762   -0.011411045555524607   -0.016203352539590855
0.6415882891422762   -0.011411045555524607   -0.016203352539590855
0.6415882891422762   -0.011411045555524607   -0.016203352539590855
0.6415882891422762   -0.011411045555524607   -0.016203352539590855
0.44721553871920167   -0.05762102352604499   -0.025520680769288703
0.44721553871920167   -0.05762102352604499   -0.025520680769288703
0.44721553871920167   -0.05762102352604499   -0.025520680769288703
0.44721553871920167   -0.05762102352604499   -0.025520680769288703
0.9311135118538412   0.07595367528546676   0.01771219180488017
0.9311135118538412   0.07595367528546676   0.01771219180488017
0.9311135118538412   0.07595367528546676   0.01771219180488017
0.9311135118538412   0.07595367528546676   0.01771219180488017
0.9167406929696421   0.05102667221598911   -0.0132988694749583
0.9167406929696421   0.05102667221598911   -0.0132988694749583
0.9167406929696421   0.05102667221598911   -0.0132988694749583
0.9167406929696421   0.05102667221598911   -0.0132988694749583
0.46201667207337   -0.007257253549427897   0.0087407675951514
0.46201667207337   -0.007257253549427897   0.0087407675951514
0.46201667207337   -0.007257253549427897   0.0087407675951514
0.46201667207337   -0.007257253549427897   0.0087407675951514
0.6755583196032199   0.016895463414848988   0.011139706427422819
0.6755583196032199   0.016895463414848988   0.011139706427422819
0.6755583196032199   0.016895463414848988   0.011139706427422819
0.6755583196032199   0.016895463414848988   0.011139706427422819
0.44879496122758855   -0.04402309022838828   -0.020601949954791997
0.44879496122758855   -0.04402309022838828   -0.020601949954791997
0.44879496122758855   -0.04402309022838828   -0.020601949954791997
0.44879496122758855   -0.04402309022838828   -0.020601949954791997
0.9288897585094156   0.08671986358894222   0.01175326685095639
0.9288897585094156   0.08671986358894222   0.01175326685095639
0.9288897585094156   0.08671986358894222   0.01175326685095639
0.9288897585094156   0.08671986358894222   0.01175326685095639
0.9156069022099345   0.07848307482928603   -0.020267840458969157
0.9156069022099345   0.07848307482928603   -0.020267840458969157
0.9156069022099345   0.07848307482928603   -0.020267840458969157
0.9156069022099345   0.07848307482928603   -0.020267840458969157
0.45268462696335077   0.016791088282918337   0.00492422332459078
0.45268462696335077   0.016791088282918337   0.00492422332459078
0.45268462696335077   0.016791088282918337   0.00492422332459078
0.45268462696335077   0.016791088282918337   0.00492422332459078
0.6585614496201356   0.02974862379552555   0.00838020295612835
0.6585614496201356   0.02974862379552555   0.00838020295612835
0.6585614496201356   0.02974862379552555   0.00838020295612835
0.6585614496201356   0.02974862379552555   0.00838020295612835
-0.9835572643856113   -0.04451085665629287   0.05105957829756524
-0.9835572643856113   -0.04451085665629287   0.05105957829756524
-0.9835572643856113   -0.04451085665629287   0.05105957829756524
-0.9835572643856113   -0.04451085665629287   0.05105957829756524
-0.6538579763611634   -0.025117331053959815   -0.013285655937224455
-0.6538579763611634   -0.025117331053959815   -0.013285655937224455
-0.6538579763611634   -0.025117331053959815   -0.013285655937224455
-0.6538579763611634   -0.025117331053959815   -0.013285655937224455
-0.6300435714656387   0.05310905309936545   0.042792267609145035
-0.6300435714656387   0.05310905309936545   0.042792267609145035
-0.6300435714656387   0.05310905309936545   0.042792267609145035
-0.6300435714656387   0.05310905309936545   0.042792267609145035
-0.9880021742191285   -0.07063419946686211   -0.020791178840412303
-0.9880021742191285   -0.07063419946686211   -0.020791178840412303
-0.9880021742191285   -0.07063419946686211   -0.020791178840412303
-0.9880021742191285   -0.07063419946686211   -0.020791178840412303
-0.780862700302992   -0.012068075891222135   -0.0016326778681366241
-0.780862700302992   -0.012068075891222135   -0.0016326778681366241
-0.780862700302992   -0.012068075891222135   -0.0016326778681366241
-0.780862700302992   -0.012068075891222135   -0.0016326778681366241
-0.9603034835396552   -0.01007313984937358   0.057141214939465515
-0.9603034835396552   -0.01007313984937358   0.057141214939465515
-0.9603034835396552   -0.01007313984937358   0.057141214939465515
-0.9603034835396552   -0.01007313984937358   0.057141214939465515
-0.6533839854938517   -0.003093729866862599   -0.017707019565691526
-0.6533839854938517   -0.003093729866862599   -0.017707019565691526
-0.6533839854938517   -0.003093729866862599   -0.017707019565691526
-0.6533839854938517   -0.003093729866862599   -0.017707019565691526
-0.6273755056525993   0.06591052378653611   0.03963080212687733
-0.6273755056525993   0.06591052378653611   0.03963080212687733
-0.6273755056525993   0.06591052378653611   0.03963080212687733
-0.6273755056525993   0.06591052378653611   0.03963080212687733
-0.9724846077719256   -0.05901930842444403   -0.028436097611586615
-0.9724846077719256   -0.05901930842444403   -0.028436097611586615
-0.9724846077719256   -0.05901930842444403   -0.028436097611586615
-0.9724846077719256   -0.05901930842444403   -0.028436097611586615
-0.7823464659676237   0.002969697147009953   0.008923021578851699
-0.7823464659676237   0.002969697147009953   0.008923021578851699
-0.7823464659676237   0.002969697147009953   0.008923021578851699
-0.7823464659676237   0.002969697147009953   0.008923021578851699
-0.9467032069170118   0.002007618963321023   0.039443979275216284
-0.9467032069170118   0.002007618963321023   0.039443979275216284
-0.9467032069170118   0.002007618963321023   0.039443979275216284
-0.9467032069170118   0.002007618963321023   0.039443979275216284
-0.6517217583194523   0.006318744586833708   -0.02250868200767893
-0.6517217583194523   0.006318744586833708   -0.02250868200767893
-0.6517217583194523   0.006318744586833708   -0.02250868200767893
-0.6517217583194523   0.006318744586833708   -0.02250868200767893
-0.6278935565756049   0.07450365866062089   0.031448071200996394
-0.6278935565756049   0.07450365866062089   0.031448071200996394
-0.6278935565756049   0.07450365866062089   0.031448071200996394
-0.6278935565756049   0.07450365866062089   0.031448071200996394
-0.9524007728891186   -0.04662287852323768   -0.03623521996810684
-0.9524007728891186   -0.04662287852323768   -0.03623521996810684
-0.9524007728891186   -0.04662287852323768   -0.03623521996810684
-0.9524007728891186   -0.04662287852323768   -0.03623521996810684
-0.7597103424369159   0.016462197947791968   0.018732013183660585
-0.7597103424369159   0.016462197947791968   0.018732013183660585
-0.7597103424369159   0.016462197947791968   0.018732013183660585
-0.7597103424369159   0.016462197947791968   0.018732013183660585
-0.6556822152215172   -0.062139091275874456   0.014614909982921408
-0.6556822152215172   -0.062139091275874456   0.014614909982921408
-0.6556822152215172   -0.062139091275874456   0.014614909982921408
-0.6556822152215172   -0.062139091275874456   0.014614909982921408
-0.33174115230275664   -0.01215067639577748   0.0006060596097148697
-0.33174115230275664   -0.01215067639577748   0.0006060596097148697
-0.33174115230275664   -0.01215067639577748   0.0006060596097148697
-0.33174115230275664   -0.01215067639577748   0.0006060596097148697
-0.32221225120678154   0.03254938970563183   0.023241126695576986
-0.32221225120678154   0.03254938970563183   0.023241126695576986
-0.32221225120678154   0.03254938970563183   0.023241126695576986
-0.32221225120678154   0.03254938970563183   0.023241126695576986
-0.6660717847500237   -0.06127899525767484   -0.02296075045573957
-0.6660717847500237   -0.06127899525767484   -0.02296075045573957
-0.6660717847500237   -0.06127899525767484   -0.02296075045573957
-0.6660717847500237   -0.06127899525767484   -0.02296075045573957
-0.4921942927849228   -0.024155310545736164   -0.010065189356128747
-0.4921942927849228   -0.024155310545736164   -0.010065189356128747
-0.4921942927849228   -0.024155310545736164   -0.010065189356128747
-0.4921942927849228   -0.024155310545736164   -0.010065189356128747
-0.6535077581448329   -0.03553488296548887   0.01411527027802561
-0.6535077581448329   -0.03553488296548887   0.01411527027802561
-0.6535077581448329   -0.03553488296548887   0.01411527027802561
-0.6535077581448329   -0.03553488296548887   0.01411527027802561
-0.3322374528557709   0.009344102369647153   -0.003679594213382386
-0.3322374528557709   0.009344102369647153   -0.003679594213382386
-0.3322374528557709   0.009344102369647153   -0.003679594213382386
-0.3322374528557709   0.009344102369647153   -0.003679594213382386
-0.32110361620180844   0.05390219949711911   0.02009170830244513
-0.32110361620180844   0.05390219949711911   0.02009170830244513
-0.32110361620180844   0.05390219949711911   0.02009170830244513
-0.32110361620180844   0.05390219949711911   0.02009170830244513
-0.6621808774405713   -0.041364900870652796   -0.0271206321557935
-0.6621808774405713   -0.041364900870652796   -0.0271206321557935
-0.6621808774405713   -0.041364900870652796   -0.0271206321557935
-0.6621808774405713   -0.041364900870652796   -0.0271206321557935
-0.48672480987429134   -0.002580317800989246   -8.64093038906201e-05
-0.48672480987429134   -0.002580317800989246   -8.64093038906201e-05
-0.48672480987429134   -0.002580317800989246   -8.64093038906201e-05
-0.48672480987429134   -0.002580317800989246   -8.64093038906201e-05
-0.649362347633373   -0.013872054373144704   0.009479170382689622
-0.649362347633373   -0.013872054373144704   0.009479170382689622
-0.649362347633373   -0.013872054373144704   0.009479170382689622
-0.649362347633373   -0.013872054373144704   0.009479170382689622
-0.3318554335129512   0.028476065495667183   -0.008241244251813728
-0.3318554335129512   0.028476065495667183   -0.008241244251813728
-0.3318554335129512   0.028476065495667183   -0.008241244251813728
-0.3318554335129512   0.028476065495667183   -0.008241244251813728
-0.3209225713002693   0.07635669408488659   0.015041609529039279
-0.3209225713002693   0.07635669408488659   0.015041609529039279
-0.3209225713002693   0.07635669408488659   0.015041609529039279
-0.3209225713002693   0.07635669408488659   0.015041609529039279
-0.6588900735013908   -0.019853967338234746   -0.029176887429080443
-0.6588900735013908   -0.019853967338234746   -0.029176887429080443
-0.6588900735013908   -0.019853967338234746   -0.029176887429080443
-0.6588900735013908   -0.019853967338234746   -0.029176887429080443
-0.4869359529468395   0.017234774588062482   0.007554463052311007
-0.4869359529468395   0.017234774588062482   0.007554463052311007
-0.4869359529468395   0.017234774588062482   0.007554463052311007
-0.4869359529468395   0.017234774588062482   0.007554463052311007
-0.3440455655517657   -0.07119272409713737   -0.0018739589339737297
-0.3440455655517657   -0.07119272409713737   -0.0018739589339737297
-0.3440455655517657   -0.07119272409713737   -0.0018739589339737297
-0.3440455655517657   -0.07119272409713737   -0.0018739589339737297
-0.012562337293904862   0.0033171538244699547   0.014685337180346756
-0.012562337293904862   0.0033171538244699547   0.014685337180346756
-0.012562337293904862   0.0033171538244699547   0.014685337180346756
-0.012562337293904862   0.0033171538244699547   0.014685337180346756
-0.013736388249350936   0.020861128796272048   0.007030359990570578
-0.013736388249350936   0.020861128796272048   0.007030359990570578
-0.013736388249350936   0.020861128796272048   0.007030359990570578
-0.013736388249350936   0.020861128796272048   0.007030359990570578
-0.3441901207345021   -0.04553769369993211   -0.00856113753746496
-0.3441901207345021   -0.04553769369993211   -0.00856113753746496
-0.3441901207345021   -0.04553769369993211   -0.00856113753746496
-0.3441901207345021   -0.04553769369993211   -0.00856113753746496
-0.1791863632493127   -0.022379476725312267   -0.005653404799037307
-0.1791863632493127   -0.022379476725312267   -0.005653404799037307
-0.1791863632493127   -0.022379476725312267   -0.005653404799037307
-0.1791863632493127   -0.022379476725312267   -0.005653404799037307
-0.343818636626856   -0.047508062514312915   -0.004733348184850797
-0.343818636626856   -0.047508062514312915   -0.004733348184850797
-0.343818636626856   -0.047508062514312915   -0.004733348184850797
-0.343818636626856   -0.047508062514312915   -0.004733348184850797
-0.012216838321878061   0.024722531645772566   0.010766706778434438
-0.012216838321878061   0.024722531645772566   0.010766706778434438
-0.012216838321878061   0.024722531645772566   0.010766706778434438
-0.012216838321878061   0.024722531645772566   0.010766706778434438
-0.012077918313815328   0.044116786871883244   0.0033447159199909114
-0.012077918313815328   0.044116786871883244   0.0033447159199909114
-0.012077918313815328   0.044116786871883244   0.0033447159199909114
-0.012077918313815328   0.044116786871883244   0.0033447159199909114
-0.3432338376119454   -0.02409125634381202   -0.01256594290730907
-0.3432338376119454   -0.02409125634381202   -0.01256594290730907
-0.3432338376119454   -0.02409125634381202   -0.01256594290730907
-0.3432338376119454   -0.02409125634381202   -0.01256594290730907
-0.17736101391679232   -0.0008880434789201655   0.0024138129799602843
-0.17736101391679232   -0.0008880434789201655   0.0024138129799602843
-0.17736101391679232   -0.0008880434789201655   0.0024138129799602843
-0.17736101391679232   -0.0008880434789201655   0.0024138129799602843
-0.34271982742336704   -0.024581639829726012   -0.009505508478502712
-0.34271982742336704   -0.024581639829726012   -0.009505508478502712
-0.34271982742336704   -0.024581639829726012   -0.009505508478502712
-0.34271982742336704   -0.024581639829726012   -0.009505508478502712
-0.011031166458284123   0.046167932401906746   0.006527329667623446
-0.011031166458284123   0.046167932401906746   0.006527329667623446
-0.011031166458284123   0.046167932401906746   0.006527329667623446
-0.011031166458284123   0.046167932401906746   0.006527329667623446
-0.011654777454829304   0.06806200049079361   -0.0005855798863448752
-0.011654777454829304   0.06806200049079361   -0.0005855798863448752
-0.011654777454829304   0.06806200049079361   -0.0005855798863448752
-0.011654777454829304   0.06806200049079361   -0.0005855798863448752
-0.34298304147517494   -0.002285056931007598   -0.016618990329593384
-0.34298304147517494   -0.002285056931007598   -0.016618990329593384
-0.34298304147517494   -0.002285056931007598   -0.016618990329593384
-0.34298304147517494   -0.002285056931007598   -0.016618990329593384
-0.17592332179770162   0.02062429084337522   0.009813189947635116
-0.17592332179770162   0.02062429084337522   0.009813189947635116
-0.17592332179770162   0.02062429084337522   0.009813189947635116
-0.17592332179770162   0.02062429084337522   0.009813189947635116
-0.0351927620616716   -0.07809707691905747   -0.017052555914959387
-0.0351927620616716   -0.07809707691905747   -0.017052555914959387
-0.0351927620616716   -0.07809707691905747   -0.017052555914959387
-0.0351927620616716   -0.07809707691905747   -0.017052555914959387
0.30526227451676474   0.02139738336923349   0.02793091086385889
0.30526227451676474   0.02139738336923349   0.02793091086385889
0.30526227451676474   0.02139738336923349   0.02793091086385889
0.30526227451676474   0.02139738336923349   0.02793091086385889
0.29525135683440806   0.0112065503456873   -0.011113173752346649
0.29525135683440806   0.0112065503456873   -0.011113173752346649
0.29525135683440806   0.0112065503456873   -0.011113173752346649
0.29525135683440806   0.0112065503456873   -0.011113173752346649
-0.023794768018974042   -0.028479858609759864   0.0060794485484869645
-0.023794768018974042   -0.028479858609759864   0.0060794485484869645
-0.023794768018974042   -0.028479858609759864   0.0060794485484869645
-0.023794768018974042   -0.028479858609759864   0.0060794485484869645
0.13345574056325554   -0.018202417458183476   -0.0032109714394508125
0.13345574056325554   -0.018202417458183476   -0.0032109714394508125
0.13345574056325554   -0.018202417458183476   -0.0032109714394508125
0.13345574056325554   -0.018202417458183476   -0.0032109714394508125
-0.034984135580340386   -0.056906135800344954   -0.02144111206775969
-0.034984135580340386   -0.056906135800344954   -0.02144111206775969
-0.034984135580340386   -0.056906135800344954   -0.02144111206775969
-0.034984135580340386   -0.056906135800344954   -0.02144111206775969
0.3085921306329602   0.041784233773459044   0.025013011812639534
0.3085921306329602   0.041784233773459044   0.025013011812639534
0.3085921306329602   0.041784233773459044   0.025013011812639534
0.3085921306329602   0.041784233773459044   0.025013011812639534
0.30017180639155955   0.03285046282731027   -0.015606662265862829
0.30017180639155955   0.03285046282731027   -0.015606662265862829
0.30017180639155955   0.03285046282731027   -0.015606662265862829
0.30017180639155955   0.03285046282731027   -0.015606662265862829
-0.02306247195374515   -0.009261949275567533   0.0018006838677927786
-0.02306247195374515   -0.009261949275567533   0.0018006838677927786
-0.02306247195374515   -0.009261949275567533   0.0018006838677927786
-0.02306247195374515   -0.009261949275567533   0.0018006838677927786
0.13474881386914697   0.0012603744304467007   0.004812732826385877
0.13474881386914697   0.0012603744304467007   0.004812732826385877
0.13474881386914697   0.0012603744304467007   0.004812732826385877
0.13474881386914697   0.0012603744304467007   0.004812732826385877
-0.03394735166114654   -0.03602430759917902   -0.025861356345602875
-0.03394735166114654   -0.03602430759917902   -0.025861356345602875
-0.03394735166114654   -0.03602430759917902   -0.025861356345602875
-0.03394735166114654   -0.03602430759917902   -0.025861356345602875
0.31340188983814193   0.0619580248901023   0.021436192904254796
0.31340188983814193   0.0619580248901023   0.021436192904254796
0.31340188983814193   0.0619580248901023   0.021436192904254796
0.31340188983814193   0.0619580248901023   0.021436192904254796
0.303243483121709   0.05996303795745442   -0.0163296155088304
0.303243483121709   0.05996303795745442   -0.0163296155088304
0.303243483121709   0.05996303795745442   -0.0163296155088304
0.303243483121709   0.05996303795745442   -0.0163296155088304
-0.02301004059156219   0.013168447133498337   -0.002468342212713832
-0.02301004059156219   0.013168447133498337   -0.002468342212713832
-0.02301004059156219   0.013168447133498337   -0.002468342212713832
-0.02301004059156219   0.013168447133498337   -0.002468342212713832
0.13954678274275042   0.022932698374767455   0.014328158120495598
0.13954678274275042   0.022932698374767455   0.014328158120495598
0.13954678274275042   0.022932698374767455   0.014328158120495598
0.13954678274275042   0.022932698374767455   0.014328158120495598
0.2732169706356562   -0.07761405342601077   -0.033284171746436705
0.2732169706356562   -0.07761405342601077   -0.033284171746436705
0.2732169706356562   -0.07761405342601077   -0.033284171746436705
0.2732169706356562   -0.07761405342601077   -0.033284171746436705
0.6017913397889681   0.04472756105788232   0.031192776221418802
0.6017913397889681   0.04472756105788232   0.031192776221418802
0.6017913397889681   0.04472756105788232   0.031192776221418802
0.6017913397889681   0.04472756105788232   0.031192776221418802
0.597130333372106   -0.0032470753951811537   -0.04430838311662803
0.597130333372106   -0.0032470753951811537   -0.04430838311662803
0.597130333372106   -0.0032470753951811537   -0.04430838311662803
0.597130333372106   -0.0032470753951811537   -0.04430838311662803
0.29816843518249336   -0.006294914991158987   0.02097368332492603
0.29816843518249336   -0.006294914991158987   0.02097368332492603
0.29816843518249336   -0.006294914991158987   0.02097368332492603
0.29816843518249336   -0.006294914991158987   0.02097368332492603
0.4210865866541892   -0.015243553017223271   -0.013893465528382476
0.4210865866541892   -0.015243553017223271   -0.013893465528382476
0.4210865866541892   -0.015243553017223271   -0.013893465528382476
0.4210865866541892   -0.015243553017223271   -0.013893465528382476
0.2735855956964013   -0.06728452677194621   -0.04095090232474582
0.2735855956964013   -0.06728452677194621   -0.04095090232474582
0.2735855956964013   -0.06728452677194621   -0.04095090232474582
0.2735855956964013   -0.06728452677194621   -0.04095090232474582
0.6234763610613427   0.05950572458875056   0.024668955345624285
0.6234763610613427   0.05950572458875056   0.024668955345624285
0.6234763610613427   0.05950572458875056   0.024668955345624285
0.6234763610613427   0.05950572458875056   0.024668955345624285
0.6120137495614272   0.009098238840638762   -0.059478847942568594
0.6120137495614272   0.009098238840638762   -0.059478847942568594
0.6120137495614272   0.009098238840638762   -0.059478847942568594
0.6120137495614272   0.009098238840638762   -0.059478847942568594
0.3004800536262372   0.003126072565196078   0.015658964169642253
0.3004800536262372   0.003126072565196078   0.015658964169642253
0.3004800536262372   0.003126072565196078   0.015658964169642253
0.3004800536262372   0.003126072565196078   0.015658964169642253
0.44034790185333694   -0.0018781489846507737   -0.004194382916376992
0.44034790185333694   -0.0018781489846507737   -0.004194382916376992
0.44034790185333694   -0.0018781489846507737   -0.004194382916376992
0.44034790185333694   -0.0018781489846507737   -0.004194382916376992
0.2768090344192457   -0.054967455382756526   -0.0446026039173652
0.2768090344192457   -0.054967455382756526   -0.0446026039173652
0.2768090344192457   -0.054967455382756526   -0.0446026039173652
0.2768090344192457   -0.054967455382756526   -0.0446026039173652
0.6395829237730885   0.07108992179326175   0.016375340163119246
0.6395829237730885   0.07108992179326175   0.016375340163119246
0.6395829237730885   0.07108992179326175   0.016375340163119246
0.6395829237730885   0.07108992179326175   0.016375340163119246
0.6356333401490497   0.04119540452849882   -0.05600290863320574
0.6356333401490497   0.04119540452849882   -0.05600290863320574
0.6356333401490497   0.04119540452849882   -0.05600290863320574
0.6356333401490497   0.04119540452849882   -0.05600290863320574
0.3015819851993577   0.023871104865330124   0.011454827971543556
0.3015819851993577   0.023871104865330124   0.011454827971543556
0.3015819851993577   0.023871104865330124   0.011454827971543556
0.3015819851993577   0.023871104865330124   0.011454827971543556
0.44381481587703864   0.013376144897940423   0.0065665376732878915
0.44381481587703864   0.013376144897940423   0.0065665376732878915
0.44381481587703864   0.013376144897940423   0.0065665376732878915
0.44381481587703864   0.013376144897940423   0.0065665376732878915
-0.7012439399592577   -0.022708261463695242   0.04614565561219521
-0.7012439399592577   -0.022708261463695242   0.04614565561219521
-0.7012439399592577   -0.022708261463695242   0.04614565561219521
-0.7012439399592577   -0.022708261463695242   0.04614565561219521
-0.49145752116975316   -0.03303941388564746   -0.017378632967086277
-0.49145752116975316   -0.03303941388564746   -0.017378632967086277
-0.49145752116975316   -0.03303941388564746   -0.017378632967086277
-0.49145752116975316   -0.03303941388564746   -0.017378632967086277
-0.46244365722593095   0.04649986929164861   0.03932064795894386
-0.46244365722593095   0.04649986929164861   0.03932064795894386
-0.46244365722593095   0.04649986929164861   0.03932064795894386
-0.46244365722593095   0.04649986929164861   0.03932064795894386
-0.7012890667743972   -0.05777236880740225   -0.025431436452950998
-0.7012890667743972   -0.05777236880740225   -0.025431436452950998
-0.7012890667743972   -0.05777236880740225   -0.025431436452950998
-0.7012890667743972   -0.05777236880740225   -0.025431436452950998
-0.5650192712467141   -0.008957304076278857   -0.0014145495406831937
-0.5650192712467141   -0.008957304076278857   -0.0014145495406831937
-0.5650192712467141   -0.008957304076278857   -0.0014145495406831937
-0.5650192712467141   -0.008957304076278857   -0.0014145495406831937
-0.6748900183657145   0.004920629023762141   0.04387080775929683
-0.6748900183657145   0.004920629023762141   0.04387080775929683
-0.6748900183657145   0.004920629023762141   0.04387080775929683
-0.6748900183657145   0.004920629023762141   0.04387080775929683
-0.48669098257383797   -0.01404140547873993   -0.021374704010198593
-0.48669098257383797   -0.01404140547873993   -0.021374704010198593
-0.48669098257383797   -0.01404140547873993   -0.021374704010198593
-0.48669098257383797   -0.01404140547873993   -0.021374704010198593
-0.45808086878698745   0.056190759213199645   0.03321050159169371
-0.45808086878698745   0.056190759213199645   0.03321050159169371
-0.45808086878698745   0.056190759213199645   0.03321050159169371
-0.45808086878698745   0.056190759213199645   0.03321050159169371
-0.6845863215203768   -0.0469656694407834   -0.03212360796809392
-0.6845863215203768   -0.0469656694407834   -0.03212360796809392
-0.6845863215203768   -0.0469656694407834   -0.03212360796809392
-0.6845863215203768   -0.0469656694407834   -0.03212360796809392
-0.5609946969477613   0.003813997855832099   0.005817727214927442
-0.5609946969477613   0.003813997855832099   0.005817727214927442
-0.5609946969477613   0.003813997855832099   0.005817727214927442
-0.5609946969477613   0.003813997855832099   0.005817727214927442
-0.6584276447743842   0.016516770801332847   0.03518733551975414
-0.6584276447743842   0.016516770801332847   0.03518733551975414
-0.6584276447743842   0.016516770801332847   0.03518733551975414
-0.6584276447743842   0.016516770801332847   0.03518733551975414
-0.4822979100441653   -0.005350045540100892   -0.026333899940892816
-0.4822979100441653   -0.005350045540100892   -0.026333899940892816
-0.4822979100441653   -0.005350045540100892   -0.026333899940892816
-0.4822979100441653   -0.005350045540100892   -0.026333899940892816
-0.4556686653534202   0.06568565053245205   0.028575317774651027
-0.4556686653534202   0.06568565053245205   0.028575317774651027
-0.4556686653534202   0.06568565053245205   0.028575317774651027
-0.4556686653534202   0.06568565053245205   0.028575317774651027
-0.6622452193827559   -0.03265218655665883   -0.03844529950028977
-0.6622452193827559   -0.03265218655665883   -0.03844529950028977
-0.6622452193827559   -0.03265218655665883   -0.03844529950028977
-0.6622452193827559   -0.03265218655665883   -0.03844529950028977
-0.5398899874248494   0.015805146109875254   0.015931842650185817
-0.5398899874248494   0.015805146109875254   0.015931842650185817
-0.5398899874248494   0.015805146109875254   0.015931842650185817
-0.5398899874248494   0.015805146109875254   0.015931842650185817
-0.48580830541894227   -0.039599760467245296   0.01742779236856263
-0.48580830541894227   -0.039599760467245296   0.01742779236856263
-0.48580830541894227   -0.039599760467245296   0.01742779236856263
-0.48580830541894227   -0.039599760467245296   0.01742779236856263
-0.282455565786751   -0.021403828676710895   -0.002808021157438771
-0.282455565786751   -0.021403828676710895   -0.002808021157438771
-0.282455565786751   -0.021403828676710895   -0.002808021157438771
-0.282455565786751   -0.021403828676710895   -0.002808021157438771
-0.26808543808358426   0.02714988720135622   0.02119731517297633
-0.26808543808358426   0.02714988720135622   0.02119731517297633
-0.26808543808358426   0.02714988720135622   0.02119731517297633
-0.26808543808358426   0.02714988720135622   0.02119731517297633
-0.4931528802781279   -0.047179813332299314   -0.02054578467809178
-0.4931528802781279   -0.047179813332299314   -0.02054578467809178
-0.4931528802781279   -0.047179813332299314   -0.02054578467809178
-0.4931528802781279   -0.047179813332299314   -0.02054578467809178
-0.3808603233425607   -0.018520321137857607   -0.007848517040264395
-0.3808603233425607   -0.018520321137857607   -0.007848517040264395
-0.3808603233425607   -0.018520321137857607   -0.007848517040264395
-0.3808603233425607   -0.018520321137857607   -0.007848517040264395
-0.4800875020595187   -0.016641441676579813   0.014242734759231622
-0.4800875020595187   -0.016641441676579813   0.014242734759231622
-0.4800875020595187   -0.016641441676579813   0.014242734759231622
-0.4800875020595187   -0.016641441676579813   0.014242734759231622
-0.2794736932541655   -0.0017113614063368476   -0.006882712072241819
-0.2794736932541655   -0.0017113614063368476   -0.006882712072241819
-0.2794736932541655   -0.0017113614063368476   -0.006882712072241819
-0.2794736932541655   -0.0017113614063368476   -0.006882712072241819
-0.2646786097258797   0.04703369780330987   0.017370093499328252
-0.2646786097258797   0.04703369780330987   0.017370093499328252
-0.2646786097258797   0.04703369780330987   0.017370093499328252
-0.2646786097258797   0.04703369780330987   0.017370093499328252
-0.4864917739969806   -0.02843890337166155   -0.02421436187341136
-0.4864917739969806   -0.02843890337166155   -0.02421436187341136
-0.4864917739969806   -0.02843890337166155   -0.02421436187341136
-0.4864917739969806   -0.02843890337166155   -0.02421436187341136
-0.37354150105586564   0.0009951601721125136   0.0005371651655156871
-0.37354150105586564   0.0009951601721125136   0.0005371651655156871
-0.37354150105586564   0.0009951601721125136   0.0005371651655156871
-0.37354150105586564   0.0009951601721125136   0.0005371651655156871
-0.4724381005567779   0.004609001107043653   0.013006100848897828
-0.4724381005567779   0.004609001107043653   0.013006100848897828
-0.4724381005567779   0.004609001107043653   0.013006100848897828
-0.4724381005567779   0.004609001107043653   0.013006100848897828
-0.2766496731420229   0.016068403348663968   -0.011519929126741574
-0.2766496731420229   0.016068403348663968   -0.011519929126741574
-0.2766496731420229   0.016068403348663968   -0.011519929126741574
-0.2766496731420229   0.016068403348663968   -0.011519929126741574
-0.2613861040322185   0.06824342265672464   0.013806093076544276
-0.2613861040322185   0.06824342265672464   0.013806093076544276
-0.2613861040322185   0.06824342265672464   0.013806093076544276
-0.2613861040322185   0.06824342265672464   0.013806093076544276
-0.4815149068291515   -0.008219124068072028   -0.026751115003484326
-0.4815149068291515   -0.008219124068072028   -0.026751115003484326
-0.4815149068291515   -0.008219124068072028   -0.026751115003484326
-0.4815149068291515   -0.008219124068072028   -0.026751115003484326
-0.3706945912951866   0.01938908526256053   0.008534030179048843
-0.3706945912951866   0.01938908526256053   0.008534030179048843
-0.3706945912951866   0.01938908526256053   0.008534030179048843
-0.3706945912951866   0.01938908526256053   0.008534030179048843
-0.28838216780085646   -0.0546273764116037   0.0007825165069296576
-0.28838216780085646   -0.0546273764116037   0.0007825165069296576
-0.28838216780085646   -0.0546273764116037   0.0007825165069296576
-0.28838216780085646   -0.0546273764116037   0.0007825165069296576
-0.07553838437499917   -0.006549466664417964   0.011740936870920737
-0.07553838437499917   -0.006549466664417964   0.011740936870920737
-0.07553838437499917   -0.006549466664417964   0.011740936870920737
-0.07553838437499917   -0.006549466664417964   0.011740936870920737
-0.07371873049687076   0.011069726468811523   0.0040045730686219
-0.07371873049687076   0.011069726468811523   0.0040045730686219
-0.07371873049687076   0.011069726468811523   0.0040045730686219
-0.07371873049687076   0.011069726468811523   0.0040045730686219
-0.2852224271783868   -0.03188092949938402   -0.0054568136003007245
-0.2852224271783868   -0.03188092949938402   -0.0054568136003007245
-0.2852224271783868   -0.03188092949938402   -0.0054568136003007245
-0.2852224271783868   -0.03188092949938402   -0.0054568136003007245
-0.18102723707501542   -0.019615930401423835   -0.005587329645470202
-0.18102723707501542   -0.019615930401423835   -0.005587329645470202
-0.18102723707501542   -0.019615930401423835   -0.005587329645470202
-0.18102723707501542   -0.019615930401423835   -0.005587329645470202
-0.2847521889987492   -0.032445991904656454   -0.0025405602968389066
-0.2847521889987492   -0.032445991904656454   -0.0025405602968389066
-0.2847521889987492   -0.032445991904656454   -0.0025405602968389066
-0.2847521889987492   -0.032445991904656454   -0.0025405602968389066
-0.07250746787706093   0.013316289673531514   0.007814322962951065
-0.07250746787706093   0.013316289673531514   0.007814322962951065
-0.07250746787706093   0.013316289673531514   0.007814322962951065
-0.07250746787706093   0.013316289673531514   0.007814322962951065
-0.06960283628426116   0.0333511798693201   0.0010152368306672148
-0.06960283628426116   0.0333511798693201   0.0010152368306672148
-0.06960283628426116   0.0333511798693201   0.0010152368306672148
-0.06960283628426116   0.0333511798693201   0.0010152368306672148
-0.2818107975645133   -0.011874406031238675   -0.009382741859291653
-0.2818107975645133   -0.011874406031238675   -0.009382741859291653
-0.2818107975645133   -0.011874406031238675   -0.009382741859291653
-0.2818107975645133   -0.011874406031238675   -0.009382741859291653
-0.17662991608536688   0.00039501885173971046   0.0023210258420980744
-0.17662991608536688   0.00039501885173971046   0.0023210258420980744
-0.17662991608536688   0.00039501885173971046   0.0023210258420980744
-0.17662991608536688   0.00039501885173971046   0.0023210258420980744
-0.28075948412054114   -0.01023609433183656   -0.005764486338832413
-0.28075948412054114   -0.01023609433183656   -0.005764486338832413
-0.28075948412054114   -0.01023609433183656   -0.005764486338832413
-0.28075948412054114   -0.01023609433183656   -0.005764486338832413
-0.06910147797507214   0.033265539923078645   0.0036076683228537104
-0.06910147797507214   0.033265539923078645   0.0036076683228537104
-0.06910147797507214   0.033265539923078645   0.0036076683228537104
-0.06910147797507214   0.033265539923078645   0.0036076683228537104
-0.06590692413479086   0.05595591972226671   -0.0024902244036059187
-0.06590692413479086   0.05595591972226671   -0.0024902244036059187
-0.06590692413479086   0.05595591972226671   -0.0024902244036059187
-0.06590692413479086   0.05595591972226671   -0.0024902244036059187
-0.27882290026486994   0.00836149149254753   -0.013495956922534462
-0.27882290026486994   0.00836149149254753   -0.013495956922534462
-0.27882290026486994   0.00836149149254753   -0.013495956922534462
-0.27882290026486994   0.00836149149254753   -0.013495956922534462
-0.17261586484799663   0.020502145657361644   0.009940070606387115
-0.17261586484799663   0.020502145657361644   0.009940070606387115
-0.17261586484799663   0.020502145657361644   0.009940070606387115
-0.17261586484799663   0.020502145657361644   0.009940070606387115
-0.09305933152718242   -0.06694647760267604   -0.015466787951737945
-0.09305933152718242   -0.06694647760267604   -0.015466787951737945
-0.09305933152718242   -0.06694647760267604   -0.015466787951737945
-0.09305933152718242   -0.06694647760267604   -0.015466787951737945
0.12847661152887327   0.010092728313596908   0.025450993948590094
0.12847661152887327   0.010092728313596908   0.025450993948590094
0.12847661152887327   0.010092728313596908   0.025450993948590094
0.12847661152887327   0.010092728313596908   0.025450993948590094
0.11932627824966185   -0.003936137581678937   -0.014322992579744306
0.11932627824966185   -0.003936137581678937   -0.014322992579744306
0.11932627824966185   -0.003936137581678937   -0.014322992579744306
0.11932627824966185   -0.003936137581678937   -0.014322992579744306
-0.07793396735525115   -0.015477998635185694   0.009476113880716513
-0.07793396735525115   -0.015477998635185694   0.009476113880716513
-0.07793396735525115   -0.015477998635185694   0.009476113880716513
-0.07793396735525115   -0.015477998635185694   0.009476113880716513
0.018394191031256325   -0.018536071235607188   -0.003983805827574627
0.018394191031256325   -0.018536071235607188   -0.003983805827574627
0.018394191031256325   -0.018536071235607188   -0.003983805827574627
0.018394191031256325   -0.018536071235607188   -0.003983805827574627
-0.08989044117206557   -0.04672644476481924   -0.019057809073721458
-0.08989044117206557   -0.04672644476481924   -0.019057809073721458
-0.08989044117206557   -0.04672644476481924   -0.019057809073721458
-0.08989044117206557   -0.04672644476481924   -0.019057809073721458
0.1332831048323493   0.02931266131382695   0.022212341438186962
0.1332831048323493   0.02931266131382695   0.022212341438186962
0.1332831048323493   0.02931266131382695   0.022212341438186962
0.1332831048323493   0.02931266131382695   0.022212341438186962
0.1269968031901039   0.017142905097415603   -0.01623431941114058
0.1269968031901039   0.017142905097415603   -0.01623431941114058
0.1269968031901039   0.017142905097415603   -0.01623431941114058
0.1269968031901039   0.017142905097415603   -0.01623431941114058
-0.074964969503328   0.00241348825138428   0.005142262353268072
-0.074964969503328   0.00241348825138428   0.005142262353268072
-0.074964969503328   0.00241348825138428   0.005142262353268072
-0.074964969503328   0.00241348825138428   0.005142262353268072
0.02248212390220483   -0.0003746292187829115   0.004066704128551993
0.02248212390220483   -0.0003746292187829115   0.004066704128551993
0.02248212390220483   -0.0003746292187829115   0.004066704128551993
0.02248212390220483   -0.0003746292187829115   0.004066704128551993
-0.08650391491014241   -0.026948474938574545   -0.02319050149084445
-0.08650391491014241   -0.026948474938574545   -0.02319050149084445
-0.08650391491014241   -0.026948474938574545   -0.02319050149084445
-0.08650391491014241   -0.026948474938574545   -0.02319050149084445
0.14027106778886256   0.04824018747931857   0.019039721200748927
0.14027106778886256   0.04824018747931857   0.019039721200748927
0.14027106778886256   0.04824018747931857   0.019039721200748927
0.14027106778886256   0.04824018747931857   0.019039721200748927
0.1331785789417443   0.04114565065843218   -0.018770944121358782
0.1331785789417443   0.04114565065843218   -0.018770944121358782
0.1331785789417443   0.04114565065843218   -0.018770944121358782
0.1331785789417443   0.04114565065843218   -0.018770944121358782
-0.07179315357459017   0.02301526908444187   0.0010192790352224063
-0.07179315357459017   0.02301526908444187   0.0010192790352224063
-0.07179315357459017   0.02301526908444187   0.0010192790352224063
-0.07179315357459017   0.02301526908444187   0.0010192790352224063
0.02877055476558739   0.01935041054388688   0.01239297279926202
0.02877055476558739   0.01935041054388688   0.01239297279926202
0.02877055476558739   0.01935041054388688   0.01239297279926202
0.02877055476558739   0.01935041054388688   0.01239297279926202
0.10172255151339042   -0.06764172283713644   -0.03058485497808986
0.10172255151339042   -0.06764172283713644   -0.03058485497808986
0.10172255151339042   -0.06764172283713644   -0.03058485497808986
0.10172255151339042   -0.06764172283713644   -0.03058485497808986
0.3092776566883544   0.03059359712728217   0.033066414410518094
0.3092776566883544   0.03059359712728217   0.033066414410518094
0.3092776566883544   0.03059359712728217   0.033066414410518094
0.3092776566883544   0.03059359712728217   0.033066414410518094
0.3061296017199128   -0.01695253653068131   -0.04027559091010508
0.3061296017199128   -0.01695253653068131   -0.04027559091010508
0.3061296017199128   -0.01695253653068131   -0.04027559091010508
0.3061296017199128   -0.01695253653068131   -0.04027559091010508
0.12905937087683295   0.005714444015808281   0.024691888958624293
0.12905937087683295   0.005714444015808281   0.024691888958624293
0.12905937087683295   0.005714444015808281   0.024691888958624293
0.12905937087683295   0.005714444015808281   0.024691888958624293
0.20050862517872942   -0.014092583284972406   -0.010692093727073752
0.20050862517872942   -0.014092583284972406   -0.010692093727073752
0.20050862517872942   -0.014092583284972406   -0.010692093727073752
0.20050862517872942   -0.014092583284972406   -0.010692093727073752
0.1046463381573606   -0.056271530988130286   -0.035387299634798336
0.1046463381573606   -0.056271530988130286   -0.035387299634798336
0.1046463381573606   -0.056271530988130286   -0.035387299634798336
0.1046463381573606   -0.056271530988130286   -0.035387299634798336
0.3325820477147018   0.047072851748572744   0.02796125078458547
0.3325820477147018   0.047072851748572744   0.02796125078458547
0.3325820477147018   0.047072851748572744   0.02796125078458547
0.3325820477147018   0.047072851748572744   0.02796125078458547
0.323091219676751   -0.005151386071290072   -0.04833949506330226
0.323091219676751   -0.005151386071290072   -0.04833949506330226
0.323091219676751   -0.005151386071290072   -0.04833949506330226
0.323091219676751   -0.005151386071290072   -0.04833949506330226
0.13354210894482213   0.01436125371829083   0.019273860741574386
0.13354210894482213   0.01436125371829083   0.019273860741574386
0.13354210894482213   0.01436125371829083   0.019273860741574386
0.13354210894482213   0.01436125371829083   0.019273860741574386
0.21758397441840124   -0.0021768148573522716   -0.0012229262980447912
0.21758397441840124   -0.0021768148573522716   -0.0012229262980447912
0.21758397441840124   -0.0021768148573522716   -0.0012229262980447912
0.21758397441840124   -0.0021768148573522716   -0.0012229262980447912
0.10931189532667274   -0.046452118879017734   -0.041063834751863
0.10931189532667274   -0.046452118879017734   -0.041063834751863
0.10931189532667274   -0.046452118879017734   -0.041063834751863
0.10931189532667274   -0.046452118879017734   -0.041063834751863
0.3494497144949131   0.05779026772603216   0.02051132523019008
0.3494497144949131   0.05779026772603216   0.02051132523019008
0.3494497144949131   0.05779026772603216   0.02051132523019008
0.3494497144949131   0.05779026772603216   0.02051132523019008
0.34916896534347924   0.020742133462036134   -0.05177700918904801
0.34916896534347924   0.020742133462036134   -0.05177700918904801
0.34916896534347924   0.020742133462036134   -0.05177700918904801
0.34916896534347924   0.020742133462036134   -0.05177700918904801
0.1381275563613492   0.03179717684642854   0.015322416788668192
0.1381275563613492   0.03179717684642854   0.015322416788668192
0.1381275563613492   0.03179717684642854   0.015322416788668192
0.1381275563613492   0.03179717684642854   0.015322416788668192
0.22619437011418722   0.010928450387106485   0.0069511120500292504
0.22619437011418722   0.010928450387106485   0.0069511120500292504
0.22619437011418722   0.010928450387106485   0.0069511120500292504
0.22619437011418722   0.010928450387106485   0.0069511120500292504
-0.4188031021066209   -0.00677995565748736   0.04126423911058722
-0.4188031021066209   -0.00677995565748736   0.04126423911058722
-0.4188031021066209   -0.00677995565748736   0.04126423911058722
-0.4188031021066209   -0.00677995565748736   0.04126423911058722
-0.3277173637688697   -0.041770206517734706   -0.020334466455238315
-0.3277173637688697   -0.041770206517734706   -0.020334466455238315
-0.3277173637688697   -0.041770206517734706   -0.020334466455238315
-0.3277173637688697   -0.041770206517734706   -0.020334466455238315
-0.2965996521958005   0.035304131374868784   0.03526164987980752
-0.2965996521958005   0.035304131374868784   0.03526164987980752
-0.2965996521958005   0.035304131374868784   0.03526164987980752
-0.2965996521958005   0.035304131374868784   0.03526164987980752
-0.4170858630714195   -0.04547356136145187   -0.027709936945342323
-0.4170858630714195   -0.04547356136145187   -0.027709936945342323
-0.4170858630714195   -0.04547356136145187   -0.027709936945342323
-0.4170858630714195   -0.04547356136145187   -0.027709936945342323
-0.351128835184377   -0.009610849190824194   -0.0053324498083357555
-0.351128835184377   -0.009610849190824194   -0.0053324498083357555
-0.351128835184377   -0.009610849190824194   -0.0053324498083357555
-0.351128835184377   -0.009610849190824194   -0.0053324498083357555
-0.3911217032161211   0.01722904282398542   0.03940825814571057
-0.3911217032161211   0.01722904282398542   0.03940825814571057
-0.3911217032161211   0.01722904282398542   0.03940825814571057
-0.3911217032161211   0.01722904282398542   0.03940825814571057
-0.32075043015461313   -0.02558509091408232   -0.024603017625300906
-0.32075043015461313   -0.02558509091408232   -0.024603017625300906
-0.32075043015461313   -0.02558509091408232   -0.024603017625300906
-0.32075043015461313   -0.02558509091408232   -0.024603017625300906
-0.2892970779545292   0.044478512987380786   0.029808060606887128
-0.2892970779545292   0.044478512987380786   0.029808060606887128
-0.2892970779545292   0.044478512987380786   0.029808060606887128
-0.2892970779545292   0.044478512987380786   0.029808060606887128
-0.3978847535861832   -0.035074847384790345   -0.03459366444469052
-0.3978847535861832   -0.035074847384790345   -0.03459366444469052
-0.3978847535861832   -0.035074847384790345   -0.03459366444469052
-0.3978847535861832   -0.035074847384790345   -0.03459366444469052
-0.34108980360070057   0.002385751223168253   0.0023387640048733484
-0.34108980360070057   0.002385751223168253   0.0023387640048733484
-0.34108980360070057   0.002385751223168253   0.0023387640048733484
-0.34108980360070057   0.002385751223168253   0.0023387640048733484
-0.3719149185379561   0.028357887859706735   0.031822775551943315
-0.3719149185379561   0.028357887859706735   0.031822775551943315
-0.3719149185379561   0.028357887859706735   0.031822775551943315
-0.3719149185379561   0.028357887859706735   0.031822775551943315
-0.31355399346099816   -0.017241302715358522   -0.029756701222716442
-0.31355399346099816   -0.017241302715358522   -0.029756701222716442
-0.31355399346099816   -0.017241302715358522   -0.029756701222716442
-0.31355399346099816   -0.017241302715358522   -0.029756701222716442
-0.2833990563810314   0.05594716867051702   0.025705313633857335
-0.2833990563810314   0.05594716867051702   0.025705313633857335
-0.2833990563810314   0.05594716867051702   0.025705313633857335
-0.2833990563810314   0.05594716867051702   0.025705313633857335
-0.37209650858270393   -0.018418443266491932   -0.04002347028153614
-0.37209650858270393   -0.018418443266491932   -0.04002347028153614
-0.37209650858270393   -0.018418443266491932   -0.04002347028153614
-0.37209650858270393   -0.018418443266491932   -0.04002347028153614
-0.32086914711455383   0.014238827030052512   0.011836765638642966
-0.32086914711455383   0.014238827030052512   0.011836765638642966
-0.32086914711455383   0.014238827030052512   0.011836765638642966
-0.32086914711455383   0.014238827030052512   0.011836765638642966
-0.31611557609471663   -0.023661144522715588   0.019565409920507596
-0.31611557609471663   -0.023661144522715588   0.019565409920507596
-0.31611557609471663   -0.023661144522715588   0.019565409920507596
-0.31611557609471663   -0.023661144522715588   0.019565409920507596
-0.2330073444273555   -0.031656981975438966   -0.0060145644323674075
-0.2330073444273555   -0.031656981975438966   -0.0060145644323674075
-0.2330073444273555   -0.031656981975438966   -0.0060145644323674075
-0.2330073444273555   -0.031656981975438966   -0.0060145644323674075
-0.21569776827882242   0.016026277936539504   0.018029559666796847
-0.21569776827882242   0.016026277936539504   0.018029559666796847
-0.21569776827882242   0.016026277936539504   0.018029559666796847
-0.21569776827882242   0.016026277936539504   0.018029559666796847
-0.32088451696600795   -0.03353723900436366   -0.017321303591991924
-0.32088451696600795   -0.03353723900436366   -0.017321303591991924
-0.32088451696600795   -0.03353723900436366   -0.017321303591991924
-0.32088451696600795   -0.03353723900436366   -0.017321303591991924
-0.27069953860482854   -0.01675734778761661   -0.007346545507361387
-0.27069953860482854   -0.01675734778761661   -0.007346545507361387
-0.27069953860482854   -0.01675734778761661   -0.007346545507361387
-0.27069953860482854   -0.01675734778761661   -0.007346545507361387
-0.3079220945910223   -0.0026948211696225313   0.016648390448187715
-0.3079220945910223   -0.0026948211696225313   0.016648390448187715
-0.3079220945910223   -0.0026948211696225313   0.016648390448187715
-0.3079220945910223   -0.0026948211696225313   0.016648390448187715
-0.22719793161296065   -0.013353880857355317   -0.010091098209997571
-0.22719793161296065   -0.013353880857355317   -0.010091098209997571
-0.22719793161296065   -0.013353880857355317   -0.010091098209997571
-0.22719793161296065   -0.013353880857355317   -0.010091098209997571
-0.20940681383840093   0.03470369609705451   0.014413675311589186
-0.20940681383840093   0.03470369609705451   0.014413675311589186
-0.20940681383840093   0.03470369609705451   0.014413675311589186
-0.20940681383840093   0.03470369609705451   0.014413675311589186
-0.31142425037077665   -0.015607104167705166   -0.02074218431925797
-0.31142425037077665   -0.015607104167705166   -0.02074218431925797
-0.31142425037077665   -0.015607104167705166   -0.02074218431925797
-0.31142425037077665   -0.015607104167705166   -0.02074218431925797
-0.26157530771173915   0.0012243318392350933   0.0007067028701505142
-0.26157530771173915   0.0012243318392350933   0.0007067028701505142
-0.26157530771173915   0.0012243318392350933   0.0007067028701505142
-0.26157530771173915   0.0012243318392350933   0.0007067028701505142
-0.2976998765875427   0.01718072047562355   0.015091859953576533
-0.2976998765875427   0.01718072047562355   0.015091859953576533
-0.2976998765875427   0.01718072047562355   0.015091859953576533
-0.2976998765875427   0.01718072047562355   0.015091859953576533
-0.22144322557907625   0.0036038334962854926   -0.014668520791020398
-0.22144322557907625   0.0036038334962854926   -0.014668520791020398
-0.22144322557907625   0.0036038334962854926   -0.014668520791020398
-0.22144322557907625   0.0036038334962854926   -0.014668520791020398
-0.20313486716954335   0.05500101785849033   0.010969554969719299
-0.20313486716954335   0.05500101785849033   0.010969554969719299
-0.20313486716954335   0.05500101785849033   0.010969554969719299
-0.20313486716954335   0.05500101785849033   0.010969554969719299
-0.30363427726480413   0.004000729438268111   -0.023524351552752367
-0.30363427726480413   0.004000729438268111   -0.023524351552752367
-0.30363427726480413   0.004000729438268111   -0.023524351552752367
-0.30363427726480413   0.004000729438268111   -0.023524351552752367
-0.25498572403354386   0.01888102946131797   0.008594290806806478
-0.25498572403354386   0.01888102946131797   0.008594290806806478
-0.25498572403354386   0.01888102946131797   0.008594290806806478
-0.25498572403354386   0.01888102946131797   0.008594290806806478
-0.2326995166698671   -0.03963030168470678   0.003497894064338667
-0.2326995166698671   -0.03963030168470678   0.003497894064338667
-0.2326995166698671   -0.03963030168470678   0.003497894064338667
-0.2326995166698671   -0.03963030168470678   0.003497894064338667
-0.13950581429591236   -0.016834010200319736   0.008520406175607368
-0.13950581429591236   -0.016834010200319736   0.008520406175607368
-0.13950581429591236   -0.016834010200319736   0.008520406175607368
-0.13950581429591236   -0.016834010200319736   0.008520406175607368
-0.13484432116896033   -0.0004958510504527447   0.0010904726349215159
-0.13484432116896033   -0.0004958510504527447   0.0010904726349215159
-0.13484432116896033   -0.0004958510504527447   0.0010904726349215159
-0.13484432116896033   -0.0004958510504527447   0.0010904726349215159
-0.22651019146031257   -0.018018784050202415   -0.001987494253911511
-0.22651019146031257   -0.018018784050202415   -0.001987494253911511
-0.22651019146031257   -0.018018784050202415   -0.001987494253911511
-0.22651019146031257   -0.018018784050202415   -0.001987494253911511
-0.1836836267365032   -0.01786483993174948   -0.005358559280337368
-0.1836836267365032   -0.01786483993174948   -0.005358559280337368
-0.1836836267365032   -0.01786483993174948   -0.005358559280337368
-0.1836836267365032   -0.01786483993174948   -0.005358559280337368
-0.22622959046715171   -0.018926378420615998   0.00032310508230482676
-0.22622959046715171   -0.018926378420615998   0.00032310508230482676
-0.22622959046715171   -0.018926378420615998   0.00032310508230482676
-0.22622959046715171   -0.018926378420615998   0.00032310508230482676
-0.13367002166709244   0.0018666438149903784   0.004599475278816929
-0.13367002166709244   0.0018666438149903784   0.004599475278816929
-0.13367002166709244   0.0018666438149903784   0.004599475278816929
-0.13367002166709244   0.0018666438149903784   0.004599475278816929
-0.12800310273817683   0.020389655121971682   -0.0018701309195840836
-0.12800310273817683   0.020389655121971682   -0.0018701309195840836
-0.12800310273817683   0.020389655121971682   -0.0018701309195840836
-0.12800310273817683   0.020389655121971682   -0.0018701309195840836
-0.2202067479301189   0.0009498218766749097   -0.005832120926623337
-0.2202067479301189   0.0009498218766749097   -0.005832120926623337
-0.2202067479301189   0.0009498218766749097   -0.005832120926623337
-0.2202067479301189   0.0009498218766749097   -0.005832120926623337
-0.17646314711722705   0.000900022068389128   0.002457329934595561
-0.17646314711722705   0.000900022068389128   0.002457329934595561
-0.17646314711722705   0.000900022068389128   0.002457329934595561
-0.17646314711722705   0.000900022068389128   0.002457329934595561
-0.2194334793875173   0.0018953455905260513   -0.0029113019274682322
-0.2194334793875173   0.0018953455905260513   -0.0029113019274682322
-0.2194334793875173   0.0018953455905260513   -0.0029113019274682322
-0.2194334793875173   0.0018953455905260513   -0.0029113019274682322
-0.12746016440213176   0.020760338286765944   0.0004738775958447027
-0.12746016440213176   0.020760338286765944   0.0004738775958447027
-0.12746016440213176   0.020760338286765944   0.0004738775958447027
-0.12746016440213176   0.020760338286765944   0.0004738775958447027
-0.12154018188924198   0.041469365065896636   -0.005239307431416915
-0.12154018188924198   0.041469365065896636   -0.005239307431416915
-0.12154018188924198   0.041469365065896636   -0.005239307431416915
-0.12154018188924198   0.041469365065896636   -0.005239307431416915
-0.21430604617557303   0.020063774506367052   -0.009949096708303427
-0.21430604617557303   0.020063774506367052   -0.009949096708303427
-0.21430604617557303   0.020063774506367052   -0.009949096708303427
-0.21430604617557303   0.020063774506367052   -0.009949096708303427
-0.16963835486186501   0.01973266389474517   0.009957989132501854
-0.16963835486186501   0.01973266389474517   0.009957989132501854
-0.16963835486186501   0.01973266389474517   0.009957989132501854
-0.16963835486186501   0.01973266389474517   0.009957989132501854
-0.1510851832408249   -0.0534599326499305   -0.012750516099346812
-0.1510851832408249   -0.0534599326499305   -0.012750516099346812
-0.1510851832408249   -0.0534599326499305   -0.012750516099346812
-0.1510851832408249   -0.0534599326499305   -0.012750516099346812
-0.0488121235585091   -0.0010996697935641503   0.022325420875913757
-0.0488121235585091   -0.0010996697935641503   0.022325420875913757
-0.0488121235585091   -0.0010996697935641503   0.022325420875913757
-0.0488121235585091   -0.0010996697935641503   0.022325420875913757
-0.05525317247844622   -0.016145587644883497   -0.01654262604456976
-0.05525317247844622   -0.016145587644883497   -0.01654262604456976
-0.05525317247844622   -0.016145587644883497   -0.01654262604456976
-0.05525317247844622   -0.016145587644883497   -0.01654262604456976
-0.13280587006168906   -0.0020335999514099652   0.01282047707223399
-0.13280587006168906   -0.0020335999514099652   0.01282047707223399
-0.13280587006168906   -0.0020335999514099652   0.01282047707223399
-0.13280587006168906   -0.0020335999514099652   0.01282047707223399
-0.09695103025390482   -0.01739417302743196   -0.003869560702547617
-0.09695103025390482   -0.01739417302743196   -0.003869560702547617
-0.09695103025390482   -0.01739417302743196   -0.003869560702547617
-0.09695103025390482   -0.01739417302743196   -0.003869560702547617
-0.144996347577788   -0.034015666289809295   -0.01614984416986264
-0.144996347577788   -0.034015666289809295   -0.01614984416986264
-0.144996347577788   -0.034015666289809295   -0.01614984416986264
-0.144996347577788   -0.034015666289809295   -0.01614984416986264
-0.04143371829889682   0.017465455356964327   0.01894360185132854
-0.04143371829889682   0.017465455356964327   0.01894360185132854
-0.04143371829889682   0.017465455356964327   0.01894360185132854
-0.04143371829889682   0.017465455356964327   0.01894360185132854
-0.04520930981547686   0.003610867674450185   -0.018626500219253536
-0.04520930981547686   0.003610867674450185   -0.018626500219253536
-0.04520930981547686   0.003610867674450185   -0.018626500219253536
-0.04520930981547686   0.003610867674450185   -0.018626500219253536
-0.1269957532193133   0.014996059659441396   0.008560212137262725
-0.1269957532193133   0.014996059659441396   0.008560212137262725
-0.1269957532193133   0.014996059659441396   0.008560212137262725
-0.1269957532193133   0.014996059659441396   0.008560212137262725
-0.08925259035321167   9.659781711876536e-05   0.004100439440712213
-0.08925259035321167   9.659781711876536e-05   0.004100439440712213
-0.08925259035321167   9.659781711876536e-05   0.004100439440712213
-0.08925259035321167   9.659781711876536e-05   0.004100439440712213
-0.13879865130554644   -0.015394453588838033   -0.02006376504562483
-0.13879865130554644   -0.015394453588838033   -0.02006376504562483
-0.13879865130554644   -0.015394453588838033   -0.02006376504562483
-0.13879865130554644   -0.015394453588838033   -0.02006376504562483
-0.03188959468967199   0.03551819796230109   0.016064745121919893
-0.03188959468967199   0.03551819796230109   0.016064745121919893
-0.03188959468967199   0.03551819796230109   0.016064745121919893
-0.03188959468967199   0.03551819796230109   0.016064745121919893
-0.03671688755701065   0.025651546883389463   -0.02087559798761151
-0.03671688755701065   0.025651546883389463   -0.02087559798761151
-0.03671688755701065   0.025651546883389463   -0.02087559798761151
-0.03671688755701065   0.025651546883389463   -0.02087559798761151
-0.12104726833664158   0.0342418635382435   0.004452761859238128
-0.12104726833664158   0.0342418635382435   0.004452761859238128
-0.12104726833664158   0.0342418635382435   0.004452761859238128
-0.12104726833664158   0.0342418635382435   0.004452761859238128
-0.08130335820059703   0.018298209130043243   0.01206087880504864
-0.08130335820059703   0.018298209130043243   0.01206087880504864
-0.08130335820059703   0.018298209130043243   0.01206087880504864
-0.08130335820059703   0.018298209130043243   0.01206087880504864
-0.0701019961700868   -0.05745028226801545   -0.0277733297075244
-0.0701019961700868   -0.05745028226801545   -0.0277733297075244
-0.0701019961700868   -0.05745028226801545   -0.0277733297075244
-0.0701019961700868   -0.05745028226801545   -0.0277733297075244
0.019012195797411018   0.016670921276400966   0.03414609540277722
0.019012195797411018   0.016670921276400966   0.03414609540277722
0.019012195797411018   0.016670921276400966   0.03414609540277722
0.019012195797411018   0.016670921276400966   0.03414609540277722
0.019090363661837712   -0.02857884160725411   -0.03680553194169243
0.019090363661837712   -0.02857884160725411   -0.03680553194169243
0.019090363661837712   -0.02857884160725411   -0.03680553194169243
0.019090363661837712   -0.02857884160725411   -0.03680553194169243
-0.039568227888018545   0.017785312744966596   0.02795119651771796
-0.039568227888018545   0.017785312744966596   0.02795119651771796
-0.039568227888018545   0.017785312744966596   0.02795119651771796
-0.039568227888018545   0.017785312744966596   0.02795119651771796
-0.018484598550251818   -0.012299255902170222   -0.006417054589549076
-0.018484598550251818   -0.012299255902170222   -0.006417054589549076
-0.018484598550251818   -0.012299255902170222   -0.006417054589549076
-0.018484598550251818   -0.012299255902170222   -0.006417054589549076
-0.0639457607512648   -0.04421265926020573   -0.03193849579334231
-0.0639457607512648   -0.04421265926020573   -0.03193849579334231
-0.0639457607512648   -0.04421265926020573   -0.03193849579334231
-0.0639457607512648   -0.04421265926020573   -0.03193849579334231
0.04520788857568096   0.03515912244851436   0.030044128571757266
0.04520788857568096   0.03515912244851436   0.030044128571757266
0.04520788857568096   0.03515912244851436   0.030044128571757266
0.04520788857568096   0.03515912244851436   0.030044128571757266
0.038384393741066315   -0.01727461619036089   -0.04374777359792841
0.038384393741066315   -0.01727461619036089   -0.04374777359792841
0.038384393741066315   -0.01727461619036089   -0.04374777359792841
0.038384393741066315   -0.01727461619036089   -0.04374777359792841
-0.03252231290616746   0.025988800119384644   0.0224305518823587
-0.03252231290616746   0.025988800119384644   0.0224305518823587
-0.03252231290616746   0.025988800119384644   0.0224305518823587
-0.03252231290616746   0.025988800119384644   0.0224305518823587
-0.0026846122204045586   -0.0006541880337334156   0.002203941941183253
-0.0026846122204045586   -0.0006541880337334156   0.002203941941183253
-0.0026846122204045586   -0.0006541880337334156   0.002203941941183253
-0.0026846122204045586   -0.0006541880337334156   0.002203941941183253
-0.056580334249427836   -0.03491013167648857   -0.03696062303807064
-0.056580334249427836   -0.03491013167648857   -0.03696062303807064
-0.056580334249427836   -0.03491013167648857   -0.03696062303807064
-0.056580334249427836   -0.03491013167648857   -0.03696062303807064
0.06418658931042746   0.04536848983161266   0.022620098226903838
0.06418658931042746   0.04536848983161266   0.022620098226903838
0.06418658931042746   0.04536848983161266   0.022620098226903838
0.06418658931042746   0.04536848983161266   0.022620098226903838
0.06548184865638816   0.0048286371366233274   -0.04687457405539686
0.06548184865638816   0.0048286371366233274   -0.04687457405539686
0.06548184865638816   0.0048286371366233274   -0.04687457405539686
0.06548184865638816   0.0048286371366233274   -0.04687457405539686
-0.025944878563100363   0.04040495425879582   0.01823103960653322
-0.025944878563100363   0.04040495425879582   0.01823103960653322
-0.025944878563100363   0.04040495425879582   0.01823103960653322
-0.025944878563100363   0.04040495425879582   0.01823103960653322
0.011656020691088462   0.011554872996137382   0.01065339433643774
0.011656020691088462   0.011554872996137382   0.01065339433643774
0.011656020691088462   0.011554872996137382   0.01065339433643774
0.011656020691088462   0.011554872996137382   0.01065339433643774
-0.13710845246519754   0.008223458878839632   0.039024949223960374
-0.13710845246519754   0.008223458878839632   0.039024949223960374
-0.13710845246519754   0.008223458878839632   0.039024949223960374
-0.13710845246519754   0.008223458878839632   0.039024949223960374
-0.16494783114579384   -0.050775586016587375   -0.022907958953371815
-0.16494783114579384   -0.050775586016587375   -0.022907958953371815
-0.16494783114579384   -0.050775586016587375   -0.022907958953371815
-0.16494783114579384   -0.050775586016587375   -0.022907958953371815
-0.13169233839410066   0.023533382237218445   0.03193125637070579
-0.13169233839410066   0.023533382237218445   0.03193125637070579
-0.13169233839410066   0.023533382237218445   0.03193125637070579
-0.13169233839410066   0.023533382237218445   0.03193125637070579
-0.1331976783742371   -0.033132946134873525   -0.02956218554508682
-0.1331976783742371   -0.033132946134873525   -0.02956218554508682
-0.1331976783742371   -0.033132946134873525   -0.02956218554508682
-0.1331976783742371   -0.033132946134873525   -0.02956218554508682
-0.13821595140225343   -0.01062056963575686   -0.010763791410020079
-0.13821595140225343   -0.01062056963575686   -0.010763791410020079
-0.13821595140225343   -0.01062056963575686   -0.010763791410020079
-0.13821595140225343   -0.01062056963575686   -0.010763791410020079
-0.1075418760448826   0.0292449995219028   0.03633888044490785
-0.1075418760448826   0.0292449995219028   0.03633888044490785
-0.1075418760448826   0.0292449995219028   0.03633888044490785
-0.1075418760448826   0.0292449995219028   0.03633888044490785
-0.15572680019444732   -0.03722322289054971   -0.0274844475032575
-0.15572680019444732   -0.03722322289054971   -0.0274844475032575
-0.15572680019444732   -0.03722322289054971   -0.0274844475032575
-0.15572680019444732   -0.03722322289054971   -0.0274844475032575
-0.12152934485581311   0.032486052889246775   0.026855428195124972
-0.12152934485581311   0.032486052889246775   0.026855428195124972
-0.12152934485581311   0.032486052889246775   0.026855428195124972
-0.12152934485581311   0.032486052889246775   0.026855428195124972
-0.11125949087831956   -0.023015263421919355   -0.03679161536974105
-0.11125949087831956   -0.023015263421919355   -0.03679161536974105
-0.11125949087831956   -0.023015263421919355   -0.03679161536974105
-0.11125949087831956   -0.023015263421919355   -0.03679161536974105
-0.12203500076074127   0.0008039061999705749   -0.0023242931623582673
-0.12203500076074127   0.0008039061999705749   -0.0023242931623582673
-0.12203500076074127   0.0008039061999705749   -0.0023242931623582673
-0.12203500076074127   0.0008039061999705749   -0.0023242931623582673
-0.08547002893618368   0.04012909718162594   0.0290113337373911
-0.08547002893618368   0.04012909718162594   0.0290113337373911
-0.08547002893618368   0.04012909718162594   0.0290113337373911
-0.08547002893618368   0.04012909718162594   0.0290113337373911
-0.1457940551886372   -0.02913355610498637   -0.03284851447475851
-0.1457940551886372   -0.02913355610498637   -0.03284851447475851
-0.1457940551886372   -0.02913355610498637   -0.03284851447475851
-0.1457940551886372   -0.02913355610498637   -0.03284851447475851
-0.11224541568743385   0.04619492119154471   0.02319225911337698
-0.11224541568743385   0.04619492119154471   0.02319225911337698
-0.11224541568743385   0.04619492119154471   0.02319225911337698
-0.11224541568743385   0.04619492119154471   0.02319225911337698
-0.08196918454979667   -0.003786371285160392   -0.04143637268403707
-0.08196918454979667   -0.003786371285160392   -0.04143637268403707
-0.08196918454979667   -0.003786371285160392   -0.04143637268403707
-0.08196918454979667   -0.003786371285160392   -0.04143637268403707
-0.1026216789427968   0.012764092895244727   0.006694961437047049
-0.1026216789427968   0.012764092895244727   0.006694961437047049
-0.1026216789427968   0.012764092895244727   0.006694961437047049
-0.1026216789427968   0.012764092895244727   0.006694961437047049
-0.14753723366906088   -0.00890513204547037   0.022274574459176157
-0.14753723366906088   -0.00890513204547037   0.022274574459176157
-0.14753723366906088   -0.00890513204547037   0.022274574459176157
-0.14753723366906088   -0.00890513204547037   0.022274574459176157
-0.1844520838205109   -0.04142595637282934   -0.00894732394146419
-0.1844520838205109   -0.04142595637282934   -0.00894732394146419
-0.1844520838205109   -0.04142595637282934   -0.00894732394146419
-0.1844520838205109   -0.04142595637282934   -0.00894732394146419
-0.16462182632801986   0.00414411141473945   0.014822757865535482
-0.16462182632801986   0.00414411141473945   0.014822757865535482
-0.16462182632801986   0.00414411141473945   0.014822757865535482
-0.16462182632801986   0.00414411141473945   0.014822757865535482
-0.14936111825033116   -0.019369801251886525   -0.013509459421339267
-0.14936111825033116   -0.019369801251886525   -0.013509459421339267
-0.14936111825033116   -0.019369801251886525   -0.013509459421339267
-0.14936111825033116   -0.019369801251886525   -0.013509459421339267
-0.16162933838393542   -0.015121296749676372   -0.007530398582468327
-0.16162933838393542   -0.015121296749676372   -0.007530398582468327
-0.16162933838393542   -0.015121296749676372   -0.007530398582468327
-0.16162933838393542   -0.015121296749676372   -0.007530398582468327
-0.13677029243529656   0.010637366917138163   0.019437501484806715
-0.13677029243529656   0.010637366917138163   0.019437501484806715
-0.13677029243529656   0.010637366917138163   0.019437501484806715
-0.13677029243529656   0.010637366917138163   0.019437501484806715
-0.1759412107638326   -0.02459161537506408   -0.013038437523725625
-0.1759412107638326   -0.02459161537506408   -0.013038437523725625
-0.1759412107638326   -0.02459161537506408   -0.013038437523725625
-0.1759412107638326   -0.02459161537506408   -0.013038437523725625
-0.15555502649788813   0.02197586382043927   0.011303431748575711
-0.15555502649788813   0.02197586382043927   0.011303431748575711
-0.15555502649788813   0.02197586382043927   0.011303431748575711
-0.15555502649788813   0.02197586382043927   0.011303431748575711
-0.13719470566992345   -0.002209949138277663   -0.01677537384789846
-0.13719470566992345   -0.002209949138277663   -0.01677537384789846
-0.13719470566992345   -0.002209949138277663   -0.01677537384789846
-0.13719470566992345   -0.002209949138277663   -0.01677537384789846
-0.15077876464193263   0.001494365163508031   0.0002514430311673019
-0.15077876464193263   0.001494365163508031   0.0002514430311673019
-0.15077876464193263   0.001494365163508031   0.0002514430311673019
-0.15077876464193263   0.001494365163508031   0.0002514430311673019
-0.12398945097441437   0.029530402228077922   0.017510548263287552
-0.12398945097441437   0.029530402228077922   0.017510548263287552
-0.12398945097441437   0.029530402228077922   0.017510548263287552
-0.12398945097441437   0.029530402228077922   0.017510548263287552
-0.16740450481396912   -0.008408711166488045   -0.01755938484490473
-0.16740450481396912   -0.008408711166488045   -0.01755938484490473
-0.16740450481396912   -0.008408711166488045   -0.01755938484490473
-0.16740450481396912   -0.008408711166488045   -0.01755938484490473
-0.1464419659859078   0.04173568217736361   0.007958100863828827
-0.1464419659859078   0.04173568217736361   0.007958100863828827
-0.1464419659859078   0.04173568217736361   0.007958100863828827
-0.1464419659859078   0.04173568217736361   0.007958100863828827
-0.12671794035087028   0.016859281061623696   -0.01983472407388354
-0.12671794035087028   0.016859281061623696   -0.01983472407388354
-0.12671794035087028   0.016859281061623696   -0.01983472407388354
-0.12671794035087028   0.016859281061623696   -0.01983472407388354
-0.14051786048906734   0.018679830367080832   0.008181114385422052
-0.14051786048906734   0.018679830367080832   0.008181114385422052
-0.14051786048906734   0.018679830367080832   0.008181114385422052
-0.14051786048906734   0.018679830367080832   0.008181114385422052
-0.17811898298851978   -0.025001900337357757   0.006294124183015981
-0.17811898298851978   -0.025001900337357757   0.006294124183015981
-0.17811898298851978   -0.025001900337357757   0.006294124183015981
-0.17811898298851978   -0.025001900337357757   0.006294124183015981
-0.20382797647163955   -0.02630030467633159   0.005395546385917571
-0.20382797647163955   -0.02630030467633159   0.005395546385917571
-0.20382797647163955   -0.02630030467633159   0.005395546385917571
-0.20382797647163955   -0.02630030467633159   0.005395546385917571
-0.19658800909511848   -0.012023640495012703   -0.0019339588431724177
-0.19658800909511848   -0.012023640495012703   -0.0019339588431724177
-0.19658800909511848   -0.012023640495012703   -0.0019339588431724177
-0.19658800909511848   -0.012023640495012703   -0.0019339588431724177
-0.16875847093128743   -0.003494119705841424   0.0017777659697779278
-0.16875847093128743   -0.003494119705841424   0.0017777659697779278
-0.16875847093128743   -0.003494119705841424   0.0017777659697779278
-0.16875847093128743   -0.003494119705841424   0.0017777659697779278
-0.1871039455220602   -0.01575881002478919   -0.005011463878399297
-0.1871039455220602   -0.01575881002478919   -0.005011463878399297
-0.1871039455220602   -0.01575881002478919   -0.005011463878399297
-0.1871039455220602   -0.01575881002478919   -0.005011463878399297
-0.16887799537766313   -0.005464700980397582   0.0031507250124533223
-0.16887799537766313   -0.005464700980397582   0.0031507250124533223
-0.16887799537766313   -0.005464700980397582   0.0031507250124533223
-0.16887799537766313   -0.005464700980397582   0.0031507250124533223
-0.19526790178332598   -0.008852476355041036   0.0014954135758184096
-0.19526790178332598   -0.008852476355041036   0.0014954135758184096
-0.19526790178332598   -0.008852476355041036   0.0014954135758184096
-0.19526790178332598   -0.008852476355041036   0.0014954135758184096
-0.18705569963393148   0.007766935318465923   -0.004897602013855695
-0.18705569963393148   0.007766935318465923   -0.004897602013855695
-0.18705569963393148   0.007766935318465923   -0.004897602013855695
-0.18705569963393148   0.007766935318465923   -0.004897602013855695
-0.15972200196347103   0.014433909108115789   -0.0019894908670171994
-0.15972200196347103   0.014433909108115789   -0.0019894908670171994
-0.15972200196347103   0.014433909108115789   -0.0019894908670171994
-0.15972200196347103   0.014433909108115789   -0.0019894908670171994
-0.1771404828015968   0.001920596612581628   0.002678159150917828
-0.1771404828015968   0.001920596612581628   0.002678159150917828
-0.1771404828015968   0.001920596612581628   0.002678159150917828
-0.1771404828015968   0.001920596612581628   0.002678159150917828
-0.1593851636592221   0.014255237390540833   -0.0001266276281984783
-0.1593851636592221   0.014255237390540833   -0.0001266276281984783
-0.1593851636592221   0.014255237390540833   -0.0001266276281984783
-0.1593851636592221   0.014255237390540833   -0.0001266276281984783
-0.18634408816017833   0.008994056814043826   -0.0025666661406696847
-0.18634408816017833   0.008994056814043826   -0.0025666661406696847
-0.18634408816017833   0.008994056814043826   -0.0025666661406696847
-0.18634408816017833   0.008994056814043826   -0.0025666661406696847
-0.17792742060804795   0.0276822819802025   -0.008235184906651278
-0.17792742060804795   0.0276822819802025   -0.008235184906651278
-0.17792742060804795   0.0276822819802025   -0.008235184906651278
-0.17792742060804795   0.0276822819802025   -0.008235184906651278
-0.1511203932889601   0.032435389027114084   -0.006133742501182482
-0.1511203932889601   0.032435389027114084   -0.006133742501182482
-0.1511203932889601   0.032435389027114084   -0.006133742501182482
-0.1511203932889601   0.032435389027114084   -0.006133742501182482
-0.16764423444458149   0.019633414012484127   0.010007181902703069
-0.16764423444458149   0.019633414012484127   0.010007181902703069
-0.16764423444458149   0.019633414012484127   0.010007181902703069
-0.16764423444458149   0.019633414012484127   0.010007181902703069
-0.2096116826212274   -0.03974110299080277   -0.010082186047552238
-0.2096116826212274   -0.03974110299080277   -0.010082186047552238
-0.2096116826212274   -0.03974110299080277   -0.010082186047552238
-0.2096116826212274   -0.03974110299080277   -0.010082186047552238
-0.22493461466665865   -0.01148082264779008   0.019086854462638008
-0.22493461466665865   -0.01148082264779008   0.019086854462638008
-0.22493461466665865   -0.01148082264779008   0.019086854462638008
-0.22493461466665865   -0.01148082264779008   0.019086854462638008
-0.22864727984234573   -0.02755240896502014   -0.01893215821514492
-0.22864727984234573   -0.02755240896502014   -0.01893215821514492
-0.22864727984234573   -0.02755240896502014   -0.01893215821514492
-0.22864727984234573   -0.02755240896502014   -0.01893215821514492
-0.18819129756051325   0.01186917935952627   0.016156778975314545
-0.18819129756051325   0.01186917935952627   0.016156778975314545
-0.18819129756051325   0.01186917935952627   0.016156778975314545
-0.18819129756051325   0.01186917935952627   0.016156778975314545
-0.21194842200168146   -0.01565308780521483   -0.003155424766055206
-0.21194842200168146   -0.01565308780521483   -0.003155424766055206
-0.21194842200168146   -0.01565308780521483   -0.003155424766055206
-0.21194842200168146   -0.01565308780521483   -0.003155424766055206
-0.20062842428172492   -0.02082845105342596   -0.013331224217793067
-0.20062842428172492   -0.02082845105342596   -0.013331224217793067
-0.20062842428172492   -0.02082845105342596   -0.013331224217793067
-0.20062842428172492   -0.02082845105342596   -0.013331224217793067
-0.21495163111934654   0.006403743449719036   0.015589932985111674
-0.21495163111934654   0.006403743449719036   0.015589932985111674
-0.21495163111934654   0.006403743449719036   0.015589932985111674
-0.21495163111934654   0.006403743449719036   0.015589932985111674
-0.21611344787397704   -0.008788134089541655   -0.021243061952988793
-0.21611344787397704   -0.008788134089541655   -0.021243061952988793
-0.21611344787397704   -0.008788134089541655   -0.021243061952988793
-0.21611344787397704   -0.008788134089541655   -0.021243061952988793
-0.17962213137041205   0.02803509307733023   0.012002081544875493
-0.17962213137041205   0.02803509307733023   0.012002081544875493
-0.17962213137041205   0.02803509307733023   0.012002081544875493
-0.17962213137041205   0.02803509307733023   0.012002081544875493
-0.20059876440225602   0.0013821704407307733   0.004786898006235834
-0.20059876440225602   0.0013821704407307733   0.004786898006235834
-0.20059876440225602   0.0013821704407307733   0.004786898006235834
-0.20059876440225602   0.0013821704407307733   0.004786898006235834
-0.1916725706901792   -0.003078625547927899   -0.017136396428703675
-0.1916725706901792   -0.003078625547927899   -0.017136396428703675
-0.1916725706901792   -0.003078625547927899   -0.017136396428703675
-0.1916725706901792   -0.003078625547927899   -0.017136396428703675
-0.2027912243350714   0.023597368754850273   0.012982552897150359
-0.2027912243350714   0.023597368754850273   0.012982552897150359
-0.2027912243350714   0.023597368754850273   0.012982552897150359
-0.2027912243350714   0.023597368754850273   0.012982552897150359
-0.20515143303033456   0.011866901874919476   -0.02331788176368904
-0.20515143303033456   0.011866901874919476   -0.02331788176368904
-0.20515143303033456   0.011866901874919476   -0.02331788176368904
-0.20515143303033456   0.011866901874919476   -0.02331788176368904
-0.17102981667010847   0.04603144997392742   0.007903666789321055
-0.17102981667010847   0.04603144997392742   0.007903666789321055
-0.17102981667010847   0.04603144997392742   0.007903666789321055
-0.17102981667010847   0.04603144997392742   0.007903666789321055
-0.19099802359774373   0.018260003198219153   0.012371824313088834
-0.19099802359774373   0.018260003198219153   0.012371824313088834
-0.19099802359774373   0.018260003198219153   0.012371824313088834
-0.19099802359774373   0.018260003198219153   0.012371824313088834
-0.24096562264883828   -0.04721971926051241   -0.025329288835541787
-0.24096562264883828   -0.04721971926051241   -0.025329288835541787
-0.24096562264883828   -0.04721971926051241   -0.025329288835541787
-0.24096562264883828   -0.04721971926051241   -0.025329288835541787
-0.267834631959514   0.0033334738227270636   0.034464264386245745
-0.267834631959514   0.0033334738227270636   0.034464264386245745
-0.267834631959514   0.0033334738227270636   0.034464264386245745
-0.267834631959514   0.0033334738227270636   0.034464264386245745
-0.2644307501016131   -0.03953413188308069   -0.03378350440892391
-0.2644307501016131   -0.03953413188308069   -0.03378350440892391
-0.2644307501016131   -0.03953413188308069   -0.03378350440892391
-0.2644307501016131   -0.03953413188308069   -0.03378350440892391
-0.20721098881195854   0.029807619840528085   0.030889268131241147
-0.20721098881195854   0.029807619840528085   0.030889268131241147
-0.20721098881195854   0.029807619840528085   0.030889268131241147
-0.20721098881195854   0.029807619840528085   0.030889268131241147
-0.23526001667084429   -0.010246116017559571   -0.0014565185924731786
-0.23526001667084429   -0.010246116017559571   -0.0014565185924731786
-0.23526001667084429   -0.010246116017559571   -0.0014565185924731786
-0.23526001667084429   -0.010246116017559571   -0.0014565185924731786
-0.23154319226847372   -0.03199395441402535   -0.02897017489678455
-0.23154319226847372   -0.03199395441402535   -0.02897017489678455
-0.23154319226847372   -0.03199395441402535   -0.02897017489678455
-0.23154319226847372   -0.03199395441402535   -0.02897017489678455
-0.23876883915940939   0.023597149857160417   0.03139476856185368
-0.23876883915940939   0.023597149857160417   0.03139476856185368
-0.23876883915940939   0.023597149857160417   0.03139476856185368
-0.23876883915940939   0.023597149857160417   0.03139476856185368
-0.24269872390187783   -0.028589995978042317   -0.040287017609065744
-0.24269872390187783   -0.028589995978042317   -0.040287017609065744
-0.24269872390187783   -0.028589995978042317   -0.040287017609065744
-0.24269872390187783   -0.028589995978042317   -0.040287017609065744
-0.1975450578958168   0.03751687909033121   0.025293874757939816
-0.1975450578958168   0.03751687909033121   0.025293874757939816
-0.1975450578958168   0.03751687909033121   0.025293874757939816
-0.1975450578958168   0.03751687909033121   0.025293874757939816
-0.22064075563547186   0.0012048859828823755   0.0061510074889279225
-0.22064075563547186   0.0012048859828823755   0.0061510074889279225
-0.22064075563547186   0.0012048859828823755   0.0061510074889279225
-0.22064075563547186   0.0012048859828823755   0.0061510074889279225
-0.22141184940842837   -0.022983215250413438   -0.033539988464374615
-0.22141184940842837   -0.022983215250413438   -0.033539988464374615
-0.22141184940842837   -0.022983215250413438   -0.033539988464374615
-0.22141184940842837   -0.022983215250413438   -0.033539988464374615
-0.21743718509847296   0.033304845653498893   0.024125834776419046
-0.21743718509847296   0.033304845653498893   0.024125834776419046
-0.21743718509847296   0.033304845653498893   0.024125834776419046
-0.21743718509847296   0.033304845653498893   0.024125834776419046
-0.21411116528121127   -0.00968452201841901   -0.04405005506143004
-0.21411116528121127   -0.00968452201841901   -0.04405005506143004
-0.21411116528121127   -0.00968452201841901   -0.04405005506143004
-0.21411116528121127   -0.00968452201841901   -0.04405005506143004
-0.18890155540195067   0.048964496100286255   0.020833912152861737
-0.18890155540195067   0.048964496100286255   0.020833912152861737
-0.18890155540195067   0.048964496100286255   0.020833912152861737
-0.18890155540195067   0.048964496100286255   0.020833912152861737
-0.20045900352532858   0.01262237720488224   0.014981401278782742
-0.20045900352532858   0.01262237720488224   0.014981401278782742
-0.20045900352532858   0.01262237720488224   0.014981401278782742
-0.20045900352532858   0.01262237720488224   0.014981401278782742
0.14606055893139064   0.023532181268882763   0.03762248739678999
0.14606055893139064   0.023532181268882763   0.03762248739678999
0.14606055893139064   0.023532181268882763   0.03762248739678999
0.14606055893139064   0.023532181268882763   0.03762248739678999
-0.0029888054441528436   -0.060377846202118016   -0.02477497390289563
-0.0029888054441528436   -0.060377846202118016   -0.02477497390289563
-0.0029888054441528436   -0.060377846202118016   -0.02477497390289563
-0.0029888054441528436   -0.060377846202118016   -0.02477497390289563
0.032347785117585966   0.011697749971909087   0.02904583149700316
0.032347785117585966   0.011697749971909087   0.02904583149700316
0.032347785117585966   0.011697749971909087   0.02904583149700316
0.032347785117585966   0.011697749971909087   0.02904583149700316
0.15214064604290425   -0.02087716552483606   -0.03104696259513923
0.15214064604290425   -0.02087716552483606   -0.03104696259513923
0.15214064604290425   -0.02087716552483606   -0.03104696259513923
0.15214064604290425   -0.02087716552483606   -0.03104696259513923
0.07458997811570155   -0.011625782343780571   -0.017975101642487213
0.07458997811570155   -0.011625782343780571   -0.017975101642487213
0.07458997811570155   -0.011625782343780571   -0.017975101642487213
0.07458997811570155   -0.011625782343780571   -0.017975101642487213
0.17766229133524988   0.041740253820326256   0.033943844521421955
0.17766229133524988   0.041740253820326256   0.033943844521421955
0.17766229133524988   0.041740253820326256   0.033943844521421955
0.17766229133524988   0.041740253820326256   0.033943844521421955
0.008409484440210332   -0.04933632475828348   -0.029611597159682434
0.008409484440210332   -0.04933632475828348   -0.029611597159682434
0.008409484440210332   -0.04933632475828348   -0.029611597159682434
0.008409484440210332   -0.04933632475828348   -0.029611597159682434
0.045128908715139984   0.02046563264799446   0.02422446538636848
0.045128908715139984   0.02046563264799446   0.02422446538636848
0.045128908715139984   0.02046563264799446   0.02422446538636848
0.045128908715139984   0.02046563264799446   0.02422446538636848
0.17676552630873363   -0.010975997251648946   -0.03880011411527213
0.17676552630873363   -0.010975997251648946   -0.03880011411527213
0.17676552630873363   -0.010975997251648946   -0.03880011411527213
0.17676552630873363   -0.010975997251648946   -0.03880011411527213
0.09682790400573017   -0.0007107320569561502   -0.008494486100173018
0.09682790400573017   -0.0007107320569561502   -0.008494486100173018
0.09682790400573017   -0.0007107320569561502   -0.008494486100173018
0.09682790400573017   -0.0007107320569561502   -0.008494486100173018
0.20255352517753406   0.052448699548844326   0.02671518342823002
0.20255352517753406   0.052448699548844326   0.02671518342823002
0.20255352517753406   0.052448699548844326   0.02671518342823002
0.20255352517753406   0.052448699548844326   0.02671518342823002
0.020883660407220936   -0.04141631359161928   -0.035119829913611095
0.020883660407220936   -0.04141631359161928   -0.035119829913611095
0.020883660407220936   -0.04141631359161928   -0.035119829913611095
0.020883660407220936   -0.04141631359161928   -0.035119829913611095
0.05752673213856622   0.03659224732464109   0.020960803676607475
0.05752673213856622   0.03659224732464109   0.020960803676607475
0.05752673213856622   0.03659224732464109   0.020960803676607475
0.05752673213856622   0.03659224732464109   0.020960803676607475
0.20947037912765462   0.011176003389684993   -0.04277690658541049
0.20947037912765462   0.011176003389684993   -0.04277690658541049
0.20947037912765462   0.011176003389684993   -0.04277690658541049
0.20947037912765462   0.011176003389684993   -0.04277690658541049
0.11541510950320229   0.011544229807742733   0.00045089838184634093
0.11541510950320229   0.011544229807742733   0.00045089838184634093
0.11541510950320229   0.011544229807742733   0.00045089838184634093
0.11541510950320229   0.011544229807742733   0.00045089838184634093
0.02046046776835274   0.006470606603951133   0.025622939353565043
0.02046046776835274   0.006470606603951133   0.025622939353565043
0.02046046776835274   0.006470606603951133   0.025622939353565043
0.02046046776835274   0.006470606603951133   0.025622939353565043
-0.13753455951660098   -0.05130084242949341   -0.011373027232761339
-0.13753455951660098   -0.05130084242949341   -0.011373027232761339
-0.13753455951660098   -0.05130084242949341   -0.011373027232761339
-0.13753455951660098   -0.05130084242949341   -0.011373027232761339
-0.11529644933231464   -0.00752205910194498   0.011664582410351926
-0.11529644933231464   -0.00752205910194498   0.011664582410351926
-0.11529644933231464   -0.00752205910194498   0.011664582410351926
-0.11529644933231464   -0.00752205910194498   0.011664582410351926
0.021266251143242067   -0.005679745881511272   -0.008984342521295312
0.021266251143242067   -0.005679745881511272   -0.008984342521295312
0.021266251143242067   -0.005679745881511272   -0.008984342521295312
0.021266251143242067   -0.005679745881511272   -0.008984342521295312
-0.05392199697805327   -0.013194977744989164   -0.008618756698222962
-0.05392199697805327   -0.013194977744989164   -0.008618756698222962
-0.05392199697805327   -0.013194977744989164   -0.008618756698222962
-0.05392199697805327   -0.013194977744989164   -0.008618756698222962
0.03364059630316767   0.02447830085203791   0.022729336544782878
0.03364059630316767   0.02447830085203791   0.022729336544782878
0.03364059630316767   0.02447830085203791   0.022729336544782878
0.03364059630316767   0.02447830085203791   0.022729336544782878
-0.12651402873137726   -0.03652334007463076   -0.015422033612273421
-0.12651402873137726   -0.03652334007463076   -0.015422033612273421
-0.12651402873137726   -0.03652334007463076   -0.015422033612273421
-0.12651402873137726   -0.03652334007463076   -0.015422033612273421
-0.10364998746832538   0.009501765951770214   0.008238483400742826
-0.10364998746832538   0.009501765951770214   0.008238483400742826
-0.10364998746832538   0.009501765951770214   0.008238483400742826
-0.10364998746832538   0.009501765951770214   0.008238483400742826
0.035848325390051464   0.01045312118914889   -0.012165939780227637
0.035848325390051464   0.01045312118914889   -0.012165939780227637
0.035848325390051464   0.01045312118914889   -0.012165939780227637
0.035848325390051464   0.01045312118914889   -0.012165939780227637
-0.04157322424832166   0.0018055471184240217   -0.001066718810040273
-0.04157322424832166   0.0018055471184240217   -0.001066718810040273
-0.04157322424832166   0.0018055471184240217   -0.001066718810040273
-0.04157322424832166   0.0018055471184240217   -0.001066718810040273
0.04874573082842262   0.042406712209271204   0.020367496391504925
0.04874573082842262   0.042406712209271204   0.020367496391504925
0.04874573082842262   0.042406712209271204   0.020367496391504925
0.04874573082842262   0.042406712209271204   0.020367496391504925
-0.11543250712489067   -0.02133693928654725   -0.01983540964376621
-0.11543250712489067   -0.02133693928654725   -0.01983540964376621
-0.11543250712489067   -0.02133693928654725   -0.01983540964376621
-0.11543250712489067   -0.02133693928654725   -0.01983540964376621
-0.09193066729070473   0.028778234861506005   0.004972771865347118
-0.09193066729070473   0.028778234861506005   0.004972771865347118
-0.09193066729070473   0.028778234861506005   0.004972771865347118
-0.09193066729070473   0.028778234861506005   0.004972771865347118
0.048665261843525   0.02877162202839277   -0.015525922502348
0.048665261843525   0.02877162202839277   -0.015525922502348
0.048665261843525   0.02877162202839277   -0.015525922502348
0.048665261843525   0.02877162202839277   -0.015525922502348
-0.027890822947960258   0.01839274286973964   0.006993995007545963
-0.027890822947960258   0.01839274286973964   0.006993995007545963
-0.027890822947960258   0.01839274286973964   0.006993995007545963
-0.027890822947960258   0.01839274286973964   0.006993995007545963
-0.12510685469405136   -0.009785215589916596   0.009249870040410106
-0.12510685469405136   -0.009785215589916596   0.009249870040410106
-0.12510685469405136   -0.009785215589916596   0.009249870040410106
-0.12510685469405136   -0.009785215589916596   0.009249870040410106
-0.26962362920532784   -0.036595566037264604   0.0023255071930014157
-0.26962362920532784   -0.036595566037264604   0.0023255071930014157
-0.26962362920532784   -0.036595566037264604   0.0023255071930014157
-0.26962362920532784   -0.036595566037264604   0.0023255071930014157
-0.25945419312327683   -0.023002858895857882   -0.005070207788314981
-0.25945419312327683   -0.023002858895857882   -0.005070207788314981
-0.25945419312327683   -0.023002858895857882   -0.005070207788314981
-0.25945419312327683   -0.023002858895857882   -0.005070207788314981
-0.11307041715343485   0.009577262064198067   0.005695422138610403
-0.11307041715343485   0.009577262064198067   0.005695422138610403
-0.11307041715343485   0.009577262064198067   0.005695422138610403
-0.11307041715343485   0.009577262064198067   0.005695422138610403
-0.19209298956784077   -0.013736022467217227   -0.005036620732471638
-0.19209298956784077   -0.013736022467217227   -0.005036620732471638
-0.19209298956784077   -0.013736022467217227   -0.005036620732471638
-0.19209298956784077   -0.013736022467217227   -0.005036620732471638
-0.11320268527374233   0.008486460793304305   0.0061248828079662416
-0.11320268527374233   0.008486460793304305   0.0061248828079662416
-0.11320268527374233   0.008486460793304305   0.0061248828079662416
-0.11320268527374233   0.008486460793304305   0.0061248828079662416
-0.2583259739554968   -0.020916106577490323   -0.0015158642677849318
-0.2583259739554968   -0.020916106577490323   -0.0015158642677849318
-0.2583259739554968   -0.020916106577490323   -0.0015158642677849318
-0.2583259739554968   -0.020916106577490323   -0.0015158642677849318
-0.24720106983537318   -0.004258490880810144   -0.00797242293974468
-0.24720106983537318   -0.004258490880810144   -0.00797242293974468
-0.24720106983537318   -0.004258490880810144   -0.00797242293974468
-0.24720106983537318   -0.004258490880810144   -0.00797242293974468
-0.10154056825253813   0.026175015777525446   0.002112329653925561
-0.10154056825253813   0.026175015777525446   0.002112329653925561
-0.10154056825253813   0.026175015777525446   0.002112329653925561
-0.10154056825253813   0.026175015777525446   0.002112329653925561
-0.17943696282419785   0.0027191835171330933   0.0025783376985754405
-0.17943696282419785   0.0027191835171330933   0.0025783376985754405
-0.17943696282419785   0.0027191835171330933   0.0025783376985754405
-0.17943696282419785   0.0027191835171330933   0.0025783376985754405
-0.10122574536942036   0.027086125474781193   0.002775334372258893
-0.10122574536942036   0.027086125474781193   0.002775334372258893
-0.10122574536942036   0.027086125474781193   0.002775334372258893
-0.10122574536942036   0.027086125474781193   0.002775334372258893
-0.24671716359864448   -0.004370871458219662   -0.005440511178693621
-0.24671716359864448   -0.004370871458219662   -0.005440511178693621
-0.24671716359864448   -0.004370871458219662   -0.005440511178693621
-0.24671716359864448   -0.004370871458219662   -0.005440511178693621
-0.2354409240891937   0.014542773364007881   -0.011276290016479909
-0.2354409240891937   0.014542773364007881   -0.011276290016479909
-0.2354409240891937   0.014542773364007881   -0.011276290016479909
-0.2354409240891937   0.014542773364007881   -0.011276290016479909
-0.09052084969953061   0.04282148748675797   -0.002021392804033101
-0.09052084969953061   0.04282148748675797   -0.002021392804033101
-0.09052084969953061   0.04282148748675797   -0.002021392804033101
-0.09052084969953061   0.04282148748675797   -0.002021392804033101
-0.16744772101945438   0.019131686908602626   0.009696399153541067
-0.16744772101945438   0.019131686908602626   0.009696399153541067
-0.16744772101945438   0.019131686908602626   0.009696399153541067
-0.16744772101945438   0.019131686908602626   0.009696399153541067
-0.26943570492704927   -0.025720415902475098   -0.007610021550392927
-0.26943570492704927   -0.025720415902475098   -0.007610021550392927
-0.26943570492704927   -0.025720415902475098   -0.007610021550392927
-0.26943570492704927   -0.025720415902475098   -0.007610021550392927
-0.40055147005237224   -0.022767657533948805   0.015758421409904754
-0.40055147005237224   -0.022767657533948805   0.015758421409904754
-0.40055147005237224   -0.022767657533948805   0.015758421409904754
-0.40055147005237224   -0.022767657533948805   0.015758421409904754
-0.40085001300797257   -0.03818117881275201   -0.02143629643861753
-0.40085001300797257   -0.03818117881275201   -0.02143629643861753
-0.40085001300797257   -0.03818117881275201   -0.02143629643861753
-0.40085001300797257   -0.03818117881275201   -0.02143629643861753
-0.24512533767214978   0.024189109886974987   0.019382100684485096
-0.24512533767214978   0.024189109886974987   0.019382100684485096
-0.24512533767214978   0.024189109886974987   0.019382100684485096
-0.24512533767214978   0.024189109886974987   0.019382100684485096
-0.32714278706997396   -0.014035507768528077   -0.0021352673015447472
-0.32714278706997396   -0.014035507768528077   -0.0021352673015447472
-0.32714278706997396   -0.014035507768528077   -0.0021352673015447472
-0.32714278706997396   -0.014035507768528077   -0.0021352673015447472
-0.25743409635158665   -0.00733771063241364   -0.010634872193308192
-0.25743409635158665   -0.00733771063241364   -0.010634872193308192
-0.25743409635158665   -0.00733771063241364   -0.010634872193308192
-0.25743409635158665   -0.00733771063241364   -0.010634872193308192
-0.387713082995556   -0.005826186960386059   0.011893361771101483
-0.387713082995556   -0.005826186960386059   0.011893361771101483
-0.387713082995556   -0.005826186960386059   0.011893361771101483
-0.387713082995556   -0.005826186960386059   0.011893361771101483
-0.3854629053653173   -0.02030426264732732   -0.023853923083491723
-0.3854629053653173   -0.02030426264732732   -0.023853923083491723
-0.3854629053653173   -0.02030426264732732   -0.023853923083491723
-0.3854629053653173   -0.02030426264732732   -0.023853923083491723
-0.23381139197036624   0.03928933504978363   0.015428140454696046
-0.23381139197036624   0.03928933504978363   0.015428140454696046
-0.23381139197036624   0.03928933504978363   0.015428140454696046
-0.23381139197036624   0.03928933504978363   0.015428140454696046
-0.3119231484787852   0.002556638296358646   0.005717798029037668
-0.3119231484787852   0.002556638296358646   0.005717798029037668
-0.3119231484787852   0.002556638296358646   0.005717798029037668
-0.3119231484787852   0.002556638296358646   0.005717798029037668
-0.24571030697612667   0.009551351451954883   -0.01432845097627709
-0.24571030697612667   0.009551351451954883   -0.01432845097627709
-0.24571030697612667   0.009551351451954883   -0.01432845097627709
-0.24571030697612667   0.009551351451954883   -0.01432845097627709
-0.37263374304932134   0.010363968260737932   0.009623657588422633
-0.37263374304932134   0.010363968260737932   0.009623657588422633
-0.37263374304932134   0.010363968260737932   0.009623657588422633
-0.37263374304932134   0.010363968260737932   0.009623657588422633
-0.37170270958528634   -0.0008205266122310872   -0.025683323226308983
-0.37170270958528634   -0.0008205266122310872   -0.025683323226308983
-0.37170270958528634   -0.0008205266122310872   -0.025683323226308983
-0.37170270958528634   -0.0008205266122310872   -0.025683323226308983
-0.22261648221214708   0.05594574445209261   0.011442948280668459
-0.22261648221214708   0.05594574445209261   0.011442948280668459
-0.22261648221214708   0.05594574445209261   0.011442948280668459
-0.22261648221214708   0.05594574445209261   0.011442948280668459
-0.3005886884989707   0.018010533735457537   0.012749914271243706
-0.3005886884989707   0.018010533735457537   0.012749914271243706
-0.3005886884989707   0.018010533735457537   0.012749914271243706
-0.3005886884989707   0.018010533735457537   0.012749914271243706
-0.4111725005687077   -0.036874858764589465   -0.023239529941131806
-0.4111725005687077   -0.036874858764589465   -0.023239529941131806
-0.4111725005687077   -0.036874858764589465   -0.023239529941131806
-0.4111725005687077   -0.036874858764589465   -0.023239529941131806
-0.5499775455111812   -0.00991994740334702   0.03430211823415667
-0.5499775455111812   -0.00991994740334702   0.03430211823415667
-0.5499775455111812   -0.00991994740334702   0.03430211823415667
-0.5499775455111812   -0.00991994740334702   0.03430211823415667
-0.5425626453012912   -0.049656428846792444   -0.031079318816013547
-0.5425626453012912   -0.049656428846792444   -0.031079318816013547
-0.5425626453012912   -0.049656428846792444   -0.031079318816013547
-0.5425626453012912   -0.049656428846792444   -0.031079318816013547
-0.37397661440833074   0.04093549475111412   0.03381402299572523
-0.37397661440833074   0.04093549475111412   0.03381402299572523
-0.37397661440833074   0.04093549475111412   0.03381402299572523
-0.37397661440833074   0.04093549475111412   0.03381402299572523
-0.44916738674953344   -0.00799726866711735   0.0038092151353207003
-0.44916738674953344   -0.00799726866711735   0.0038092151353207003
-0.44916738674953344   -0.00799726866711735   0.0038092151353207003
-0.44916738674953344   -0.00799726866711735   0.0038092151353207003
-0.3981484992597468   -0.01981643098110611   -0.026293475529133265
-0.3981484992597468   -0.01981643098110611   -0.026293475529133265
-0.3981484992597468   -0.01981643098110611   -0.026293475529133265
-0.3981484992597468   -0.01981643098110611   -0.026293475529133265
-0.5176357694887552   0.011850487846547117   0.032048143553314715
-0.5176357694887552   0.011850487846547117   0.032048143553314715
-0.5176357694887552   0.011850487846547117   0.032048143553314715
-0.5176357694887552   0.011850487846547117   0.032048143553314715
-0.5181267375076074   -0.03905987499943267   -0.037008216079104324
-0.5181267375076074   -0.03905987499943267   -0.037008216079104324
-0.5181267375076074   -0.03905987499943267   -0.037008216079104324
-0.5181267375076074   -0.03905987499943267   -0.037008216079104324
-0.36147290118042363   0.047904333056201495   0.027887502137445227
-0.36147290118042363   0.047904333056201495   0.027887502137445227
-0.36147290118042363   0.047904333056201495   0.027887502137445227
-0.36147290118042363   0.047904333056201495   0.027887502137445227
-0.4354391811691478   0.0031362387007376064   0.010140541454979262
-0.4354391811691478   0.0031362387007376064   0.010140541454979262
-0.4354391811691478   0.0031362387007376064   0.010140541454979262
-0.4354391811691478   0.0031362387007376064   0.010140541454979262
-0.3849268425404196   -0.011094855926201158   -0.030383015680129525
-0.3849268425404196   -0.011094855926201158   -0.030383015680129525
-0.3849268425404196   -0.011094855926201158   -0.030383015680129525
-0.3849268425404196   -0.011094855926201158   -0.030383015680129525
-0.4937527011066561   0.020859409023921055   0.02494268190229086
-0.4937527011066561   0.020859409023921055   0.02494268190229086
-0.4937527011066561   0.020859409023921055   0.02494268190229086
-0.4937527011066561   0.020859409023921055   0.02494268190229086
-0.4879612922493212   -0.023273150892344052   -0.041294585962919336
-0.4879612922493212   -0.023273150892344052   -0.041294585962919336
-0.4879612922493212   -0.023273150892344052   -0.041294585962919336
-0.4879612922493212   -0.023273150892344052   -0.041294585962919336
-0.3505051152445136   0.056256276973404795   0.023227844891917537
-0.3505051152445136   0.056256276973404795   0.023227844891917537
-0.3505051152445136   0.056256276973404795   0.023227844891917537
-0.3505051152445136   0.056256276973404795   0.023227844891917537
-0.4094011850767276   0.01354328655883022   0.01908572131880163
-0.4094011850767276   0.01354328655883022   0.01908572131880163
-0.4094011850767276   0.01354328655883022   0.01908572131880163
-0.4094011850767276   0.01354328655883022   0.01908572131880163
0.43418850771497275   0.03950022893659962   0.037438088631561596
0.43418850771497275   0.03950022893659962   0.037438088631561596
0.43418850771497275   0.03950022893659962   0.037438088631561596
0.43418850771497275   0.03950022893659962   0.037438088631561596
0.15874897210620353   -0.07171862374870099   -0.02463131107251634
0.15874897210620353   -0.07171862374870099   -0.02463131107251634
0.15874897210620353   -0.07171862374870099   -0.02463131107251634
0.15874897210620353   -0.07171862374870099   -0.02463131107251634
0.19565685063477134   -0.0005818612258044198   0.02691335430815188
0.19565685063477134   -0.0005818612258044198   0.02691335430815188
0.19565685063477134   -0.0005818612258044198   0.02691335430815188
0.19565685063477134   -0.0005818612258044198   0.02691335430815188
0.44185108860861594   -0.009607700409856576   -0.03146253763827427
0.44185108860861594   -0.009607700409856576   -0.03146253763827427
0.44185108860861594   -0.009607700409856576   -0.03146253763827427
0.44185108860861594   -0.009607700409856576   -0.03146253763827427
0.28869467722550735   -0.012872202007845196   -0.027765601369122095
0.28869467722550735   -0.012872202007845196   -0.027765601369122095
0.28869467722550735   -0.012872202007845196   -0.027765601369122095
0.28869467722550735   -0.012872202007845196   -0.027765601369122095
0.4675573952033044   0.05492319650944482   0.03253809841586079
0.4675573952033044   0.05492319650944482   0.03253809841586079
0.4675573952033044   0.05492319650944482   0.03253809841586079
0.4675573952033044   0.05492319650944482   0.03253809841586079
0.1717811801437022   -0.06328212204149126   -0.02976473733150323
0.1717811801437022   -0.06328212204149126   -0.02976473733150323
0.1717811801437022   -0.06328212204149126   -0.02976473733150323
0.1717811801437022   -0.06328212204149126   -0.02976473733150323
0.2101220797195942   0.007890597524109082   0.022176306352672794
0.2101220797195942   0.007890597524109082   0.022176306352672794
0.2101220797195942   0.007890597524109082   0.022176306352672794
0.2101220797195942   0.007890597524109082   0.022176306352672794
0.46836217971040806   1.377649057178465e-05   -0.03958300481362664
0.46836217971040806   1.377649057178465e-05   -0.03958300481362664
0.46836217971040806   1.377649057178465e-05   -0.03958300481362664
0.46836217971040806   1.377649057178465e-05   -0.03958300481362664
0.3164276897596089   -0.0024932669207641256   -0.01684806685836906
0.3164276897596089   -0.0024932669207641256   -0.01684806685836906
0.3164276897596089   -0.0024932669207641256   -0.01684806685836906
0.3164276897596089   -0.0024932669207641256   -0.01684806685836906
0.4943413440891267   0.06530375653465764   0.02502283703587807
0.4943413440891267   0.06530375653465764   0.02502283703587807
0.4943413440891267   0.06530375653465764   0.02502283703587807
0.4943413440891267   0.06530375653465764   0.02502283703587807
0.18608064138191058   -0.055461656478941385   -0.03467863133269498
0.18608064138191058   -0.055461656478941385   -0.03467863133269498
0.18608064138191058   -0.055461656478941385   -0.03467863133269498
0.18608064138191058   -0.055461656478941385   -0.03467863133269498
0.22456957680886547   0.02659515360418496   0.019219646805878503
0.22456957680886547   0.02659515360418496   0.019219646805878503
0.22456957680886547   0.02659515360418496   0.019219646805878503
0.22456957680886547   0.02659515360418496   0.019219646805878503
0.5032007975066655   0.025100038005423098   -0.042682625381663404
0.5032007975066655   0.025100038005423098   -0.042682625381663404
0.5032007975066655   0.025100038005423098   -0.042682625381663404
0.5032007975066655   0.025100038005423098   -0.042682625381663404
0.3334117270745563   0.010158276763927526   -0.0074330437845794
0.3334117270745563   0.010158276763927526   -0.0074330437845794
0.3334117270745563   0.010158276763927526   -0.0074330437845794
0.3334117270745563   0.010158276763927526   -0.0074330437845794
0.1884596854523684   0.022177781993977488   0.030025849915627713
0.1884596854523684   0.022177781993977488   0.030025849915627713
0.1884596854523684   0.022177781993977488   0.030025849915627713
0.1884596854523684   0.022177781993977488   0.030025849915627713
-0.09233365699965312   -0.0669361587309273   -0.012921391961063776
-0.09233365699965312   -0.0669361587309273   -0.012921391961063776
-0.09233365699965312   -0.0669361587309273   -0.012921391961063776
-0.09233365699965312   -0.0669361587309273   -0.012921391961063776
-0.06701833784260251   -0.019730956309198577   0.009044194326097408
-0.06701833784260251   -0.019730956309198577   0.009044194326097408
-0.06701833784260251   -0.019730956309198577   0.009044194326097408
-0.06701833784260251   -0.019730956309198577   0.009044194326097408
0.18979024202052333   0.0008981519591835935   -0.0038997019480754838
0.18979024202052333   0.0008981519591835935   -0.0038997019480754838
0.18979024202052333   0.0008981519591835935   -0.0038997019480754838
0.18979024202052333   0.0008981519591835935   -0.0038997019480754838
0.0522417976670229   -0.014048805470203509   -0.011792681709657565
0.0522417976670229   -0.014048805470203509   -0.011792681709657565
0.0522417976670229   -0.014048805470203509   -0.011792681709657565
0.0522417976670229   -0.014048805470203509   -0.011792681709657565
0.20333329204756687   0.03789439236073284   0.026819307785592234
0.20333329204756687   0.03789439236073284   0.026819307785592234
0.20333329204756687   0.03789439236073284   0.026819307785592234
0.20333329204756687   0.03789439236073284   0.026819307785592234
-0.07944968454532922   -0.055615493386437724   -0.01722800211029886
-0.07944968454532922   -0.055615493386437724   -0.01722800211029886
-0.07944968454532922   -0.055615493386437724   -0.01722800211029886
-0.07944968454532922   -0.055615493386437724   -0.01722800211029886
-0.05354933265390932   -0.003852195562467217   0.005705134505652616
-0.05354933265390932   -0.003852195562467217   0.005705134505652616
-0.05354933265390932   -0.003852195562467217   0.005705134505652616
-0.05354933265390932   -0.003852195562467217   0.005705134505652616
0.20567325832956318   0.01512724517721634   -0.00730444825058942
0.20567325832956318   0.01512724517721634   -0.00730444825058942
0.20567325832956318   0.01512724517721634   -0.00730444825058942
0.20567325832956318   0.01512724517721634   -0.00730444825058942
0.0652422084837786   -0.0015116472636104387   -0.0046841019212151705
0.0652422084837786   -0.0015116472636104387   -0.0046841019212151705
0.0652422084837786   -0.0015116472636104387   -0.0046841019212151705
0.0652422084837786   -0.0015116472636104387   -0.0046841019212151705
0.21976059460205682   0.05443388220451254   0.023825596084582314
0.21976059460205682   0.05443388220451254   0.023825596084582314
0.21976059460205682   0.05443388220451254   0.023825596084582314
0.21976059460205682   0.05443388220451254   0.023825596084582314
-0.06652397048600299   -0.042046134149368114   -0.020974116067914845
-0.06652397048600299   -0.042046134149368114   -0.020974116067914845
-0.06652397048600299   -0.042046134149368114   -0.020974116067914845
-0.06652397048600299   -0.042046134149368114   -0.020974116067914845
-0.040243728478795225   0.0145718283884904   0.002384099620460369
-0.040243728478795225   0.0145718283884904   0.002384099620460369
-0.040243728478795225   0.0145718283884904   0.002384099620460369
-0.040243728478795225   0.0145718283884904   0.002384099620460369
0.21973844121717753   0.03209488543456569   -0.01043576298293987
0.21973844121717753   0.03209488543456569   -0.01043576298293987
0.21973844121717753   0.03209488543456569   -0.01043576298293987
0.21973844121717753   0.03209488543456569   -0.01043576298293987
0.08136160369424807   0.013887213884661291   0.003622406543255752
0.08136160369424807   0.013887213884661291   0.003622406543255752
0.08136160369424807   0.013887213884661291   0.003622406543255752
0.08136160369424807   0.013887213884661291   0.003622406543255752
-0.07283068775648877   0.004857816598892308   0.012799478924938469
-0.07283068775648877   0.004857816598892308   0.012799478924938469
-0.07283068775648877   0.004857816598892308   0.012799478924938469
-0.07283068775648877   0.004857816598892308   0.012799478924938469
-0.33844394182558096   -0.05916764898190241   -0.0017490155382357373
-0.33844394182558096   -0.05916764898190241   -0.0017490155382357373
-0.33844394182558096   -0.05916764898190241   -0.0017490155382357373
-0.33844394182558096   -0.05916764898190241   -0.0017490155382357373
-0.32250147555346886   -0.03503564980975262   -0.007938078831124335
-0.32250147555346886   -0.03503564980975262   -0.007938078831124335
-0.32250147555346886   -0.03503564980975262   -0.007938078831124335
-0.32250147555346886   -0.03503564980975262   -0.007938078831124335
-0.06136456880394646   0.009102021488262552   0.008480061721915405
-0.06136456880394646   0.009102021488262552   0.008480061721915405
-0.06136456880394646   0.009102021488262552   0.008480061721915405
-0.06136456880394646   0.009102021488262552   0.008480061721915405
-0.19913117638511016   -0.01815691488382306   -0.007370899262022536
-0.19913117638511016   -0.01815691488382306   -0.007370899262022536
-0.19913117638511016   -0.01815691488382306   -0.007370899262022536
-0.19913117638511016   -0.01815691488382306   -0.007370899262022536
-0.05869062237995462   0.021253749714334316   0.009698065615804035
-0.05869062237995462   0.021253749714334316   0.009698065615804035
-0.05869062237995462   0.021253749714334316   0.009698065615804035
-0.05869062237995462   0.021253749714334316   0.009698065615804035
-0.32442435056073166   -0.04643630661909642   -0.006151797058094224
-0.32442435056073166   -0.04643630661909642   -0.006151797058094224
-0.32442435056073166   -0.04643630661909642   -0.006151797058094224
-0.32442435056073166   -0.04643630661909642   -0.006151797058094224
-0.30765108352814513   -0.017613631439317004   -0.010720391154679678
-0.30765108352814513   -0.017613631439317004   -0.010720391154679678
-0.30765108352814513   -0.017613631439317004   -0.010720391154679678
-0.30765108352814513   -0.017613631439317004   -0.010720391154679678
-0.04825803953406872   0.023479982477623007   0.0048294220647653935
-0.04825803953406872   0.023479982477623007   0.0048294220647653935
-0.04825803953406872   0.023479982477623007   0.0048294220647653935
-0.04825803953406872   0.023479982477623007   0.0048294220647653935
-0.18414865123620236   -0.0035839331781726824   -0.00010786934099733282
-0.18414865123620236   -0.0035839331781726824   -0.00010786934099733282
-0.18414865123620236   -0.0035839331781726824   -0.00010786934099733282
-0.18414865123620236   -0.0035839331781726824   -0.00010786934099733282
-0.04502792739844905   0.03828922588471295   0.006170739335773826
-0.04502792739844905   0.03828922588471295   0.006170739335773826
-0.04502792739844905   0.03828922588471295   0.006170739335773826
-0.04502792739844905   0.03828922588471295   0.006170739335773826
-0.31018535400230357   -0.03172703318494573   -0.009278341779843397
-0.31018535400230357   -0.03172703318494573   -0.009278341779843397
-0.31018535400230357   -0.03172703318494573   -0.009278341779843397
-0.31018535400230357   -0.03172703318494573   -0.009278341779843397
-0.293824133193957   -0.0002421216797356407   -0.014036155142059425
-0.293824133193957   -0.0002421216797356407   -0.014036155142059425
-0.293824133193957   -0.0002421216797356407   -0.014036155142059425
-0.293824133193957   -0.0002421216797356407   -0.014036155142059425
-0.035759687365165826   0.03815680515914341   0.0012193284179547615
-0.035759687365165826   0.03815680515914341   0.0012193284179547615
-0.035759687365165826   0.03815680515914341   0.0012193284179547615
-0.035759687365165826   0.03815680515914341   0.0012193284179547615
-0.1703924755903749   0.010936043504270285   0.0067998761152871555
-0.1703924755903749   0.010936043504270285   0.0067998761152871555
-0.1703924755903749   0.010936043504270285   0.0067998761152871555
-0.1703924755903749   0.010936043504270285   0.0067998761152871555
-0.3298005936805973   -0.012757626083847909   -0.004942297711369371
-0.3298005936805973   -0.012757626083847909   -0.004942297711369371
-0.3298005936805973   -0.012757626083847909   -0.004942297711369371
-0.3298005936805973   -0.012757626083847909   -0.004942297711369371
-0.5792452986964973   -0.04805622970372178   0.010980657695948172
-0.5792452986964973   -0.04805622970372178   0.010980657695948172
-0.5792452986964973   -0.04805622970372178   0.010980657695948172
-0.5792452986964973   -0.04805622970372178   0.010980657695948172
-0.5716454581870026   -0.049763232598894716   -0.023859491230010594
-0.5716454581870026   -0.049763232598894716   -0.023859491230010594
-0.5716454581870026   -0.049763232598894716   -0.023859491230010594
-0.5716454581870026   -0.049763232598894716   -0.023859491230010594
-0.3051578935523156   0.022502047876745007   0.02124213348814667
-0.3051578935523156   0.022502047876745007   0.02124213348814667
-0.3051578935523156   0.022502047876745007   0.02124213348814667
-0.3051578935523156   0.022502047876745007   0.02124213348814667
-0.4433746376502504   -0.019270665626085384   -0.0025785630234429237
-0.4433746376502504   -0.019270665626085384   -0.0025785630234429237
-0.4433746376502504   -0.019270665626085384   -0.0025785630234429237
-0.4433746376502504   -0.019270665626085384   -0.0025785630234429237
-0.314432391716071   0.004938014208763525   -0.00756632366264854
-0.314432391716071   0.004938014208763525   -0.00756632366264854
-0.314432391716071   0.004938014208763525   -0.00756632366264854
-0.314432391716071   0.004938014208763525   -0.00756632366264854
-0.5623074689848315   -0.03213570789249787   0.005202930074448213
-0.5623074689848315   -0.03213570789249787   0.005202930074448213
-0.5623074689848315   -0.03213570789249787   0.005202930074448213
-0.5623074689848315   -0.03213570789249787   0.005202930074448213
-0.5522104893807037   -0.03275446765207626   -0.026391775644265977
-0.5522104893807037   -0.03275446765207626   -0.026391775644265977
-0.5522104893807037   -0.03275446765207626   -0.026391775644265977
-0.5522104893807037   -0.03275446765207626   -0.026391775644265977
-0.291346830194457   0.03619689644622216   0.016990347628224253
-0.291346830194457   0.03619689644622216   0.016990347628224253
-0.291346830194457   0.03619689644622216   0.016990347628224253
-0.291346830194457   0.03619689644622216   0.016990347628224253
-0.4235722054588117   -0.003170645991272439   0.004716211210955886
-0.4235722054588117   -0.003170645991272439   0.004716211210955886
-0.4235722054588117   -0.003170645991272439   0.004716211210955886
-0.4235722054588117   -0.003170645991272439   0.004716211210955886
-0.3000538985699411   0.02073798839861267   -0.011086086201586711
-0.3000538985699411   0.02073798839861267   -0.011086086201586711
-0.3000538985699411   0.02073798839861267   -0.011086086201586711
-0.3000538985699411   0.02073798839861267   -0.011086086201586711
-0.5430172241922722   -0.016809362791518817   0.003629445437334476
-0.5430172241922722   -0.016809362791518817   0.003629445437334476
-0.5430172241922722   -0.016809362791518817   0.003629445437334476
-0.5430172241922722   -0.016809362791518817   0.003629445437334476
-0.5348352652620904   -0.014338010328422357   -0.027757042571963104
-0.5348352652620904   -0.014338010328422357   -0.027757042571963104
-0.5348352652620904   -0.014338010328422357   -0.027757042571963104
-0.5348352652620904   -0.014338010328422357   -0.027757042571963104
-0.2779708554264329   0.05123178953625682   0.013756322479571188
-0.2779708554264329   0.05123178953625682   0.013756322479571188
-0.2779708554264329   0.05123178953625682   0.013756322479571188
-0.2779708554264329   0.05123178953625682   0.013756322479571188
-0.41026282858469276   0.010574991095433861   0.011002368266426478
-0.41026282858469276   0.010574991095433861   0.011002368266426478
-0.41026282858469276   0.010574991095433861   0.011002368266426478
-0.41026282858469276   0.010574991095433861   0.011002368266426478
-0.581578708944595   -0.02737427365542744   -0.021368349592833992
-0.581578708944595   -0.02737427365542744   -0.021368349592833992
-0.581578708944595   -0.02737427365542744   -0.021368349592833992
-0.581578708944595   -0.02737427365542744   -0.021368349592833992
-0.8295051964292807   -0.02999966924016431   0.03699313876716514
-0.8295051964292807   -0.02999966924016431   0.03699313876716514
-0.8295051964292807   -0.02999966924016431   0.03699313876716514
-0.8295051964292807   -0.02999966924016431   0.03699313876716514
-0.8139488856471673   -0.05950353766486716   -0.02840886784534455
-0.8139488856471673   -0.05950353766486716   -0.02840886784534455
-0.8139488856471673   -0.05950353766486716   -0.02840886784534455
-0.8139488856471673   -0.05950353766486716   -0.02840886784534455
-0.5401519180603631   0.04619533086697353   0.03764964593731371
-0.5401519180603631   0.04619533086697353   0.03764964593731371
-0.5401519180603631   0.04619533086697353   0.03764964593731371
-0.5401519180603631   0.04619533086697353   0.03764964593731371
-0.6606125648563086   -0.008157539909890182   0.00778382385677389
-0.6606125648563086   -0.008157539909890182   0.00778382385677389
-0.6606125648563086   -0.008157539909890182   0.00778382385677389
-0.6606125648563086   -0.008157539909890182   0.00778382385677389
-0.5633651180247102   -0.008457679312329866   -0.02376334370511644
-0.5633651180247102   -0.008457679312329866   -0.02376334370511644
-0.5633651180247102   -0.008457679312329866   -0.02376334370511644
-0.5633651180247102   -0.008457679312329866   -0.02376334370511644
-0.7903320995932465   -0.0044469413959906945   0.03461846615537608
-0.7903320995932465   -0.0044469413959906945   0.03461846615537608
-0.7903320995932465   -0.0044469413959906945   0.03461846615537608
-0.7903320995932465   -0.0044469413959906945   0.03461846615537608
-0.7844389249404643   -0.048961342858919704   -0.03347485367812016
-0.7844389249404643   -0.048961342858919704   -0.03347485367812016
-0.7844389249404643   -0.048961342858919704   -0.03347485367812016
-0.7844389249404643   -0.048961342858919704   -0.03347485367812016
-0.523871032071094   0.05269473684667572   0.02985630640503045
-0.523871032071094   0.05269473684667572   0.02985630640503045
-0.523871032071094   0.05269473684667572   0.02985630640503045
-0.523871032071094   0.05269473684667572   0.02985630640503045
-0.6455715865052496   0.003357798892502817   0.013821542248694425
-0.6455715865052496   0.003357798892502817   0.013821542248694425
-0.6455715865052496   0.003357798892502817   0.013821542248694425
-0.6455715865052496   0.003357798892502817   0.013821542248694425
-0.5457849826318898   5.056202330350201e-05   -0.027069271575576037
-0.5457849826318898   5.056202330350201e-05   -0.027069271575576037
-0.5457849826318898   5.056202330350201e-05   -0.027069271575576037
-0.5457849826318898   5.056202330350201e-05   -0.027069271575576037
-0.7621183591500366   0.0040894471940766675   0.02507718522100845
-0.7621183591500366   0.0040894471940766675   0.02507718522100845
-0.7621183591500366   0.0040894471940766675   0.02507718522100845
-0.7621183591500366   0.0040894471940766675   0.02507718522100845
-0.7521273048214475   -0.0363484938015165   -0.03817381940575495
-0.7521273048214475   -0.0363484938015165   -0.03817381940575495
-0.7521273048214475   -0.0363484938015165   -0.03817381940575495
-0.7521273048214475   -0.0363484938015165   -0.03817381940575495
-0.5095902565465815   0.05871106596031676   0.025418924716839847
-0.5095902565465815   0.05871106596031676   0.025418924716839847
-0.5095902565465815   0.05871106596031676   0.025418924716839847
-0.5095902565465815   0.05871106596031676   0.025418924716839847
-0.6128899038201803   0.012908123099752256   0.022999851040492757
-0.6128899038201803   0.012908123099752256   0.022999851040492757
-0.6128899038201803   0.012908123099752256   0.022999851040492757
-0.6128899038201803   0.012908123099752256   0.022999851040492757
0.7263071887320468   0.05436388154651163   0.038222998777685535
0.7263071887320468   0.05436388154651163   0.038222998777685535
0.7263071887320468   0.05436388154651163   0.038222998777685535
0.7263071887320468   0.05436388154651163   0.038222998777685535
0.3199596647255876   -0.08505718133010863   -0.017673836888383334
0.3199596647255876   -0.08505718133010863   -0.017673836888383334
0.3199596647255876   -0.08505718133010863   -0.017673836888383334
0.3199596647255876   -0.08505718133010863   -0.017673836888383334
0.3564108628083926   -0.015160707998666867   0.02621265021792838
0.3564108628083926   -0.015160707998666867   0.02621265021792838
0.3564108628083926   -0.015160707998666867   0.02621265021792838
0.3564108628083926   -0.015160707998666867   0.02621265021792838
0.7341173797021711   -0.0008646813827795918   -0.027626184106123972
0.7341173797021711   -0.0008646813827795918   -0.027626184106123972
0.7341173797021711   -0.0008646813827795918   -0.027626184106123972
0.7341173797021711   -0.0008646813827795918   -0.027626184106123972
0.5029313610626823   -0.015053998334936688   -0.03916586521379853
0.5029313610626823   -0.015053998334936688   -0.03916586521379853
0.5029313610626823   -0.015053998334936688   -0.03916586521379853
0.5029313610626823   -0.015053998334936688   -0.03916586521379853
0.7595329457061282   0.06661547620289364   0.03197148832798136
0.7595329457061282   0.06661547620289364   0.03197148832798136
0.7595329457061282   0.06661547620289364   0.03197148832798136
0.7595329457061282   0.06661547620289364   0.03197148832798136
0.33344039005784265   -0.08019577233093145   -0.02360464920255486
0.33344039005784265   -0.08019577233093145   -0.02360464920255486
0.33344039005784265   -0.08019577233093145   -0.02360464920255486
0.33344039005784265   -0.08019577233093145   -0.02360464920255486
0.3705870187069316   -0.007389670614072891   0.021174920666626407
0.3705870187069316   -0.007389670614072891   0.021174920666626407
0.3705870187069316   -0.007389670614072891   0.021174920666626407
0.3705870187069316   -0.007389670614072891   0.021174920666626407
0.7590078003330435   0.007696337356220356   -0.03446784349035463
0.7590078003330435   0.007696337356220356   -0.03446784349035463
0.7590078003330435   0.007696337356220356   -0.03446784349035463
0.7590078003330435   0.007696337356220356   -0.03446784349035463
0.5342668549111975   -0.0059217244648664125   -0.026671143813951713
0.5342668549111975   -0.0059217244648664125   -0.026671143813951713
0.5342668549111975   -0.0059217244648664125   -0.026671143813951713
0.5342668549111975   -0.0059217244648664125   -0.026671143813951713
0.7842676542407268   0.07584752086684832   0.02368024253743388
0.7842676542407268   0.07584752086684832   0.02368024253743388
0.7842676542407268   0.07584752086684832   0.02368024253743388
0.7842676542407268   0.07584752086684832   0.02368024253743388
0.34746271944501456   -0.07340529947893919   -0.02843094677809279
0.34746271944501456   -0.07340529947893919   -0.02843094677809279
0.34746271944501456   -0.07340529947893919   -0.02843094677809279
0.34746271944501456   -0.07340529947893919   -0.02843094677809279
0.38343958969082975   0.01339731192037924   0.018564952008952997
0.38343958969082975   0.01339731192037924   0.018564952008952997
0.38343958969082975   0.01339731192037924   0.018564952008952997
0.38343958969082975   0.01339731192037924   0.018564952008952997
0.7896685366856009   0.03276164965636916   -0.036077239799406295
0.7896685366856009   0.03276164965636916   -0.036077239799406295
0.7896685366856009   0.03276164965636916   -0.036077239799406295
0.7896685366856009   0.03276164965636916   -0.036077239799406295
0.5458288879377656   0.006402808251639094   -0.018049832302955274
0.5458288879377656   0.006402808251639094   -0.018049832302955274
0.5458288879377656   0.006402808251639094   -0.018049832302955274
0.5458288879377656   0.006402808251639094   -0.018049832302955274
0.3539169288317614   0.031924414408366325   0.03513088790400869
0.3539169288317614   0.031924414408366325   0.03513088790400869
0.3539169288317614   0.031924414408366325   0.03513088790400869
0.3539169288317614   0.031924414408366325   0.03513088790400869
-0.044599760084667324   -0.10460774988670926   -0.010093234272163302
-0.044599760084667324   -0.10460774988670926   -0.010093234272163302
-0.044599760084667324   -0.10460774988670926   -0.010093234272163302
-0.044599760084667324   -0.10460774988670926   -0.010093234272163302
-0.01329100804240648   -0.03717008723799278   0.00884035212897243
-0.01329100804240648   -0.03717008723799278   0.00884035212897243
-0.01329100804240648   -0.03717008723799278   0.00884035212897243
-0.01329100804240648   -0.03717008723799278   0.00884035212897243
0.35084735722917754   -0.018567269629309185   0.0018016839524944948
0.35084735722917754   -0.018567269629309185   0.0018016839524944948
0.35084735722917754   -0.018567269629309185   0.0018016839524944948
0.35084735722917754   -0.018567269629309185   0.0018016839524944948
0.15733182286329805   -0.028947034099202733   -0.018575332578376985
0.15733182286329805   -0.028947034099202733   -0.018575332578376985
0.15733182286329805   -0.028947034099202733   -0.018575332578376985
0.15733182286329805   -0.028947034099202733   -0.018575332578376985
0.36918260901414174   0.04378225033093676   0.031128422917070374
0.36918260901414174   0.04378225033093676   0.031128422917070374
0.36918260901414174   0.04378225033093676   0.031128422917070374
0.36918260901414174   0.04378225033093676   0.031128422917070374
-0.03032897583211267   -0.09822232320298031   -0.015297250854570992
-0.03032897583211267   -0.09822232320298031   -0.015297250854570992
-0.03032897583211267   -0.09822232320298031   -0.015297250854570992
-0.03032897583211267   -0.09822232320298031   -0.015297250854570992
0.0011601726753582807   -0.02324069656384136   0.005368928698357653
0.0011601726753582807   -0.02324069656384136   0.005368928698357653
0.0011601726753582807   -0.02324069656384136   0.005368928698357653
0.0011601726753582807   -0.02324069656384136   0.005368928698357653
0.3656713965027563   -0.008061306267448193   -0.0027315547008755214
0.3656713965027563   -0.008061306267448193   -0.0027315547008755214
0.3656713965027563   -0.008061306267448193   -0.0027315547008755214
0.3656713965027563   -0.008061306267448193   -0.0027315547008755214
0.16985273217839542   -0.020387263162112965   -0.012024085336474949
0.16985273217839542   -0.020387263162112965   -0.012024085336474949
0.16985273217839542   -0.020387263162112965   -0.012024085336474949
0.16985273217839542   -0.020387263162112965   -0.012024085336474949
0.38499192489828177   0.0580115202857805   0.027798260723523545
0.38499192489828177   0.0580115202857805   0.027798260723523545
0.38499192489828177   0.0580115202857805   0.027798260723523545
0.38499192489828177   0.0580115202857805   0.027798260723523545
-0.01738097540392268   -0.08853414280081671   -0.02204336546106986
-0.01738097540392268   -0.08853414280081671   -0.02204336546106986
-0.01738097540392268   -0.08853414280081671   -0.02204336546106986
-0.01738097540392268   -0.08853414280081671   -0.02204336546106986
0.012508998271898775   -0.0068911558908273255   0.0018634733353737826
0.012508998271898775   -0.0068911558908273255   0.0018634733353737826
0.012508998271898775   -0.0068911558908273255   0.0018634733353737826
0.012508998271898775   -0.0068911558908273255   0.0018634733353737826
0.37675587731843796   0.0053624644791562814   -0.006818762411789362
0.37675587731843796   0.0053624644791562814   -0.006818762411789362
0.37675587731843796   0.0053624644791562814   -0.006818762411789362
0.37675587731843796   0.0053624644791562814   -0.006818762411789362
0.1852802563679488   -0.00756949241202709   -0.004972141779311182
0.1852802563679488   -0.00756949241202709   -0.004972141779311182
0.1852802563679488   -0.00756949241202709   -0.004972141779311182
0.1852802563679488   -0.00756949241202709   -0.004972141779311182
-0.01634298314879236   0.009099104971007127   0.01748379554949514
-0.01634298314879236   0.009099104971007127   0.01748379554949514
-0.01634298314879236   0.009099104971007127   0.01748379554949514
-0.01634298314879236   0.009099104971007127   0.01748379554949514
-0.4063070111626279   -0.13108246098986512   -0.00806244130099925
-0.4063070111626279   -0.13108246098986512   -0.00806244130099925
-0.4063070111626279   -0.13108246098986512   -0.00806244130099925
-0.4063070111626279   -0.13108246098986512   -0.00806244130099925
-0.37474188448083945   -0.05698382171467366   -0.008571838615841973
-0.37474188448083945   -0.05698382171467366   -0.008571838615841973
-0.37474188448083945   -0.05698382171467366   -0.008571838615841973
-0.37474188448083945   -0.05698382171467366   -0.008571838615841973
-0.014873894865849946   -0.0441813816459824   0.007937212419745484
-0.014873894865849946   -0.0441813816459824   0.007937212419745484
-0.014873894865849946   -0.0441813816459824   0.007937212419745484
-0.014873894865849946   -0.0441813816459824   0.007937212419745484
-0.2039723851214835   -0.052793514911337464   -0.01656853966614047
-0.2039723851214835   -0.052793514911337464   -0.01656853966614047
-0.2039723851214835   -0.052793514911337464   -0.01656853966614047
-0.2039723851214835   -0.052793514911337464   -0.01656853966614047
-0.00028785769491392055   0.02246546224280891   0.014220554385633535
-0.00028785769491392055   0.02246546224280891   0.014220554385633535
-0.00028785769491392055   0.02246546224280891   0.014220554385633535
-0.00028785769491392055   0.02246546224280891   0.014220554385633535
-0.3883877116589337   -0.12269045561062138   -0.011094340610365646
-0.3883877116589337   -0.12269045561062138   -0.011094340610365646
-0.3883877116589337   -0.12269045561062138   -0.011094340610365646
-0.3883877116589337   -0.12269045561062138   -0.011094340610365646
-0.3568097296572674   -0.04152558569863156   -0.011646728693308708
-0.3568097296572674   -0.04152558569863156   -0.011646728693308708
-0.3568097296572674   -0.04152558569863156   -0.011646728693308708
-0.3568097296572674   -0.04152558569863156   -0.011646728693308708
-0.0014184757214257115   -0.034078603047969884   0.0033135931985683667
-0.0014184757214257115   -0.034078603047969884   0.0033135931985683667
-0.0014184757214257115   -0.034078603047969884   0.0033135931985683667
-0.0014184757214257115   -0.034078603047969884   0.0033135931985683667
-0.18656445740638086   -0.041667305322682105   -0.009169334218275205
-0.18656445740638086   -0.041667305322682105   -0.009169334218275205
-0.18656445740638086   -0.041667305322682105   -0.009169334218275205
-0.18656445740638086   -0.041667305322682105   -0.009169334218275205
0.014401032173460926   0.03726034860931667   0.011072181015714767
0.014401032173460926   0.03726034860931667   0.011072181015714767
0.014401032173460926   0.03726034860931667   0.011072181015714767
0.014401032173460926   0.03726034860931667   0.011072181015714767
-0.3726156247300576   -0.11285092453382342   -0.01935086522206742
-0.3726156247300576   -0.11285092453382342   -0.01935086522206742
-0.3726156247300576   -0.11285092453382342   -0.01935086522206742
-0.3726156247300576   -0.11285092453382342   -0.01935086522206742
-0.34413325084608937   -0.026777370961411   -0.015077988703893735
-0.34413325084608937   -0.026777370961411   -0.015077988703893735
-0.34413325084608937   -0.026777370961411   -0.015077988703893735
-0.34413325084608937   -0.026777370961411   -0.015077988703893735
0.007405169692785745   -0.025972931307879907   -0.004573894143140826
0.007405169692785745   -0.025972931307879907   -0.004573894143140826
0.007405169692785745   -0.025972931307879907   -0.004573894143140826
0.007405169692785745   -0.025972931307879907   -0.004573894143140826
-0.17380123025888675   -0.03127331678494143   -0.004513388001453721
-0.17380123025888675   -0.03127331678494143   -0.004513388001453721
-0.17380123025888675   -0.03127331678494143   -0.004513388001453721
-0.17380123025888675   -0.03127331678494143   -0.004513388001453721
-0.38070614491615795   -0.0106438705821197   -0.0004967004763947458
-0.38070614491615795   -0.0106438705821197   -0.0004967004763947458
-0.38070614491615795   -0.0106438705821197   -0.0004967004763947458
-0.38070614491615795   -0.0106438705821197   -0.0004967004763947458
-0.7698728572368285   -0.14092923663005633   -0.006430628137912921
-0.7698728572368285   -0.14092923663005633   -0.006430628137912921
-0.7698728572368285   -0.14092923663005633   -0.006430628137912921
-0.7698728572368285   -0.14092923663005633   -0.006430628137912921
-0.7360832990959603   -0.07300687418568055   -0.025377071280336394
-0.7360832990959603   -0.07300687418568055   -0.025377071280336394
-0.7360832990959603   -0.07300687418568055   -0.025377071280336394
-0.7360832990959603   -0.07300687418568055   -0.025377071280336394
-0.36747053052989015   -0.04593353133274243   0.016734640756973028
-0.36747053052989015   -0.04593353133274243   0.016734640756973028
-0.36747053052989015   -0.04593353133274243   0.016734640756973028
-0.36747053052989015   -0.04593353133274243   0.016734640756973028
-0.5586261358861481   -0.06357340953999893   -0.011664243821579217
-0.5586261358861481   -0.06357340953999893   -0.011664243821579217
-0.5586261358861481   -0.06357340953999893   -0.011664243821579217
-0.5586261358861481   -0.06357340953999893   -0.011664243821579217
-0.3608937431643044   0.006536217089290822   -0.002851170837131111
-0.3608937431643044   0.006536217089290822   -0.002851170837131111
-0.3608937431643044   0.006536217089290822   -0.002851170837131111
-0.3608937431643044   0.006536217089290822   -0.002851170837131111
-0.742925041600618   -0.1257415777467905   -0.006851080242508807
-0.742925041600618   -0.1257415777467905   -0.006851080242508807
-0.742925041600618   -0.1257415777467905   -0.006851080242508807
-0.742925041600618   -0.1257415777467905   -0.006851080242508807
-0.7104195858817063   -0.056889786002247866   -0.02937030892687667
-0.7104195858817063   -0.056889786002247866   -0.02937030892687667
-0.7104195858817063   -0.056889786002247866   -0.02937030892687667
-0.7104195858817063   -0.056889786002247866   -0.02937030892687667
-0.3500784704357   -0.0338513475337546   0.014335329249654758
-0.3500784704357   -0.0338513475337546   0.014335329249654758
-0.3500784704357   -0.0338513475337546   0.014335329249654758
-0.3500784704357   -0.0338513475337546   0.014335329249654758
-0.5322021996850989   -0.04810824565661208   -0.0037633430550154667
-0.5322021996850989   -0.04810824565661208   -0.0037633430550154667
-0.5322021996850989   -0.04810824565661208   -0.0037633430550154667
-0.5322021996850989   -0.04810824565661208   -0.0037633430550154667
-0.34292464958290136   0.021444900199053263   -0.005191814219163225
-0.34292464958290136   0.021444900199053263   -0.005191814219163225
-0.34292464958290136   0.021444900199053263   -0.005191814219163225
-0.34292464958290136   0.021444900199053263   -0.005191814219163225
-0.7187828294499017   -0.11339545645045421   -0.014680856319641528
-0.7187828294499017   -0.11339545645045421   -0.014680856319641528
-0.7187828294499017   -0.11339545645045421   -0.014680856319641528
-0.7187828294499017   -0.11339545645045421   -0.014680856319641528
-0.6896504404577053   -0.039919226059786955   -0.03031917046940586
-0.6896504404577053   -0.039919226059786955   -0.03031917046940586
-0.6896504404577053   -0.039919226059786955   -0.03031917046940586
-0.6896504404577053   -0.039919226059786955   -0.03031917046940586
-0.34009839125887026   -0.02616985675678464   0.004488795027577891
-0.34009839125887026   -0.02616985675678464   0.004488795027577891
-0.34009839125887026   -0.02616985675678464   0.004488795027577891
-0.34009839125887026   -0.02616985675678464   0.004488795027577891
-0.517764423909183   -0.038690620129240044   -0.0011692236820696096
-0.517764423909183   -0.038690620129240044   -0.0011692236820696096
-0.517764423909183   -0.038690620129240044   -0.0011692236820696096
-0.517764423909183   -0.038690620129240044   -0.0011692236820696096
-0.7490721754068571   -0.024985819927280023   -0.018370635690831964
-0.7490721754068571   -0.024985819927280023   -0.018370635690831964
-0.7490721754068571   -0.024985819927280023   -0.018370635690831964
-0.7490721754068571   -0.024985819927280023   -0.018370635690831964
-1.1296273977773061   -0.09576606412868635   0.042180292026198676
-1.1296273977773061   -0.09576606412868635   0.042180292026198676
-1.1296273977773061   -0.09576606412868635   0.042180292026198676
-1.1296273977773061   -0.09576606412868635   0.042180292026198676
-1.0914759863669077   -0.07654128026694115   -0.024709341425715042
-1.0914759863669077   -0.07654128026694115   -0.024709341425715042
-1.0914759863669077   -0.07654128026694115   -0.024709341425715042
-1.0914759863669077   -0.07654128026694115   -0.024709341425715042
-0.7045445319209012   0.02040750513165815   0.038902385277614714
-0.7045445319209012   0.02040750513165815   0.038902385277614714
-0.7045445319209012   0.02040750513165815   0.038902385277614714
-0.7045445319209012   0.02040750513165815   0.038902385277614714
-0.8775220772731083   -0.029910020994665748   0.004493599246818913
-0.8775220772731083   -0.029910020994665748   0.004493599246818913
-0.8775220772731083   -0.029910020994665748   0.004493599246818913
-0.8775220772731083   -0.029910020994665748   0.004493599246818913
-0.7207885247970911   -0.0015366120518056081   -0.02037346191986178
-0.7207885247970911   -0.0015366120518056081   -0.02037346191986178
-0.7207885247970911   -0.0015366120518056081   -0.02037346191986178
-0.7207885247970911   -0.0015366120518056081   -0.02037346191986178
-1.072614285653452   -0.05197945524621003   0.045037337120824715
-1.072614285653452   -0.05197945524621003   0.045037337120824715
-1.072614285653452   -0.05197945524621003   0.045037337120824715
-1.072614285653452   -0.05197945524621003   0.045037337120824715
-1.0505128678082905   -0.0644901577327735   -0.02942633075498853
-1.0505128678082905   -0.0644901577327735   -0.02942633075498853
-1.0505128678082905   -0.0644901577327735   -0.02942633075498853
-1.0505128678082905   -0.0644901577327735   -0.02942633075498853
-0.6791881349110321   0.03237711939956653   0.03752004052467944
-0.6791881349110321   0.03237711939956653   0.03752004052467944
-0.6791881349110321   0.03237711939956653   0.03752004052467944
-0.6791881349110321   0.03237711939956653   0.03752004052467944
-0.8536021085376132   -0.01206137766934795   0.017559195766057873
-0.8536021085376132   -0.01206137766934795   0.017559195766057873
-0.8536021085376132   -0.01206137766934795   0.017559195766057873
-0.8536021085376132   -0.01206137766934795   0.017559195766057873
-0.6959938396582083   0.007893867738264115   -0.02202523154989256
-0.6959938396582083   0.007893867738264115   -0.02202523154989256
-0.6959938396582083   0.007893867738264115   -0.02202523154989256
-0.6959938396582083   0.007893867738264115   -0.02202523154989256
-1.0331600807683412   -0.039459823778693726   0.03230727049068714
-1.0331600807683412   -0.039459823778693726   0.03230727049068714
-1.0331600807683412   -0.039459823778693726   0.03230727049068714
-1.0331600807683412   -0.039459823778693726   0.03230727049068714
-1.0081210779699992   -0.053194930066765095   -0.03558023399515193
-1.0081210779699992   -0.053194930066765095   -0.03558023399515193
-1.0081210779699992   -0.053194930066765095   -0.03558023399515193
-1.0081210779699992   -0.053194930066765095   -0.03558023399515193
-0.6604972686770314   0.04656009604096428   0.028967366333216282
-0.6604972686770314   0.04656009604096428   0.028967366333216282
-0.6604972686770314   0.04656009604096428   0.028967366333216282
-0.6604972686770314   0.04656009604096428   0.028967366333216282
-0.8078746379766841   0.0031639743039115764   0.030734508399890045
-0.8078746379766841   0.0031639743039115764   0.030734508399890045
-0.8078746379766841   0.0031639743039115764   0.030734508399890045
-0.8078746379766841   0.0031639743039115764   0.030734508399890045
0.9897901317395355   0.05956243746452261   0.03559379007080896
0.9897901317395355   0.05956243746452261   0.03559379007080896
0.9897901317395355   0.05956243746452261   0.03559379007080896
0.9897901317395355   0.05956243746452261   0.03559379007080896
0.47128121608013124   -0.08792543771054674   0.007670914763791406
0.47128121608013124   -0.08792543771054674   0.007670914763791406
0.47128121608013124   -0.08792543771054674   0.007670914763791406
0.47128121608013124   -0.08792543771054674   0.007670914763791406
0.4970283680199693   -0.03729893634447104   0.02729155276762052
0.4970283680199693   -0.03729893634447104   0.02729155276762052
0.4970283680199693   -0.03729893634447104   0.02729155276762052
0.4970283680199693   -0.03729893634447104   0.02729155276762052
0.9948487418290866   0.00902241484922725   -0.008167407150894708
0.9948487418290866   0.00902241484922725   -0.008167407150894708
0.9948487418290866   0.00902241484922725   -0.008167407150894708
0.9948487418290866   0.00902241484922725   -0.008167407150894708
0.6955594329324832   -0.018721861455412547   -0.046025917240744965
0.6955594329324832   -0.018721861455412547   -0.046025917240744965
0.6955594329324832   -0.018721861455412547   -0.046025917240744965
0.6955594329324832   -0.018721861455412547   -0.046025917240744965
1.0135387137854124   0.0661714964592392   0.028133371020722893
1.0135387137854124   0.0661714964592392   0.028133371020722893
1.0135387137854124   0.0661714964592392   0.028133371020722893
1.0135387137854124   0.0661714964592392   0.028133371020722893
0.4828034798737462   -0.08998293414437923   0.008851109836413087
0.4828034798737462   -0.08998293414437923   0.008851109836413087
0.4828034798737462   -0.08998293414437923   0.008851109836413087
0.4828034798737462   -0.08998293414437923   0.008851109836413087
0.5067178749025191   -0.03171883185969414   0.020746235860627946
0.5067178749025191   -0.03171883185969414   0.020746235860627946
0.5067178749025191   -0.03171883185969414   0.020746235860627946
0.5067178749025191   -0.03171883185969414   0.020746235860627946
1.0120776311969522   0.015302696650094094   -0.002729106095535394
1.0120776311969522   0.015302696650094094   -0.002729106095535394
1.0120776311969522   0.015302696650094094   -0.002729106095535394
1.0120776311969522   0.015302696650094094   -0.002729106095535394
0.7240465627811563   -0.014763547479700878   -0.03149967761768348
0.7240465627811563   -0.014763547479700878   -0.03149967761768348
0.7240465627811563   -0.014763547479700878   -0.03149967761768348
0.7240465627811563   -0.014763547479700878   -0.03149967761768348
1.0279102003511225   0.0722647277691548   0.019471708556255178
1.0279102003511225   0.0722647277691548   0.019471708556255178
1.0279102003511225   0.0722647277691548   0.019471708556255178
1.0279102003511225   0.0722647277691548   0.019471708556255178
0.49399076262968716   -0.08557540609741417   0.010967248734188174
0.49399076262968716   -0.08557540609741417   0.010967248734188174
0.49399076262968716   -0.08557540609741417   0.010967248734188174
0.49399076262968716   -0.08557540609741417   0.010967248734188174
0.5210076314032445   -0.009961733685784055   0.018966748772184024
0.5210076314032445   -0.009961733685784055   0.018966748772184024
0.5210076314032445   -0.009961733685784055   0.018966748772184024
0.5210076314032445   -0.009961733685784055   0.018966748772184024
1.030041989308755   0.029798943020987234   -0.0006999651018266551
1.030041989308755   0.029798943020987234   -0.0006999651018266551
1.030041989308755   0.029798943020987234   -0.0006999651018266551
1.030041989308755   0.029798943020987234   -0.0006999651018266551
0.7273998569748086   -0.0066879059357746184   -0.023624068083760257
0.7273998569748086   -0.0066879059357746184   -0.023624068083760257
0.7273998569748086   -0.0066879059357746184   -0.023624068083760257
0.7273998569748086   -0.0066879059357746184   -0.023624068083760257
0.49750138835975233   0.013333661955732504   0.03751267649561779
0.49750138835975233   0.013333661955732504   0.03751267649561779
0.49750138835975233   0.013333661955732504   0.03751267649561779
0.49750138835975233   0.013333661955732504   0.03751267649561779
0.024799176378125558   -0.17431969870641342   0.017619847241388063
0.024799176378125558   -0.17431969870641342   0.017619847241388063
0.024799176378125558   -0.17431969870641342   0.017619847241388063
0.024799176378125558   -0.17431969870641342   0.017619847241388063
0.05823959784196264   -0.07413533420744804   0.016569120449015044
0.05823959784196264   -0.07413533420744804   0.016569120449015044
0.05823959784196264   -0.07413533420744804   0.016569120449015044
0.05823959784196264   -0.07413533420744804   0.016569120449015044
0.4848155509635292   -0.08252861511802886   0.011457146258974621
0.4848155509635292   -0.08252861511802886   0.011457146258974621
0.4848155509635292   -0.08252861511802886   0.011457146258974621
0.4848155509635292   -0.08252861511802886   0.011457146258974621
0.2577201550855765   -0.07771621696991185   -0.029224613974984055
0.2577201550855765   -0.07771621696991185   -0.029224613974984055
0.2577201550855765   -0.07771621696991185   -0.029224613974984055
0.2577201550855765   -0.07771621696991185   -0.029224613974984055
0.509102424535493   0.01899665570134222   0.03136624329942991
0.509102424535493   0.01899665570134222   0.03136624329942991
0.509102424535493   0.01899665570134222   0.03136624329942991
0.509102424535493   0.01899665570134222   0.03136624329942991
0.04036757980592201   -0.16924574949089372   0.022319445552257525
0.04036757980592201   -0.16924574949089372   0.022319445552257525
0.04036757980592201   -0.16924574949089372   0.022319445552257525
0.04036757980592201   -0.16924574949089372   0.022319445552257525
0.07164429739529882   -0.06392920985672605   0.01195602646016198
0.07164429739529882   -0.06392920985672605   0.01195602646016198
0.07164429739529882   -0.06392920985672605   0.01195602646016198
0.07164429739529882   -0.06392920985672605   0.01195602646016198
0.4963068766826828   -0.07714663593776949   0.014119048839522301
0.4963068766826828   -0.07714663593776949   0.014119048839522301
0.4963068766826828   -0.07714663593776949   0.014119048839522301
0.4963068766826828   -0.07714663593776949   0.014119048839522301
0.2690873520084197   -0.07378061329335944   -0.014617313890441026
0.2690873520084197   -0.07378061329335944   -0.014617313890441026
0.2690873520084197   -0.07378061329335944   -0.014617313890441026
0.2690873520084197   -0.07378061329335944   -0.014617313890441026
0.5199327419472788   0.028631351338820693   0.026470387885911696
0.5199327419472788   0.028631351338820693   0.026470387885911696
0.5199327419472788   0.028631351338820693   0.026470387885911696
0.5199327419472788   0.028631351338820693   0.026470387885911696
0.05418638628945411   -0.16353924297456401   0.024276504048778326
0.05418638628945411   -0.16353924297456401   0.024276504048778326
0.05418638628945411   -0.16353924297456401   0.024276504048778326
0.05418638628945411   -0.16353924297456401   0.024276504048778326
0.09224572412389978   -0.04860213862130807   0.007868375280396318
0.09224572412389978   -0.04860213862130807   0.007868375280396318
0.09224572412389978   -0.04860213862130807   0.007868375280396318
0.09224572412389978   -0.04860213862130807   0.007868375280396318
0.5088622027082176   -0.06898228863176097   0.017260160243024923
0.5088622027082176   -0.06898228863176097   0.017260160243024923
0.5088622027082176   -0.06898228863176097   0.017260160243024923
0.5088622027082176   -0.06898228863176097   0.017260160243024923
0.2891708698793858   -0.06429534651235017   0.0023987605257066863
0.2891708698793858   -0.06429534651235017   0.0023987605257066863
0.2891708698793858   -0.06429534651235017   0.0023987605257066863
0.2891708698793858   -0.06429534651235017   0.0023987605257066863
0.054471189974858975   -0.032485240998701675   0.024145457517343413
0.054471189974858975   -0.032485240998701675   0.024145457517343413
0.054471189974858975   -0.032485240998701675   0.024145457517343413
0.054471189974858975   -0.032485240998701675   0.024145457517343413
-0.4251413863528925   -0.2988136891823289   0.025732613957066962
-0.4251413863528925   -0.2988136891823289   0.025732613957066962
-0.4251413863528925   -0.2988136891823289   0.025732613957066962
-0.4251413863528925   -0.2988136891823289   0.025732613957066962
-0.3723839578878265   -0.11696156710827077   0.0015463481302802114
-0.3723839578878265   -0.11696156710827077   0.0015463481302802114
-0.3723839578878265   -0.11696156710827077   0.0015463481302802114
-0.3723839578878265   -0.11696156710827077   0.0015463481302802114
0.02857979218615047   -0.2159209601514743   0.010055718113980795
0.02857979218615047   -0.2159209601514743   0.010055718113980795
0.02857979218615047   -0.2159209601514743   0.010055718113980795
0.02857979218615047   -0.2159209601514743   0.010055718113980795
-0.18408479972366015   -0.167221498760634   -0.035055939587626095
-0.18408479972366015   -0.167221498760634   -0.035055939587626095
-0.18408479972366015   -0.167221498760634   -0.035055939587626095
-0.18408479972366015   -0.167221498760634   -0.035055939587626095
0.06850842393618972   -0.025280647522485915   0.019058564235188247
0.06850842393618972   -0.025280647522485915   0.019058564235188247
0.06850842393618972   -0.025280647522485915   0.019058564235188247
0.06850842393618972   -0.025280647522485915   0.019058564235188247
-0.40299517339785035   -0.29828446349724336   0.029813166969136322
-0.40299517339785035   -0.29828446349724336   0.029813166969136322
-0.40299517339785035   -0.29828446349724336   0.029813166969136322
-0.40299517339785035   -0.29828446349724336   0.029813166969136322
-0.35202728986578935   -0.10491658077341541   -0.00026748128429558704
-0.35202728986578935   -0.10491658077341541   -0.00026748128429558704
-0.35202728986578935   -0.10491658077341541   -0.00026748128429558704
-0.35202728986578935   -0.10491658077341541   -0.00026748128429558704
0.04272238015500341   -0.21101860426524327   0.014435834667204099
0.04272238015500341   -0.21101860426524327   0.014435834667204099
0.04272238015500341   -0.21101860426524327   0.014435834667204099
0.04272238015500341   -0.21101860426524327   0.014435834667204099
-0.16343756182087144   -0.16136482654558792   -0.012983808332030729
-0.16343756182087144   -0.16136482654558792   -0.012983808332030729
-0.16343756182087144   -0.16136482654558792   -0.012983808332030729
-0.16343756182087144   -0.16136482654558792   -0.012983808332030729
0.08134382442636828   -0.015736642755305414   0.012261094514090581
0.08134382442636828   -0.015736642755305414   0.012261094514090581
0.08134382442636828   -0.015736642755305414   0.012261094514090581
0.08134382442636828   -0.015736642755305414   0.012261094514090581
-0.38226966328024087   -0.29181947142643794   0.03542354229647516
-0.38226966328024087   -0.29181947142643794   0.03542354229647516
-0.38226966328024087   -0.29181947142643794   0.03542354229647516
-0.38226966328024087   -0.29181947142643794   0.03542354229647516
-0.31842697668042846   -0.09105538739060012   -0.004154028183496961
-0.31842697668042846   -0.09105538739060012   -0.004154028183496961
-0.31842697668042846   -0.09105538739060012   -0.004154028183496961
-0.31842697668042846   -0.09105538739060012   -0.004154028183496961
0.06479014659013617   -0.19759729642796647   0.019585645418234127
0.06479014659013617   -0.19759729642796647   0.019585645418234127
0.06479014659013617   -0.19759729642796647   0.019585645418234127
0.06479014659013617   -0.19759729642796647   0.019585645418234127
-0.1366759274501788   -0.14847536116562907   0.010028739160544864
-0.1366759274501788   -0.14847536116562907   0.010028739160544864
-0.1366759274501788   -0.14847536116562907   0.010028739160544864
-0.1366759274501788   -0.14847536116562907   0.010028739160544864
-0.38009826990471396   -0.05938441011077411   0.011518917126401924
-0.38009826990471396   -0.05938441011077411   0.011518917126401924
-0.38009826990471396   -0.05938441011077411   0.011518917126401924
-0.38009826990471396   -0.05938441011077411   0.011518917126401924
-0.9429981061531052   -0.46426198657989637   -0.021215003964538112
-0.9429981061531052   -0.46426198657989637   -0.021215003964538112
-0.9429981061531052   -0.46426198657989637   -0.021215003964538112
-0.9429981061531052   -0.46426198657989637   -0.021215003964538112
-0.8560519653604772   -0.15218006972664666   -0.025916616381961063
-0.8560519653604772   -0.15218006972664666   -0.025916616381961063
-0.8560519653604772   -0.15218006972664666   -0.025916616381961063
-0.8560519653604772   -0.15218006972664666   -0.025916616381961063
-0.4251061181239576   -0.38710702133163777   0.008081001172991778
-0.4251061181239576   -0.38710702133163777   0.008081001172991778
-0.4251061181239576   -0.38710702133163777   0.008081001172991778
-0.4251061181239576   -0.38710702133163777   0.008081001172991778
-0.650353093424882   -0.27466471269867226   -0.03689232148501214
-0.650353093424882   -0.27466471269867226   -0.03689232148501214
-0.650353093424882   -0.27466471269867226   -0.03689232148501214
-0.650353093424882   -0.27466471269867226   -0.03689232148501214
-0.3560746435843136   -0.044812509655924156   0.010943862195498116
-0.3560746435843136   -0.044812509655924156   0.010943862195498116
-0.3560746435843136   -0.044812509655924156   0.010943862195498116
-0.3560746435843136   -0.044812509655924156   0.010943862195498116
-0.9228115527969192   -0.49220269429915875   -0.019691928991651633
-0.9228115527969192   -0.49220269429915875   -0.019691928991651633
-0.9228115527969192   -0.49220269429915875   -0.019691928991651633
-0.9228115527969192   -0.49220269429915875   -0.019691928991651633
-0.8288733945688767   -0.13776654715383482   -0.026445744717569657
-0.8288733945688767   -0.13776654715383482   -0.026445744717569657
-0.8288733945688767   -0.13776654715383482   -0.026445744717569657
-0.8288733945688767   -0.13776654715383482   -0.026445744717569657
-0.4053155408443661   -0.38385941927489414   0.01223410232430254
-0.4053155408443661   -0.38385941927489414   0.01223410232430254
-0.4053155408443661   -0.38385941927489414   0.01223410232430254
-0.4053155408443661   -0.38385941927489414   0.01223410232430254
-0.6217093024633549   -0.26699224572727814   -0.025539673112660238
-0.6217093024633549   -0.26699224572727814   -0.025539673112660238
-0.6217093024633549   -0.26699224572727814   -0.025539673112660238
-0.6217093024633549   -0.26699224572727814   -0.025539673112660238
-0.3369228290230071   -0.03334969722491991   0.003687939381123098
-0.3369228290230071   -0.03334969722491991   0.003687939381123098
-0.3369228290230071   -0.03334969722491991   0.003687939381123098
-0.3369228290230071   -0.03334969722491991   0.003687939381123098
-0.8971022653084632   -0.4881124281220334   -0.017244217447296803
-0.8971022653084632   -0.4881124281220334   -0.017244217447296803
-0.8971022653084632   -0.4881124281220334   -0.017244217447296803
-0.8971022653084632   -0.4881124281220334   -0.017244217447296803
-0.7864026827737136   -0.1223266887542973   -0.029991073445172798
-0.7864026827737136   -0.1223266887542973   -0.029991073445172798
-0.7864026827737136   -0.1223266887542973   -0.029991073445172798
-0.7864026827737136   -0.1223266887542973   -0.029991073445172798
-0.3624869677643418   -0.34437778889883436   0.02886841790517561
-0.3624869677643418   -0.34437778889883436   0.02886841790517561
-0.3624869677643418   -0.34437778889883436   0.02886841790517561
-0.3624869677643418   -0.34437778889883436   0.02886841790517561
-0.5898621110747408   -0.2415597941240957   -0.013788830567109028
-0.5898621110747408   -0.2415597941240957   -0.013788830567109028
-0.5898621110747408   -0.2415597941240957   -0.013788830567109028
-0.5898621110747408   -0.2415597941240957   -0.013788830567109028
-0.8572660234777443   -0.05091096925628785   -0.005905607911342349
-0.8572660234777443   -0.05091096925628785   -0.005905607911342349
-0.8572660234777443   -0.05091096925628785   -0.005905607911342349
-0.8572660234777443   -0.05091096925628785   -0.005905607911342349
-1.5096004861139485   -0.298829842894212   0.015451271642888547
-1.5096004861139485   -0.298829842894212   0.015451271642888547
-1.5096004861139485   -0.298829842894212   0.015451271642888547
-1.5096004861139485   -0.298829842894212   0.015451271642888547
-1.4506357323139139   -0.14288004626410872   -0.03144417130820701
-1.4506357323139139   -0.14288004626410872   -0.03144417130820701
-1.4506357323139139   -0.14288004626410872   -0.03144417130820701
-1.4506357323139139   -0.14288004626410872   -0.03144417130820701
-0.8393037494369336   -0.1556098926546372   0.061254286163747645
-0.8393037494369336   -0.1556098926546372   0.061254286163747645
-0.8393037494369336   -0.1556098926546372   0.061254286163747645
-0.8393037494369336   -0.1556098926546372   0.061254286163747645
-1.117115706936443   -0.17306060491400432   0.015568143559733934
-1.117115706936443   -0.17306060491400432   0.015568143559733934
-1.117115706936443   -0.17306060491400432   0.015568143559733934
-1.117115706936443   -0.17306060491400432   0.015568143559733934
-0.8225867595743704   -0.010946290741808667   0.00017563356373711397
-0.8225867595743704   -0.010946290741808667   0.00017563356373711397
-0.8225867595743704   -0.010946290741808667   0.00017563356373711397
-0.8225867595743704   -0.010946290741808667   0.00017563356373711397
-1.4728726350073398   -0.29306356100779973   0.007554829968341185
-1.4728726350073398   -0.29306356100779973   0.007554829968341185
-1.4728726350073398   -0.29306356100779973   0.007554829968341185
-1.4728726350073398   -0.29306356100779973   0.007554829968341185
-1.418445333618431   -0.13096346326190492   -0.03992567407530966
-1.418445333618431   -0.13096346326190492   -0.03992567407530966
-1.418445333618431   -0.13096346326190492   -0.03992567407530966
-1.418445333618431   -0.13096346326190492   -0.03992567407530966
-0.8113368956530066   -0.14797778215750917   0.07144798486546082
-0.8113368956530066   -0.14797778215750917   0.07144798486546082
-0.8113368956530066   -0.14797778215750917   0.07144798486546082
-0.8113368956530066   -0.14797778215750917   0.07144798486546082
-1.1003679614687363   -0.14263221140475957   0.015067528259565467
-1.1003679614687363   -0.14263221140475957   0.015067528259565467
-1.1003679614687363   -0.14263221140475957   0.015067528259565467
-1.1003679614687363   -0.14263221140475957   0.015067528259565467
-0.7976828349003108   -0.0003981061741134828   -0.007861387354455157
-0.7976828349003108   -0.0003981061741134828   -0.007861387354455157
-0.7976828349003108   -0.0003981061741134828   -0.007861387354455157
-0.7976828349003108   -0.0003981061741134828   -0.007861387354455157
-1.4340408996142513   -0.28048464448842986   0.031617677172102086
-1.4340408996142513   -0.28048464448842986   0.031617677172102086
-1.4340408996142513   -0.28048464448842986   0.031617677172102086
-1.4340408996142513   -0.28048464448842986   0.031617677172102086
-1.3515699358093167   -0.10640047687968351   -0.04476283113770653
-1.3515699358093167   -0.10640047687968351   -0.04476283113770653
-1.3515699358093167   -0.10640047687968351   -0.04476283113770653
-1.3515699358093167   -0.10640047687968351   -0.04476283113770653
-0.7677660555823549   -0.1378167803041715   0.07868215406149746
-0.7677660555823549   -0.1378167803041715   0.07868215406149746
-0.7677660555823549   -0.1378167803041715   0.07868215406149746
-0.7677660555823549   -0.1378167803041715   0.07868215406149746
-1.0352347069626129   -0.10911506365448533   0.03130289927321861
-1.0352347069626129   -0.10911506365448533   0.03130289927321861
-1.0352347069626129   -0.10911506365448533   0.03130289927321861
-1.0352347069626129   -0.10911506365448533   0.03130289927321861
1.0841902103998922   0.036147353040969304   0.015125874201614847
1.0841902103998922   0.036147353040969304   0.015125874201614847
1.0841902103998922   0.036147353040969304   0.015125874201614847
1.0841902103998922   0.036147353040969304   0.015125874201614847
0.5526517779559754   -0.029495080294257764   0.010878861231720112
0.5526517779559754   -0.029495080294257764   0.010878861231720112
0.5526517779559754   -0.029495080294257764   0.010878861231720112
0.5526517779559754   -0.029495080294257764   0.010878861231720112
0.5313518013839347   -0.07769736243363731   0.021730646879934215
0.5313518013839347   -0.07769736243363731   0.021730646879934215
0.5313518013839347   -0.07769736243363731   0.021730646879934215
0.5313518013839347   -0.07769736243363731   0.021730646879934215
1.0763576019342793   0.06060125595321106   0.007781346626167404
1.0763576019342793   0.06060125595321106   0.007781346626167404
1.0763576019342793   0.06060125595321106   0.007781346626167404
1.0763576019342793   0.06060125595321106   0.007781346626167404
0.7679134000273125   -0.01074368050780472   -0.02841138393207824
0.7679134000273125   -0.01074368050780472   -0.02841138393207824
0.7679134000273125   -0.01074368050780472   -0.02841138393207824
0.7679134000273125   -0.01074368050780472   -0.02841138393207824
1.070612583867294   0.028116805946614698   0.01154070629783712
1.070612583867294   0.028116805946614698   0.01154070629783712
1.070612583867294   0.028116805946614698   0.01154070629783712
1.070612583867294   0.028116805946614698   0.01154070629783712
0.5353704411483597   -0.046939290729601596   0.011065773998023727
0.5353704411483597   -0.046939290729601596   0.011065773998023727
0.5353704411483597   -0.046939290729601596   0.011065773998023727
0.5353704411483597   -0.046939290729601596   0.011065773998023727
0.5177206784975531   -0.07943400561736308   0.017944335266577703
0.5177206784975531   -0.07943400561736308   0.017944335266577703
0.5177206784975531   -0.07943400561736308   0.017944335266577703
0.5177206784975531   -0.07943400561736308   0.017944335266577703
1.0639396344131848   0.05804505107903524   0.01362993588241828
1.0639396344131848   0.05804505107903524   0.01362993588241828
1.0639396344131848   0.05804505107903524   0.01362993588241828
1.0639396344131848   0.05804505107903524   0.01362993588241828
0.7658416182069144   -0.014809002701019952   -0.03274628567940914
0.7658416182069144   -0.014809002701019952   -0.03274628567940914
0.7658416182069144   -0.014809002701019952   -0.03274628567940914
0.7658416182069144   -0.014809002701019952   -0.03274628567940914
1.055328718929339   0.025185681103434193   0.003434728438779573
1.055328718929339   0.025185681103434193   0.003434728438779573
1.055328718929339   0.025185681103434193   0.003434728438779573
1.055328718929339   0.025185681103434193   0.003434728438779573
0.523210313109222   -0.04969591651394095   0.015654419221500057
0.523210313109222   -0.04969591651394095   0.015654419221500057
0.523210313109222   -0.04969591651394095   0.015654419221500057
0.523210313109222   -0.04969591651394095   0.015654419221500057
0.5033678995639049   -0.07229617754116097   0.015498521832282328
0.5033678995639049   -0.07229617754116097   0.015498521832282328
0.5033678995639049   -0.07229617754116097   0.015498521832282328
0.5033678995639049   -0.07229617754116097   0.015498521832282328
1.0448359402800083   0.05889451121374831   0.01973210545283366
1.0448359402800083   0.05889451121374831   0.01973210545283366
1.0448359402800083   0.05889451121374831   0.01973210545283366
1.0448359402800083   0.05889451121374831   0.01973210545283366
0.7372745459288372   -0.01484668652746074   -0.04408554247023528
0.7372745459288372   -0.01484668652746074   -0.04408554247023528
0.7372745459288372   -0.01484668652746074   -0.04408554247023528
0.7372745459288372   -0.01484668652746074   -0.04408554247023528
0.548248984092637   -0.0677331202396935   0.02710293186046364
0.548248984092637   -0.0677331202396935   0.02710293186046364
0.548248984092637   -0.0677331202396935   0.02710293186046364
0.548248984092637   -0.0677331202396935   0.02710293186046364
0.10424874104119788   -0.06524417981202965   0.0055277552748536594
0.10424874104119788   -0.06524417981202965   0.0055277552748536594
0.10424874104119788   -0.06524417981202965   0.0055277552748536594
0.10424874104119788   -0.06524417981202965   0.0055277552748536594
0.0674925428961259   -0.16258349367296904   0.028505761551677056
0.0674925428961259   -0.16258349367296904   0.028505761551677056
0.0674925428961259   -0.16258349367296904   0.028505761551677056
0.0674925428961259   -0.16258349367296904   0.028505761551677056
0.5511087503896609   0.021957298081349275   0.020860731393578507
0.5511087503896609   0.021957298081349275   0.020860731393578507
0.5511087503896609   0.021957298081349275   0.020860731393578507
0.5511087503896609   0.021957298081349275   0.020860731393578507
0.312879980937961   -0.06868000705062759   -0.001246993838339476
0.312879980937961   -0.06868000705062759   -0.001246993838339476
0.312879980937961   -0.06868000705062759   -0.001246993838339476
0.312879980937961   -0.06868000705062759   -0.001246993838339476
0.5329678955851969   -0.07063902029580754   0.02275277574841749
0.5329678955851969   -0.07063902029580754   0.02275277574841749
0.5329678955851969   -0.07063902029580754   0.02275277574841749
0.5329678955851969   -0.07063902029580754   0.02275277574841749
0.08104650435576342   -0.07457406864063928   0.008266143817533069
0.08104650435576342   -0.07457406864063928   0.008266143817533069
0.08104650435576342   -0.07457406864063928   0.008266143817533069
0.08104650435576342   -0.07457406864063928   0.008266143817533069
0.05099184271339064   -0.16393204468036088   0.025507039095857588
0.05099184271339064   -0.16393204468036088   0.025507039095857588
0.05099184271339064   -0.16393204468036088   0.025507039095857588
0.05099184271339064   -0.16393204468036088   0.025507039095857588
0.538542546224671   0.01794301260466541   0.02467665568013927
0.538542546224671   0.01794301260466541   0.02467665568013927
0.538542546224671   0.01794301260466541   0.02467665568013927
0.538542546224671   0.01794301260466541   0.02467665568013927
0.2904346030807759   -0.0731642332284509   -0.014889322666028468
0.2904346030807759   -0.0731642332284509   -0.014889322666028468
0.2904346030807759   -0.0731642332284509   -0.014889322666028468
0.2904346030807759   -0.0731642332284509   -0.014889322666028468
0.5194796685156583   -0.07156235949260781   0.01886763923234369
0.5194796685156583   -0.07156235949260781   0.01886763923234369
0.5194796685156583   -0.07156235949260781   0.01886763923234369
0.5194796685156583   -0.07156235949260781   0.01886763923234369
0.06506540426863093   -0.07941598873685904   0.011358790928557155
0.06506540426863093   -0.07941598873685904   0.011358790928557155
0.06506540426863093   -0.07941598873685904   0.011358790928557155
0.06506540426863093   -0.07941598873685904   0.011358790928557155
0.03253800428930231   -0.16371690116189264   0.01991129601128195
0.03253800428930231   -0.16371690116189264   0.01991129601128195
0.03253800428930231   -0.16371690116189264   0.01991129601128195
0.03253800428930231   -0.16371690116189264   0.01991129601128195
0.5242807541101453   0.018299105248206396   0.029467511774114014
0.5242807541101453   0.018299105248206396   0.029467511774114014
0.5242807541101453   0.018299105248206396   0.029467511774114014
0.5242807541101453   0.018299105248206396   0.029467511774114014
0.27679567337286926   -0.07248998003909371   -0.026463027046532285
0.27679567337286926   -0.07248998003909371   -0.026463027046532285
0.27679567337286926   -0.07248998003909371   -0.026463027046532285
0.27679567337286926   -0.07248998003909371   -0.026463027046532285
0.08148892244400527   -0.19778104476582348   0.024265527242682314
0.08148892244400527   -0.19778104476582348   0.024265527242682314
0.08148892244400527   -0.19778104476582348   0.024265527242682314
0.08148892244400527   -0.19778104476582348   0.024265527242682314
-0.3269831865415312   -0.10091687141109347   0.00012754821719768682
-0.3269831865415312   -0.10091687141109347   0.00012754821719768682
-0.3269831865415312   -0.10091687141109347   0.00012754821719768682
-0.3269831865415312   -0.10091687141109347   0.00012754821719768682
-0.39347804417787563   -0.2958104864597588   0.0326659229365843
-0.39347804417787563   -0.2958104864597588   0.0326659229365843
-0.39347804417787563   -0.2958104864597588   0.0326659229365843
-0.39347804417787563   -0.2958104864597588   0.0326659229365843
0.0937390211600063   -0.0160999900524269   0.013254649250535808
0.0937390211600063   -0.0160999900524269   0.013254649250535808
0.0937390211600063   -0.0160999900524269   0.013254649250535808
0.0937390211600063   -0.0160999900524269   0.013254649250535808
-0.1345285820172042   -0.15049434669329037   0.0057099339033511165
-0.1345285820172042   -0.15049434669329037   0.0057099339033511165
-0.1345285820172042   -0.15049434669329037   0.0057099339033511165
-0.1345285820172042   -0.15049434669329037   0.0057099339033511165
0.05602204848869088   -0.2089414111212144   0.017511206962747376
0.05602204848869088   -0.2089414111212144   0.017511206962747376
0.05602204848869088   -0.2089414111212144   0.017511206962747376
0.05602204848869088   -0.2089414111212144   0.017511206962747376
-0.36220104966912053   -0.10940904355353333   0.002649452574130509
-0.36220104966912053   -0.10940904355353333   0.002649452574130509
-0.36220104966912053   -0.10940904355353333   0.002649452574130509
-0.36220104966912053   -0.10940904355353333   0.002649452574130509
-0.41642496567914783   -0.3003941876281763   0.02670526368669012
-0.41642496567914783   -0.3003941876281763   0.02670526368669012
-0.41642496567914783   -0.3003941876281763   0.02670526368669012
-0.41642496567914783   -0.3003941876281763   0.02670526368669012
0.0782696795876611   -0.02055117817099314   0.018515356957841796
0.0782696795876611   -0.02055117817099314   0.018515356957841796
0.0782696795876611   -0.02055117817099314   0.018515356957841796
0.0782696795876611   -0.02055117817099314   0.018515356957841796
-0.16322227973130332   -0.15954795712853184   -0.013431488419125594
-0.16322227973130332   -0.15954795712853184   -0.013431488419125594
-0.16322227973130332   -0.15954795712853184   -0.013431488419125594
-0.16322227973130332   -0.15954795712853184   -0.013431488419125594
0.03844561207702146   -0.2124936304729611   0.011337471706611868
0.03844561207702146   -0.2124936304729611   0.011337471706611868
0.03844561207702146   -0.2124936304729611   0.011337471706611868
0.03844561207702146   -0.2124936304729611   0.011337471706611868
-0.38429243694571913   -0.1161432741034224   0.0031169938290757006
-0.38429243694571913   -0.1161432741034224   0.0031169938290757006
-0.38429243694571913   -0.1161432741034224   0.0031169938290757006
-0.38429243694571913   -0.1161432741034224   0.0031169938290757006
-0.4413365782253309   -0.2982759997459977   0.022318853643545022
-0.4413365782253309   -0.2982759997459977   0.022318853643545022
-0.4413365782253309   -0.2982759997459977   0.022318853643545022
-0.4413365782253309   -0.2982759997459977   0.022318853643545022
0.06106808247793587   -0.022998115437694887   0.021842901230251077
0.06106808247793587   -0.022998115437694887   0.021842901230251077
0.06106808247793587   -0.022998115437694887   0.021842901230251077
0.06106808247793587   -0.022998115437694887   0.021842901230251077
-0.1865353407159067   -0.16294887338620695   -0.032619053666560656
-0.1865353407159067   -0.16294887338620695   -0.032619053666560656
-0.1865353407159067   -0.16294887338620695   -0.032619053666560656
-0.1865353407159067   -0.16294887338620695   -0.032619053666560656
-0.36894361752868515   -0.3394386530733641   0.02884717494370098
-0.36894361752868515   -0.3394386530733641   0.02884717494370098
-0.36894361752868515   -0.3394386530733641   0.02884717494370098
-0.36894361752868515   -0.3394386530733641   0.02884717494370098
-0.8161242521163318   -0.1255415642522168   -0.01873639609148503
-0.8161242521163318   -0.1255415642522168   -0.01873639609148503
-0.8161242521163318   -0.1255415642522168   -0.01873639609148503
-0.8161242521163318   -0.1255415642522168   -0.01873639609148503
-0.9324212580146478   -0.4952455176547371   -0.025296340551814886
-0.9324212580146478   -0.4952455176547371   -0.025296340551814886
-0.9324212580146478   -0.4952455176547371   -0.025296340551814886
-0.9324212580146478   -0.4952455176547371   -0.025296340551814886
-0.34401132820587466   -0.027263564858101122   0.011452581194927633
-0.34401132820587466   -0.027263564858101122   0.011452581194927633
-0.34401132820587466   -0.027263564858101122   0.011452581194927633
-0.34401132820587466   -0.027263564858101122   0.011452581194927633
-0.6094213771527066   -0.2370966475192277   -0.01996533995446834
-0.6094213771527066   -0.2370966475192277   -0.01996533995446834
-0.6094213771527066   -0.2370966475192277   -0.01996533995446834
-0.6094213771527066   -0.2370966475192277   -0.01996533995446834
-0.41584150819062443   -0.3848855635807933   0.009923679993871046
-0.41584150819062443   -0.3848855635807933   0.009923679993871046
-0.41584150819062443   -0.3848855635807933   0.009923679993871046
-0.41584150819062443   -0.3848855635807933   0.009923679993871046
-0.8588370340657846   -0.13586947496793078   -0.016751263494310824
-0.8588370340657846   -0.13586947496793078   -0.016751263494310824
-0.8588370340657846   -0.13586947496793078   -0.016751263494310824
-0.8588370340657846   -0.13586947496793078   -0.016751263494310824
-0.9597570382054031   -0.5030444131819432   -0.02924936984990529
-0.9597570382054031   -0.5030444131819432   -0.02924936984990529
-0.9597570382054031   -0.5030444131819432   -0.02924936984990529
-0.9597570382054031   -0.5030444131819432   -0.02924936984990529
-0.3652094548076402   -0.03461745820090404   0.017006088616952325
-0.3652094548076402   -0.03461745820090404   0.017006088616952325
-0.3652094548076402   -0.03461745820090404   0.017006088616952325
-0.3652094548076402   -0.03461745820090404   0.017006088616952325
-0.6428741263592015   -0.26288832372039883   -0.028656945900600375
-0.6428741263592015   -0.26288832372039883   -0.028656945900600375
-0.6428741263592015   -0.26288832372039883   -0.028656945900600375
-0.6428741263592015   -0.26288832372039883   -0.028656945900600375
-0.43937513497124125   -0.3923384272045994   0.0038986568026419532
-0.43937513497124125   -0.3923384272045994   0.0038986568026419532
-0.43937513497124125   -0.3923384272045994   0.0038986568026419532
-0.43937513497124125   -0.3923384272045994   0.0038986568026419532
-0.8858490984359789   -0.1455811845724242   -0.017172899612309674
-0.8858490984359789   -0.1455811845724242   -0.017172899612309674
-0.8858490984359789   -0.1455811845724242   -0.017172899612309674
-0.8858490984359789   -0.1455811845724242   -0.017172899612309674
-0.9830212471698769   -0.48085357708334486   -0.03297624361184175
-0.9830212471698769   -0.48085357708334486   -0.03297624361184175
-0.9830212471698769   -0.48085357708334486   -0.03297624361184175
-0.9830212471698769   -0.48085357708334486   -0.03297624361184175
-0.3919897477451893   -0.04502431682634281   0.01580132312459747
-0.3919897477451893   -0.04502431682634281   0.01580132312459747
-0.3919897477451893   -0.04502431682634281   0.01580132312459747
-0.3919897477451893   -0.04502431682634281   0.01580132312459747
-0.6737870437651584   -0.27160950449362586   -0.03704769824595919
-0.6737870437651584   -0.27160950449362586   -0.03704769824595919
-0.6737870437651584   -0.27160950449362586   -0.03704769824595919
-0.6737870437651584   -0.27160950449362586   -0.03704769824595919
-0.8024548960023046   -0.14639767929598108   0.0704664995224043
-0.8024548960023046   -0.14639767929598108   0.0704664995224043
-0.8024548960023046   -0.14639767929598108   0.0704664995224043
-0.8024548960023046   -0.14639767929598108   0.0704664995224043
-1.4086934862641105   -0.1049034592705825   -0.02454440724113747
-1.4086934862641105   -0.1049034592705825   -0.02454440724113747
-1.4086934862641105   -0.1049034592705825   -0.02454440724113747
-1.4086934862641105   -0.1049034592705825   -0.02454440724113747
-1.4942502233372916   -0.2949922772000478   0.01928883733705276
-1.4942502233372916   -0.2949922772000478   0.01928883733705276
-1.4942502233372916   -0.2949922772000478   0.01928883733705276
-1.4942502233372916   -0.2949922772000478   0.01928883733705276
-0.8244125623896345   0.012322804345175464   0.007178815573332546
-0.8244125623896345   0.012322804345175464   0.007178815573332546
-0.8244125623896345   0.012322804345175464   0.007178815573332546
-0.8244125623896345   0.012322804345175464   0.007178815573332546
-1.0785310995381716   -0.103590431702351   0.021572995864045687
-1.0785310995381716   -0.103590431702351   0.021572995864045687
-1.0785310995381716   -0.103590431702351   0.021572995864045687
-1.0785310995381716   -0.103590431702351   0.021572995864045687
-0.8472057291849379   -0.15694499054049008   0.062480776482478
-0.8472057291849379   -0.15694499054049008   0.062480776482478
-0.8472057291849379   -0.15694499054049008   0.062480776482478
-0.8472057291849379   -0.15694499054049008   0.062480776482478
-1.467797477184142   -0.12206490295653286   -0.021374806140701648
-1.467797477184142   -0.12206490295653286   -0.021374806140701648
-1.467797477184142   -0.12206490295653286   -0.021374806140701648
-1.467797477184142   -0.12206490295653286   -0.021374806140701648
-1.530271799114643   -0.30741335203462555   -0.006794961058484635
-1.530271799114643   -0.30741335203462555   -0.006794961058484635
-1.530271799114643   -0.30741335203462555   -0.006794961058484635
-1.530271799114643   -0.30741335203462555   -0.006794961058484635
-0.8498912259021425   0.004019571127037491   0.013015707357411276
-0.8498912259021425   0.004019571127037491   0.013015707357411276
-0.8498912259021425   0.004019571127037491   0.013015707357411276
-0.8498912259021425   0.004019571127037491   0.013015707357411276
-1.1423903468028307   -0.1366084089359138   0.008784793808527137
-1.1423903468028307   -0.1366084089359138   0.008784793808527137
-1.1423903468028307   -0.1366084089359138   0.008784793808527137
-1.1423903468028307   -0.1366084089359138   0.008784793808527137
-0.875942890321479   -0.1648609889889506   0.05163794537671644
-0.875942890321479   -0.1648609889889506   0.05163794537671644
-0.875942890321479   -0.1648609889889506   0.05163794537671644
-0.875942890321479   -0.1648609889889506   0.05163794537671644
-1.4967797444348625   -0.13109240165818997   -0.015655638036006017
-1.4967797444348625   -0.13109240165818997   -0.015655638036006017
-1.4967797444348625   -0.13109240165818997   -0.015655638036006017
-1.4967797444348625   -0.13109240165818997   -0.015655638036006017
-1.5613284434989738   -0.31230653045961054   -0.0002042087990787049
-1.5613284434989738   -0.31230653045961054   -0.0002042087990787049
-1.5613284434989738   -0.31230653045961054   -0.0002042087990787049
-1.5613284434989738   -0.31230653045961054   -0.0002042087990787049
-0.8857269621297212   -0.03277180004819888   0.005413404553787075
-0.8857269621297212   -0.03277180004819888   0.005413404553787075
-0.8857269621297212   -0.03277180004819888   0.005413404553787075
-0.8857269621297212   -0.03277180004819888   0.005413404553787075
-1.1558414996823076   -0.16488351963724643   0.013832243561167716
-1.1558414996823076   -0.16488351963724643   0.013832243561167716
-1.1558414996823076   -0.16488351963724643   0.013832243561167716
-1.1558414996823076   -0.16488351963724643   0.013832243561167716
0.9521036993557992   0.04414749450346764   -0.020360186179477508
0.9521036993557992   0.04414749450346764   -0.020360186179477508
0.9521036993557992   0.04414749450346764   -0.020360186179477508
0.9521036993557992   0.04414749450346764   -0.020360186179477508
0.4785123352168426   -0.010088897936418775   0.009886964589466914
0.4785123352168426   -0.010088897936418775   0.009886964589466914
0.4785123352168426   -0.010088897936418775   0.009886964589466914
0.4785123352168426   -0.010088897936418775   0.009886964589466914
0.44843365651730893   -0.07015932484879447   -0.01809761196692049
0.44843365651730893   -0.07015932484879447   -0.01809761196692049
0.44843365651730893   -0.07015932484879447   -0.01809761196692049
0.44843365651730893   -0.07015932484879447   -0.01809761196692049
0.9411800995714752   0.06854534599066289   0.011567556065915405
0.9411800995714752   0.06854534599066289   0.011567556065915405
0.9411800995714752   0.06854534599066289   0.011567556065915405
0.9411800995714752   0.06854534599066289   0.011567556065915405
0.6681023616356963   0.001647831229179858   -0.025796033588562445
0.6681023616356963   0.001647831229179858   -0.025796033588562445
0.6681023616356963   0.001647831229179858   -0.025796033588562445
0.6681023616356963   0.001647831229179858   -0.025796033588562445
0.9260101504627034   0.02485677303017672   -0.020593616517449505
0.9260101504627034   0.02485677303017672   -0.020593616517449505
0.9260101504627034   0.02485677303017672   -0.020593616517449505
0.9260101504627034   0.02485677303017672   -0.020593616517449505
0.4627716560701479   -0.02730270144424196   0.010735762392718465
0.4627716560701479   -0.02730270144424196   0.010735762392718465
0.4627716560701479   -0.02730270144424196   0.010735762392718465
0.4627716560701479   -0.02730270144424196   0.010735762392718465
0.43222277950666865   -0.07402029907878177   -0.014979960000150616
0.43222277950666865   -0.07402029907878177   -0.014979960000150616
0.43222277950666865   -0.07402029907878177   -0.014979960000150616
0.43222277950666865   -0.07402029907878177   -0.014979960000150616
0.9186918772645706   0.06304996248977157   0.016991524292075254
0.9186918772645706   0.06304996248977157   0.016991524292075254
0.9186918772645706   0.06304996248977157   0.016991524292075254
0.9186918772645706   0.06304996248977157   0.016991524292075254
0.6594194537219357   -0.006569035504253001   -0.030673497718677212
0.6594194537219357   -0.006569035504253001   -0.030673497718677212
0.6594194537219357   -0.006569035504253001   -0.030673497718677212
0.6594194537219357   -0.006569035504253001   -0.030673497718677212
0.9034031866130011   0.01994281753943064   -0.016344784015431296
0.9034031866130011   0.01994281753943064   -0.016344784015431296
0.9034031866130011   0.01994281753943064   -0.016344784015431296
0.9034031866130011   0.01994281753943064   -0.016344784015431296
0.44634482229411343   -0.03207980199256383   0.013689756850855446
0.44634482229411343   -0.03207980199256383   0.013689756850855446
0.44634482229411343   -0.03207980199256383   0.013689756850855446
0.44634482229411343   -0.03207980199256383   0.013689756850855446
0.41654623670074187   -0.07276843035849294   -0.010292898829106258
0.41654623670074187   -0.07276843035849294   -0.010292898829106258
0.41654623670074187   -0.07276843035849294   -0.010292898829106258
0.41654623670074187   -0.07276843035849294   -0.010292898829106258
0.8908696328231963   0.05945779870298304   0.022186030194147242
0.8908696328231963   0.05945779870298304   0.022186030194147242
0.8908696328231963   0.05945779870298304   0.022186030194147242
0.8908696328231963   0.05945779870298304   0.022186030194147242
0.6270892498698423   -0.011429286732627275   -0.0402115548901966
0.6270892498698423   -0.011429286732627275   -0.0402115548901966
0.6270892498698423   -0.011429286732627275   -0.0402115548901966
0.6270892498698423   -0.011429286732627275   -0.0402115548901966
0.48146081393585255   0.010000646467958854   0.004539813780138759
0.48146081393585255   0.010000646467958854   0.004539813780138759
0.48146081393585255   0.010000646467958854   0.004539813780138759
0.48146081393585255   0.010000646467958854   0.004539813780138759
0.045005942361449794   -0.029090584005794874   -0.001239276928106747
0.045005942361449794   -0.029090584005794874   -0.001239276928106747
0.045005942361449794   -0.029090584005794874   -0.001239276928106747
0.045005942361449794   -0.029090584005794874   -0.001239276928106747
0.016658772998394463   -0.09259700432279158   -0.017460803235859385
0.016658772998394463   -0.09259700432279158   -0.017460803235859385
0.016658772998394463   -0.09259700432279158   -0.017460803235859385
0.016658772998394463   -0.09259700432279158   -0.017460803235859385
0.48196708918019704   0.055678776274417266   0.023731450224304923
0.48196708918019704   0.055678776274417266   0.023731450224304923
0.48196708918019704   0.055678776274417266   0.023731450224304923
0.48196708918019704   0.055678776274417266   0.023731450224304923
0.2515727949752243   -0.01280580334570628   -0.009871842239564898
0.2515727949752243   -0.01280580334570628   -0.009871842239564898
0.2515727949752243   -0.01280580334570628   -0.009871842239564898
0.2515727949752243   -0.01280580334570628   -0.009871842239564898
0.46813420032243935   0.002699498525979796   0.007546283683955813
0.46813420032243935   0.002699498525979796   0.007546283683955813
0.46813420032243935   0.002699498525979796   0.007546283683955813
0.46813420032243935   0.002699498525979796   0.007546283683955813
0.03102533547692722   -0.03908405295357927   0.0008590577875921008
0.03102533547692722   -0.03908405295357927   0.0008590577875921008
0.03102533547692722   -0.03908405295357927   0.0008590577875921008
0.03102533547692722   -0.03908405295357927   0.0008590577875921008
0.001027387027633695   -0.09693742036954471   -0.012210349993874006
0.001027387027633695   -0.09693742036954471   -0.012210349993874006
0.001027387027633695   -0.09693742036954471   -0.012210349993874006
0.001027387027633695   -0.09693742036954471   -0.012210349993874006
0.4648118415608647   0.047783926176948065   0.026161125015099825
0.4648118415608647   0.047783926176948065   0.026161125015099825
0.4648118415608647   0.047783926176948065   0.026161125015099825
0.4648118415608647   0.047783926176948065   0.026161125015099825
0.2335394055063167   -0.020092503793046446   -0.013975247705418477
0.2335394055063167   -0.020092503793046446   -0.013975247705418477
0.2335394055063167   -0.020092503793046446   -0.013975247705418477
0.2335394055063167   -0.020092503793046446   -0.013975247705418477
0.4517616770599885   -0.002174705522309514   0.010868934209979478
0.4517616770599885   -0.002174705522309514   0.010868934209979478
0.4517616770599885   -0.002174705522309514   0.010868934209979478
0.4517616770599885   -0.002174705522309514   0.010868934209979478
0.014008713913041421   -0.04704762628576048   0.0028064903493803892
0.014008713913041421   -0.04704762628576048   0.0028064903493803892
0.014008713913041421   -0.04704762628576048   0.0028064903493803892
0.014008713913041421   -0.04704762628576048   0.0028064903493803892
-0.015739240941514288   -0.09727310853142539   -0.00837356207238531
-0.015739240941514288   -0.09727310853142539   -0.00837356207238531
-0.015739240941514288   -0.09727310853142539   -0.00837356207238531
-0.015739240941514288   -0.09727310853142539   -0.00837356207238531
0.44750144482028503   0.0428147247129297   0.028899986697188716
0.44750144482028503   0.0428147247129297   0.028899986697188716
0.44750144482028503   0.0428147247129297   0.028899986697188716
0.44750144482028503   0.0428147247129297   0.028899986697188716
0.21951076411131126   -0.02292732947840847   -0.017471848829330682
0.21951076411131126   -0.02292732947840847   -0.017471848829330682
0.21951076411131126   -0.02292732947840847   -0.017471848829330682
0.21951076411131126   -0.02292732947840847   -0.017471848829330682
0.04624132152103153   -0.02594006039101599   0.0017870952550230364
0.04624132152103153   -0.02594006039101599   0.0017870952550230364
0.04624132152103153   -0.02594006039101599   0.0017870952550230364
0.04624132152103153   -0.02594006039101599   0.0017870952550230364
-0.3741791667963774   -0.0431572275695008   -0.01174809864283494
-0.3741791667963774   -0.0431572275695008   -0.01174809864283494
-0.3741791667963774   -0.0431572275695008   -0.01174809864283494
-0.3741791667963774   -0.0431572275695008   -0.01174809864283494
-0.4056951682861901   -0.122629221418413   -0.019957318133198246
-0.4056951682861901   -0.122629221418413   -0.019957318133198246
-0.4056951682861901   -0.122629221418413   -0.019957318133198246
-0.4056951682861901   -0.122629221418413   -0.019957318133198246
0.04958815010024131   0.04091149710814473   0.013677580842439337
0.04958815010024131   0.04091149710814473   0.013677580842439337
0.04958815010024131   0.04091149710814473   0.013677580842439337
0.04958815010024131   0.04091149710814473   0.013677580842439337
-0.17150012730339245   -0.0359029410870637   -0.009767415020640975
-0.17150012730339245   -0.0359029410870637   -0.009767415020640975
-0.17150012730339245   -0.0359029410870637   -0.009767415020640975
-0.17150012730339245   -0.0359029410870637   -0.009767415020640975
0.0344872973834648   -0.028986918153750346   0.0080717325204511
0.0344872973834648   -0.028986918153750346   0.0080717325204511
0.0344872973834648   -0.028986918153750346   0.0080717325204511
0.0344872973834648   -0.028986918153750346   0.0080717325204511
-0.3894303668485549   -0.051566857435657885   -0.009695674927777507
-0.3894303668485549   -0.051566857435657885   -0.009695674927777507
-0.3894303668485549   -0.051566857435657885   -0.009695674927777507
-0.3894303668485549   -0.051566857435657885   -0.009695674927777507
-0.42401559405205935   -0.127372535217558   -0.01330615463526208
-0.42401559405205935   -0.127372535217558   -0.01330615463526208
-0.42401559405205935   -0.127372535217558   -0.01330615463526208
-0.42401559405205935   -0.127372535217558   -0.01330615463526208
0.03244064255700921   0.03246631457427844   0.015452192709179946
0.03244064255700921   0.03246631457427844   0.015452192709179946
0.03244064255700921   0.03246631457427844   0.015452192709179946
0.03244064255700921   0.03246631457427844   0.015452192709179946
-0.18666712998820018   -0.04090457697370072   -0.011706035037385735
-0.18666712998820018   -0.04090457697370072   -0.011706035037385735
-0.18666712998820018   -0.04090457697370072   -0.011706035037385735
-0.18666712998820018   -0.04090457697370072   -0.011706035037385735
0.01826346853982715   -0.034040803610516465   0.011073440808065018
0.01826346853982715   -0.034040803610516465   0.011073440808065018
0.01826346853982715   -0.034040803610516465   0.011073440808065018
0.01826346853982715   -0.034040803610516465   0.011073440808065018
-0.4095883037068519   -0.06061530070473857   -0.007926937422044039
-0.4095883037068519   -0.06061530070473857   -0.007926937422044039
-0.4095883037068519   -0.06061530070473857   -0.007926937422044039
-0.4095883037068519   -0.06061530070473857   -0.007926937422044039
-0.44433168185726296   -0.13081155064301525   -0.011824510461151835
-0.44433168185726296   -0.13081155064301525   -0.011824510461151835
-0.44433168185726296   -0.13081155064301525   -0.011824510461151835
-0.44433168185726296   -0.13081155064301525   -0.011824510461151835
0.013891359809842107   0.02526149030589885   0.01724484284707247
0.013891359809842107   0.02526149030589885   0.01724484284707247
0.013891359809842107   0.02526149030589885   0.01724484284707247
0.013891359809842107   0.02526149030589885   0.01724484284707247
-0.20635803451652582   -0.04689135207190241   -0.016391361572244637
-0.20635803451652582   -0.04689135207190241   -0.016391361572244637
-0.20635803451652582   -0.04689135207190241   -0.016391361572244637
-0.20635803451652582   -0.04689135207190241   -0.016391361572244637
-0.36823730028293555   -0.03104674449688955   0.005850750851757384
-0.36823730028293555   -0.03104674449688955   0.005850750851757384
-0.36823730028293555   -0.03104674449688955   0.005850750851757384
-0.36823730028293555   -0.03104674449688955   0.005850750851757384
-0.7837374813301783   -0.05053229799053735   -0.0206140837113548
-0.7837374813301783   -0.05053229799053735   -0.0206140837113548
-0.7837374813301783   -0.05053229799053735   -0.0206140837113548
-0.7837374813301783   -0.05053229799053735   -0.0206140837113548
-0.8195248896503997   -0.12866503701621118   -0.020041218151097537
-0.8195248896503997   -0.12866503701621118   -0.020041218151097537
-0.8195248896503997   -0.12866503701621118   -0.020041218151097537
-0.8195248896503997   -0.12866503701621118   -0.020041218151097537
-0.3701125643994807   0.03135817710957371   0.003968302772359527
-0.3701125643994807   0.03135817710957371   0.003968302772359527
-0.3701125643994807   0.03135817710957371   0.003968302772359527
-0.3701125643994807   0.03135817710957371   0.003968302772359527
-0.580600487136736   -0.04265418040258559   -0.008143485366221694
-0.580600487136736   -0.04265418040258559   -0.008143485366221694
-0.580600487136736   -0.04265418040258559   -0.008143485366221694
-0.580600487136736   -0.04265418040258559   -0.008143485366221694
-0.38124771826131126   -0.034226014161347   0.0138767247341299
-0.38124771826131126   -0.034226014161347   0.0138767247341299
-0.38124771826131126   -0.034226014161347   0.0138767247341299
-0.38124771826131126   -0.034226014161347   0.0138767247341299
-0.8061224585424186   -0.06081356849913987   -0.020880531128270593
-0.8061224585424186   -0.06081356849913987   -0.020880531128270593
-0.8061224585424186   -0.06081356849913987   -0.020880531128270593
-0.8061224585424186   -0.06081356849913987   -0.020880531128270593
-0.8448413292092083   -0.13677155865676033   -0.014132539260761029
-0.8448413292092083   -0.13677155865676033   -0.014132539260761029
-0.8448413292092083   -0.13677155865676033   -0.014132539260761029
-0.8448413292092083   -0.13677155865676033   -0.014132539260761029
-0.3904939168021534   0.022103924856729865   0.004825771539980345
-0.3904939168021534   0.022103924856729865   0.004825771539980345
-0.3904939168021534   0.022103924856729865   0.004825771539980345
-0.3904939168021534   0.022103924856729865   0.004825771539980345
-0.5965306959699388   -0.047095640684952686   -0.008136720146266891
-0.5965306959699388   -0.047095640684952686   -0.008136720146266891
-0.5965306959699388   -0.047095640684952686   -0.008136720146266891
-0.5965306959699388   -0.047095640684952686   -0.008136720146266891
-0.4014700203471789   -0.04238412774823811   0.014433306419820487
-0.4014700203471789   -0.04238412774823811   0.014433306419820487
-0.4014700203471789   -0.04238412774823811   0.014433306419820487
-0.4014700203471789   -0.04238412774823811   0.014433306419820487
-0.832342788582241   -0.07076106896985183   -0.017650325812840508
-0.832342788582241   -0.07076106896985183   -0.017650325812840508
-0.832342788582241   -0.07076106896985183   -0.017650325812840508
-0.832342788582241   -0.07076106896985183   -0.017650325812840508
-0.8734642368047091   -0.1474952263932151   -0.015078735650213584
-0.8734642368047091   -0.1474952263932151   -0.015078735650213584
-0.8734642368047091   -0.1474952263932151   -0.015078735650213584
-0.8734642368047091   -0.1474952263932151   -0.015078735650213584
-0.41252580475493333   0.01065391824848956   0.005739406158985515
-0.41252580475493333   0.01065391824848956   0.005739406158985515
-0.41252580475493333   0.01065391824848956   0.005739406158985515
-0.41252580475493333   0.01065391824848956   0.005739406158985515
-0.6250397785296109   -0.0581476500866793   -0.013308551791054647
-0.6250397785296109   -0.0581476500866793   -0.013308551791054647
-0.6250397785296109   -0.0581476500866793   -0.013308551791054647
-0.6250397785296109   -0.0581476500866793   -0.013308551791054647
-0.7574144259295849   0.03529584442063971   0.025173050880435328
-0.7574144259295849   0.03529584442063971   0.025173050880435328
-0.7574144259295849   0.03529584442063971   0.025173050880435328
-0.7574144259295849   0.03529584442063971   0.025173050880435328
-1.1739997190563611   -0.05845613234813521   -0.015515022924323503
-1.1739997190563611   -0.05845613234813521   -0.015515022924323503
-1.1739997190563611   -0.05845613234813521   -0.015515022924323503
-1.1739997190563611   -0.05845613234813521   -0.015515022924323503
-1.2024055667054192   -0.0595549853413653   0.02578287145644396
-1.2024055667054192   -0.0595549853413653   0.02578287145644396
-1.2024055667054192   -0.0595549853413653   0.02578287145644396
-1.2024055667054192   -0.0595549853413653   0.02578287145644396
-0.7860695700739206   0.024620320480894825   -0.006049977765816374
-0.7860695700739206   0.024620320480894825   -0.006049977765816374
-0.7860695700739206   0.024620320480894825   -0.006049977765816374
-0.7860695700739206   0.024620320480894825   -0.006049977765816374
-0.9342754787104532   0.0005950014718903163   0.023772040786230193
-0.9342754787104532   0.0005950014718903163   0.023772040786230193
-0.9342754787104532   0.0005950014718903163   0.023772040786230193
-0.9342754787104532   0.0005950014718903163   0.023772040786230193
-0.7781041562352429   0.026523504035900286   0.031873907872563764
-0.7781041562352429   0.026523504035900286   0.031873907872563764
-0.7781041562352429   0.026523504035900286   0.031873907872563764
-0.7781041562352429   0.026523504035900286   0.031873907872563764
-1.2098329079417351   -0.060920096294004494   -0.00998872377249814
-1.2098329079417351   -0.060920096294004494   -0.00998872377249814
-1.2098329079417351   -0.060920096294004494   -0.00998872377249814
-1.2098329079417351   -0.060920096294004494   -0.00998872377249814
-1.2382111364463286   -0.06922548326421091   0.0351103459453248
-1.2382111364463286   -0.06922548326421091   0.0351103459453248
-1.2382111364463286   -0.06922548326421091   0.0351103459453248
-1.2382111364463286   -0.06922548326421091   0.0351103459453248
-0.8123219296472057   0.018042176284903844   -0.006349276392418959
-0.8123219296472057   0.018042176284903844   -0.006349276392418959
-0.8123219296472057   0.018042176284903844   -0.006349276392418959
-0.8123219296472057   0.018042176284903844   -0.006349276392418959
-0.9807077732110961   -0.010696694046066046   0.01319577346675619
-0.9807077732110961   -0.010696694046066046   0.01319577346675619
-0.9807077732110961   -0.010696694046066046   0.01319577346675619
-0.9807077732110961   -0.010696694046066046   0.01319577346675619
-0.8050372796326258   0.016675374085448114   0.03144077587993557
-0.8050372796326258   0.016675374085448114   0.03144077587993557
-0.8050372796326258   0.016675374085448114   0.03144077587993557
-0.8050372796326258   0.016675374085448114   0.03144077587993557
-1.2468681943634756   -0.06923108896732358   -0.008169337937286254
-1.2468681943634756   -0.06923108896732358   -0.008169337937286254
-1.2468681943634756   -0.06923108896732358   -0.008169337937286254
-1.2468681943634756   -0.06923108896732358   -0.008169337937286254
-1.2891758191809186   -0.10846617385406834   0.030390392575606405
-1.2891758191809186   -0.10846617385406834   0.030390392575606405
-1.2891758191809186   -0.10846617385406834   0.030390392575606405
-1.2891758191809186   -0.10846617385406834   0.030390392575606405
-0.8425930126957366   -0.002224737214168715   -0.005993104284402549
-0.8425930126957366   -0.002224737214168715   -0.005993104284402549
-0.8425930126957366   -0.002224737214168715   -0.005993104284402549
-0.8425930126957366   -0.002224737214168715   -0.005993104284402549
-1.000097226594452   -0.02498117954275572   0.003990651466131916
-1.000097226594452   -0.02498117954275572   0.003990651466131916
-1.000097226594452   -0.02498117954275572   0.003990651466131916
-1.000097226594452   -0.02498117954275572   0.003990651466131916
0.7742437381818011   0.04163982568401041   -0.027200820273350104
0.7742437381818011   0.04163982568401041   -0.027200820273350104
0.7742437381818011   0.04163982568401041   -0.027200820273350104
0.7742437381818011   0.04163982568401041   -0.027200820273350104
0.3832080178708303   -0.0008254154295678079   0.009743094924374234
0.3832080178708303   -0.0008254154295678079   0.009743094924374234
0.3832080178708303   -0.0008254154295678079   0.009743094924374234
0.3832080178708303   -0.0008254154295678079   0.009743094924374234
0.3506705999430237   -0.05687790179563863   -0.025039183237140626
0.3506705999430237   -0.05687790179563863   -0.025039183237140626
0.3506705999430237   -0.05687790179563863   -0.025039183237140626
0.3506705999430237   -0.05687790179563863   -0.025039183237140626
0.7598766681401714   0.06240264408188735   0.012233572219953037
0.7598766681401714   0.06240264408188735   0.012233572219953037
0.7598766681401714   0.06240264408188735   0.012233572219953037
0.7598766681401714   0.06240264408188735   0.012233572219953037
0.5376863490339188   0.0047293632136154035   -0.017706911089023166
0.5376863490339188   0.0047293632136154035   -0.017706911089023166
0.5376863490339188   0.0047293632136154035   -0.017706911089023166
0.5376863490339188   0.0047293632136154035   -0.017706911089023166
0.7440101863121106   0.021548844631594205   -0.026245037470052034
0.7440101863121106   0.021548844631594205   -0.026245037470052034
0.7440101863121106   0.021548844631594205   -0.026245037470052034
0.7440101863121106   0.021548844631594205   -0.026245037470052034
0.36586545108945645   -0.016695733026975593   0.010752903726353371
0.36586545108945645   -0.016695733026975593   0.010752903726353371
0.36586545108945645   -0.016695733026975593   0.010752903726353371
0.36586545108945645   -0.016695733026975593   0.010752903726353371
0.33440105411736143   -0.061564656812378576   -0.021790749071466248
0.33440105411736143   -0.061564656812378576   -0.021790749071466248
0.33440105411736143   -0.061564656812378576   -0.021790749071466248
0.33440105411736143   -0.061564656812378576   -0.021790749071466248
0.7355548461984411   0.0559398145059956   0.016788377099382457
0.7355548461984411   0.0559398145059956   0.016788377099382457
0.7355548461984411   0.0559398145059956   0.016788377099382457
0.7355548461984411   0.0559398145059956   0.016788377099382457
0.5251159177444407   -0.0037639573808633947   -0.02312859669274417
0.5251159177444407   -0.0037639573808633947   -0.02312859669274417
0.5251159177444407   -0.0037639573808633947   -0.02312859669274417
0.5251159177444407   -0.0037639573808633947   -0.02312859669274417
0.7200196271046694   0.015773022355572014   -0.02072092621903996
0.7200196271046694   0.015773022355572014   -0.02072092621903996
0.7200196271046694   0.015773022355572014   -0.02072092621903996
0.7200196271046694   0.015773022355572014   -0.02072092621903996
0.34932621020705357   -0.022007927666029936   0.013278302230642487
0.34932621020705357   -0.022007927666029936   0.013278302230642487
0.34932621020705357   -0.022007927666029936   0.013278302230642487
0.34932621020705357   -0.022007927666029936   0.013278302230642487
0.31956550942692663   -0.06280235529157724   -0.01781061638238439
0.31956550942692663   -0.06280235529157724   -0.01781061638238439
0.31956550942692663   -0.06280235529157724   -0.01781061638238439
0.31956550942692663   -0.06280235529157724   -0.01781061638238439
0.7081364032622068   0.05038958143609108   0.020951186961264
0.7081364032622068   0.05038958143609108   0.020951186961264
0.7081364032622068   0.05038958143609108   0.020951186961264
0.7081364032622068   0.05038958143609108   0.020951186961264
0.4953015768852942   -0.00956371077663698   -0.03134952895106983
0.4953015768852942   -0.00956371077663698   -0.03134952895106983
0.4953015768852942   -0.00956371077663698   -0.03134952895106983
0.4953015768852942   -0.00956371077663698   -0.03134952895106983
0.3900156355356648   0.04062530298205341   0.0023304648369257067
0.3900156355356648   0.04062530298205341   0.0023304648369257067
0.3900156355356648   0.04062530298205341   0.0023304648369257067
0.3900156355356648   0.04062530298205341   0.0023304648369257067
0.012432125387537286   -0.013090234539602699   -0.0017070746835233632
0.012432125387537286   -0.013090234539602699   -0.0017070746835233632
0.012432125387537286   -0.013090234539602699   -0.0017070746835233632
0.012432125387537286   -0.013090234539602699   -0.0017070746835233632
-0.01209864374964102   -0.05130112065234442   -0.017102301479634714
-0.01209864374964102   -0.05130112065234442   -0.017102301479634714
-0.01209864374964102   -0.05130112065234442   -0.017102301479634714
-0.01209864374964102   -0.05130112065234442   -0.017102301479634714
0.3825942041562532   0.05659626730499148   0.021104668728370767
0.3825942041562532   0.05659626730499148   0.021104668728370767
0.3825942041562532   0.05659626730499148   0.021104668728370767
0.3825942041562532   0.05659626730499148   0.021104668728370767
0.19022085846503842   0.00806799913411968   -0.002129237820174005
0.19022085846503842   0.00806799913411968   -0.002129237820174005
0.19022085846503842   0.00806799913411968   -0.002129237820174005
0.19022085846503842   0.00806799913411968   -0.002129237820174005
0.37399919657204844   0.030236739441993732   0.004489158670345703
0.37399919657204844   0.030236739441993732   0.004489158670345703
0.37399919657204844   0.030236739441993732   0.004489158670345703
0.37399919657204844   0.030236739441993732   0.004489158670345703
-0.003347868756584869   -0.02478582538049165   0.00013627821379327137
-0.003347868756584869   -0.02478582538049165   0.00013627821379327137
-0.003347868756584869   -0.02478582538049165   0.00013627821379327137
-0.003347868756584869   -0.02478582538049165   0.00013627821379327137
-0.0275090352634196   -0.05887362015091775   -0.014805729799944968
-0.0275090352634196   -0.05887362015091775   -0.014805729799944968
-0.0275090352634196   -0.05887362015091775   -0.014805729799944968
-0.0275090352634196   -0.05887362015091775   -0.014805729799944968
0.36513418533776787   0.046970377530644855   0.02333987268753967
0.36513418533776787   0.046970377530644855   0.02333987268753967
0.36513418533776787   0.046970377530644855   0.02333987268753967
0.36513418533776787   0.046970377530644855   0.02333987268753967
0.17135542316157376   -0.0014344453831690515   -0.007522432448393958
0.17135542316157376   -0.0014344453831690515   -0.007522432448393958
0.17135542316157376   -0.0014344453831690515   -0.007522432448393958
0.17135542316157376   -0.0014344453831690515   -0.007522432448393958
0.35686517411911794   0.022296172092137696   0.006669022032796701
0.35686517411911794   0.022296172092137696   0.006669022032796701
0.35686517411911794   0.022296172092137696   0.006669022032796701
0.35686517411911794   0.022296172092137696   0.006669022032796701
-0.019226308052684597   -0.034185698720325924   0.0019199848231382273
-0.019226308052684597   -0.034185698720325924   0.0019199848231382273
-0.019226308052684597   -0.034185698720325924   0.0019199848231382273
-0.019226308052684597   -0.034185698720325924   0.0019199848231382273
-0.04275685067749016   -0.06337953248789363   -0.011813003809152725
-0.04275685067749016   -0.06337953248789363   -0.011813003809152725
-0.04275685067749016   -0.06337953248789363   -0.011813003809152725
-0.04275685067749016   -0.06337953248789363   -0.011813003809152725
0.34852644834301383   0.038893156262857664   0.025298566643612085
0.34852644834301383   0.038893156262857664   0.025298566643612085
0.34852644834301383   0.038893156262857664   0.025298566643612085
0.34852644834301383   0.038893156262857664   0.025298566643612085
0.15747301696534602   -0.007455374004988406   -0.011478410626250359
0.15747301696534602   -0.007455374004988406   -0.011478410626250359
0.15747301696534602   -0.007455374004988406   -0.011478410626250359
0.15747301696534602   -0.007455374004988406   -0.011478410626250359
0.02532561829104308   0.04085615019619347   0.008814005098209437
0.02532561829104308   0.04085615019619347   0.008814005098209437
0.02532561829104308   0.04085615019619347   0.008814005098209437
0.02532561829104308   0.04085615019619347   0.008814005098209437
-0.34696657934472425   -0.022676865202602113   -0.011908748295053924
-0.34696657934472425   -0.022676865202602113   -0.011908748295053924
-0.34696657934472425   -0.022676865202602113   -0.011908748295053924
-0.34696657934472425   -0.022676865202602113   -0.011908748295053924
-0.3661025656357334   -0.047148363319680336   -0.010931005560741943
-0.3661025656357334   -0.047148363319680336   -0.010931005560741943
-0.3661025656357334   -0.047148363319680336   -0.010931005560741943
-0.3661025656357334   -0.047148363319680336   -0.010931005560741943
0.012911203129128987   0.04636585374096216   0.010279958520908091
0.012911203129128987   0.04636585374096216   0.010279958520908091
0.012911203129128987   0.04636585374096216   0.010279958520908091
0.012911203129128987   0.04636585374096216   0.010279958520908091
-0.16849357971415285   0.0051109298583034354   0.0006697959394428316
-0.16849357971415285   0.0051109298583034354   0.0006697959394428316
-0.16849357971415285   0.0051109298583034354   0.0006697959394428316
-0.16849357971415285   0.0051109298583034354   0.0006697959394428316
0.01029369858598795   0.03252395712170508   0.011034332424460638
0.01029369858598795   0.03252395712170508   0.011034332424460638
0.01029369858598795   0.03252395712170508   0.011034332424460638
0.01029369858598795   0.03252395712170508   0.011034332424460638
-0.36306271631011056   -0.032884121917940774   -0.00999600033436702
-0.36306271631011056   -0.032884121917940774   -0.00999600033436702
-0.36306271631011056   -0.032884121917940774   -0.00999600033436702
-0.36306271631011056   -0.032884121917940774   -0.00999600033436702
-0.382636606522412   -0.05546279589429713   -0.00911611055427675
-0.382636606522412   -0.05546279589429713   -0.00911611055427675
-0.382636606522412   -0.05546279589429713   -0.00911611055427675
-0.382636606522412   -0.05546279589429713   -0.00911611055427675
-0.0029880387662213122   0.036466852705970325   0.01245877982915827
-0.0029880387662213122   0.036466852705970325   0.01245877982915827
-0.0029880387662213122   0.036466852705970325   0.01245877982915827
-0.0029880387662213122   0.036466852705970325   0.01245877982915827
-0.1843382341666255   -0.003050307823324175   -0.0033711618789098972
-0.1843382341666255   -0.003050307823324175   -0.0033711618789098972
-0.1843382341666255   -0.003050307823324175   -0.0033711618789098972
-0.1843382341666255   -0.003050307823324175   -0.0033711618789098972
-0.005219622430006569   0.024497804898566223   0.01326990931763621
-0.005219622430006569   0.024497804898566223   0.01326990931763621
-0.005219622430006569   0.024497804898566223   0.01326990931763621
-0.005219622430006569   0.024497804898566223   0.01326990931763621
-0.3800453575610693   -0.04313408278933583   -0.008488578852524553
-0.3800453575610693   -0.04313408278933583   -0.008488578852524553
-0.3800453575610693   -0.04313408278933583   -0.008488578852524553
-0.3800453575610693   -0.04313408278933583   -0.008488578852524553
-0.399053077875204   -0.06199555439945644   -0.006095942994657894
-0.399053077875204   -0.06199555439945644   -0.006095942994657894
-0.399053077875204   -0.06199555439945644   -0.006095942994657894
-0.399053077875204   -0.06199555439945644   -0.006095942994657894
-0.01946232230633482   0.02714181986854813   0.014138285690182939
-0.01946232230633482   0.02714181986854813   0.014138285690182939
-0.01946232230633482   0.02714181986854813   0.014138285690182939
-0.01946232230633482   0.02714181986854813   0.014138285690182939
-0.20138902630965802   -0.011348632903422133   -0.007793587787932361
-0.20138902630965802   -0.011348632903422133   -0.007793587787932361
-0.20138902630965802   -0.011348632903422133   -0.007793587787932361
-0.20138902630965802   -0.011348632903422133   -0.007793587787932361
-0.32726128648129793   0.04806160657116837   0.015879244248315008
-0.32726128648129793   0.04806160657116837   0.015879244248315008
-0.32726128648129793   0.04806160657116837   0.015879244248315008
-0.32726128648129793   0.04806160657116837   0.015879244248315008
-0.6948428788686799   -0.031116845214301317   -0.019464483214635075
-0.6948428788686799   -0.031116845214301317   -0.019464483214635075
-0.6948428788686799   -0.031116845214301317   -0.019464483214635075
-0.6948428788686799   -0.031116845214301317   -0.019464483214635075
-0.7097500440617831   -0.03802604865548549   -0.0033153463906648133
-0.7097500440617831   -0.03802604865548549   -0.0033153463906648133
-0.7097500440617831   -0.03802604865548549   -0.0033153463906648133
-0.7097500440617831   -0.03802604865548549   -0.0033153463906648133
-0.3475508481954731   0.03514120612130299   -0.00046198780042249615
-0.3475508481954731   0.03514120612130299   -0.00046198780042249615
-0.3475508481954731   0.03514120612130299   -0.00046198780042249615
-0.3475508481954731   0.03514120612130299   -0.00046198780042249615
-0.51609133823599   0.0050768595214261275   0.0037841100436855797
-0.51609133823599   0.0050768595214261275   0.0037841100436855797
-0.51609133823599   0.0050768595214261275   0.0037841100436855797
-0.51609133823599   0.0050768595214261275   0.0037841100436855797
-0.34301554668736955   0.03954588772483977   0.017809838136559085
-0.34301554668736955   0.03954588772483977   0.017809838136559085
-0.34301554668736955   0.03954588772483977   0.017809838136559085
-0.34301554668736955   0.03954588772483977   0.017809838136559085
-0.7137205675713837   -0.04186595226052264   -0.01932806033364009
-0.7137205675713837   -0.04186595226052264   -0.01932806033364009
-0.7137205675713837   -0.04186595226052264   -0.01932806033364009
-0.7137205675713837   -0.04186595226052264   -0.01932806033364009
-0.7301053937839055   -0.047381672648915046   -0.0029907390065226948
-0.7301053937839055   -0.047381672648915046   -0.0029907390065226948
-0.7301053937839055   -0.047381672648915046   -0.0029907390065226948
-0.7301053937839055   -0.047381672648915046   -0.0029907390065226948
-0.3642867807345078   0.025695176105506007   0.0014750463854430011
-0.3642867807345078   0.025695176105506007   0.0014750463854430011
-0.3642867807345078   0.025695176105506007   0.0014750463854430011
-0.3642867807345078   0.025695176105506007   0.0014750463854430011
-0.5302875953150004   -0.0023563942852876107   0.00047480826384382196
-0.5302875953150004   -0.0023563942852876107   0.00047480826384382196
-0.5302875953150004   -0.0023563942852876107   0.00047480826384382196
-0.5302875953150004   -0.0023563942852876107   0.00047480826384382196
-0.3593144343225967   0.03148421496229145   0.02054773958821303
-0.3593144343225967   0.03148421496229145   0.02054773958821303
-0.3593144343225967   0.03148421496229145   0.02054773958821303
-0.3593144343225967   0.03148421496229145   0.02054773958821303
-0.7339181722156292   -0.05201114352551503   -0.017425160288540895
-0.7339181722156292   -0.05201114352551503   -0.017425160288540895
-0.7339181722156292   -0.05201114352551503   -0.017425160288540895
-0.7339181722156292   -0.05201114352551503   -0.017425160288540895
-0.7488346483584466   -0.05741148801961708   0.0017212184219655181
-0.7488346483584466   -0.05741148801961708   0.0017212184219655181
-0.7488346483584466   -0.05741148801961708   0.0017212184219655181
-0.7488346483584466   -0.05741148801961708   0.0017212184219655181
-0.38202354639529895   0.014427966722431754   0.0026281932829830545
-0.38202354639529895   0.014427966722431754   0.0026281932829830545
-0.38202354639529895   0.014427966722431754   0.0026281932829830545
-0.38202354639529895   0.014427966722431754   0.0026281932829830545
-0.5525976379105014   -0.012863082270516774   -0.004001315487963546
-0.5525976379105014   -0.012863082270516774   -0.004001315487963546
-0.5525976379105014   -0.012863082270516774   -0.004001315487963546
-0.5525976379105014   -0.012863082270516774   -0.004001315487963546
-0.6703388234807716   0.04980570087830413   0.022133247632295298
-0.6703388234807716   0.04980570087830413   0.022133247632295298
-0.6703388234807716   0.04980570087830413   0.022133247632295298
-0.6703388234807716   0.04980570087830413   0.022133247632295298
-1.0260619189148155   -0.04751805436133166   -0.017786578241466344
-1.0260619189148155   -0.04751805436133166   -0.017786578241466344
-1.0260619189148155   -0.04751805436133166   -0.017786578241466344
-1.0260619189148155   -0.04751805436133166   -0.017786578241466344
-1.0398782778526394   -0.021178465796329343   0.018764798626781688
-1.0398782778526394   -0.021178465796329343   0.018764798626781688
-1.0398782778526394   -0.021178465796329343   0.018764798626781688
-1.0398782778526394   -0.021178465796329343   0.018764798626781688
-0.6991999792664452   0.021267885984888074   -0.009858957054350019
-0.6991999792664452   0.021267885984888074   -0.009858957054350019
-0.6991999792664452   0.021267885984888074   -0.009858957054350019
-0.6991999792664452   0.021267885984888074   -0.009858957054350019
-0.8208710474635726   0.010254889322436095   0.018966886627125833
-0.8208710474635726   0.010254889322436095   0.018966886627125833
-0.8208710474635726   0.010254889322436095   0.018966886627125833
-0.8208710474635726   0.010254889322436095   0.018966886627125833
-0.6862155988559226   0.050889397061903596   0.02544143392123724
-0.6862155988559226   0.050889397061903596   0.02544143392123724
-0.6862155988559226   0.050889397061903596   0.02544143392123724
-0.6862155988559226   0.050889397061903596   0.02544143392123724
-1.052097508170926   -0.05003482678110985   -0.01347499197985863
-1.052097508170926   -0.05003482678110985   -0.01347499197985863
-1.052097508170926   -0.05003482678110985   -0.01347499197985863
-1.052097508170926   -0.05003482678110985   -0.01347499197985863
-1.0651698272862138   -0.026074964209304802   0.025912918775545867
-1.0651698272862138   -0.026074964209304802   0.025912918775545867
-1.0651698272862138   -0.026074964209304802   0.025912918775545867
-1.0651698272862138   -0.026074964209304802   0.025912918775545867
-0.7186157282148907   0.015841515166560405   -0.00876559897692459
-0.7186157282148907   0.015841515166560405   -0.00876559897692459
-0.7186157282148907   0.015841515166560405   -0.00876559897692459
-0.7186157282148907   0.015841515166560405   -0.00876559897692459
-0.8558837562550845   0.0050811260625548416   0.012306862382873145
-0.8558837562550845   0.0050811260625548416   0.012306862382873145
-0.8558837562550845   0.0050811260625548416   0.012306862382873145
-0.8558837562550845   0.0050811260625548416   0.012306862382873145
-0.7042713285057965   0.04723477894890671   0.03156313578620015
-0.7042713285057965   0.04723477894890671   0.03156313578620015
-0.7042713285057965   0.04723477894890671   0.03156313578620015
-0.7042713285057965   0.04723477894890671   0.03156313578620015
-1.0787699741244272   -0.056723975120770154   -0.011438804504041
-1.0787699741244272   -0.056723975120770154   -0.011438804504041
-1.0787699741244272   -0.056723975120770154   -0.011438804504041
-1.0787699741244272   -0.056723975120770154   -0.011438804504041
-1.0994820343912197   -0.04726364408985961   0.02570138303265686
-1.0994820343912197   -0.04726364408985961   0.02570138303265686
-1.0994820343912197   -0.04726364408985961   0.02570138303265686
-1.0994820343912197   -0.04726364408985961   0.02570138303265686
-0.7394619259114774   -0.0005791458668343574   -0.008247511495974358
-0.7394619259114774   -0.0005791458668343574   -0.008247511495974358
-0.7394619259114774   -0.0005791458668343574   -0.008247511495974358
-0.7394619259114774   -0.0005791458668343574   -0.008247511495974358
-0.8657842759289347   -0.0024321770976422907   0.010163752983656148
-0.8657842759289347   -0.0024321770976422907   0.010163752983656148
-0.8657842759289347   -0.0024321770976422907   0.010163752983656148
-0.8657842759289347   -0.0024321770976422907   0.010163752983656148
0.5894587986345097   0.03292709962373322   -0.027745110572810136
0.5894587986345097   0.03292709962373322   -0.027745110572810136
0.5894587986345097   0.03292709962373322   -0.027745110572810136
0.5894587986345097   0.03292709962373322   -0.027745110572810136
0.2799061023838011   0.005243465842510918   0.010489962171649546
0.2799061023838011   0.005243465842510918   0.010489962171649546
0.2799061023838011   0.005243465842510918   0.010489962171649546
0.2799061023838011   0.005243465842510918   0.010489962171649546
0.24912487525015822   -0.047475124002995014   -0.026403475314445583
0.24912487525015822   -0.047475124002995014   -0.026403475314445583
0.24912487525015822   -0.047475124002995014   -0.026403475314445583
0.24912487525015822   -0.047475124002995014   -0.026403475314445583
0.5769165918513774   0.05398012191352694   0.012984553226110224
0.5769165918513774   0.05398012191352694   0.012984553226110224
0.5769165918513774   0.05398012191352694   0.012984553226110224
0.5769165918513774   0.05398012191352694   0.012984553226110224
0.40196135617843304   0.005421053811897961   -0.011896288680487279
0.40196135617843304   0.005421053811897961   -0.011896288680487279
0.40196135617843304   0.005421053811897961   -0.011896288680487279
0.40196135617843304   0.005421053811897961   -0.011896288680487279
0.561267963406154   0.014982079394831385   -0.026260546481307254
0.561267963406154   0.014982079394831385   -0.026260546481307254
0.561267963406154   0.014982079394831385   -0.026260546481307254
0.561267963406154   0.014982079394831385   -0.026260546481307254
0.26446807895781166   -0.008782506221869504   0.01161992544269387
0.26446807895781166   -0.008782506221869504   0.01161992544269387
0.26446807895781166   -0.008782506221869504   0.01161992544269387
0.26446807895781166   -0.008782506221869504   0.01161992544269387
0.23476244103649888   -0.052085471127122876   -0.022545645904267546
0.23476244103649888   -0.052085471127122876   -0.022545645904267546
0.23476244103649888   -0.052085471127122876   -0.022545645904267546
0.23476244103649888   -0.052085471127122876   -0.022545645904267546
0.5545796616819224   0.04737792055065927   0.017127818166104855
0.5545796616819224   0.04737792055065927   0.017127818166104855
0.5545796616819224   0.04737792055065927   0.017127818166104855
0.5545796616819224   0.04737792055065927   0.017127818166104855
0.3892280842513754   -0.002606286901028529   -0.016598175736108958
0.3892280842513754   -0.002606286901028529   -0.016598175736108958
0.3892280842513754   -0.002606286901028529   -0.016598175736108958
0.3892280842513754   -0.002606286901028529   -0.016598175736108958
0.5392864487839744   0.009113662040524453   -0.021073987813495645
0.5392864487839744   0.009113662040524453   -0.021073987813495645
0.5392864487839744   0.009113662040524453   -0.021073987813495645
0.5392864487839744   0.009113662040524453   -0.021073987813495645
0.24966264852926978   -0.014214218022166526   0.014084138454628498
0.24966264852926978   -0.014214218022166526   0.014084138454628498
0.24966264852926978   -0.014214218022166526   0.014084138454628498
0.24966264852926978   -0.014214218022166526   0.014084138454628498
0.22183540410686878   -0.05481719841506984   -0.018781713139202502
0.22183540410686878   -0.05481719841506984   -0.018781713139202502
0.22183540410686878   -0.05481719841506984   -0.018781713139202502
0.22183540410686878   -0.05481719841506984   -0.018781713139202502
0.5293755448104756   0.040308438651198944   0.02038963546386692
0.5293755448104756   0.040308438651198944   0.02038963546386692
0.5293755448104756   0.040308438651198944   0.02038963546386692
0.5293755448104756   0.040308438651198944   0.02038963546386692
0.3636799076785648   -0.008634092550115519   -0.02362078190980523
0.3636799076785648   -0.008634092550115519   -0.02362078190980523
0.3636799076785648   -0.008634092550115519   -0.02362078190980523
0.3636799076785648   -0.008634092550115519   -0.02362078190980523
0.28474138802210835   0.04141250347096549   -0.0015026472652632105
0.28474138802210835   0.04141250347096549   -0.0015026472652632105
0.28474138802210835   0.04141250347096549   -0.0015026472652632105
0.28474138802210835   0.04141250347096549   -0.0015026472652632105
-0.01900205626953707   -0.004306338394847725   -0.00025134800105952365
-0.01900205626953707   -0.004306338394847725   -0.00025134800105952365
-0.01900205626953707   -0.004306338394847725   -0.00025134800105952365
-0.01900205626953707   -0.004306338394847725   -0.00025134800105952365
-0.040688807634440806   -0.035649907994605386   -0.016843195978919468
-0.040688807634440806   -0.035649907994605386   -0.016843195978919468
-0.040688807634440806   -0.035649907994605386   -0.016843195978919468
-0.040688807634440806   -0.035649907994605386   -0.016843195978919468
0.2774803111728835   0.049118724612683066   0.018779855683500393
0.2774803111728835   0.049118724612683066   0.018779855683500393
0.2774803111728835   0.049118724612683066   0.018779855683500393
0.2774803111728835   0.049118724612683066   0.018779855683500393
0.12369121275468384   0.012071562788159126   0.0009099055752892545
0.12369121275468384   0.012071562788159126   0.0009099055752892545
0.12369121275468384   0.012071562788159126   0.0009099055752892545
0.12369121275468384   0.012071562788159126   0.0009099055752892545
0.27010495369347415   0.030068201705491553   0.0009535911936506443
0.27010495369347415   0.030068201705491553   0.0009535911936506443
0.27010495369347415   0.030068201705491553   0.0009535911936506443
0.27010495369347415   0.030068201705491553   0.0009535911936506443
-0.0331891520638004   -0.016475086996181967   0.0014802608758591159
-0.0331891520638004   -0.016475086996181967   0.0014802608758591159
-0.0331891520638004   -0.016475086996181967   0.0014802608758591159
-0.0331891520638004   -0.016475086996181967   0.0014802608758591159
-0.054213299349909996   -0.04435731511474308   -0.013951105851722125
-0.054213299349909996   -0.04435731511474308   -0.013951105851722125
-0.054213299349909996   -0.04435731511474308   -0.013951105851722125
-0.054213299349909996   -0.04435731511474308   -0.013951105851722125
0.26152986396926836   0.03868101161924627   0.020524986013208367
0.26152986396926836   0.03868101161924627   0.020524986013208367
0.26152986396926836   0.03868101161924627   0.020524986013208367
0.26152986396926836   0.03868101161924627   0.020524986013208367
0.10698704364274243   0.0017380990411935832   -0.004273884432274125
0.10698704364274243   0.0017380990411935832   -0.004273884432274125
0.10698704364274243   0.0017380990411935832   -0.004273884432274125
0.10698704364274243   0.0017380990411935832   -0.004273884432274125
0.25440135261642516   0.02072377051876509   0.0028396703494758327
0.25440135261642516   0.02072377051876509   0.0028396703494758327
0.25440135261642516   0.02072377051876509   0.0028396703494758327
0.25440135261642516   0.02072377051876509   0.0028396703494758327
-0.04719261661005215   -0.026507902627245585   0.0033028953600695993
-0.04719261661005215   -0.026507902627245585   0.0033028953600695993
-0.04719261661005215   -0.026507902627245585   0.0033028953600695993
-0.04719261661005215   -0.026507902627245585   0.0033028953600695993
-0.06755568914972834   -0.05162993218213986   -0.011234738088633392
-0.06755568914972834   -0.05162993218213986   -0.011234738088633392
-0.06755568914972834   -0.05162993218213986   -0.011234738088633392
-0.06755568914972834   -0.05162993218213986   -0.011234738088633392
0.2468024911543386   0.029067977582499835   0.022168546100575476
0.2468024911543386   0.029067977582499835   0.022168546100575476
0.2468024911543386   0.029067977582499835   0.022168546100575476
0.2468024911543386   0.029067977582499835   0.022168546100575476
0.09423126087496164   -0.006044366610453853   -0.008575625619533265
0.09423126087496164   -0.006044366610453853   -0.008575625619533265
0.09423126087496164   -0.006044366610453853   -0.008575625619533265
0.09423126087496164   -0.006044366610453853   -0.008575625619533265
-0.006899813469217369   0.049090785960537536   0.006862741645153704
-0.006899813469217369   0.049090785960537536   0.006862741645153704
-0.006899813469217369   0.049090785960537536   0.006862741645153704
-0.006899813469217369   0.049090785960537536   0.006862741645153704
-0.31157082005824877   -0.01377245962020876   -0.010331114538207342
-0.31157082005824877   -0.01377245962020876   -0.010331114538207342
-0.31157082005824877   -0.01377245962020876   -0.010331114538207342
-0.31157082005824877   -0.01377245962020876   -0.010331114538207342
-0.32554299550088167   -0.024998655610806823   -0.008088389607926178
-0.32554299550088167   -0.024998655610806823   -0.008088389607926178
-0.32554299550088167   -0.024998655610806823   -0.008088389607926178
-0.32554299550088167   -0.024998655610806823   -0.008088389607926178
-0.02061404170798095   0.039661002557127754   0.008219723101646755
-0.02061404170798095   0.039661002557127754   0.008219723101646755
-0.02061404170798095   0.039661002557127754   0.008219723101646755
-0.02061404170798095   0.039661002557127754   0.008219723101646755
-0.16576143267243673   0.012566921030563685   0.003246263673392617
-0.16576143267243673   0.012566921030563685   0.003246263673392617
-0.16576143267243673   0.012566921030563685   0.003246263673392617
-0.16576143267243673   0.012566921030563685   0.003246263673392617
-0.020352808029662536   0.039578698845908616   0.009608195204457874
-0.020352808029662536   0.039578698845908616   0.009608195204457874
-0.020352808029662536   0.039578698845908616   0.009608195204457874
-0.020352808029662536   0.039578698845908616   0.009608195204457874
-0.3255453171584999   -0.02465743987889179   -0.008441213627932083
-0.3255453171584999   -0.02465743987889179   -0.008441213627932083
-0.3255453171584999   -0.02465743987889179   -0.008441213627932083
-0.3255453171584999   -0.02465743987889179   -0.008441213627932083
-0.3393975417328476   -0.03442086672942902   -0.00557031438121218
-0.3393975417328476   -0.03442086672942902   -0.00557031438121218
-0.3393975417328476   -0.03442086672942902   -0.00557031438121218
-0.3393975417328476   -0.03442086672942902   -0.00557031438121218
-0.03471819136056546   0.02891470713709559   0.010252411843161533
-0.03471819136056546   0.02891470713709559   0.010252411843161533
-0.03471819136056546   0.02891470713709559   0.010252411843161533
-0.03471819136056546   0.02891470713709559   0.010252411843161533
-0.17975881746095482   0.003250214769317153   -0.0009505128992973594
-0.17975881746095482   0.003250214769317153   -0.0009505128992973594
-0.17975881746095482   0.003250214769317153   -0.0009505128992973594
-0.17975881746095482   0.003250214769317153   -0.0009505128992973594
-0.034175380543150564   0.03009488583185147   0.011786287235480458
-0.034175380543150564   0.03009488583185147   0.011786287235480458
-0.034175380543150564   0.03009488583185147   0.011786287235480458
-0.034175380543150564   0.03009488583185147   0.011786287235480458
-0.3398682866934143   -0.035528979567333634   -0.0068159263461357086
-0.3398682866934143   -0.035528979567333634   -0.0068159263461357086
-0.3398682866934143   -0.035528979567333634   -0.0068159263461357086
-0.3398682866934143   -0.035528979567333634   -0.0068159263461357086
-0.3530825187312599   -0.04302470360438809   -0.003074135249573078
-0.3530825187312599   -0.04302470360438809   -0.003074135249573078
-0.3530825187312599   -0.04302470360438809   -0.003074135249573078
-0.3530825187312599   -0.04302470360438809   -0.003074135249573078
-0.0488843859977513   0.018521436234278245   0.011970409254834623
-0.0488843859977513   0.018521436234278245   0.011970409254834623
-0.0488843859977513   0.018521436234278245   0.011970409254834623
-0.0488843859977513   0.018521436234278245   0.011970409254834623
-0.19440220014010046   -0.006142151942616171   -0.005627944235185501
-0.19440220014010046   -0.006142151942616171   -0.005627944235185501
-0.19440220014010046   -0.006142151942616171   -0.005627944235185501
-0.19440220014010046   -0.006142151942616171   -0.005627944235185501
-0.29256551474707915   0.056180095610362135   0.01474285678706793
-0.29256551474707915   0.056180095610362135   0.01474285678706793
-0.29256551474707915   0.056180095610362135   0.01474285678706793
-0.29256551474707915   0.056180095610362135   0.01474285678706793
-0.5977420154128985   -0.023463055851046383   -0.018565882007767036
-0.5977420154128985   -0.023463055851046383   -0.018565882007767036
-0.5977420154128985   -0.023463055851046383   -0.018565882007767036
-0.5977420154128985   -0.023463055851046383   -0.018565882007767036
-0.605365031999953   -0.016039939624077487   0.0014464672771549308
-0.605365031999953   -0.016039939624077487   0.0014464672771549308
-0.605365031999953   -0.016039939624077487   0.0014464672771549308
-0.605365031999953   -0.016039939624077487   0.0014464672771549308
-0.313679296994626   0.02852480442832507   -0.0022933571157760513
-0.313679296994626   0.02852480442832507   -0.0022933571157760513
-0.313679296994626   0.02852480442832507   -0.0022933571157760513
-0.313679296994626   0.02852480442832507   -0.0022933571157760513
-0.44938471397284924   0.011856338283855891   0.005495596883441291
-0.44938471397284924   0.011856338283855891   0.005495596883441291
-0.44938471397284924   0.011856338283855891   0.005495596883441291
-0.44938471397284924   0.011856338283855891   0.005495596883441291
-0.30604589033244733   0.047011909482237615   0.01738657114120122
-0.30604589033244733   0.047011909482237615   0.01738657114120122
-0.30604589033244733   0.047011909482237615   0.01738657114120122
-0.30604589033244733   0.047011909482237615   0.01738657114120122
-0.612935224603014   -0.034463830618869803   -0.01798060474336235
-0.612935224603014   -0.034463830618869803   -0.01798060474336235
-0.612935224603014   -0.034463830618869803   -0.01798060474336235
-0.612935224603014   -0.034463830618869803   -0.01798060474336235
-0.6215026840831234   -0.02556799216466918   0.002375108383182639
-0.6215026840831234   -0.02556799216466918   0.002375108383182639
-0.6215026840831234   -0.02556799216466918   0.002375108383182639
-0.6215026840831234   -0.02556799216466918   0.002375108383182639
-0.3277319284525583   0.018569944334813987   -0.00023305904400258357
-0.3277319284525583   0.018569944334813987   -0.00023305904400258357
-0.3277319284525583   0.018569944334813987   -0.00023305904400258357
-0.3277319284525583   0.018569944334813987   -0.00023305904400258357
-0.4611708636332888   0.0035741221107530308   0.0015957090231390851
-0.4611708636332888   0.0035741221107530308   0.0015957090231390851
-0.4611708636332888   0.0035741221107530308   0.0015957090231390851
-0.4611708636332888   0.0035741221107530308   0.0015957090231390851
-0.31977566384722456   0.03827169322447349   0.019846515093006282
-0.31977566384722456   0.03827169322447349   0.019846515093006282
-0.31977566384722456   0.03827169322447349   0.019846515093006282
-0.31977566384722456   0.03827169322447349   0.019846515093006282
-0.6290525476621505   -0.0448633400280236   -0.01607886164859829
-0.6290525476621505   -0.0448633400280236   -0.01607886164859829
-0.6290525476621505   -0.0448633400280236   -0.01607886164859829
-0.6290525476621505   -0.0448633400280236   -0.01607886164859829
-0.6361256258145613   -0.035844762790273085   0.005366625138721159
-0.6361256258145613   -0.035844762790273085   0.005366625138721159
-0.6361256258145613   -0.035844762790273085   0.005366625138721159
-0.6361256258145613   -0.035844762790273085   0.005366625138721159
-0.34218063452788794   0.007152651802053475   0.001257930360846985
-0.34218063452788794   0.007152651802053475   0.001257930360846985
-0.34218063452788794   0.007152651802053475   0.001257930360846985
-0.34218063452788794   0.007152651802053475   0.001257930360846985
-0.47925713681392024   -0.006873341019468987   -0.0033795163916789106
-0.47925713681392024   -0.006873341019468987   -0.0033795163916789106
-0.47925713681392024   -0.006873341019468987   -0.0033795163916789106
-0.47925713681392024   -0.006873341019468987   -0.0033795163916789106
-0.5751016124146275   0.050388281677921753   0.020784795454619864
-0.5751016124146275   0.050388281677921753   0.020784795454619864
-0.5751016124146275   0.050388281677921753   0.020784795454619864
-0.5751016124146275   0.050388281677921753   0.020784795454619864
-0.8704811910256427   -0.04024193484260935   -0.020292192025986693
-0.8704811910256427   -0.04024193484260935   -0.020292192025986693
-0.8704811910256427   -0.04024193484260935   -0.020292192025986693
-0.8704811910256427   -0.04024193484260935   -0.020292192025986693
-0.8799637265225391   -0.00908931024334339   0.019118809060586592
-0.8799637265225391   -0.00908931024334339   0.019118809060586592
-0.8799637265225391   -0.00908931024334339   0.019118809060586592
-0.8799637265225391   -0.00908931024334339   0.019118809060586592
-0.601882531338447   0.014600337486060988   -0.011781306525454949
-0.601882531338447   0.014600337486060988   -0.011781306525454949
-0.601882531338447   0.014600337486060988   -0.011781306525454949
-0.601882531338447   0.014600337486060988   -0.011781306525454949
-0.6994416493353225   0.01121030006715798   0.017216208224447235
-0.6994416493353225   0.01121030006715798   0.017216208224447235
-0.6994416493353225   0.01121030006715798   0.017216208224447235
-0.6994416493353225   0.01121030006715798   0.017216208224447235
-0.5874767870112458   0.0504615553050968   0.024386197291511865
-0.5874767870112458   0.0504615553050968   0.024386197291511865
-0.5874767870112458   0.0504615553050968   0.024386197291511865
-0.5874767870112458   0.0504615553050968   0.024386197291511865
-0.8941338317993682   -0.044714889012010095   -0.016106138554889106
-0.8941338317993682   -0.044714889012010095   -0.016106138554889106
-0.8941338317993682   -0.044714889012010095   -0.016106138554889106
-0.8941338317993682   -0.044714889012010095   -0.016106138554889106
-0.9011075183396525   -0.014122634160920217   0.023905444510433988
-0.9011075183396525   -0.014122634160920217   0.023905444510433988
-0.9011075183396525   -0.014122634160920217   0.023905444510433988
-0.9011075183396525   -0.014122634160920217   0.023905444510433988
-0.6170517086781816   0.009144273898209432   -0.010082280654979785
-0.6170517086781816   0.009144273898209432   -0.010082280654979785
-0.6170517086781816   0.009144273898209432   -0.010082280654979785
-0.6170517086781816   0.009144273898209432   -0.010082280654979785
-0.7291668375328404   0.005607688638257918   0.01057479858983493
-0.7291668375328404   0.005607688638257918   0.01057479858983493
-0.7291668375328404   0.005607688638257918   0.01057479858983493
-0.7291668375328404   0.005607688638257918   0.01057479858983493
-0.6017716516229705   0.046713254986819885   0.028749023532457667
-0.6017716516229705   0.046713254986819885   0.028749023532457667
-0.6017716516229705   0.046713254986819885   0.028749023532457667
-0.6017716516229705   0.046713254986819885   0.028749023532457667
-0.9159904760094906   -0.051294515864158535   -0.013337462135510632
-0.9159904760094906   -0.051294515864158535   -0.013337462135510632
-0.9159904760094906   -0.051294515864158535   -0.013337462135510632
-0.9159904760094906   -0.051294515864158535   -0.013337462135510632
-0.9290185418374209   -0.032155949330547356   0.023425087111404234
-0.9290185418374209   -0.032155949330547356   0.023425087111404234
-0.9290185418374209   -0.032155949330547356   0.023425087111404234
-0.9290185418374209   -0.032155949330547356   0.023425087111404234
-0.6330878442961526   -0.0061466475747639915   -0.009142582484746621
-0.6330878442961526   -0.0061466475747639915   -0.009142582484746621
-0.6330878442961526   -0.0061466475747639915   -0.009142582484746621
-0.6330878442961526   -0.0061466475747639915   -0.009142582484746621
-0.736582854472475   -0.0014083274954191927   0.008403170868844526
-0.736582854472475   -0.0014083274954191927   0.008403170868844526
-0.736582854472475   -0.0014083274954191927   0.008403170868844526
-0.736582854472475   -0.0014083274954191927   0.008403170868844526
0.407334420971858   0.023214120895096585   -0.02708508115347955
0.407334420971858   0.023214120895096585   -0.02708508115347955
0.407334420971858   0.023214120895096585   -0.02708508115347955
0.407334420971858   0.023214120895096585   -0.02708508115347955
0.1739679806079341   0.010742986184760907   0.011547706383754165
0.1739679806079341   0.010742986184760907   0.011547706383754165
0.1739679806079341   0.010742986184760907   0.011547706383754165
0.1739679806079341   0.010742986184760907   0.011547706383754165
0.14610943579219612   -0.039835242506839695   -0.025285112816541583
0.14610943579219612   -0.039835242506839695   -0.025285112816541583
0.14610943579219612   -0.039835242506839695   -0.025285112816541583
0.14610943579219612   -0.039835242506839695   -0.025285112816541583
0.3979889022563147   0.04601741598185445   0.014039435832049321
0.3979889022563147   0.04601741598185445   0.014039435832049321
0.3979889022563147   0.04601741598185445   0.014039435832049321
0.3979889022563147   0.04601741598185445   0.014039435832049321
0.2664588332564094   0.005887654768837132   -0.007273119937516294
0.2664588332564094   0.005887654768837132   -0.007273119937516294
0.2664588332564094   0.005887654768837132   -0.007273119937516294
0.2664588332564094   0.005887654768837132   -0.007273119937516294
0.38240175616437627   0.007420390334786989   -0.025299268980578823
0.38240175616437627   0.007420390334786989   -0.025299268980578823
0.38240175616437627   0.007420390334786989   -0.025299268980578823
0.38240175616437627   0.007420390334786989   -0.025299268980578823
0.16140310606245792   -0.0015316926814505569   0.012879688709381106
0.16140310606245792   -0.0015316926814505569   0.012879688709381106
0.16140310606245792   -0.0015316926814505569   0.012879688709381106
0.16140310606245792   -0.0015316926814505569   0.012879688709381106
0.1342641225384416   -0.044420441490228224   -0.021548452894851834
0.1342641225384416   -0.044420441490228224   -0.021548452894851834
0.1342641225384416   -0.044420441490228224   -0.021548452894851834
0.1342641225384416   -0.044420441490228224   -0.021548452894851834
0.37848661179269816   0.03950697529138919   0.018138622057735237
0.37848661179269816   0.03950697529138919   0.018138622057735237
0.37848661179269816   0.03950697529138919   0.018138622057735237
0.37848661179269816   0.03950697529138919   0.018138622057735237
0.2543074705660593   -0.0016993014977421741   -0.011749040207919467
0.2543074705660593   -0.0016993014977421741   -0.011749040207919467
0.2543074705660593   -0.0016993014977421741   -0.011749040207919467
0.2543074705660593   -0.0016993014977421741   -0.011749040207919467
0.363144231290022   0.0015433415051694793   -0.0206096466694295
0.363144231290022   0.0015433415051694793   -0.0206096466694295
0.363144231290022   0.0015433415051694793   -0.0206096466694295
0.363144231290022   0.0015433415051694793   -0.0206096466694295
0.14916875512502137   -0.006894555620107726   0.015448824167927425
0.14916875512502137   -0.006894555620107726   0.015448824167927425
0.14916875512502137   -0.006894555620107726   0.015448824167927425
0.14916875512502137   -0.006894555620107726   0.015448824167927425
0.12368923733537526   -0.04850030205472701   -0.017967760590662556
0.12368923733537526   -0.04850030205472701   -0.017967760590662556
0.12368923733537526   -0.04850030205472701   -0.017967760590662556
0.12368923733537526   -0.04850030205472701   -0.017967760590662556
0.3556962964433609   0.031006675958257873   0.02073819615090322
0.3556962964433609   0.031006675958257873   0.02073819615090322
0.3556962964433609   0.031006675958257873   0.02073819615090322
0.3556962964433609   0.031006675958257873   0.02073819615090322
0.23347207350415938   -0.007891007629120456   -0.017942407095548278
0.23347207350415938   -0.007891007629120456   -0.017942407095548278
0.23347207350415938   -0.007891007629120456   -0.017942407095548278
0.23347207350415938   -0.007891007629120456   -0.017942407095548278
0.17528993315627292   0.03365201679380381   -0.004751561483597378
0.17528993315627292   0.03365201679380381   -0.004751561483597378
0.17528993315627292   0.03365201679380381   -0.004751561483597378
0.17528993315627292   0.03365201679380381   -0.004751561483597378
-0.05335721351246398   0.0026727499137622155   0.0014868708542608898
-0.05335721351246398   0.0026727499137622155   0.0014868708542608898
-0.05335721351246398   0.0026727499137622155   0.0014868708542608898
-0.05335721351246398   0.0026727499137622155   0.0014868708542608898
-0.07240407468661372   -0.02773772968439325   -0.015618029942383984
-0.07240407468661372   -0.02773772968439325   -0.015618029942383984
-0.07240407468661372   -0.02773772968439325   -0.015618029942383984
-0.07240407468661372   -0.02773772968439325   -0.015618029942383984
0.17057607571827502   0.040410096781788106   0.016802747525227795
0.17057607571827502   0.040410096781788106   0.016802747525227795
0.17057607571827502   0.040410096781788106   0.016802747525227795
0.17057607571827502   0.040410096781788106   0.016802747525227795
0.05382349014937459   0.011649855042853612   0.0020758922698423513
0.05382349014937459   0.011649855042853612   0.0020758922698423513
0.05382349014937459   0.011649855042853612   0.0020758922698423513
0.05382349014937459   0.011649855042853612   0.0020758922698423513
0.16302320265677728   0.02196752297722064   -0.0025190439776951634
0.16302320265677728   0.02196752297722064   -0.0025190439776951634
0.16302320265677728   0.02196752297722064   -0.0025190439776951634
0.16302320265677728   0.02196752297722064   -0.0025190439776951634
-0.06496692743977832   -0.009410881694490149   0.003240858301889858
-0.06496692743977832   -0.009410881694490149   0.003240858301889858
-0.06496692743977832   -0.009410881694490149   0.003240858301889858
-0.06496692743977832   -0.009410881694490149   0.003240858301889858
-0.08341642005011418   -0.036945080678859765   -0.012659191457939274
-0.08341642005011418   -0.036945080678859765   -0.012659191457939274
-0.08341642005011418   -0.036945080678859765   -0.012659191457939274
-0.08341642005011418   -0.036945080678859765   -0.012659191457939274
0.15706289605584844   0.02975582329800473   0.018269149903950257
0.15706289605584844   0.02975582329800473   0.018269149903950257
0.15706289605584844   0.02975582329800473   0.018269149903950257
0.15706289605584844   0.02975582329800473   0.018269149903950257
0.04021434042853507   0.0011968788412334425   -0.002944839381041395
0.04021434042853507   0.0011968788412334425   -0.002944839381041395
0.04021434042853507   0.0011968788412334425   -0.002944839381041395
0.04021434042853507   0.0011968788412334425   -0.002944839381041395
0.14974891656605252   0.012092366738795199   -0.0006372909858224718
0.14974891656605252   0.012092366738795199   -0.0006372909858224718
0.14974891656605252   0.012092366738795199   -0.0006372909858224718
0.14974891656605252   0.012092366738795199   -0.0006372909858224718
-0.0763904786291983   -0.01956966218853443   0.005095097156316578
-0.0763904786291983   -0.01956966218853443   0.005095097156316578
-0.0763904786291983   -0.01956966218853443   0.005095097156316578
-0.0763904786291983   -0.01956966218853443   0.005095097156316578
-0.09427850757344501   -0.04556715817146244   -0.009926133941452312
-0.09427850757344501   -0.04556715817146244   -0.009926133941452312
-0.09427850757344501   -0.04556715817146244   -0.009926133941452312
-0.09427850757344501   -0.04556715817146244   -0.009926133941452312
0.14486878109080475   0.01955159637221243   0.019878059759548133
0.14486878109080475   0.01955159637221243   0.019878059759548133
0.14486878109080475   0.01955159637221243   0.019878059759548133
0.14486878109080475   0.01955159637221243   0.019878059759548133
0.029331937770728782   -0.007436371712536302   -0.007366438547338733
0.029331937770728782   -0.007436371712536302   -0.007366438547338733
0.029331937770728782   -0.007436371712536302   -0.007366438547338733
0.029331937770728782   -0.007436371712536302   -0.007366438547338733
-0.044927303453716275   0.042403584017238004   0.0039055870445217425
-0.044927303453716275   0.042403584017238004   0.0039055870445217425
-0.044927303453716275   0.042403584017238004   0.0039055870445217425
-0.044927303453716275   0.042403584017238004   0.0039055870445217425
-0.2772673815360788   -0.007240661588559433   -0.008456483379135748
-0.2772673815360788   -0.007240661588559433   -0.008456483379135748
-0.2772673815360788   -0.007240661588559433   -0.008456483379135748
-0.2772673815360788   -0.007240661588559433   -0.008456483379135748
-0.28814979953533176   -0.01673810138602936   -0.006240038786788001
-0.28814979953533176   -0.01673810138602936   -0.006240038786788001
-0.28814979953533176   -0.01673810138602936   -0.006240038786788001
-0.28814979953533176   -0.01673810138602936   -0.006240038786788001
-0.05626660877093978   0.03080094010981488   0.00653062984177616
-0.05626660877093978   0.03080094010981488   0.00653062984177616
-0.05626660877093978   0.03080094010981488   0.00653062984177616
-0.05626660877093978   0.03080094010981488   0.00653062984177616
-0.166243182777773   0.012104178452615702   0.0033077984759980403
-0.166243182777773   0.012104178452615702   0.0033077984759980403
-0.166243182777773   0.012104178452615702   0.0033077984759980403
-0.166243182777773   0.012104178452615702   0.0033077984759980403
-0.05593853224410658   0.03228879195560355   0.0066831606301549
-0.05593853224410658   0.03228879195560355   0.0066831606301549
-0.05593853224410658   0.03228879195560355   0.0066831606301549
-0.05593853224410658   0.03228879195560355   0.0066831606301549
-0.2885138474825514   -0.01826192465220225   -0.006536455256713203
-0.2885138474825514   -0.01826192465220225   -0.006536455256713203
-0.2885138474825514   -0.01826192465220225   -0.006536455256713203
-0.2885138474825514   -0.01826192465220225   -0.006536455256713203
-0.299278971841651   -0.026770023589073537   -0.0036104613065985978
-0.299278971841651   -0.026770023589073537   -0.0036104613065985978
-0.299278971841651   -0.026770023589073537   -0.0036104613065985978
-0.299278971841651   -0.026770023589073537   -0.0036104613065985978
-0.06782433457540166   0.01983716835258295   0.008518986884179906
-0.06782433457540166   0.01983716835258295   0.008518986884179906
-0.06782433457540166   0.01983716835258295   0.008518986884179906
-0.06782433457540166   0.01983716835258295   0.008518986884179906
-0.177683757982533   0.0023228250827986227   -0.0010013357956136521
-0.177683757982533   0.0023228250827986227   -0.0010013357956136521
-0.177683757982533   0.0023228250827986227   -0.0010013357956136521
-0.177683757982533   0.0023228250827986227   -0.0010013357956136521
-0.06725872228969781   0.02216080159641241   0.009023415068872151
-0.06725872228969781   0.02216080159641241   0.009023415068872151
-0.06725872228969781   0.02216080159641241   0.009023415068872151
-0.06725872228969781   0.02216080159641241   0.009023415068872151
-0.3000293902747524   -0.02927846298029598   -0.004854114080879315
-0.3000293902747524   -0.02927846298029598   -0.004854114080879315
-0.3000293902747524   -0.02927846298029598   -0.004854114080879315
-0.3000293902747524   -0.02927846298029598   -0.004854114080879315
-0.3102145534849556   -0.036348495700338546   -0.0010490829310450438
-0.3102145534849556   -0.036348495700338546   -0.0010490829310450438
-0.3102145534849556   -0.036348495700338546   -0.0010490829310450438
-0.3102145534849556   -0.036348495700338546   -0.0010490829310450438
-0.07928941004891323   0.009185793499718108   0.010266402010023953
-0.07928941004891323   0.009185793499718108   0.010266402010023953
-0.07928941004891323   0.009185793499718108   0.010266402010023953
-0.07928941004891323   0.009185793499718108   0.010266402010023953
-0.18960098445871593   -0.007467219716921145   -0.005675441116109377
-0.18960098445871593   -0.007467219716921145   -0.005675441116109377
-0.18960098445871593   -0.007467219716921145   -0.005675441116109377
-0.18960098445871593   -0.007467219716921145   -0.005675441116109377
-0.2616599292054406   0.049945467607583185   0.01239464907791264
-0.2616599292054406   0.049945467607583185   0.01239464907791264
-0.2616599292054406   0.049945467607583185   0.01239464907791264
-0.2616599292054406   0.049945467607583185   0.01239464907791264
-0.4974434062601855   -0.01713065875618426   -0.017138490771921987
-0.4974434062601855   -0.01713065875618426   -0.017138490771921987
-0.4974434062601855   -0.01713065875618426   -0.017138490771921987
-0.4974434062601855   -0.01713065875618426   -0.017138490771921987
-0.501516278618566   -0.00782244288442284   0.0038073879444244126
-0.501516278618566   -0.00782244288442284   0.0038073879444244126
-0.501516278618566   -0.00782244288442284   0.0038073879444244126
-0.501516278618566   -0.00782244288442284   0.0038073879444244126
-0.28025199671565226   0.0200967900190952   -0.0035859160935196553
-0.28025199671565226   0.0200967900190952   -0.0035859160935196553
-0.28025199671565226   0.0200967900190952   -0.0035859160935196553
-0.28025199671565226   0.0200967900190952   -0.0035859160935196553
-0.38291210894781685   0.011375823158238235   0.004787651821308983
-0.38291210894781685   0.011375823158238235   0.004787651821308983
-0.38291210894781685   0.011375823158238235   0.004787651821308983
-0.38291210894781685   0.011375823158238235   0.004787651821308983
-0.2724716702703113   0.04025625202233423   0.015156254129950857
-0.2724716702703113   0.04025625202233423   0.015156254129950857
-0.2724716702703113   0.04025625202233423   0.015156254129950857
-0.2724716702703113   0.04025625202233423   0.015156254129950857
-0.5096442467063431   -0.028329546530094035   -0.01632534884879032
-0.5096442467063431   -0.028329546530094035   -0.01632534884879032
-0.5096442467063431   -0.028329546530094035   -0.01632534884879032
-0.5096442467063431   -0.028329546530094035   -0.01632534884879032
-0.5146442357549074   -0.017762326548800708   0.005017893840273003
-0.5146442357549074   -0.017762326548800708   0.005017893840273003
-0.5146442357549074   -0.017762326548800708   0.005017893840273003
-0.5146442357549074   -0.017762326548800708   0.005017893840273003
-0.2915021449105467   0.009987816309766778   -0.001484166549918682
-0.2915021449105467   0.009987816309766778   -0.001484166549918682
-0.2915021449105467   0.009987816309766778   -0.001484166549918682
-0.2915021449105467   0.009987816309766778   -0.001484166549918682
-0.39250663040731804   0.002527386253396019   0.00047330519205501104
-0.39250663040731804   0.002527386253396019   0.00047330519205501104
-0.39250663040731804   0.002527386253396019   0.00047330519205501104
-0.39250663040731804   0.002527386253396019   0.00047330519205501104
-0.2834402863083132   0.03103122760555775   0.01778171516546279
-0.2834402863083132   0.03103122760555775   0.01778171516546279
-0.2834402863083132   0.03103122760555775   0.01778171516546279
-0.2834402863083132   0.03103122760555775   0.01778171516546279
-0.5227405270864453   -0.038840170573896465   -0.014385718792320989
-0.5227405270864453   -0.038840170573896465   -0.014385718792320989
-0.5227405270864453   -0.038840170573896465   -0.014385718792320989
-0.5227405270864453   -0.038840170573896465   -0.014385718792320989
-0.5263183208453284   -0.02837327207242686   0.007765997305885709
-0.5263183208453284   -0.02837327207242686   0.007765997305885709
-0.5263183208453284   -0.02837327207242686   0.007765997305885709
-0.5263183208453284   -0.02837327207242686   0.007765997305885709
-0.3029519043170909   -0.0012511737489781793   0.0001668409569164364
-0.3029519043170909   -0.0012511737489781793   0.0001668409569164364
-0.3029519043170909   -0.0012511737489781793   0.0001668409569164364
-0.3029519043170909   -0.0012511737489781793   0.0001668409569164364
-0.4070121194753783   -0.0077919298044594465   -0.004553634745873506
-0.4070121194753783   -0.0077919298044594465   -0.004553634745873506
-0.4070121194753783   -0.0077919298044594465   -0.004553634745873506
-0.4070121194753783   -0.0077919298044594465   -0.004553634745873506
-0.47743623094597737   0.046315700822590206   0.019451026220344433
-0.47743623094597737   0.046315700822590206   0.019451026220344433
-0.47743623094597737   0.046315700822590206   0.019451026220344433
-0.47743623094597737   0.046315700822590206   0.019451026220344433
-0.7051325226706011   -0.032563570957330895   -0.022090821920345498
-0.7051325226706011   -0.032563570957330895   -0.022090821920345498
-0.7051325226706011   -0.032563570957330895   -0.022090821920345498
-0.7051325226706011   -0.032563570957330895   -0.022090821920345498
-0.711799053711587   -0.0011751887525069948   0.01925758465484515
-0.711799053711587   -0.0011751887525069948   0.01925758465484515
-0.711799053711587   -0.0011751887525069948   0.01925758465484515
-0.711799053711587   -0.0011751887525069948   0.01925758465484515
-0.5019432495305295   0.007052015145775775   -0.013201924645598977
-0.5019432495305295   0.007052015145775775   -0.013201924645598977
-0.5019432495305295   0.007052015145775775   -0.013201924645598977
-0.5019432495305295   0.007052015145775775   -0.013201924645598977
-0.5726787923601021   0.0106247380843007   0.014577070243725936
-0.5726787923601021   0.0106247380843007   0.014577070243725936
-0.5726787923601021   0.0106247380843007   0.014577070243725936
-0.5726787923601021   0.0106247380843007   0.014577070243725936
-0.4872279886562249   0.04447732191828119   0.022949072953425895
-0.4872279886562249   0.04447732191828119   0.022949072953425895
-0.4872279886562249   0.04447732191828119   0.022949072953425895
-0.4872279886562249   0.04447732191828119   0.022949072953425895
-0.7268136256995111   -0.03889980663863425   -0.018090657398652035
-0.7268136256995111   -0.03889980663863425   -0.018090657398652035
-0.7268136256995111   -0.03889980663863425   -0.018090657398652035
-0.7268136256995111   -0.03889980663863425   -0.018090657398652035
-0.7303717367447972   -0.0066514832629502585   0.024258961605837247
-0.7303717367447972   -0.0066514832629502585   0.024258961605837247
-0.7303717367447972   -0.0066514832629502585   0.024258961605837247
-0.7303717367447972   -0.0066514832629502585   0.024258961605837247
-0.5140406191081542   0.0015103037903033134   -0.01123665326507306
-0.5140406191081542   0.0015103037903033134   -0.01123665326507306
-0.5140406191081542   0.0015103037903033134   -0.01123665326507306
-0.5140406191081542   0.0015103037903033134   -0.01123665326507306
-0.597872201647471   0.004344084973225054   0.007743497759524865
-0.597872201647471   0.004344084973225054   0.007743497759524865
-0.597872201647471   0.004344084973225054   0.007743497759524865
-0.597872201647471   0.004344084973225054   0.007743497759524865
-0.49864055811070196   0.04024812603766928   0.02702582947482996
-0.49864055811070196   0.04024812603766928   0.02702582947482996
-0.49864055811070196   0.04024812603766928   0.02702582947482996
-0.49864055811070196   0.04024812603766928   0.02702582947482996
-0.7459868519359633   -0.04560435970402521   -0.01486373790892203
-0.7459868519359633   -0.04560435970402521   -0.01486373790892203
-0.7459868519359633   -0.04560435970402521   -0.01486373790892203
-0.7459868519359633   -0.04560435970402521   -0.01486373790892203
-0.7552172236335906   -0.023884154836252114   0.02429926054525075
-0.7552172236335906   -0.023884154836252114   0.02429926054525075
-0.7552172236335906   -0.023884154836252114   0.02429926054525075
-0.7552172236335906   -0.023884154836252114   0.02429926054525075
-0.5267111158166862   -0.012632872666457476   -0.009938376956881559
-0.5267111158166862   -0.012632872666457476   -0.009938376956881559
-0.5267111158166862   -0.012632872666457476   -0.009938376956881559
-0.5267111158166862   -0.012632872666457476   -0.009938376956881559
-0.6047983792735675   -0.002859450071709402   0.004530457676632911
-0.6047983792735675   -0.002859450071709402   0.004530457676632911
-0.6047983792735675   -0.002859450071709402   0.004530457676632911
-0.6047983792735675   -0.002859450071709402   0.004530457676632911
0.22692796883941344   0.013698120567464785   -0.02663660993420887
0.22692796883941344   0.013698120567464785   -0.02663660993420887
0.22692796883941344   0.013698120567464785   -0.02663660993420887
0.22692796883941344   0.013698120567464785   -0.02663660993420887
0.0668385872208745   0.015871044375983072   0.012671032677384717
0.0668385872208745   0.015871044375983072   0.012671032677384717
0.0668385872208745   0.015871044375983072   0.012671032677384717
0.0668385872208745   0.015871044375983072   0.012671032677384717
0.0420857503041888   -0.03267350933101043   -0.023512038780149173
0.0420857503041888   -0.03267350933101043   -0.023512038780149173
0.0420857503041888   -0.03267350933101043   -0.023512038780149173
0.0420857503041888   -0.03267350933101043   -0.023512038780149173
0.22086860196053423   0.03817769984784999   0.015242411036267844
0.22086860196053423   0.03817769984784999   0.015242411036267844
0.22086860196053423   0.03817769984784999   0.015242411036267844
0.22086860196053423   0.03817769984784999   0.015242411036267844
0.13108743847376847   0.006385187402774158   -0.003005508113201642
0.13108743847376847   0.006385187402774158   -0.003005508113201642
0.13108743847376847   0.006385187402774158   -0.003005508113201642
0.13108743847376847   0.006385187402774158   -0.003005508113201642
0.205247214483318   -0.00023014503295500782   -0.024456681469009818
0.205247214483318   -0.00023014503295500782   -0.024456681469009818
0.205247214483318   -0.00023014503295500782   -0.024456681469009818
0.205247214483318   -0.00023014503295500782   -0.024456681469009818
0.05722012150922201   0.005247319277612766   0.014238988636393977
0.05722012150922201   0.005247319277612766   0.014238988636393977
0.05722012150922201   0.005247319277612766   0.014238988636393977
0.05722012150922201   0.005247319277612766   0.014238988636393977
0.03275125179452004   -0.037267385251434124   -0.019997820658203234
0.03275125179452004   -0.037267385251434124   -0.019997820658203234
0.03275125179452004   -0.037267385251434124   -0.019997820658203234
0.03275125179452004   -0.037267385251434124   -0.019997820658203234
0.2040871911996973   0.03184250592266439   0.019621394114498522
0.2040871911996973   0.03184250592266439   0.019621394114498522
0.2040871911996973   0.03184250592266439   0.019621394114498522
0.2040871911996973   0.03184250592266439   0.019621394114498522
0.11945523563507351   -0.0008071540501628227   -0.007647046261458733
0.11945523563507351   -0.0008071540501628227   -0.007647046261458733
0.11945523563507351   -0.0008071540501628227   -0.007647046261458733
0.11945523563507351   -0.0008071540501628227   -0.007647046261458733
0.1885436597113738   -0.006133409181092057   -0.02012034822336428
0.1885436597113738   -0.006133409181092057   -0.02012034822336428
0.1885436597113738   -0.006133409181092057   -0.02012034822336428
0.1885436597113738   -0.006133409181092057   -0.02012034822336428
0.04763924335430092   5.298992378246874e-05   0.01712176196548528
0.04763924335430092   5.298992378246874e-05   0.01712176196548528
0.04763924335430092   5.298992378246874e-05   0.01712176196548528
0.04763924335430092   5.298992378246874e-05   0.01712176196548528
0.02441330400108501   -0.042731492444735016   -0.01666965342178536
0.02441330400108501   -0.042731492444735016   -0.01666965342178536
0.02441330400108501   -0.042731492444735016   -0.01666965342178536
0.02441330400108501   -0.042731492444735016   -0.01666965342178536
0.1832844543021776   0.021760138599814627   0.021817692533410593
0.1832844543021776   0.021760138599814627   0.021817692533410593
0.1832844543021776   0.021760138599814627   0.021817692533410593
0.1832844543021776   0.021760138599814627   0.021817692533410593
0.10317262934776318   -0.007179441042125371   -0.013357996788692202
0.10317262934776318   -0.007179441042125371   -0.013357996788692202
0.10317262934776318   -0.007179441042125371   -0.013357996788692202
0.10317262934776318   -0.007179441042125371   -0.013357996788692202
0.06449250519761757   0.024423044060286725   -0.007611377123204063
0.06449250519761757   0.024423044060286725   -0.007611377123204063
0.06449250519761757   0.024423044060286725   -0.007611377123204063
0.06449250519761757   0.024423044060286725   -0.007611377123204063
-0.08995523915560216   0.007646285449081355   0.0030194424029312142
-0.08995523915560216   0.007646285449081355   0.0030194424029312142
-0.08995523915560216   0.007646285449081355   0.0030194424029312142
-0.08995523915560216   0.007646285449081355   0.0030194424029312142
-0.10590906677451883   -0.02099905331041326   -0.013757860442985199
-0.10590906677451883   -0.02099905331041326   -0.013757860442985199
-0.10590906677451883   -0.02099905331041326   -0.013757860442985199
-0.10590906677451883   -0.02099905331041326   -0.013757860442985199
0.06230850148277721   0.030281167606011808   0.014647040175771009
0.06230850148277721   0.030281167606011808   0.014647040175771009
0.06230850148277721   0.030281167606011808   0.014647040175771009
0.06230850148277721   0.030281167606011808   0.014647040175771009
-0.017814946286408256   0.009897058568294998   0.002566210076591275
-0.017814946286408256   0.009897058568294998   0.002566210076591275
-0.017814946286408256   0.009897058568294998   0.002566210076591275
-0.017814946286408256   0.009897058568294998   0.002566210076591275
0.05475866051998541   0.012768220692205819   -0.005589217724382132
0.05475866051998541   0.012768220692205819   -0.005589217724382132
0.05475866051998541   0.012768220692205819   -0.005589217724382132
0.05475866051998541   0.012768220692205819   -0.005589217724382132
-0.09877820223175054   -0.003905082816630226   0.004802491777073245
-0.09877820223175054   -0.003905082816630226   0.004802491777073245
-0.09877820223175054   -0.003905082816630226   0.004802491777073245
-0.09877820223175054   -0.003905082816630226   0.004802491777073245
-0.11425626354846098   -0.030321671999833325   -0.010799166980915233
-0.11425626354846098   -0.030321671999833325   -0.010799166980915233
-0.11425626354846098   -0.030321671999833325   -0.010799166980915233
-0.11425626354846098   -0.030321671999833325   -0.010799166980915233
0.05135762086510408   0.01979134565936303   0.015975293783920458
0.05135762086510408   0.01979134565936303   0.015975293783920458
0.05135762086510408   0.01979134565936303   0.015975293783920458
0.05135762086510408   0.01979134565936303   0.015975293783920458
-0.028145840591245194   -0.00019149282033866996   -0.002271836618145585
-0.028145840591245194   -0.00019149282033866996   -0.002271836618145585
-0.028145840591245194   -0.00019149282033866996   -0.002271836618145585
-0.028145840591245194   -0.00019149282033866996   -0.002271836618145585
0.04402793618854961   0.0027655371298799993   -0.00364732106936948
0.04402793618854961   0.0027655371298799993   -0.00364732106936948
0.04402793618854961   0.0027655371298799993   -0.00364732106936948
0.04402793618854961   0.0027655371298799993   -0.00364732106936948
-0.10746941283126935   -0.013838697429711517   0.006652112034921131
-0.10746941283126935   -0.013838697429711517   0.006652112034921131
-0.10746941283126935   -0.013838697429711517   0.006652112034921131
-0.10746941283126935   -0.013838697429711517   0.006652112034921131
-0.12253754189443196   -0.039530579988072106   -0.008126499056637834
-0.12253754189443196   -0.039530579988072106   -0.008126499056637834
-0.12253754189443196   -0.039530579988072106   -0.008126499056637834
-0.12253754189443196   -0.039530579988072106   -0.008126499056637834
0.04176870105532714   0.009532319903130521   0.017843519501560122
0.04176870105532714   0.009532319903130521   0.017843519501560122
0.04176870105532714   0.009532319903130521   0.017843519501560122
0.04176870105532714   0.009532319903130521   0.017843519501560122
-0.0370535311744467   -0.00917932025943861   -0.0068280413494602905
-0.0370535311744467   -0.00917932025943861   -0.0068280413494602905
-0.0370535311744467   -0.00917932025943861   -0.0068280413494602905
-0.0370535311744467   -0.00917932025943861   -0.0068280413494602905
-0.08522935109320377   0.03309772900720344   0.001197439156801072
-0.08522935109320377   0.03309772900720344   0.001197439156801072
-0.08522935109320377   0.03309772900720344   0.001197439156801072
-0.08522935109320377   0.03309772900720344   0.001197439156801072
-0.24456840913782601   -0.0031258345912841476   -0.006773532049784526
-0.24456840913782601   -0.0031258345912841476   -0.006773532049784526
-0.24456840913782601   -0.0031258345912841476   -0.006773532049784526
-0.24456840913782601   -0.0031258345912841476   -0.006773532049784526
-0.25210092417439994   -0.010486521726090547   -0.004072363934306126
-0.25210092417439994   -0.010486521726090547   -0.004072363934306126
-0.25210092417439994   -0.010486521726090547   -0.004072363934306126
-0.25210092417439994   -0.010486521726090547   -0.004072363934306126
-0.09403515722598456   0.019948693575195006   0.004663940414077393
-0.09403515722598456   0.019948693575195006   0.004663940414077393
-0.09403515722598456   0.019948693575195006   0.004663940414077393
-0.09403515722598456   0.019948693575195006   0.004663940414077393
-0.16857694628273226   0.009640010305346558   0.0026447902597886846
-0.16857694628273226   0.009640010305346558   0.0026447902597886846
-0.16857694628273226   0.009640010305346558   0.0026447902597886846
-0.16857694628273226   0.009640010305346558   0.0026447902597886846
-0.09360171668637862   0.02281979991319559   0.0039600367741070425
-0.09360171668637862   0.02281979991319559   0.0039600367741070425
-0.09360171668637862   0.02281979991319559   0.0039600367741070425
-0.09360171668637862   0.02281979991319559   0.0039600367741070425
-0.2529026979375569   -0.013725961287642696   -0.00484179318853877
-0.2529026979375569   -0.013725961287642696   -0.00484179318853877
-0.2529026979375569   -0.013725961287642696   -0.00484179318853877
-0.2529026979375569   -0.013725961287642696   -0.00484179318853877
-0.26041470549319745   -0.020664116243218275   -0.0013970651770457542
-0.26041470549319745   -0.020664116243218275   -0.0013970651770457542
-0.26041470549319745   -0.020664116243218275   -0.0013970651770457542
-0.26041470549319745   -0.020664116243218275   -0.0013970651770457542
-0.10284368209919426   0.009309713248894822   0.006632355016689406
-0.10284368209919426   0.009309713248894822   0.006632355016689406
-0.10284368209919426   0.009309713248894822   0.006632355016689406
-0.10284368209919426   0.009309713248894822   0.006632355016689406
-0.177247642976122   -3.4620387297117083e-05   -0.001687275019809283
-0.177247642976122   -3.4620387297117083e-05   -0.001687275019809283
-0.177247642976122   -3.4620387297117083e-05   -0.001687275019809283
-0.177247642976122   -3.4620387297117083e-05   -0.001687275019809283
-0.10226194994404271   0.012513328091906993   0.006337400949435834
-0.10226194994404271   0.012513328091906993   0.006337400949435834
-0.10226194994404271   0.012513328091906993   0.006337400949435834
-0.10226194994404271   0.012513328091906993   0.006337400949435834
-0.26151946952528354   -0.0243907629631665   -0.0031942386175279145
-0.26151946952528354   -0.0243907629631665   -0.0031942386175279145
-0.26151946952528354   -0.0243907629631665   -0.0031942386175279145
-0.26151946952528354   -0.0243907629631665   -0.0031942386175279145
-0.268563767594943   -0.030482726876316996   0.0011981576758782345
-0.268563767594943   -0.030482726876316996   0.0011981576758782345
-0.268563767594943   -0.030482726876316996   0.0011981576758782345
-0.268563767594943   -0.030482726876316996   0.0011981576758782345
-0.11150769399667396   -0.0009333623697523087   0.00842552281383205
-0.11150769399667396   -0.0009333623697523087   0.00842552281383205
-0.11150769399667396   -0.0009333623697523087   0.00842552281383205
-0.11150769399667396   -0.0009333623697523087   0.00842552281383205
-0.18637510728425205   -0.009729508369820047   -0.0063932028564206225
-0.18637510728425205   -0.009729508369820047   -0.0063932028564206225
-0.18637510728425205   -0.009729508369820047   -0.0063932028564206225
-0.18637510728425205   -0.009729508369820047   -0.0063932028564206225
-0.2322564714840056   0.04138874223253547   0.010271579395497926
-0.2322564714840056   0.04138874223253547   0.010271579395497926
-0.2322564714840056   0.04138874223253547   0.010271579395497926
-0.2322564714840056   0.04138874223253547   0.010271579395497926
-0.39600343577510405   -0.012029902535885373   -0.01537456601773959
-0.39600343577510405   -0.012029902535885373   -0.01537456601773959
-0.39600343577510405   -0.012029902535885373   -0.01537456601773959
-0.39600343577510405   -0.012029902535885373   -0.01537456601773959
-0.3967415811185113   -0.0012482733762944898   0.006178351332390973
-0.3967415811185113   -0.0012482733762944898   0.006178351332390973
-0.3967415811185113   -0.0012482733762944898   0.006178351332390973
-0.3967415811185113   -0.0012482733762944898   0.006178351332390973
-0.2480916104626992   0.010283906912174158   -0.004796224014067506
-0.2480916104626992   0.010283906912174158   -0.004796224014067506
-0.2480916104626992   0.010283906912174158   -0.004796224014067506
-0.2480916104626992   0.010283906912174158   -0.004796224014067506
-0.3166262618817747   0.009570146654561712   0.003453525315216581
-0.3166262618817747   0.009570146654561712   0.003453525315216581
-0.3166262618817747   0.009570146654561712   0.003453525315216581
-0.3166262618817747   0.009570146654561712   0.003453525315216581
-0.24029819900503213   0.03141306734767621   0.01304167283876612
-0.24029819900503213   0.03141306734767621   0.01304167283876612
-0.24029819900503213   0.03141306734767621   0.01304167283876612
-0.24029819900503213   0.03141306734767621   0.01304167283876612
-0.4052395785097738   -0.023082019745393284   -0.014477889254830099
-0.4052395785097738   -0.023082019745393284   -0.014477889254830099
-0.4052395785097738   -0.023082019745393284   -0.014477889254830099
-0.4052395785097738   -0.023082019745393284   -0.014477889254830099
-0.40698242871960233   -0.011288356594942942   0.0076152527355883085
-0.40698242871960233   -0.011288356594942942   0.0076152527355883085
-0.40698242871960233   -0.011288356594942942   0.0076152527355883085
-0.40698242871960233   -0.011288356594942942   0.0076152527355883085
-0.256449079771895   0.0004773537367691663   -0.0027104065505240763
-0.256449079771895   0.0004773537367691663   -0.0027104065505240763
-0.256449079771895   0.0004773537367691663   -0.0027104065505240763
-0.256449079771895   0.0004773537367691663   -0.0027104065505240763
-0.32397044958628013   0.0005676858584461042   -0.0010840590653820904
-0.32397044958628013   0.0005676858584461042   -0.0010840590653820904
-0.32397044958628013   0.0005676858584461042   -0.0010840590653820904
-0.32397044958628013   0.0005676858584461042   -0.0010840590653820904
-0.24844926157349684   0.02204036160234006   0.015725676575898892
-0.24844926157349684   0.02204036160234006   0.015725676575898892
-0.24844926157349684   0.02204036160234006   0.015725676575898892
-0.24844926157349684   0.02204036160234006   0.015725676575898892
-0.41542233149772334   -0.03329144904023695   -0.012581168709726361
-0.41542233149772334   -0.03329144904023695   -0.012581168709726361
-0.41542233149772334   -0.03329144904023695   -0.012581168709726361
-0.41542233149772334   -0.03329144904023695   -0.012581168709726361
-0.41581582039640297   -0.021774868566802608   0.010412282947106338
-0.41581582039640297   -0.021774868566802608   0.010412282947106338
-0.41581582039640297   -0.021774868566802608   0.010412282947106338
-0.41581582039640297   -0.021774868566802608   0.010412282947106338
-0.26491426067594354   -0.010034991958682057   -0.0010020426467630406
-0.26491426067594354   -0.010034991958682057   -0.0010020426467630406
-0.26491426067594354   -0.010034991958682057   -0.0010020426467630406
-0.26491426067594354   -0.010034991958682057   -0.0010020426467630406
-0.3349663376161921   -0.00928272116127371   -0.006045470318809636
-0.3349663376161921   -0.00928272116127371   -0.006045470318809636
-0.3349663376161921   -0.00928272116127371   -0.006045470318809636
-0.3349663376161921   -0.00928272116127371   -0.006045470318809636
-0.3787313189070293   0.04077171444733524   0.01818440133941332
-0.3787313189070293   0.04077171444733524   0.01818440133941332
-0.3787313189070293   0.04077171444733524   0.01818440133941332
-0.3787313189070293   0.04077171444733524   0.01818440133941332
-0.534161398007718   -0.02470650004963794   -0.02316214317245935
-0.534161398007718   -0.02470650004963794   -0.02316214317245935
-0.534161398007718   -0.02470650004963794   -0.02316214317245935
-0.534161398007718   -0.02470650004963794   -0.02316214317245935
-0.5380048111362042   0.006301640280580764   0.01910776263411605
-0.5380048111362042   0.006301640280580764   0.01910776263411605
-0.5380048111362042   0.006301640280580764   0.01910776263411605
-0.5380048111362042   0.006301640280580764   0.01910776263411605
-0.40074919378718377   -0.0009918735619143387   -0.01411611182536129
-0.40074919378718377   -0.0009918735619143387   -0.01411611182536129
-0.40074919378718377   -0.0009918735619143387   -0.01411611182536129
-0.40074919378718377   -0.0009918735619143387   -0.01411611182536129
-0.4429714753508923   0.009651121800312468   0.010823076718487635
-0.4429714753508923   0.009651121800312468   0.010823076718487635
-0.4429714753508923   0.009651121800312468   0.010823076718487635
-0.4429714753508923   0.009651121800312468   0.010823076718487635
-0.3859888686276162   0.037185003614658735   0.02150863679590581
-0.3859888686276162   0.037185003614658735   0.02150863679590581
-0.3859888686276162   0.037185003614658735   0.02150863679590581
-0.3859888686276162   0.037185003614658735   0.02150863679590581
-0.5535172080147099   -0.032627308614928005   -0.019525272862903526
-0.5535172080147099   -0.032627308614928005   -0.019525272862903526
-0.5535172080147099   -0.032627308614928005   -0.019525272862903526
-0.5535172080147099   -0.032627308614928005   -0.019525272862903526
-0.5539785806603685   0.0006471924169330068   0.024385751420289776
-0.5539785806603685   0.0006471924169330068   0.024385751420289776
-0.5539785806603685   0.0006471924169330068   0.024385751420289776
-0.5539785806603685   0.0006471924169330068   0.024385751420289776
-0.4099601352412241   -0.006463366512857324   -0.012098269954613092
-0.4099601352412241   -0.006463366512857324   -0.012098269954613092
-0.4099601352412241   -0.006463366512857324   -0.012098269954613092
-0.4099601352412241   -0.006463366512857324   -0.012098269954613092
-0.4634886746856679   0.002978536854253422   0.004031390768231731
-0.4634886746856679   0.002978536854253422   0.004031390768231731
-0.4634886746856679   0.002978536854253422   0.004031390768231731
-0.4634886746856679   0.002978536854253422   0.004031390768231731
-0.3945819591072851   0.032762679403281245   0.02556656479894659
-0.3945819591072851   0.032762679403281245   0.02556656479894659
-0.3945819591072851   0.032762679403281245   0.02556656479894659
-0.3945819591072851   0.032762679403281245   0.02556656479894659
-0.5700642442329631   -0.03928634093785913   -0.016109033087883057
-0.5700642442329631   -0.03928634093785913   -0.016109033087883057
-0.5700642442329631   -0.03928634093785913   -0.016109033087883057
-0.5700642442329631   -0.03928634093785913   -0.016109033087883057
-0.5760478918919925   -0.015482882585427155   0.025148349523591757
-0.5760478918919925   -0.015482882585427155   0.025148349523591757
-0.5760478918919925   -0.015482882585427155   0.025148349523591757
-0.5760478918919925   -0.015482882585427155   0.025148349523591757
-0.4194722190356349   -0.01909310200550393   -0.010551476810362202
-0.4194722190356349   -0.01909310200550393   -0.010551476810362202
-0.4194722190356349   -0.01909310200550393   -0.010551476810362202
-0.4194722190356349   -0.01909310200550393   -0.010551476810362202
-0.4700269385831399   -0.004149670721949883   2.461908392083212e-05
-0.4700269385831399   -0.004149670721949883   2.461908392083212e-05
-0.4700269385831399   -0.004149670721949883   2.461908392083212e-05
-0.4700269385831399   -0.004149670721949883   2.461908392083212e-05
0.04553296858250078   0.003732982282343231   -0.026713659152440294
0.04553296858250078   0.003732982282343231   -0.026713659152440294
0.04553296858250078   0.003732982282343231   -0.026713659152440294
0.04553296858250078   0.003732982282343231   -0.026713659152440294
-0.04076043064099424   0.019917629857362524   0.013593697332272305
-0.04076043064099424   0.019917629857362524   0.013593697332272305
-0.04076043064099424   0.019917629857362524   0.013593697332272305
-0.04076043064099424   0.019917629857362524   0.013593697332272305
-0.06253792919011307   -0.025862275505768747   -0.021550934581163163
-0.06253792919011307   -0.025862275505768747   -0.021550934581163163
-0.06253792919011307   -0.025862275505768747   -0.021550934581163163
-0.06253792919011307   -0.025862275505768747   -0.021550934581163163
0.04223421142995178   0.028715527897785944   0.016652956970175797
0.04223421142995178   0.028715527897785944   0.016652956970175797
0.04223421142995178   0.028715527897785944   0.016652956970175797
0.04223421142995178   0.028715527897785944   0.016652956970175797
-0.004988363772079837   0.006308941688769843   0.0022940633968574517
-0.004988363772079837   0.006308941688769843   0.0022940633968574517
-0.004988363772079837   0.006308941688769843   0.0022940633968574517
-0.004988363772079837   0.006308941688769843   0.0022940633968574517
0.026675836045542002   -0.008495011627684455   -0.02392838042640231
0.026675836045542002   -0.008495011627684455   -0.02392838042640231
0.026675836045542002   -0.008495011627684455   -0.02392838042640231
0.026675836045542002   -0.008495011627684455   -0.02392838042640231
-0.04788932751259588   0.010438490312810056   0.01539130798784401
-0.04788932751259588   0.010438490312810056   0.01539130798784401
-0.04788932751259588   0.010438490312810056   0.01539130798784401
-0.04788932751259588   0.010438490312810056   0.01539130798784401
-0.0697366191404962   -0.03050718712301201   -0.018303260773674633
-0.0697366191404962   -0.03050718712301201   -0.018303260773674633
-0.0697366191404962   -0.03050718712301201   -0.018303260773674633
-0.0697366191404962   -0.03050718712301201   -0.018303260773674633
0.027469562979054733   0.022422445825654565   0.02288340925291293
0.027469562979054733   0.022422445825654565   0.02288340925291293
0.027469562979054733   0.022422445825654565   0.02288340925291293
0.027469562979054733   0.022422445825654565   0.02288340925291293
-0.016560961428303003   -0.0006559441043691764   -0.0030510259654220524
-0.016560961428303003   -0.0006559441043691764   -0.0030510259654220524
-0.016560961428303003   -0.0006559441043691764   -0.0030510259654220524
-0.016560961428303003   -0.0006559441043691764   -0.0030510259654220524
0.011539758518389343   -0.014549910734540983   -0.01979325649021818
0.011539758518389343   -0.014549910734540983   -0.01979325649021818
0.011539758518389343   -0.014549910734540983   -0.01979325649021818
0.011539758518389343   -0.014549910734540983   -0.01979325649021818
-0.055073841794218245   0.0051981423227982475   0.019305296511904328
-0.055073841794218245   0.0051981423227982475   0.019305296511904328
-0.055073841794218245   0.0051981423227982475   0.019305296511904328
-0.055073841794218245   0.0051981423227982475   0.019305296511904328
-0.07632726734500937   -0.03756476236263382   -0.015195090631660017
-0.07632726734500937   -0.03756476236263382   -0.015195090631660017
-0.07632726734500937   -0.03756476236263382   -0.015195090631660017
-0.07632726734500937   -0.03756476236263382   -0.015195090631660017
0.006962250725573326   0.009286345715560543   0.02612978537469556
0.006962250725573326   0.009286345715560543   0.02612978537469556
0.006962250725573326   0.009286345715560543   0.02612978537469556
0.006962250725573326   0.009286345715560543   0.02612978537469556
-0.029166333191909383   -0.007633729699197996   -0.009248306243007877
-0.029166333191909383   -0.007633729699197996   -0.009248306243007877
-0.029166333191909383   -0.007633729699197996   -0.009248306243007877
-0.029166333191909383   -0.007633729699197996   -0.009248306243007877
-0.04685784254390449   0.013555608188209377   -0.010531340513125816
-0.04685784254390449   0.013555608188209377   -0.010531340513125816
-0.04685784254390449   0.013555608188209377   -0.010531340513125816
-0.04685784254390449   0.013555608188209377   -0.010531340513125816
-0.12728354457632785   0.005371681952152919   0.003509227384667235
-0.12728354457632785   0.005371681952152919   0.003509227384667235
-0.12728354457632785   0.005371681952152919   0.003509227384667235
-0.12728354457632785   0.005371681952152919   0.003509227384667235
-0.13856315282476042   -0.015071719557073114   -0.011245741332131333
-0.13856315282476042   -0.015071719557073114   -0.011245741332131333
-0.13856315282476042   -0.015071719557073114   -0.011245741332131333
-0.13856315282476042   -0.015071719557073114   -0.011245741332131333
-0.048250898859285615   0.013258219875053236   0.010763721692152183
-0.048250898859285615   0.013258219875053236   0.010763721692152183
-0.048250898859285615   0.013258219875053236   0.010763721692152183
-0.048250898859285615   0.013258219875053236   0.010763721692152183
-0.09007123885775731   0.004008036902724096   0.0021658487010587342
-0.09007123885775731   0.004008036902724096   0.0021658487010587342
-0.09007123885775731   0.004008036902724096   0.0021658487010587342
-0.09007123885775731   0.004008036902724096   0.0021658487010587342
-0.05432933026043735   0.002291791778755341   -0.008662007217309366
-0.05432933026043735   0.002291791778755341   -0.008662007217309366
-0.05432933026043735   0.002291791778755341   -0.008662007217309366
-0.05432933026043735   0.002291791778755341   -0.008662007217309366
-0.13323853220846493   -0.004859102245632095   0.0051647444379048805
-0.13323853220846493   -0.004859102245632095   0.0051647444379048805
-0.13323853220846493   -0.004859102245632095   0.0051647444379048805
-0.13323853220846493   -0.004859102245632095   0.0051647444379048805
-0.14417791831974303   -0.024177195739406587   -0.008331874025080545
-0.14417791831974303   -0.024177195739406587   -0.008331874025080545
-0.14417791831974303   -0.024177195739406587   -0.008331874025080545
-0.14417791831974303   -0.024177195739406587   -0.008331874025080545
-0.05690863721219088   0.0031914281328968667   0.01213803361194236
-0.05690863721219088   0.0031914281328968667   0.01213803361194236
-0.05690863721219088   0.0031914281328968667   0.01213803361194236
-0.05690863721219088   0.0031914281328968667   0.01213803361194236
-0.09716173728333873   -0.005155911575964633   -0.0024419000925366453
-0.09716173728333873   -0.005155911575964633   -0.0024419000925366453
-0.09716173728333873   -0.005155911575964633   -0.0024419000925366453
-0.09716173728333873   -0.005155911575964633   -0.0024419000925366453
-0.06277501116811346   -0.007525600925849468   -0.006476807108923995
-0.06277501116811346   -0.007525600925849468   -0.006476807108923995
-0.06277501116811346   -0.007525600925849468   -0.006476807108923995
-0.06277501116811346   -0.007525600925849468   -0.006476807108923995
-0.13912222902206658   -0.014270851338906479   0.007040228062801362
-0.13912222902206658   -0.014270851338906479   0.007040228062801362
-0.13912222902206658   -0.014270851338906479   0.007040228062801362
-0.13912222902206658   -0.014270851338906479   0.007040228062801362
-0.14982963715793515   -0.03350676073825824   -0.0057535454921214145
-0.14982963715793515   -0.03350676073825824   -0.0057535454921214145
-0.14982963715793515   -0.03350676073825824   -0.0057535454921214145
-0.14982963715793515   -0.03350676073825824   -0.0057535454921214145
-0.06415574012807478   -0.006959587741828723   0.015057370832207631
-0.06415574012807478   -0.006959587741828723   0.015057370832207631
-0.06415574012807478   -0.006959587741828723   0.015057370832207631
-0.06415574012807478   -0.006959587741828723   0.015057370832207631
-0.1042158560003118   -0.014170295495752402   -0.007114833004731843
-0.1042158560003118   -0.014170295495752402   -0.007114833004731843
-0.1042158560003118   -0.014170295495752402   -0.007114833004731843
-0.1042158560003118   -0.014170295495752402   -0.007114833004731843
-0.12489308860674868   0.021942144801525402   -0.0011089556168093519
-0.12489308860674868   0.021942144801525402   -0.0011089556168093519
-0.12489308860674868   0.021942144801525402   -0.0011089556168093519
-0.12489308860674868   0.021942144801525402   -0.0011089556168093519
-0.21284649093213417   -0.00739159044371783   -0.006075137479612743
-0.21284649093213417   -0.00739159044371783   -0.006075137479612743
-0.21284649093213417   -0.00739159044371783   -0.006075137479612743
-0.21284649093213417   -0.00739159044371783   -0.006075137479612743
-0.2151213646096413   -0.005472007530760388   -0.0013533577320428564
-0.2151213646096413   -0.005472007530760388   -0.0013533577320428564
-0.2151213646096413   -0.005472007530760388   -0.0013533577320428564
-0.2151213646096413   -0.005472007530760388   -0.0013533577320428564
-0.1326573633620264   0.0015427993228067718   0.0016686871016583123
-0.1326573633620264   0.0015427993228067718   0.0016686871016583123
-0.1326573633620264   0.0015427993228067718   0.0016686871016583123
-0.1326573633620264   0.0015427993228067718   0.0016686871016583123
-0.1710147698962134   0.002477865263493327   0.0007923126525407505
-0.1710147698962134   0.002477865263493327   0.0007923126525407505
-0.1710147698962134   0.002477865263493327   0.0007923126525407505
-0.1710147698962134   0.002477865263493327   0.0007923126525407505
-0.13056571023982017   0.012036454413926177   0.0016332976215705907
-0.13056571023982017   0.012036454413926177   0.0016332976215705907
-0.13056571023982017   0.012036454413926177   0.0016332976215705907
-0.13056571023982017   0.012036454413926177   0.0016332976215705907
-0.21794058291623822   -0.016693227806270694   -0.004228228989517231
-0.21794058291623822   -0.016693227806270694   -0.004228228989517231
-0.21794058291623822   -0.016693227806270694   -0.004228228989517231
-0.21794058291623822   -0.016693227806270694   -0.004228228989517231
-0.22039181211609069   -0.0152554880324643   0.0013544786267902387
-0.22039181211609069   -0.0152554880324643   0.0013544786267902387
-0.22039181211609069   -0.0152554880324643   0.0013544786267902387
-0.22039181211609069   -0.0152554880324643   0.0013544786267902387
-0.13860276057618243   -0.00808083355014386   0.0034475525034590154
-0.13860276057618243   -0.00808083355014386   0.0034475525034590154
-0.13860276057618243   -0.00808083355014386   0.0034475525034590154
-0.13860276057618243   -0.00808083355014386   0.0034475525034590154
-0.17671996003470244   -0.006420412268451775   -0.0034379982134490217
-0.17671996003470244   -0.006420412268451775   -0.0034379982134490217
-0.17671996003470244   -0.006420412268451775   -0.0034379982134490217
-0.17671996003470244   -0.006420412268451775   -0.0034379982134490217
-0.13645519575412976   0.0020682067727398716   0.0040363362908393315
-0.13645519575412976   0.0020682067727398716   0.0040363362908393315
-0.13645519575412976   0.0020682067727398716   0.0040363362908393315
-0.13645519575412976   0.0020682067727398716   0.0040363362908393315
-0.22341735116508935   -0.026282502582292103   -0.0027462020683752756
-0.22341735116508935   -0.026282502582292103   -0.0027462020683752756
-0.22341735116508935   -0.026282502582292103   -0.0027462020683752756
-0.22341735116508935   -0.026282502582292103   -0.0027462020683752756
-0.22552217479568779   -0.024629883862621403   0.0039573961485004005
-0.22552217479568779   -0.024629883862621403   0.0039573961485004005
-0.22552217479568779   -0.024629883862621403   0.0039573961485004005
-0.22552217479568779   -0.024629883862621403   0.0039573961485004005
-0.1443218400292568   -0.017146497263442643   0.005425176676456019
-0.1443218400292568   -0.017146497263442643   0.005425176676456019
-0.1443218400292568   -0.017146497263442643   0.005425176676456019
-0.1443218400292568   -0.017146497263442643   0.005425176676456019
-0.18285899254120053   -0.015368413190615472   -0.008035758507684964
-0.18285899254120053   -0.015368413190615472   -0.008035758507684964
-0.18285899254120053   -0.015368413190615472   -0.008035758507684964
-0.18285899254120053   -0.015368413190615472   -0.008035758507684964
-0.20211154635309736   0.031554156288696227   0.00865383868315738
-0.20211154635309736   0.031554156288696227   0.00865383868315738
-0.20211154635309736   0.031554156288696227   0.00865383868315738
-0.20211154635309736   0.031554156288696227   0.00865383868315738
-0.2952131239101541   -0.012389162719119225   -0.013589214891487534
-0.2952131239101541   -0.012389162719119225   -0.013589214891487534
-0.2952131239101541   -0.012389162719119225   -0.013589214891487534
-0.2952131239101541   -0.012389162719119225   -0.013589214891487534
-0.2913423655712682   0.004360131665952949   0.00883565486339534
-0.2913423655712682   0.004360131665952949   0.00883565486339534
-0.2913423655712682   0.004360131665952949   0.00883565486339534
-0.2913423655712682   0.004360131665952949   0.00883565486339534
-0.21577232224084145   -0.0040818064718282365   -0.005998346946976357
-0.21577232224084145   -0.0040818064718282365   -0.005998346946976357
-0.21577232224084145   -0.0040818064718282365   -0.005998346946976357
-0.21577232224084145   -0.0040818064718282365   -0.005998346946976357
-0.25021177563880176   0.004884906905379162   0.0012686440740315788
-0.25021177563880176   0.004884906905379162   0.0012686440740315788
-0.25021177563880176   0.004884906905379162   0.0012686440740315788
-0.25021177563880176   0.004884906905379162   0.0012686440740315788
-0.2071332649345258   0.021714872869315033   0.011400260243459123
-0.2071332649345258   0.021714872869315033   0.011400260243459123
-0.2071332649345258   0.021714872869315033   0.011400260243459123
-0.2071332649345258   0.021714872869315033   0.011400260243459123
-0.30104473253543534   -0.02249985733304108   -0.012816190958446664
-0.30104473253543534   -0.02249985733304108   -0.012816190958446664
-0.30104473253543534   -0.02249985733304108   -0.012816190958446664
-0.30104473253543534   -0.02249985733304108   -0.012816190958446664
-0.2983950308566759   -0.005279448255321395   0.010451534573804051
-0.2983950308566759   -0.005279448255321395   0.010451534573804051
-0.2983950308566759   -0.005279448255321395   0.010451534573804051
-0.2983950308566759   -0.005279448255321395   0.010451534573804051
-0.2209961445285927   -0.012851646431209542   -0.0040710250369758675
-0.2209961445285927   -0.012851646431209542   -0.0040710250369758675
-0.2209961445285927   -0.012851646431209542   -0.0040710250369758675
-0.2209961445285927   -0.012851646431209542   -0.0040710250369758675
-0.2549953981817749   -0.0036857604901610677   -0.003316171297804092
-0.2549953981817749   -0.0036857604901610677   -0.003316171297804092
-0.2549953981817749   -0.0036857604901610677   -0.003316171297804092
-0.2549953981817749   -0.0036857604901610677   -0.003316171297804092
-0.212263717238447   0.012670333791726301   0.014069131190818035
-0.212263717238447   0.012670333791726301   0.014069131190818035
-0.212263717238447   0.012670333791726301   0.014069131190818035
-0.212263717238447   0.012670333791726301   0.014069131190818035
-0.3079671490665408   -0.03164111939797568   -0.011047385332873779
-0.3079671490665408   -0.03164111939797568   -0.011047385332873779
-0.3079671490665408   -0.03164111939797568   -0.011047385332873779
-0.3079671490665408   -0.03164111939797568   -0.011047385332873779
-0.3041248888812532   -0.015009778277154537   0.013334653966184235
-0.3041248888812532   -0.015009778277154537   0.013334653966184235
-0.3041248888812532   -0.015009778277154537   0.013334653966184235
-0.3041248888812532   -0.015009778277154537   0.013334653966184235
-0.2262428504766549   -0.021850887253940604   -0.0024249788650180775
-0.2262428504766549   -0.021850887253940604   -0.0024249788650180775
-0.2262428504766549   -0.021850887253940604   -0.0024249788650180775
-0.2262428504766549   -0.021850887253940604   -0.0024249788650180775
-0.26222165103919354   -0.012460011491471655   -0.008027715725047983
-0.26222165103919354   -0.012460011491471655   -0.008027715725047983
-0.26222165103919354   -0.012460011491471655   -0.008027715725047983
-0.26222165103919354   -0.012460011491471655   -0.008027715725047983
-0.2797443010336877   0.03423541277833681   0.01713032399338816
-0.2797443010336877   0.03423541277833681   0.01713032399338816
-0.2797443010336877   0.03423541277833681   0.01713032399338816
-0.2797443010336877   0.03423541277833681   0.01713032399338816
-0.3616546846531395   -0.018215877998088534   -0.022569927616945703
-0.3616546846531395   -0.018215877998088534   -0.022569927616945703
-0.3616546846531395   -0.018215877998088534   -0.022569927616945703
-0.3616546846531395   -0.018215877998088534   -0.022569927616945703
-0.36198973960034464   0.013360351400327361   0.01888555879900809
-0.36198973960034464   0.013360351400327361   0.01888555879900809
-0.36198973960034464   0.013360351400327361   0.01888555879900809
-0.36198973960034464   0.013360351400327361   0.01888555879900809
-0.29872667485599275   -0.009926389464535883   -0.013799370429738745
-0.29872667485599275   -0.009926389464535883   -0.013799370429738745
-0.29872667485599275   -0.009926389464535883   -0.013799370429738745
-0.29872667485599275   -0.009926389464535883   -0.013799370429738745
-0.31230485307691536   0.007997250852858795   0.006162818923872576
-0.31230485307691536   0.007997250852858795   0.006162818923872576
-0.31230485307691536   0.007997250852858795   0.006162818923872576
-0.31230485307691536   0.007997250852858795   0.006162818923872576
-0.28409957598659785   0.029202682711513404   0.020207051741186397
-0.28409957598659785   0.029202682711513404   0.020207051741186397
-0.28409957598659785   0.029202682711513404   0.020207051741186397
-0.28409957598659785   0.029202682711513404   0.020207051741186397
-0.37772605987258023   -0.026877942178561147   -0.019557748983277584
-0.37772605987258023   -0.026877942178561147   -0.019557748983277584
-0.37772605987258023   -0.026877942178561147   -0.019557748983277584
-0.37772605987258023   -0.026877942178561147   -0.019557748983277584
-0.37481213082704273   0.00784805127127565   0.024310814551870414
-0.37481213082704273   0.00784805127127565   0.024310814551870414
-0.37481213082704273   0.00784805127127565   0.024310814551870414
-0.37481213082704273   0.00784805127127565   0.024310814551870414
-0.3048376305765176   -0.014971760983896881   -0.012069151296834193
-0.3048376305765176   -0.014971760983896881   -0.012069151296834193
-0.3048376305765176   -0.014971760983896881   -0.012069151296834193
-0.3048376305765176   -0.014971760983896881   -0.012069151296834193
-0.3276209996397258   0.001310066617839889   -0.00023444576080563703
-0.3276209996397258   0.001310066617839889   -0.00023444576080563703
-0.3276209996397258   0.001310066617839889   -0.00023444576080563703
-0.3276209996397258   0.001310066617839889   -0.00023444576080563703
-0.2896133029325866   0.024868165939647503   0.024212559999277856
-0.2896133029325866   0.024868165939647503   0.024212559999277856
-0.2896133029325866   0.024868165939647503   0.024212559999277856
-0.2896133029325866   0.024868165939647503   0.024212559999277856
-0.39116067724231457   -0.033116094423612054   -0.01646777182959768
-0.39116067724231457   -0.033116094423612054   -0.01646777182959768
-0.39116067724231457   -0.033116094423612054   -0.01646777182959768
-0.39116067724231457   -0.033116094423612054   -0.01646777182959768
-0.3937003230695681   -0.00669189956640065   0.025682639419087376
-0.3937003230695681   -0.00669189956640065   0.025682639419087376
-0.3937003230695681   -0.00669189956640065   0.025682639419087376
-0.3937003230695681   -0.00669189956640065   0.025682639419087376
-0.31097745543932187   -0.02551394531123672   -0.010424011790082266
-0.31097745543932187   -0.02551394531123672   -0.010424011790082266
-0.31097745543932187   -0.02551394531123672   -0.010424011790082266
-0.31097745543932187   -0.02551394531123672   -0.010424011790082266
-0.3334195260526114   -0.005341345566270028   -0.004748027268614462
-0.3334195260526114   -0.005341345566270028   -0.004748027268614462
-0.3334195260526114   -0.005341345566270028   -0.004748027268614462
-0.3334195260526114   -0.005341345566270028   -0.004748027268614462
-0.14535262455465728   -0.009417762034465045   -0.02849106821319622
-0.14535262455465728   -0.009417762034465045   -0.02849106821319622
-0.14535262455465728   -0.009417762034465045   -0.02849106821319622
-0.14535262455465728   -0.009417762034465045   -0.02849106821319622
-0.1468165765560617   0.02162452310519257   0.012769133828609357
-0.1468165765560617   0.02162452310519257   0.012769133828609357
-0.1468165765560617   0.02162452310519257   0.012769133828609357
-0.1468165765560617   0.02162452310519257   0.012769133828609357
-0.1656948713962354   -0.020079399395350347   -0.019392596669318474
-0.1656948713962354   -0.020079399395350347   -0.019392596669318474
-0.1656948713962354   -0.020079399395350347   -0.019392596669318474
-0.1656948713962354   -0.020079399395350347   -0.019392596669318474
-0.14857037331311512   0.011827248424620365   0.019057049102876686
-0.14857037331311512   0.011827248424620365   0.019057049102876686
-0.14857037331311512   0.011827248424620365   0.019057049102876686
-0.14857037331311512   0.011827248424620365   0.019057049102876686
-0.14398372286978225   0.003768647104559219   0.01303043515721831
-0.14398372286978225   0.003768647104559219   0.01303043515721831
-0.14398372286978225   0.003768647104559219   0.01303043515721831
-0.14398372286978225   0.003768647104559219   0.01303043515721831
-0.16365161932353645   -0.020580513459892678   -0.02394141906471472
-0.16365161932353645   -0.020580513459892678   -0.02394141906471472
-0.16365161932353645   -0.020580513459892678   -0.02394141906471472
-0.16365161932353645   -0.020580513459892678   -0.02394141906471472
-0.1524550491220052   0.010486938752969542   0.01624017655351265
-0.1524550491220052   0.010486938752969542   0.01624017655351265
-0.1524550491220052   0.010486938752969542   0.01624017655351265
-0.1524550491220052   0.010486938752969542   0.01624017655351265
-0.1714604213614182   -0.025231619439499066   -0.01645693273238228
-0.1714604213614182   -0.025231619439499066   -0.01645693273238228
-0.1714604213614182   -0.025231619439499066   -0.01645693273238228
-0.1714604213614182   -0.025231619439499066   -0.01645693273238228
-0.16321016889105514   0.004845809342141582   0.03557096704079368
-0.16321016889105514   0.004845809342141582   0.03557096704079368
-0.16321016889105514   0.004845809342141582   0.03557096704079368
-0.16321016889105514   0.004845809342141582   0.03557096704079368
-0.1573916993025515   -0.0050696548541381   0.00526661675378336
-0.1573916993025515   -0.0050696548541381   0.00526661675378336
-0.1573916993025515   -0.0050696548541381   0.00526661675378336
-0.1573916993025515   -0.0050696548541381   0.00526661675378336
-0.18053949422356666   -0.027501681267814986   -0.018728169011807547
-0.18053949422356666   -0.027501681267814986   -0.018728169011807547
-0.18053949422356666   -0.027501681267814986   -0.018728169011807547
-0.18053949422356666   -0.027501681267814986   -0.018728169011807547
-0.15853560513307466   0.0027113620662885113   0.020224166903547863
-0.15853560513307466   0.0027113620662885113   0.020224166903547863
-0.15853560513307466   0.0027113620662885113   0.020224166903547863
-0.15853560513307466   0.0027113620662885113   0.020224166903547863
-0.17619814146317034   -0.03517034184835046   -0.012993260256115777
-0.17619814146317034   -0.03517034184835046   -0.012993260256115777
-0.17619814146317034   -0.03517034184835046   -0.012993260256115777
-0.17619814146317034   -0.03517034184835046   -0.012993260256115777
-0.18592565262053906   -0.01822789603055877   0.03326472730301342
-0.18592565262053906   -0.01822789603055877   0.03326472730301342
-0.18592565262053906   -0.01822789603055877   0.03326472730301342
-0.18592565262053906   -0.01822789603055877   0.03326472730301342
-0.1691933600021351   -0.015500557333184384   -0.007108012269444541
-0.1691933600021351   -0.015500557333184384   -0.007108012269444541
-0.1691933600021351   -0.015500557333184384   -0.007108012269444541
-0.1691933600021351   -0.015500557333184384   -0.007108012269444541
-0.15747011913661246   -0.004285241358856724   -0.014588814610095181
-0.15747011913661246   -0.004285241358856724   -0.014588814610095181
-0.15747011913661246   -0.004285241358856724   -0.014588814610095181
-0.15747011913661246   -0.004285241358856724   -0.014588814610095181
-0.16181203185143558   -0.019970232514734454   -0.0008628682155525187
-0.16181203185143558   -0.019970232514734454   -0.0008628682155525187
-0.16181203185143558   -0.019970232514734454   -0.0008628682155525187
-0.16181203185143558   -0.019970232514734454   -0.0008628682155525187
-0.16314940035439088   -0.01335612582778483   -0.007409505326932882
-0.16314940035439088   -0.01335612582778483   -0.007409505326932882
-0.16314940035439088   -0.01335612582778483   -0.007409505326932882
-0.16314940035439088   -0.01335612582778483   -0.007409505326932882
-0.16318228399700532   -0.02673345565658374   -0.00017560341193462842
-0.16318228399700532   -0.02673345565658374   -0.00017560341193462842
-0.16318228399700532   -0.02673345565658374   -0.00017560341193462842
-0.16318228399700532   -0.02673345565658374   -0.00017560341193462842
-0.16003921990419442   -0.01678931530074926   -0.00043528320302650345
-0.16003921990419442   -0.01678931530074926   -0.00043528320302650345
-0.16003921990419442   -0.01678931530074926   -0.00043528320302650345
-0.16003921990419442   -0.01678931530074926   -0.00043528320302650345
-0.16321243277692338   -0.014415659867103948   -0.01264414310100423
-0.16321243277692338   -0.014415659867103948   -0.01264414310100423
-0.16321243277692338   -0.014415659867103948   -0.01264414310100423
-0.16321243277692338   -0.014415659867103948   -0.01264414310100423
-0.16415879958461851   -0.026713469627408847   0.0009008423215530295
-0.16415879958461851   -0.026713469627408847   0.0009008423215530295
-0.16415879958461851   -0.026713469627408847   0.0009008423215530295
-0.16415879958461851   -0.026713469627408847   0.0009008423215530295
-0.1660240320548203   -0.022024338098404685   -0.004825402701920648
-0.1660240320548203   -0.022024338098404685   -0.004825402701920648
-0.1660240320548203   -0.022024338098404685   -0.004825402701920648
-0.1660240320548203   -0.022024338098404685   -0.004825402701920648
-0.16931239225507086   -0.03476643901370847   0.003818032373563914
-0.16931239225507086   -0.03476643901370847   0.003818032373563914
-0.16931239225507086   -0.03476643901370847   0.003818032373563914
-0.16931239225507086   -0.03476643901370847   0.003818032373563914
-0.16389213073628411   -0.023816396275604328   -0.004482467982678413
-0.16389213073628411   -0.023816396275604328   -0.004482467982678413
-0.16389213073628411   -0.023816396275604328   -0.004482467982678413
-0.16389213073628411   -0.023816396275604328   -0.004482467982678413
-0.1697402384580651   -0.023683355308076   -0.009404282347039893
-0.1697402384580651   -0.023683355308076   -0.009404282347039893
-0.1697402384580651   -0.023683355308076   -0.009404282347039893
-0.1697402384580651   -0.023683355308076   -0.009404282347039893
-0.16692358493723128   -0.03443482088944147   0.0030873156770593307
-0.16692358493723128   -0.03443482088944147   0.0030873156770593307
-0.16692358493723128   -0.03443482088944147   0.0030873156770593307
-0.16692358493723128   -0.03443482088944147   0.0030873156770593307
-0.16862427263114202   -0.031318719257427276   -0.002269754242717889
-0.16862427263114202   -0.031318719257427276   -0.002269754242717889
-0.16862427263114202   -0.031318719257427276   -0.002269754242717889
-0.16862427263114202   -0.031318719257427276   -0.002269754242717889
-0.17402403875988162   -0.04489774696079476   0.007604658372769808
-0.17402403875988162   -0.04489774696079476   0.007604658372769808
-0.17402403875988162   -0.04489774696079476   0.007604658372769808
-0.17402403875988162   -0.04489774696079476   0.007604658372769808
-0.16911567100642902   -0.03223855752737842   -0.009600926640793102
-0.16911567100642902   -0.03223855752737842   -0.009600926640793102
-0.16911567100642902   -0.03223855752737842   -0.009600926640793102
-0.16911567100642902   -0.03223855752737842   -0.009600926640793102
-0.15730480879816117   0.004393646988512558   -0.002690632452427429
-0.15730480879816117   0.004393646988512558   -0.002690632452427429
-0.15730480879816117   0.004393646988512558   -0.002690632452427429
-0.15730480879816117   0.004393646988512558   -0.002690632452427429
-0.1798336594717177   -0.034164644630115204   -0.008668769970591203
-0.1798336594717177   -0.034164644630115204   -0.008668769970591203
-0.1798336594717177   -0.034164644630115204   -0.008668769970591203
-0.1798336594717177   -0.034164644630115204   -0.008668769970591203
-0.1726366791847396   -0.006351846531609959   0.0021747736522878414
-0.1726366791847396   -0.006351846531609959   0.0021747736522878414
-0.1726366791847396   -0.006351846531609959   0.0021747736522878414
-0.1726366791847396   -0.006351846531609959   0.0021747736522878414
-0.16736241824652173   -0.036543184686458174   -0.005287535928914481
-0.16736241824652173   -0.036543184686458174   -0.005287535928914481
-0.16736241824652173   -0.036543184686458174   -0.005287535928914481
-0.16736241824652173   -0.036543184686458174   -0.005287535928914481
-0.1691648225756655   -0.018747409867243187   -0.003747999814318892
-0.1691648225756655   -0.018747409867243187   -0.003747999814318892
-0.1691648225756655   -0.018747409867243187   -0.003747999814318892
-0.1691648225756655   -0.018747409867243187   -0.003747999814318892
-0.15985008071949536   -0.00423607347088777   -3.295950935225389e-05
-0.15985008071949536   -0.00423607347088777   -3.295950935225389e-05
-0.15985008071949536   -0.00423607347088777   -3.295950935225389e-05
-0.15985008071949536   -0.00423607347088777   -3.295950935225389e-05
-0.18109590854340327   -0.03960584957881639   -0.006867370093824015
-0.18109590854340327   -0.03960584957881639   -0.006867370093824015
-0.18109590854340327   -0.03960584957881639   -0.006867370093824015
-0.18109590854340327   -0.03960584957881639   -0.006867370093824015
-0.1747417602481619   -0.015050112254334488   0.00474015865448535
-0.1747417602481619   -0.015050112254334488   0.00474015865448535
-0.1747417602481619   -0.015050112254334488   0.00474015865448535
-0.1747417602481619   -0.015050112254334488   0.00474015865448535
-0.1700542681708004   -0.04338780325835494   -0.0036131181218725847
-0.1700542681708004   -0.04338780325835494   -0.0036131181218725847
-0.1700542681708004   -0.04338780325835494   -0.0036131181218725847
-0.1700542681708004   -0.04338780325835494   -0.0036131181218725847
-0.1713862703929884   -0.025361358543968544   -0.007219484410075935
-0.1713862703929884   -0.025361358543968544   -0.007219484410075935
-0.1713862703929884   -0.025361358543968544   -0.007219484410075935
-0.1713862703929884   -0.025361358543968544   -0.007219484410075935
-0.16276313427211697   -0.013092890972819318   0.0025476390860086936
-0.16276313427211697   -0.013092890972819318   0.0025476390860086936
-0.16276313427211697   -0.013092890972819318   0.0025476390860086936
-0.16276313427211697   -0.013092890972819318   0.0025476390860086936
-0.18309082356659223   -0.04640295395961577   -0.005652316232384923
-0.18309082356659223   -0.04640295395961577   -0.005652316232384923
-0.18309082356659223   -0.04640295395961577   -0.005652316232384923
-0.18309082356659223   -0.04640295395961577   -0.005652316232384923
-0.17647957454373484   -0.02321198827829343   0.007255456116695495
-0.17647957454373484   -0.02321198827829343   0.007255456116695495
-0.17647957454373484   -0.02321198827829343   0.007255456116695495
-0.17647957454373484   -0.02321198827829343   0.007255456116695495
-0.17209998238485413   -0.04992168552844167   -0.001045336740265316
-0.17209998238485413   -0.04992168552844167   -0.001045336740265316
-0.17209998238485413   -0.04992168552844167   -0.001045336740265316
-0.17209998238485413   -0.04992168552844167   -0.001045336740265316
-0.17401552790569727   -0.03227216392752243   -0.011031769944873801
-0.17401552790569727   -0.03227216392752243   -0.011031769944873801
-0.17401552790569727   -0.03227216392752243   -0.011031769944873801
-0.17401552790569727   -0.03227216392752243   -0.011031769944873801
-0.16603447843598268   0.01783075622467304   0.008331734353295654
-0.16603447843598268   0.01783075622467304   0.008331734353295654
-0.16603447843598268   0.01783075622467304   0.008331734353295654
-0.16603447843598268   0.01783075622467304   0.008331734353295654
-0.1978642286245411   -0.025707682443905096   -0.012152718736924778
-0.1978642286245411   -0.025707682443905096   -0.012152718736924778
-0.1978642286245411   -0.025707682443905096   -0.012152718736924778
-0.1978642286245411   -0.025707682443905096   -0.012152718736924778
-0.18741611423788904   0.005081987953661847   0.011464417177521648
-0.18741611423788904   0.005081987953661847   0.011464417177521648
-0.18741611423788904   0.005081987953661847   0.011464417177521648
-0.18741611423788904   0.005081987953661847   0.011464417177521648
-0.1789182619850588   -0.0282768544447357   -0.007308132436183592
-0.1789182619850588   -0.0282768544447357   -0.007308132436183592
-0.1789182619850588   -0.0282768544447357   -0.007308132436183592
-0.1789182619850588   -0.0282768544447357   -0.007308132436183592
-0.18251579884146685   -0.00758360450440073   -0.002236380853042494
-0.18251579884146685   -0.00758360450440073   -0.002236380853042494
-0.18251579884146685   -0.00758360450440073   -0.002236380853042494
-0.18251579884146685   -0.00758360450440073   -0.002236380853042494
-0.16784283275410547   0.008885160558070898   0.010906998715777666
-0.16784283275410547   0.008885160558070898   0.010906998715777666
-0.16784283275410547   0.008885160558070898   0.010906998715777666
-0.16784283275410547   0.008885160558070898   0.010906998715777666
-0.19975295448278962   -0.03334143806309085   -0.011796358030228573
-0.19975295448278962   -0.03334143806309085   -0.011796358030228573
-0.19975295448278962   -0.03334143806309085   -0.011796358030228573
-0.19975295448278962   -0.03334143806309085   -0.011796358030228573
-0.1909753523595101   -0.003430991334713994   0.013011458276403935
-0.1909753523595101   -0.003430991334713994   0.013011458276403935
-0.1909753523595101   -0.003430991334713994   0.013011458276403935
-0.1909753523595101   -0.003430991334713994   0.013011458276403935
-0.1807669669944913   -0.03462964621934758   -0.005806341112147855
-0.1807669669944913   -0.03462964621934758   -0.005806341112147855
-0.1807669669944913   -0.03462964621934758   -0.005806341112147855
-0.1807669669944913   -0.03462964621934758   -0.005806341112147855
-0.18436007919471475   -0.01476444824431327   -0.00631194549677975
-0.18436007919471475   -0.01476444824431327   -0.00631194549677975
-0.18436007919471475   -0.01476444824431327   -0.00631194549677975
-0.18436007919471475   -0.01476444824431327   -0.00631194549677975
-0.16982320054160027   0.0008780969668150881   0.013404747966143986
-0.16982320054160027   0.0008780969668150881   0.013404747966143986
-0.16982320054160027   0.0008780969668150881   0.013404747966143986
-0.16982320054160027   0.0008780969668150881   0.013404747966143986
-0.203011348292587   -0.04003096400106339   -0.010568548722631207
-0.203011348292587   -0.04003096400106339   -0.010568548722631207
-0.203011348292587   -0.04003096400106339   -0.010568548722631207
-0.203011348292587   -0.04003096400106339   -0.010568548722631207
-0.19336281801478405   -0.011614108372026258   0.015878883082667484
-0.19336281801478405   -0.011614108372026258   0.015878883082667484
-0.19336281801478405   -0.011614108372026258   0.015878883082667484
-0.19336281801478405   -0.011614108372026258   0.015878883082667484
-0.18237825637850802   -0.04101727444384742   -0.0044326668916145305
-0.18237825637850802   -0.04101727444384742   -0.0044326668916145305
-0.18237825637850802   -0.04101727444384742   -0.0044326668916145305
-0.18237825637850802   -0.04101727444384742   -0.0044326668916145305
-0.18752914441545063   -0.021558557801443747   -0.010270593516687292
-0.18752914441545063   -0.021558557801443747   -0.010270593516687292
-0.18752914441545063   -0.021558557801443747   -0.010270593516687292
-0.18752914441545063   -0.021558557801443747   -0.010270593516687292
-0.18183564073977876   0.025598686630475355   0.016683851612506406
-0.18183564073977876   0.025598686630475355   0.016683851612506406
-0.18183564073977876   0.025598686630475355   0.016683851612506406
-0.18183564073977876   0.025598686630475355   0.016683851612506406
-0.19629804002960582   -0.015707943890947648   -0.017547864646321115
-0.19629804002960582   -0.015707943890947648   -0.017547864646321115
-0.19629804002960582   -0.015707943890947648   -0.017547864646321115
-0.19629804002960582   -0.015707943890947648   -0.017547864646321115
-0.19212403204255257   0.017864467588598658   0.01855227202250905
-0.19212403204255257   0.017864467588598658   0.01855227202250905
-0.19212403204255257   0.017864467588598658   0.01855227202250905
-0.19212403204255257   0.017864467588598658   0.01855227202250905
-0.19680274621955124   -0.019656557508319523   -0.0107301972688097
-0.19680274621955124   -0.019656557508319523   -0.0107301972688097
-0.19680274621955124   -0.019656557508319523   -0.0107301972688097
-0.19680274621955124   -0.019656557508319523   -0.0107301972688097
-0.1851802431916583   0.004460973529408892   0.000873350538302663
-0.1851802431916583   0.004460973529408892   0.000873350538302663
-0.1851802431916583   0.004460973529408892   0.000873350538302663
-0.1851802431916583   0.004460973529408892   0.000873350538302663
-0.1828972317912888   0.01985628058932184   0.019284536774855206
-0.1828972317912888   0.01985628058932184   0.019284536774855206
-0.1828972317912888   0.01985628058932184   0.019284536774855206
-0.1828972317912888   0.01985628058932184   0.019284536774855206
-0.20706671954110312   -0.022685543579330808   -0.015611154302314242
-0.20706671954110312   -0.022685543579330808   -0.015611154302314242
-0.20706671954110312   -0.022685543579330808   -0.015611154302314242
-0.20706671954110312   -0.022685543579330808   -0.015611154302314242
-0.20057976359801877   0.013065690013162524   0.023860236709979346
-0.20057976359801877   0.013065690013162524   0.023860236709979346
-0.20057976359801877   0.013065690013162524   0.023860236709979346
-0.20057976359801877   0.013065690013162524   0.023860236709979346
-0.19952617917743012   -0.02340912649281279   -0.009764540655101139
-0.19952617917743012   -0.02340912649281279   -0.009764540655101139
-0.19952617917743012   -0.02340912649281279   -0.009764540655101139
-0.19952617917743012   -0.02340912649281279   -0.009764540655101139
-0.19431093942395813   -0.0013393725067452344   -0.0039797694419096835
-0.19431093942395813   -0.0013393725067452344   -0.0039797694419096835
-0.19431093942395813   -0.0013393725067452344   -0.0039797694419096835
-0.19431093942395813   -0.0013393725067452344   -0.0039797694419096835
-0.1850783109001635   0.016005890048685287   0.02305978418973391
-0.1850783109001635   0.016005890048685287   0.02305978418973391
-0.1850783109001635   0.016005890048685287   0.02305978418973391
-0.1850783109001635   0.016005890048685287   0.02305978418973391
-0.21636758265065636   -0.027689277303705868   -0.01432389123634029
-0.21636758265065636   -0.027689277303705868   -0.01432389123634029
-0.21636758265065636   -0.027689277303705868   -0.01432389123634029
-0.21636758265065636   -0.027689277303705868   -0.01432389123634029
-0.2153312499605389   0.000796213171700276   0.025480575145819716
-0.2153312499605389   0.000796213171700276   0.025480575145819716
-0.2153312499605389   0.000796213171700276   0.025480575145819716
-0.2153312499605389   0.000796213171700276   0.025480575145819716
-0.20202487258140792   -0.030567031118583485   -0.008478467003899445
-0.20202487258140792   -0.030567031118583485   -0.008478467003899445
-0.20202487258140792   -0.030567031118583485   -0.008478467003899445
-0.20202487258140792   -0.030567031118583485   -0.008478467003899445
-0.19862989895691047   -0.006702438092213603   -0.008328085861262095
-0.19862989895691047   -0.006702438092213603   -0.008328085861262095
-0.19862989895691047   -0.006702438092213603   -0.008328085861262095
-0.19862989895691047   -0.006702438092213603   -0.008328085861262095
-0.3797626294469433   -0.03482071312548776   -0.03651099443391059
-0.3797626294469433   -0.03482071312548776   -0.03651099443391059
-0.3797626294469433   -0.03482071312548776   -0.03651099443391059
-0.3797626294469433   -0.03482071312548776   -0.03651099443391059
-0.24237822093432804   0.020134805194755398   0.008560940795201297
-0.24237822093432804   0.020134805194755398   0.008560940795201297
-0.24237822093432804   0.020134805194755398   0.008560940795201297
-0.24237822093432804   0.020134805194755398   0.008560940795201297
-0.2546765577233246   -0.016490574669972086   -0.016425881959876112
-0.2546765577233246   -0.016490574669972086   -0.016425881959876112
-0.2546765577233246   -0.016490574669972086   -0.016425881959876112
-0.2546765577233246   -0.016490574669972086   -0.016425881959876112
-0.4045095748702362   -0.04635528528412009   0.04058566198343879
-0.4045095748702362   -0.04635528528412009   0.04058566198343879
-0.4045095748702362   -0.04635528528412009   0.04058566198343879
-0.4045095748702362   -0.04635528528412009   0.04058566198343879
-0.2943042435872603   -0.011467554783112996   0.03953156738495709
-0.2943042435872603   -0.011467554783112996   0.03953156738495709
-0.2943042435872603   -0.011467554783112996   0.03953156738495709
-0.2943042435872603   -0.011467554783112996   0.03953156738495709
-0.41901356906198817   -0.051442266164680346   -0.02684732809475726
-0.41901356906198817   -0.051442266164680346   -0.02684732809475726
-0.41901356906198817   -0.051442266164680346   -0.02684732809475726
-0.41901356906198817   -0.051442266164680346   -0.02684732809475726
-0.25039444682402173   -0.021625477081860106   0.01011957494852427
-0.25039444682402173   -0.021625477081860106   0.01011957494852427
-0.25039444682402173   -0.021625477081860106   0.01011957494852427
-0.25039444682402173   -0.021625477081860106   0.01011957494852427
-0.2588506024112202   -0.023774724105243207   -0.011891266675972862
-0.2588506024112202   -0.023774724105243207   -0.011891266675972862
-0.2588506024112202   -0.023774724105243207   -0.011891266675972862
-0.2588506024112202   -0.023774724105243207   -0.011891266675972862
-0.41776743089047846   -0.06466774137161704   0.0007941368418129145
-0.41776743089047846   -0.06466774137161704   0.0007941368418129145
-0.41776743089047846   -0.06466774137161704   0.0007941368418129145
-0.41776743089047846   -0.06466774137161704   0.0007941368418129145
-0.3263816002445711   -0.03901259550735747   0.009207697982237903
-0.3263816002445711   -0.03901259550735747   0.009207697982237903
-0.3263816002445711   -0.03901259550735747   0.009207697982237903
-0.3263816002445711   -0.03901259550735747   0.009207697982237903
-0.42097270922017965   -0.058167409472918874   -0.021732586705386622
-0.42097270922017965   -0.058167409472918874   -0.021732586705386622
-0.42097270922017965   -0.058167409472918874   -0.021732586705386622
-0.42097270922017965   -0.058167409472918874   -0.021732586705386622
-0.2587155069682087   -0.033345238890631554   -0.001645274675529434
-0.2587155069682087   -0.033345238890631554   -0.001645274675529434
-0.2587155069682087   -0.033345238890631554   -0.001645274675529434
-0.2587155069682087   -0.033345238890631554   -0.001645274675529434
-0.25927037038263784   -0.04129457995365177   -0.008723974550352788
-0.25927037038263784   -0.04129457995365177   -0.008723974550352788
-0.25927037038263784   -0.04129457995365177   -0.008723974550352788
-0.25927037038263784   -0.04129457995365177   -0.008723974550352788
-0.4282340429589747   -0.09858338868916414   0.006167673303409385
-0.4282340429589747   -0.09858338868916414   0.006167673303409385
-0.4282340429589747   -0.09858338868916414   0.006167673303409385
-0.4282340429589747   -0.09858338868916414   0.006167673303409385
-0.3263302466679949   -0.053565051978503316   0.0007811482072838461
-0.3263302466679949   -0.053565051978503316   0.0007811482072838461
-0.3263302466679949   -0.053565051978503316   0.0007811482072838461
-0.3263302466679949   -0.053565051978503316   0.0007811482072838461
-0.26169366347550854   -0.04445856544968823   -0.023422901266256103
-0.26169366347550854   -0.04445856544968823   -0.023422901266256103
-0.26169366347550854   -0.04445856544968823   -0.023422901266256103
-0.26169366347550854   -0.04445856544968823   -0.023422901266256103
-0.18098698296996732   -0.11832309521042218   -0.022118735350003825
-0.18098698296996732   -0.11832309521042218   -0.022118735350003825
-0.18098698296996732   -0.11832309521042218   -0.022118735350003825
-0.18098698296996732   -0.11832309521042218   -0.022118735350003825
-0.1588941227701143   -0.02614349032092383   -0.0015139379605260833
-0.1588941227701143   -0.02614349032092383   -0.0015139379605260833
-0.1588941227701143   -0.02614349032092383   -0.0015139379605260833
-0.1588941227701143   -0.02614349032092383   -0.0015139379605260833
-0.2786703597519388   -0.12513418230470752   -0.02775128446821344
-0.2786703597519388   -0.12513418230470752   -0.02775128446821344
-0.2786703597519388   -0.12513418230470752   -0.02775128446821344
-0.2786703597519388   -0.12513418230470752   -0.02775128446821344
-0.2175372068205622   -0.08325245505898876   -0.006376769632966918
-0.2175372068205622   -0.08325245505898876   -0.006376769632966918
-0.2175372068205622   -0.08325245505898876   -0.006376769632966918
-0.2175372068205622   -0.08325245505898876   -0.006376769632966918
-0.2616114292046932   -0.049918605685894575   -0.01767220835079769
-0.2616114292046932   -0.049918605685894575   -0.01767220835079769
-0.2616114292046932   -0.049918605685894575   -0.01767220835079769
-0.2616114292046932   -0.049918605685894575   -0.01767220835079769
-0.17700725863963362   -0.1024132722620109   -0.01580983536703556
-0.17700725863963362   -0.1024132722620109   -0.01580983536703556
-0.17700725863963362   -0.1024132722620109   -0.01580983536703556
-0.17700725863963362   -0.1024132722620109   -0.01580983536703556
-0.16092574278892013   -0.033827797993705985   0.00012458800743328898
-0.16092574278892013   -0.033827797993705985   0.00012458800743328898
-0.16092574278892013   -0.033827797993705985   0.00012458800743328898
-0.16092574278892013   -0.033827797993705985   0.00012458800743328898
-0.2798800651389139   -0.12446737593467055   -0.01634592848501623
-0.2798800651389139   -0.12446737593467055   -0.01634592848501623
-0.2798800651389139   -0.12446737593467055   -0.01634592848501623
-0.2798800651389139   -0.12446737593467055   -0.01634592848501623
-0.21527389413963038   -0.0780317002196757   -0.006777525709010039
-0.21527389413963038   -0.0780317002196757   -0.006777525709010039
-0.21527389413963038   -0.0780317002196757   -0.006777525709010039
-0.21527389413963038   -0.0780317002196757   -0.006777525709010039
-0.2658744912612251   -0.05749962691325039   -0.01328580811798991
-0.2658744912612251   -0.05749962691325039   -0.01328580811798991
-0.2658744912612251   -0.05749962691325039   -0.01328580811798991
-0.2658744912612251   -0.05749962691325039   -0.01328580811798991
-0.17713600323313844   -0.10300023358165455   -0.011754278625711633
-0.17713600323313844   -0.10300023358165455   -0.011754278625711633
-0.17713600323313844   -0.10300023358165455   -0.011754278625711633
-0.17713600323313844   -0.10300023358165455   -0.011754278625711633
-0.16111976396857902   -0.043344598820158946   0.0024661242846462862
-0.16111976396857902   -0.043344598820158946   0.0024661242846462862
-0.16111976396857902   -0.043344598820158946   0.0024661242846462862
-0.16111976396857902   -0.043344598820158946   0.0024661242846462862
-0.279417366665651   -0.12636411423515137   -0.02438942168392184
-0.279417366665651   -0.12636411423515137   -0.02438942168392184
-0.279417366665651   -0.12636411423515137   -0.02438942168392184
-0.279417366665651   -0.12636411423515137   -0.02438942168392184
-0.21876829817503857   -0.08388266397563035   -0.012615035087036154
-0.21876829817503857   -0.08388266397563035   -0.012615035087036154
-0.21876829817503857   -0.08388266397563035   -0.012615035087036154
-0.21876829817503857   -0.08388266397563035   -0.012615035087036154
-0.15904584486541667   -0.02868379643522581   -0.002052343602446901
-0.15904584486541667   -0.02868379643522581   -0.002052343602446901
-0.15904584486541667   -0.02868379643522581   -0.002052343602446901
-0.15904584486541667   -0.02868379643522581   -0.002052343602446901
-0.13459322948250144   -0.09077734374081521   -0.01566762268969578
-0.13459322948250144   -0.09077734374081521   -0.01566762268969578
-0.13459322948250144   -0.09077734374081521   -0.01566762268969578
-0.13459322948250144   -0.09077734374081521   -0.01566762268969578
-0.11604608897320773   -0.023997996911443466   0.006122073672845068
-0.11604608897320773   -0.023997996911443466   0.006122073672845068
-0.11604608897320773   -0.023997996911443466   0.006122073672845068
-0.11604608897320773   -0.023997996911443466   0.006122073672845068
-0.1764854228193143   -0.09838343687471778   -0.017230491652732445
-0.1764854228193143   -0.09838343687471778   -0.017230491652732445
-0.1764854228193143   -0.09838343687471778   -0.017230491652732445
-0.1764854228193143   -0.09838343687471778   -0.017230491652732445
-0.1459130507532626   -0.06126394689920062   -0.007206927399480491
-0.1459130507532626   -0.06126394689920062   -0.007206927399480491
-0.1459130507532626   -0.06126394689920062   -0.007206927399480491
-0.1459130507532626   -0.06126394689920062   -0.007206927399480491
-0.16010790170630834   -0.03398336565426397   0.0002570426918440242
-0.16010790170630834   -0.03398336565426397   0.0002570426918440242
-0.16010790170630834   -0.03398336565426397   0.0002570426918440242
-0.16010790170630834   -0.03398336565426397   0.0002570426918440242
-0.1333667491167661   -0.08934120716244974   -0.015138016793940487
-0.1333667491167661   -0.08934120716244974   -0.015138016793940487
-0.1333667491167661   -0.08934120716244974   -0.015138016793940487
-0.1333667491167661   -0.08934120716244974   -0.015138016793940487
-0.11629083902523872   -0.03032242818724339   0.00795032808812349
-0.11629083902523872   -0.03032242818724339   0.00795032808812349
-0.11629083902523872   -0.03032242818724339   0.00795032808812349
-0.11629083902523872   -0.03032242818724339   0.00795032808812349
-0.1772454849323659   -0.0999392454419363   -0.015362675261567135
-0.1772454849323659   -0.0999392454419363   -0.015362675261567135
-0.1772454849323659   -0.0999392454419363   -0.015362675261567135
-0.1772454849323659   -0.0999392454419363   -0.015362675261567135
-0.1458264194978012   -0.06361488117961969   -0.00935743825946611
-0.1458264194978012   -0.06361488117961969   -0.00935743825946611
-0.1458264194978012   -0.06361488117961969   -0.00935743825946611
-0.1458264194978012   -0.06361488117961969   -0.00935743825946611
-0.16167659231224663   -0.040400946652376334   0.0029434890494692647
-0.16167659231224663   -0.040400946652376334   0.0029434890494692647
-0.16167659231224663   -0.040400946652376334   0.0029434890494692647
-0.16167659231224663   -0.040400946652376334   0.0029434890494692647
-0.13238151796414002   -0.09038251329558582   -0.012442981498040621
-0.13238151796414002   -0.09038251329558582   -0.012442981498040621
-0.13238151796414002   -0.09038251329558582   -0.012442981498040621
-0.13238151796414002   -0.09038251329558582   -0.012442981498040621
-0.11515204574529517   -0.03633315086220712   0.009949399951356151
-0.11515204574529517   -0.03633315086220712   0.009949399951356151
-0.11515204574529517   -0.03633315086220712   0.009949399951356151
-0.11515204574529517   -0.03633315086220712   0.009949399951356151
-0.17537981895214572   -0.10114646200013727   -0.01103228745320968
-0.17537981895214572   -0.10114646200013727   -0.01103228745320968
-0.17537981895214572   -0.10114646200013727   -0.01103228745320968
-0.17537981895214572   -0.10114646200013727   -0.01103228745320968
-0.14561739234712903   -0.06674688489468691   -0.010881248946152543
-0.14561739234712903   -0.06674688489468691   -0.010881248946152543
-0.14561739234712903   -0.06674688489468691   -0.010881248946152543
-0.14561739234712903   -0.06674688489468691   -0.010881248946152543
-0.11188620747428676   -0.0038862547869630594   0.01097639839752539
-0.11188620747428676   -0.0038862547869630594   0.01097639839752539
-0.11188620747428676   -0.0038862547869630594   0.01097639839752539
-0.11188620747428676   -0.0038862547869630594   0.01097639839752539
-0.1069847376709848   -0.04829473944208913   -0.009488559105729108
-0.1069847376709848   -0.04829473944208913   -0.009488559105729108
-0.1069847376709848   -0.04829473944208913   -0.009488559105729108
-0.1069847376709848   -0.04829473944208913   -0.009488559105729108
-0.09244660437437958   -0.006985862411443156   0.012675170119599885
-0.09244660437437958   -0.006985862411443156   0.012675170119599885
-0.09244660437437958   -0.006985862411443156   0.012675170119599885
-0.09244660437437958   -0.006985862411443156   0.012675170119599885
-0.12490691379514846   -0.05550429712019872   -0.006675750228101963
-0.12490691379514846   -0.05550429712019872   -0.006675750228101963
-0.12490691379514846   -0.05550429712019872   -0.006675750228101963
-0.12490691379514846   -0.05550429712019872   -0.006675750228101963
-0.10941053212080346   -0.028383323792304196   -0.00392210517392288
-0.10941053212080346   -0.028383323792304196   -0.00392210517392288
-0.10941053212080346   -0.028383323792304196   -0.00392210517392288
-0.10941053212080346   -0.028383323792304196   -0.00392210517392288
-0.11212283648106111   -0.010923395843560812   0.01266373506569554
-0.11212283648106111   -0.010923395843560812   0.01266373506569554
-0.11212283648106111   -0.010923395843560812   0.01266373506569554
-0.11212283648106111   -0.010923395843560812   0.01266373506569554
-0.10624674689574745   -0.05258282889536286   -0.01072857600332364
-0.10624674689574745   -0.05258282889536286   -0.01072857600332364
-0.10624674689574745   -0.05258282889536286   -0.01072857600332364
-0.10624674689574745   -0.05258282889536286   -0.01072857600332364
-0.09277422048013331   -0.013141972309856495   0.013639281920949573
-0.09277422048013331   -0.013141972309856495   0.013639281920949573
-0.09277422048013331   -0.013141972309856495   0.013639281920949573
-0.09277422048013331   -0.013141972309856495   0.013639281920949573
-0.12507511203294067   -0.05890168099411876   -0.0073917841435092195
-0.12507511203294067   -0.05890168099411876   -0.0073917841435092195
-0.12507511203294067   -0.05890168099411876   -0.0073917841435092195
-0.12507511203294067   -0.05890168099411876   -0.0073917841435092195
-0.10911140425533326   -0.03330827665825233   -0.006676187547125288
-0.10911140425533326   -0.03330827665825233   -0.006676187547125288
-0.10911140425533326   -0.03330827665825233   -0.006676187547125288
-0.10911140425533326   -0.03330827665825233   -0.006676187547125288
-0.11231506148522918   -0.016897199479066066   0.01440398707999765
-0.11231506148522918   -0.016897199479066066   0.01440398707999765
-0.11231506148522918   -0.016897199479066066   0.01440398707999765
-0.11231506148522918   -0.016897199479066066   0.01440398707999765
-0.10615052097683109   -0.05576270377389511   -0.010621489098500601
-0.10615052097683109   -0.05576270377389511   -0.010621489098500601
-0.10615052097683109   -0.05576270377389511   -0.010621489098500601
-0.10615052097683109   -0.05576270377389511   -0.010621489098500601
-0.09219175343437892   -0.018930341527971406   0.015815494743628748
-0.09219175343437892   -0.018930341527971406   0.015815494743628748
-0.09219175343437892   -0.018930341527971406   0.015815494743628748
-0.09219175343437892   -0.018930341527971406   0.015815494743628748
-0.12333446261278366   -0.062282306233035586   -0.005013529015259335
-0.12333446261278366   -0.062282306233035586   -0.005013529015259335
-0.12333446261278366   -0.062282306233035586   -0.005013529015259335
-0.12333446261278366   -0.062282306233035586   -0.005013529015259335
-0.10900600601740942   -0.0375808614939211   -0.008618874774848755
-0.10900600601740942   -0.0375808614939211   -0.008618874774848755
-0.10900600601740942   -0.0375808614939211   -0.008618874774848755
-0.10900600601740942   -0.0375808614939211   -0.008618874774848755
-0.08946928092352295   0.012605148247859372   0.01718883694163169
-0.08946928092352295   0.012605148247859372   0.01718883694163169
-0.08946928092352295   0.012605148247859372   0.01718883694163169
-0.08946928092352295   0.012605148247859372   0.01718883694163169
-0.06107292447492914   -0.016062032542723745   -0.005915852030253884
-0.06107292447492914   -0.016062032542723745   -0.005915852030253884
-0.06107292447492914   -0.016062032542723745   -0.005915852030253884
-0.06107292447492914   -0.016062032542723745   -0.005915852030253884
-0.05375837475765039   0.014498632994869236   0.017001383785233273
-0.05375837475765039   0.014498632994869236   0.017001383785233273
-0.05375837475765039   0.014498632994869236   0.017001383785233273
-0.05375837475765039   0.014498632994869236   0.017001383785233273
-0.09903916480445472   -0.02419416483184605   -0.0030793296103745053
-0.09903916480445472   -0.02419416483184605   -0.0030793296103745053
-0.09903916480445472   -0.02419416483184605   -0.0030793296103745053
-0.09903916480445472   -0.02419416483184605   -0.0030793296103745053
-0.07472720480222911   -0.0016033578959416747   -0.0030116698671604535
-0.07472720480222911   -0.0016033578959416747   -0.0030116698671604535
-0.07472720480222911   -0.0016033578959416747   -0.0030116698671604535
-0.07472720480222911   -0.0016033578959416747   -0.0030116698671604535
-0.0882403644432623   0.007955049811206667   0.01876545755253641
-0.0882403644432623   0.007955049811206667   0.01876545755253641
-0.0882403644432623   0.007955049811206667   0.01876545755253641
-0.0882403644432623   0.007955049811206667   0.01876545755253641
-0.06467597262271353   -0.017769379152053344   -0.0053185933931521705
-0.06467597262271353   -0.017769379152053344   -0.0053185933931521705
-0.06467597262271353   -0.017769379152053344   -0.0053185933931521705
-0.06467597262271353   -0.017769379152053344   -0.0053185933931521705
-0.056292247137036656   0.011465351901207446   0.021373919274606582
-0.056292247137036656   0.011465351901207446   0.021373919274606582
-0.056292247137036656   0.011465351901207446   0.021373919274606582
-0.056292247137036656   0.011465351901207446   0.021373919274606582
-0.09880744697095827   -0.025787227169780262   -0.003881595673249369
-0.09880744697095827   -0.025787227169780262   -0.003881595673249369
-0.09880744697095827   -0.025787227169780262   -0.003881595673249369
-0.09880744697095827   -0.025787227169780262   -0.003881595673249369
-0.07717733269148372   -0.004909912478772857   -0.004376841868540883
-0.07717733269148372   -0.004909912478772857   -0.004376841868540883
-0.07717733269148372   -0.004909912478772857   -0.004376841868540883
-0.07717733269148372   -0.004909912478772857   -0.004376841868540883
-0.08750161066656076   0.005267305896810811   0.02159305278214884
-0.08750161066656076   0.005267305896810811   0.02159305278214884
-0.08750161066656076   0.005267305896810811   0.02159305278214884
-0.08750161066656076   0.005267305896810811   0.02159305278214884
-0.06837236639697339   -0.020363464120922783   -0.007197861002946849
-0.06837236639697339   -0.020363464120922783   -0.007197861002946849
-0.06837236639697339   -0.020363464120922783   -0.007197861002946849
-0.06837236639697339   -0.020363464120922783   -0.007197861002946849
-0.06432880855897127   0.003116894682532588   0.022245097979244302
-0.06432880855897127   0.003116894682532588   0.022245097979244302
-0.06432880855897127   0.003116894682532588   0.022245097979244302
-0.06432880855897127   0.003116894682532588   0.022245097979244302
-0.09767249336633643   -0.0272876696854253   -0.0032308767587077196
-0.09767249336633643   -0.0272876696854253   -0.0032308767587077196
-0.09767249336633643   -0.0272876696854253   -0.0032308767587077196
-0.09767249336633643   -0.0272876696854253   -0.0032308767587077196
-0.07844160907279572   -0.0073435263154894796   -0.006510129232116453
-0.07844160907279572   -0.0073435263154894796   -0.006510129232116453
-0.07844160907279572   -0.0073435263154894796   -0.006510129232116453
-0.07844160907279572   -0.0073435263154894796   -0.006510129232116453
-0.9048104672954954   -0.12927554596403662   -0.0760585686375959
-0.9048104672954954   -0.12927554596403662   -0.0760585686375959
-0.9048104672954954   -0.12927554596403662   -0.0760585686375959
-0.9048104672954954   -0.12927554596403662   -0.0760585686375959
-0.3154660649329524   -0.5077961721189911   -0.0593101174768071
-0.3154660649329524   -0.5077961721189911   -0.0593101174768071
-0.3154660649329524   -0.5077961721189911   -0.0593101174768071
-0.3154660649329524   -0.5077961721189911   -0.0593101174768071
-0.24220184948132922   -0.021976064368392133   0.0001740411731715949
-0.24220184948132922   -0.021976064368392133   0.0001740411731715949
-0.24220184948132922   -0.021976064368392133   0.0001740411731715949
-0.24220184948132922   -0.021976064368392133   0.0001740411731715949
-0.9691992119676021   -0.594437335614767   -0.3127273095164738
-0.9691992119676021   -0.594437335614767   -0.3127273095164738
-0.9691992119676021   -0.594437335614767   -0.3127273095164738
-0.9691992119676021   -0.594437335614767   -0.3127273095164738
-0.5926654713065813   -0.2953769474383378   -0.04308500636884327
-0.5926654713065813   -0.2953769474383378   -0.04308500636884327
-0.5926654713065813   -0.2953769474383378   -0.04308500636884327
-0.5926654713065813   -0.2953769474383378   -0.04308500636884327
-0.8409317953272052   -0.16243531179837883   -0.10339225013088464
-0.8409317953272052   -0.16243531179837883   -0.10339225013088464
-0.8409317953272052   -0.16243531179837883   -0.10339225013088464
-0.8409317953272052   -0.16243531179837883   -0.10339225013088464
-0.34114158556876484   -0.42465040763182016   -0.09185029600057695
-0.34114158556876484   -0.42465040763182016   -0.09185029600057695
-0.34114158556876484   -0.42465040763182016   -0.09185029600057695
-0.34114158556876484   -0.42465040763182016   -0.09185029600057695
-0.2475033357956179   -0.028926220007179246   0.00923764856914128
-0.2475033357956179   -0.028926220007179246   0.00923764856914128
-0.2475033357956179   -0.028926220007179246   0.00923764856914128
-0.2475033357956179   -0.028926220007179246   0.00923764856914128
-0.9072269139124866   -0.5315926559867432   -0.28776391397984596
-0.9072269139124866   -0.5315926559867432   -0.28776391397984596
-0.9072269139124866   -0.5315926559867432   -0.28776391397984596
-0.9072269139124866   -0.5315926559867432   -0.28776391397984596
-0.5584475494653196   -0.26678634661878686   0.022266523158647335
-0.5584475494653196   -0.26678634661878686   0.022266523158647335
-0.5584475494653196   -0.26678634661878686   0.022266523158647335
-0.5584475494653196   -0.26678634661878686   0.022266523158647335
-0.789767867390421   -0.15469910292601796   -0.07736223443025043
-0.789767867390421   -0.15469910292601796   -0.07736223443025043
-0.789767867390421   -0.15469910292601796   -0.07736223443025043
-0.789767867390421   -0.15469910292601796   -0.07736223443025043
-0.3323305233921221   -0.3731879141423438   -0.07063659527821306
-0.3323305233921221   -0.3731879141423438   -0.07063659527821306
-0.3323305233921221   -0.3731879141423438   -0.07063659527821306
-0.3323305233921221   -0.3731879141423438   -0.07063659527821306
-0.2853957012986858   -0.07428302934425823   -0.015168871632350029
-0.2853957012986858   -0.07428302934425823   -0.015168871632350029
-0.2853957012986858   -0.07428302934425823   -0.015168871632350029
-0.2853957012986858   -0.07428302934425823   -0.015168871632350029
-0.8270382463554229   -0.44851790490706267   -0.25511123025249716
-0.8270382463554229   -0.44851790490706267   -0.25511123025249716
-0.8270382463554229   -0.44851790490706267   -0.25511123025249716
-0.8270382463554229   -0.44851790490706267   -0.25511123025249716
-0.5175512122866153   -0.2316229963617918   0.09621580671179555
-0.5175512122866153   -0.2316229963617918   0.09621580671179555
-0.5175512122866153   -0.2316229963617918   0.09621580671179555
-0.5175512122866153   -0.2316229963617918   0.09621580671179555
-0.23135320990513397   -0.12773416368233032   -0.018807850774376994
-0.23135320990513397   -0.12773416368233032   -0.018807850774376994
-0.23135320990513397   -0.12773416368233032   -0.018807850774376994
-0.23135320990513397   -0.12773416368233032   -0.018807850774376994
-0.10828291315208632   -0.1641749961356023   -0.02681719885129634
-0.10828291315208632   -0.1641749961356023   -0.02681719885129634
-0.10828291315208632   -0.1641749961356023   -0.02681719885129634
-0.10828291315208632   -0.1641749961356023   -0.02681719885129634
-0.09469475492045978   -0.08232076935872147   0.0023401754302377516
-0.09469475492045978   -0.08232076935872147   0.0023401754302377516
-0.09469475492045978   -0.08232076935872147   0.0023401754302377516
-0.09469475492045978   -0.08232076935872147   0.0023401754302377516
-0.2851733515052308   -0.23747266078938534   0.0008131274746583789
-0.2851733515052308   -0.23747266078938534   0.0008131274746583789
-0.2851733515052308   -0.23747266078938534   0.0008131274746583789
-0.2851733515052308   -0.23747266078938534   0.0008131274746583789
-0.15258010057917856   -0.11481782946865554   0.0493530357169142
-0.15258010057917856   -0.11481782946865554   0.0493530357169142
-0.15258010057917856   -0.11481782946865554   0.0493530357169142
-0.15258010057917856   -0.11481782946865554   0.0493530357169142
-0.2640811314166987   -0.11908813859869202   -0.012110294273377443
-0.2640811314166987   -0.11908813859869202   -0.012110294273377443
-0.2640811314166987   -0.11908813859869202   -0.012110294273377443
-0.2640811314166987   -0.11908813859869202   -0.012110294273377443
-0.12398102774756023   -0.2088993442879831   -0.017512613776000913
-0.12398102774756023   -0.2088993442879831   -0.017512613776000913
-0.12398102774756023   -0.2088993442879831   -0.017512613776000913
-0.12398102774756023   -0.2088993442879831   -0.017512613776000913
-0.10266340551062367   -0.08525681288518286   0.002490227134132106
-0.10266340551062367   -0.08525681288518286   0.002490227134132106
-0.10266340551062367   -0.08525681288518286   0.002490227134132106
-0.10266340551062367   -0.08525681288518286   0.002490227134132106
-0.29967110372618266   -0.23491774415430253   -0.045609666936557
-0.29967110372618266   -0.23491774415430253   -0.045609666936557
-0.29967110372618266   -0.23491774415430253   -0.045609666936557
-0.29967110372618266   -0.23491774415430253   -0.045609666936557
-0.18268087745696088   -0.14684380353021825   0.022178390599621726
-0.18268087745696088   -0.14684380353021825   0.022178390599621726
-0.18268087745696088   -0.14684380353021825   0.022178390599621726
-0.18268087745696088   -0.14684380353021825   0.022178390599621726
-0.27297716354046914   -0.12435762662536423   -0.0227000835369279
-0.27297716354046914   -0.12435762662536423   -0.0227000835369279
-0.27297716354046914   -0.12435762662536423   -0.0227000835369279
-0.27297716354046914   -0.12435762662536423   -0.0227000835369279
-0.12861285720939042   -0.19507244192717466   -0.017441402317709888
-0.12861285720939042   -0.19507244192717466   -0.017441402317709888
-0.12861285720939042   -0.19507244192717466   -0.017441402317709888
-0.12861285720939042   -0.19507244192717466   -0.017441402317709888
-0.11507403299294873   -0.08788117785009907   0.003681926568637476
-0.11507403299294873   -0.08788117785009907   0.003681926568637476
-0.11507403299294873   -0.08788117785009907   0.003681926568637476
-0.11507403299294873   -0.08788117785009907   0.003681926568637476
-0.32112395732549126   -0.2286129015618488   -0.03948027954878788
-0.32112395732549126   -0.2286129015618488   -0.03948027954878788
-0.32112395732549126   -0.2286129015618488   -0.03948027954878788
-0.32112395732549126   -0.2286129015618488   -0.03948027954878788
-0.19166067880024742   -0.13848396881192712   0.023394476551126885
-0.19166067880024742   -0.13848396881192712   0.023394476551126885
-0.19166067880024742   -0.13848396881192712   0.023394476551126885
-0.19166067880024742   -0.13848396881192712   0.023394476551126885
-0.08425549712197994   -0.07645607974837071   0.0056009649120039445
-0.08425549712197994   -0.07645607974837071   0.0056009649120039445
-0.08425549712197994   -0.07645607974837071   0.0056009649120039445
-0.08425549712197994   -0.07645607974837071   0.0056009649120039445
-0.05255296247552499   -0.053149621670344024   -0.013189829920475342
-0.05255296247552499   -0.053149621670344024   -0.013189829920475342
-0.05255296247552499   -0.053149621670344024   -0.013189829920475342
-0.05255296247552499   -0.053149621670344024   -0.013189829920475342
-0.05059018609214137   -0.06864645859523917   0.005559163017491427
-0.05059018609214137   -0.06864645859523917   0.005559163017491427
-0.05059018609214137   -0.06864645859523917   0.005559163017491427
-0.05059018609214137   -0.06864645859523917   0.005559163017491427
-0.09414649151211266   -0.07173696799213808   -0.005502308894608697
-0.09414649151211266   -0.07173696799213808   -0.005502308894608697
-0.09414649151211266   -0.07173696799213808   -0.005502308894608697
-0.09414649151211266   -0.07173696799213808   -0.005502308894608697
-0.059313571768923906   -0.05683203318802579   0.024834373363725935
-0.059313571768923906   -0.05683203318802579   0.024834373363725935
-0.059313571768923906   -0.05683203318802579   0.024834373363725935
-0.059313571768923906   -0.05683203318802579   0.024834373363725935
-0.09287792436279652   -0.07699593923408447   0.00609949809391715
-0.09287792436279652   -0.07699593923408447   0.00609949809391715
-0.09287792436279652   -0.07699593923408447   0.00609949809391715
-0.09287792436279652   -0.07699593923408447   0.00609949809391715
-0.05275232448423105   -0.06428105859606531   -0.00961692894212695
-0.05275232448423105   -0.06428105859606531   -0.00961692894212695
-0.05275232448423105   -0.06428105859606531   -0.00961692894212695
-0.05275232448423105   -0.06428105859606531   -0.00961692894212695
-0.05140322047084977   -0.0707017410664311   0.0049825821544465625
-0.05140322047084977   -0.0707017410664311   0.0049825821544465625
-0.05140322047084977   -0.0707017410664311   0.0049825821544465625
-0.05140322047084977   -0.0707017410664311   0.0049825821544465625
-0.10034531419349457   -0.0834754391315111   0.012299309966106654
-0.10034531419349457   -0.0834754391315111   0.012299309966106654
-0.10034531419349457   -0.0834754391315111   0.012299309966106654
-0.10034531419349457   -0.0834754391315111   0.012299309966106654
-0.06490609761924432   -0.06340792281285162   0.020792262031705103
-0.06490609761924432   -0.06340792281285162   0.020792262031705103
-0.06490609761924432   -0.06340792281285162   0.020792262031705103
-0.06490609761924432   -0.06340792281285162   0.020792262031705103
-0.10044027725209917   -0.07986321478771284   0.008212270329284631
-0.10044027725209917   -0.07986321478771284   0.008212270329284631
-0.10044027725209917   -0.07986321478771284   0.008212270329284631
-0.10044027725209917   -0.07986321478771284   0.008212270329284631
-0.05573781528588355   -0.07874352328386744   -0.008648609703286
-0.05573781528588355   -0.07874352328386744   -0.008648609703286
-0.05573781528588355   -0.07874352328386744   -0.008648609703286
-0.05573781528588355   -0.07874352328386744   -0.008648609703286
-0.0524239375479159   -0.0729414799789428   0.0070367412485328705
-0.0524239375479159   -0.0729414799789428   0.0070367412485328705
-0.0524239375479159   -0.0729414799789428   0.0070367412485328705
-0.0524239375479159   -0.0729414799789428   0.0070367412485328705
-0.11800972501545932   -0.10214285325043805   0.003265141856423688
-0.11800972501545932   -0.10214285325043805   0.003265141856423688
-0.11800972501545932   -0.10214285325043805   0.003265141856423688
-0.11800972501545932   -0.10214285325043805   0.003265141856423688
-0.07290964184457746   -0.07208986638862669   0.009481960298933861
-0.07290964184457746   -0.07208986638862669   0.009481960298933861
-0.07290964184457746   -0.07208986638862669   0.009481960298933861
-0.07290964184457746   -0.07208986638862669   0.009481960298933861
-0.04242607687811767   -0.030521916819272306   0.014816893215489547
-0.04242607687811767   -0.030521916819272306   0.014816893215489547
-0.04242607687811767   -0.030521916819272306   0.014816893215489547
-0.04242607687811767   -0.030521916819272306   0.014816893215489547
-0.03054765186296482   -0.0017499687534609778   -0.003012520552593362
-0.03054765186296482   -0.0017499687534609778   -0.003012520552593362
-0.03054765186296482   -0.0017499687534609778   -0.003012520552593362
-0.03054765186296482   -0.0017499687534609778   -0.003012520552593362
-0.028933114506346416   -0.03314400472259859   0.009151912471096663
-0.028933114506346416   -0.03314400472259859   0.009151912471096663
-0.028933114506346416   -0.03314400472259859   0.009151912471096663
-0.028933114506346416   -0.03314400472259859   0.009151912471096663
-0.039822217973579696   -0.007694748582435464   -0.0015527064025045725
-0.039822217973579696   -0.007694748582435464   -0.0015527064025045725
-0.039822217973579696   -0.007694748582435464   -0.0015527064025045725
-0.039822217973579696   -0.007694748582435464   -0.0015527064025045725
-0.03272089135785053   -0.017400572630713113   0.007345312295495973
-0.03272089135785053   -0.017400572630713113   0.007345312295495973
-0.03272089135785053   -0.017400572630713113   0.007345312295495973
-0.03272089135785053   -0.017400572630713113   0.007345312295495973
-0.04213197160000367   -0.034811169382467706   0.014014946265408463
-0.04213197160000367   -0.034811169382467706   0.014014946265408463
-0.04213197160000367   -0.034811169382467706   0.014014946265408463
-0.04213197160000367   -0.034811169382467706   0.014014946265408463
-0.025922287407245122   -0.005326510449889578   -0.0036114463061097243
-0.025922287407245122   -0.005326510449889578   -0.0036114463061097243
-0.025922287407245122   -0.005326510449889578   -0.0036114463061097243
-0.025922287407245122   -0.005326510449889578   -0.0036114463061097243
-0.026735569995107206   -0.03605976117361961   0.008478272921153062
-0.026735569995107206   -0.03605976117361961   0.008478272921153062
-0.026735569995107206   -0.03605976117361961   0.008478272921153062
-0.026735569995107206   -0.03605976117361961   0.008478272921153062
-0.04039878406670168   -0.013672473126528632   0.0029754962352862846
-0.04039878406670168   -0.013672473126528632   0.0029754962352862846
-0.04039878406670168   -0.013672473126528632   0.0029754962352862846
-0.04039878406670168   -0.013672473126528632   0.0029754962352862846
-0.03029702002467573   -0.020005741993110643   0.008570984940469331
-0.03029702002467573   -0.020005741993110643   0.008570984940469331
-0.03029702002467573   -0.020005741993110643   0.008570984940469331
-0.03029702002467573   -0.020005741993110643   0.008570984940469331
-0.042593342155204286   -0.0377174363805174   0.016047669046760287
-0.042593342155204286   -0.0377174363805174   0.016047669046760287
-0.042593342155204286   -0.0377174363805174   0.016047669046760287
-0.042593342155204286   -0.0377174363805174   0.016047669046760287
-0.02482890129658337   -0.01230268730960975   -0.005745457450237621
-0.02482890129658337   -0.01230268730960975   -0.005745457450237621
-0.02482890129658337   -0.01230268730960975   -0.005745457450237621
-0.02482890129658337   -0.01230268730960975   -0.005745457450237621
-0.022746572536119704   -0.0392913064018412   0.009353580064052484
-0.022746572536119704   -0.0392913064018412   0.009353580064052484
-0.022746572536119704   -0.0392913064018412   0.009353580064052484
-0.022746572536119704   -0.0392913064018412   0.009353580064052484
-0.04405267223198212   -0.02790461309583909   0.0038562009450999546
-0.04405267223198212   -0.02790461309583909   0.0038562009450999546
-0.04405267223198212   -0.02790461309583909   0.0038562009450999546
-0.04405267223198212   -0.02790461309583909   0.0038562009450999546
-0.029490493186451746   -0.02513651244992669   0.007187935314788342
-0.029490493186451746   -0.02513651244992669   0.007187935314788342
-0.029490493186451746   -0.02513651244992669   0.007187935314788342
-0.029490493186451746   -0.02513651244992669   0.007187935314788342
-0.027632654703282692   -0.005190257403227389   0.01500275389558368
-0.027632654703282692   -0.005190257403227389   0.01500275389558368
-0.027632654703282692   -0.005190257403227389   0.01500275389558368
-0.027632654703282692   -0.005190257403227389   0.01500275389558368
-0.005429543165402161   0.0029116460844205525   -0.00030347752642454384
-0.005429543165402161   0.0029116460844205525   -0.00030347752642454384
-0.005429543165402161   0.0029116460844205525   -0.00030347752642454384
-0.005429543165402161   0.0029116460844205525   -0.00030347752642454384
0.0009217734426226754   -0.001715637966661901   0.009352366468468837
0.0009217734426226754   -0.001715637966661901   0.009352366468468837
0.0009217734426226754   -0.001715637966661901   0.009352366468468837
0.0009217734426226754   -0.001715637966661901   0.009352366468468837
-0.023928267991163   0.0019756586266282926   -0.0009435183022151222
-0.023928267991163   0.0019756586266282926   -0.0009435183022151222
-0.023928267991163   0.0019756586266282926   -0.0009435183022151222
-0.023928267991163   0.0019756586266282926   -0.0009435183022151222
-0.014220236822082939   -0.0011336389573346015   -0.0010992669471649808
-0.014220236822082939   -0.0011336389573346015   -0.0010992669471649808
-0.014220236822082939   -0.0011336389573346015   -0.0010992669471649808
-0.014220236822082939   -0.0011336389573346015   -0.0010992669471649808
-0.022019975282822974   -0.005049783526851987   0.01562338739296344
-0.022019975282822974   -0.005049783526851987   0.01562338739296344
-0.022019975282822974   -0.005049783526851987   0.01562338739296344
-0.022019975282822974   -0.005049783526851987   0.01562338739296344
-0.00017539801230643387   0.0061209254402290894   -0.003970054213067698
-0.00017539801230643387   0.0061209254402290894   -0.003970054213067698
-0.00017539801230643387   0.0061209254402290894   -0.003970054213067698
-0.00017539801230643387   0.0061209254402290894   -0.003970054213067698
0.00398899133772493   -0.0021437138828380286   0.011539532452778601
0.00398899133772493   -0.0021437138828380286   0.011539532452778601
0.00398899133772493   -0.0021437138828380286   0.011539532452778601
0.00398899133772493   -0.0021437138828380286   0.011539532452778601
-0.02124620875816792   0.0012302053487878552   -0.001364887416558798
-0.02124620875816792   0.0012302053487878552   -0.001364887416558798
-0.02124620875816792   0.0012302053487878552   -0.001364887416558798
-0.02124620875816792   0.0012302053487878552   -0.001364887416558798
-0.009663760994892334   -0.0004047086162722159   0.00141783254262447
-0.009663760994892334   -0.0004047086162722159   0.00141783254262447
-0.009663760994892334   -0.0004047086162722159   0.00141783254262447
-0.009663760994892334   -0.0004047086162722159   0.00141783254262447
-0.01899037560215263   -0.005682164182423147   0.01682664789472947
-0.01899037560215263   -0.005682164182423147   0.01682664789472947
-0.01899037560215263   -0.005682164182423147   0.01682664789472947
-0.01899037560215263   -0.005682164182423147   0.01682664789472947
0.0024375340597683785   0.005473031526430754   -0.0038344993462806074
0.0024375340597683785   0.005473031526430754   -0.0038344993462806074
0.0024375340597683785   0.005473031526430754   -0.0038344993462806074
0.0024375340597683785   0.005473031526430754   -0.0038344993462806074
0.006992793935256685   -0.0034571500998212355   0.011256433867719495
0.006992793935256685   -0.0034571500998212355   0.011256433867719495
0.006992793935256685   -0.0034571500998212355   0.011256433867719495
0.006992793935256685   -0.0034571500998212355   0.011256433867719495
-0.016889348488105686   0.0008711694407542428   -0.0015227755384692875
-0.016889348488105686   0.0008711694407542428   -0.0015227755384692875
-0.016889348488105686   0.0008711694407542428   -0.0015227755384692875
-0.016889348488105686   0.0008711694407542428   -0.0015227755384692875
-0.005645183214828566   -4.022364758239259e-05   0.0035623216728780742
-0.005645183214828566   -4.022364758239259e-05   0.0035623216728780742
-0.005645183214828566   -4.022364758239259e-05   0.0035623216728780742
-0.005645183214828566   -4.022364758239259e-05   0.0035623216728780742
              </DataArray>   
             <DataArray type="Float64" NumberOfComponents="3" Name="Displacements" format="ascii">   
0.0   0.0   0.0
-0.002528156914613811   -0.0016653255186625338   -0.0008473179693585064
0.0   0.0   0.0
0.0   0.0   0.0
-0.002528156914613811   -0.0016653255186625338   -0.0008473179693585064
-0.0016081126455711069   -0.0014977677157712024   -0.0006226061546237176
0.0   0.0   0.0
-0.0015758971088989352   -0.0015725410470574623   -0.0005217457529464732
0.0   0.0   0.0
0.0   0.0   0.0
-0.0015758971088989352   -0.0015725410470574623   -0.0005217457529464732
0.0   0.0   0.0
0.0   0.0   0.0
-0.0015758971088989352   -0.0015725410470574623   -0.0005217457529464732
-0.0026453260416188684   -0.0017738503369524234   -0.0006804811528010322
-0.002528156914613811   -0.0016653255186625338   -0.0008473179693585064
0.0   0.0   0.0
-0.0015758971088989352   -0.0015725410470574623   -0.0005217457529464732
-0.002528156914613811   -0.0016653255186625338   -0.0008473179693585064
0.0   0.0   0.0
0.0   0.0   0.0
-0.0026453260416188684   -0.0017738503369524234   -0.0006804811528010322
0.0   0.0   0.0
0.0   0.0   0.0
-0.0026453260416188684   -0.0017738503369524234   -0.0006804811528010322
-0.0015758971088989352   -0.0015725410470574623   -0.0005217457529464732
0.0   0.0   0.0
-0.0015798956155890077   -0.0016109113337670557   -0.0004210814650069795
0.0   0.0   0.0
0.0   0.0   0.0
-0.0015798956155890077   -0.0016109113337670557   -0.0004210814650069795
0.0   0.0   0.0
0.0   0.0   0.0
-0.0015798956155890077   -0.0016109113337670557   -0.0004210814650069795
-0.0027274081126095902   -0.0018266469161087307   -0.0005207220105192984
-0.0026453260416188684   -0.0017738503369524234   -0.0006804811528010322
0.0   0.0   0.0
-0.0015798956155890077   -0.0016109113337670557   -0.0004210814650069795
-0.0026453260416188684   -0.0017738503369524234   -0.0006804811528010322
0.0   0.0   0.0
0.0   0.0   0.0
-0.0027274081126095902   -0.0018266469161087307   -0.0005207220105192984
0.0   0.0   0.0
0.0   0.0   0.0
-0.0027274081126095902   -0.0018266469161087307   -0.0005207220105192984
-0.0015798956155890077   -0.0016109113337670557   -0.0004210814650069795
0.0   0.0   0.0
-0.0015785626441709357   -0.001620841265444971   -0.00031705663680428397
0.0   0.0   0.0
0.0   0.0   0.0
-0.0015785626441709357   -0.001620841265444971   -0.00031705663680428397
0.0   0.0   0.0
0.0   0.0   0.0
-0.0015785626441709357   -0.001620841265444971   -0.00031705663680428397
-0.0029046779163341956   -0.0018668050992631945   -0.000335441442853464
-0.0027274081126095902   -0.0018266469161087307   -0.0005207220105192984
0.0   0.0   0.0
-0.0015785626441709357   -0.001620841265444971   -0.00031705663680428397
-0.0027274081126095902   -0.0018266469161087307   -0.0005207220105192984
0.0   0.0   0.0
0.0   0.0   0.0
-0.0016081126455711069   -0.0014977677157712024   -0.0006226061546237176
0.0   0.0   0.0
0.0   0.0   0.0
-0.0016081126455711069   -0.0014977677157712024   -0.0006226061546237176
-0.0007328587323346716   -0.0014364076758937962   -0.00047375828942568287
0.0   0.0   0.0
-0.0007044186650820087   -0.001485023592201874   -0.00042608939499031465
0.0   0.0   0.0
0.0   0.0   0.0
-0.0007044186650820087   -0.001485023592201874   -0.00042608939499031465
0.0   0.0   0.0
0.0   0.0   0.0
-0.0007044186650820087   -0.001485023592201874   -0.00042608939499031465
-0.0015758971088989352   -0.0015725410470574623   -0.0005217457529464732
-0.0016081126455711069   -0.0014977677157712024   -0.0006226061546237176
0.0   0.0   0.0
-0.0007044186650820087   -0.001485023592201874   -0.00042608939499031465
-0.0016081126455711069   -0.0014977677157712024   -0.0006226061546237176
0.0   0.0   0.0
0.0   0.0   0.0
-0.0015758971088989352   -0.0015725410470574623   -0.0005217457529464732
0.0   0.0   0.0
0.0   0.0   0.0
-0.0015758971088989352   -0.0015725410470574623   -0.0005217457529464732
-0.0007044186650820087   -0.001485023592201874   -0.00042608939499031465
0.0   0.0   0.0
-0.0006882636149995028   -0.0015035724521110922   -0.00037971541712233134
0.0   0.0   0.0
0.0   0.0   0.0
-0.0006882636149995028   -0.0015035724521110922   -0.00037971541712233134
0.0   0.0   0.0
0.0   0.0   0.0
-0.0006882636149995028   -0.0015035724521110922   -0.00037971541712233134
-0.0015798956155890077   -0.0016109113337670557   -0.0004210814650069795
-0.0015758971088989352   -0.0015725410470574623   -0.0005217457529464732
0.0   0.0   0.0
-0.0006882636149995028   -0.0015035724521110922   -0.00037971541712233134
-0.0015758971088989352   -0.0015725410470574623   -0.0005217457529464732
0.0   0.0   0.0
0.0   0.0   0.0
-0.0015798956155890077   -0.0016109113337670557   -0.0004210814650069795
0.0   0.0   0.0
0.0   0.0   0.0
-0.0015798956155890077   -0.0016109113337670557   -0.0004210814650069795
-0.0006882636149995028   -0.0015035724521110922   -0.00037971541712233134
0.0   0.0   0.0
-0.0006734795325166447   -0.0014958765028534248   -0.00033182536058276656
0.0   0.0   0.0
0.0   0.0   0.0
-0.0006734795325166447   -0.0014958765028534248   -0.00033182536058276656
0.0   0.0   0.0
0.0   0.0   0.0
-0.0006734795325166447   -0.0014958765028534248   -0.00033182536058276656
-0.0015785626441709357   -0.001620841265444971   -0.00031705663680428397
-0.0015798956155890077   -0.0016109113337670557   -0.0004210814650069795
0.0   0.0   0.0
-0.0006734795325166447   -0.0014958765028534248   -0.00033182536058276656
-0.0015798956155890077   -0.0016109113337670557   -0.0004210814650069795
0.0   0.0   0.0
0.0   0.0   0.0
-0.0007328587323346716   -0.0014364076758937962   -0.00047375828942568287
0.0   0.0   0.0
0.0   0.0   0.0
-0.0007328587323346716   -0.0014364076758937962   -0.00047375828942568287
9.371079704773014e-05   -0.0014443392267628886   -0.000379042188901675
0.0   0.0   0.0
0.00011207069924294416   -0.0014694770814255719   -0.00038550949814318965
0.0   0.0   0.0
0.0   0.0   0.0
0.00011207069924294416   -0.0014694770814255719   -0.00038550949814318965
0.0   0.0   0.0
0.0   0.0   0.0
0.00011207069924294416   -0.0014694770814255719   -0.00038550949814318965
-0.0007044186650820087   -0.001485023592201874   -0.00042608939499031465
-0.0007328587323346716   -0.0014364076758937962   -0.00047375828942568287
0.0   0.0   0.0
0.00011207069924294416   -0.0014694770814255719   -0.00038550949814318965
-0.0007328587323346716   -0.0014364076758937962   -0.00047375828942568287
0.0   0.0   0.0
0.0   0.0   0.0
-0.0007044186650820087   -0.001485023592201874   -0.00042608939499031465
0.0   0.0   0.0
0.0   0.0   0.0
-0.0007044186650820087   -0.001485023592201874   -0.00042608939499031465
0.00011207069924294416   -0.0014694770814255719   -0.00038550949814318965
0.0   0.0   0.0
0.0001266204214478021   -0.0014673405382052281   -0.0003913945485752741
0.0   0.0   0.0
0.0   0.0   0.0
0.0001266204214478021   -0.0014673405382052281   -0.0003913945485752741
0.0   0.0   0.0
0.0   0.0   0.0
0.0001266204214478021   -0.0014673405382052281   -0.0003913945485752741
-0.0006882636149995028   -0.0015035724521110922   -0.00037971541712233134
-0.0007044186650820087   -0.001485023592201874   -0.00042608939499031465
0.0   0.0   0.0
0.0001266204214478021   -0.0014673405382052281   -0.0003913945485752741
-0.0007044186650820087   -0.001485023592201874   -0.00042608939499031465
0.0   0.0   0.0
0.0   0.0   0.0
-0.0006882636149995028   -0.0015035724521110922   -0.00037971541712233134
0.0   0.0   0.0
0.0   0.0   0.0
-0.0006882636149995028   -0.0015035724521110922   -0.00037971541712233134
0.0001266204214478021   -0.0014673405382052281   -0.0003913945485752741
0.0   0.0   0.0
0.00014604915548689114   -0.0014357015237023297   -0.0003974952564107823
0.0   0.0   0.0
0.0   0.0   0.0
0.00014604915548689114   -0.0014357015237023297   -0.0003974952564107823
0.0   0.0   0.0
0.0   0.0   0.0
0.00014604915548689114   -0.0014357015237023297   -0.0003974952564107823
-0.0006734795325166447   -0.0014958765028534248   -0.00033182536058276656
-0.0006882636149995028   -0.0015035724521110922   -0.00037971541712233134
0.0   0.0   0.0
0.00014604915548689114   -0.0014357015237023297   -0.0003974952564107823
-0.0006882636149995028   -0.0015035724521110922   -0.00037971541712233134
0.0   0.0   0.0
0.0   0.0   0.0
9.371079704773014e-05   -0.0014443392267628886   -0.000379042188901675
0.0   0.0   0.0
0.0   0.0   0.0
9.371079704773014e-05   -0.0014443392267628886   -0.000379042188901675
0.0009913187918663404   -0.0015141035774447517   -0.00033237807495454125
0.0   0.0   0.0
0.0009936263860794471   -0.0015219947745749348   -0.00039581285129533186
0.0   0.0   0.0
0.0   0.0   0.0
0.0009936263860794471   -0.0015219947745749348   -0.00039581285129533186
0.0   0.0   0.0
0.0   0.0   0.0
0.0009936263860794471   -0.0015219947745749348   -0.00039581285129533186
0.00011207069924294416   -0.0014694770814255719   -0.00038550949814318965
9.371079704773014e-05   -0.0014443392267628886   -0.000379042188901675
0.0   0.0   0.0
0.0009936263860794471   -0.0015219947745749348   -0.00039581285129533186
9.371079704773014e-05   -0.0014443392267628886   -0.000379042188901675
0.0   0.0   0.0
0.0   0.0   0.0
0.00011207069924294416   -0.0014694770814255719   -0.00038550949814318965
0.0   0.0   0.0
0.0   0.0   0.0
0.00011207069924294416   -0.0014694770814255719   -0.00038550949814318965
0.0009936263860794471   -0.0015219947745749348   -0.00039581285129533186
0.0   0.0   0.0
0.0009898403806235952   -0.0015002651673193161   -0.0004567313341032943
0.0   0.0   0.0
0.0   0.0   0.0
0.0009898403806235952   -0.0015002651673193161   -0.0004567313341032943
0.0   0.0   0.0
0.0   0.0   0.0
0.0009898403806235952   -0.0015002651673193161   -0.0004567313341032943
0.0001266204214478021   -0.0014673405382052281   -0.0003913945485752741
0.00011207069924294416   -0.0014694770814255719   -0.00038550949814318965
0.0   0.0   0.0
0.0009898403806235952   -0.0015002651673193161   -0.0004567313341032943
0.00011207069924294416   -0.0014694770814255719   -0.00038550949814318965
0.0   0.0   0.0
0.0   0.0   0.0
0.0001266204214478021   -0.0014673405382052281   -0.0003913945485752741
0.0   0.0   0.0
0.0   0.0   0.0
0.0001266204214478021   -0.0014673405382052281   -0.0003913945485752741
0.0009898403806235952   -0.0015002651673193161   -0.0004567313341032943
0.0   0.0   0.0
0.0010094617876916737   -0.0014423146177799046   -0.0005165407122862343
0.0   0.0   0.0
0.0   0.0   0.0
0.0010094617876916737   -0.0014423146177799046   -0.0005165407122862343
0.0   0.0   0.0
0.0   0.0   0.0
0.0010094617876916737   -0.0014423146177799046   -0.0005165407122862343
0.00014604915548689114   -0.0014357015237023297   -0.0003974952564107823
0.0001266204214478021   -0.0014673405382052281   -0.0003913945485752741
0.0   0.0   0.0
0.0010094617876916737   -0.0014423146177799046   -0.0005165407122862343
0.0001266204214478021   -0.0014673405382052281   -0.0003913945485752741
0.0   0.0   0.0
0.0   0.0   0.0
0.0009913187918663404   -0.0015141035774447517   -0.00033237807495454125
0.0   0.0   0.0
0.0   0.0   0.0
0.0009913187918663404   -0.0015141035774447517   -0.00033237807495454125
0.0022409246308035796   -0.0016911758143845225   -0.0003140666209259589
0.0   0.0   0.0
0.0021052976024681807   -0.001672482401906413   -0.00045806637145837125
0.0   0.0   0.0
0.0   0.0   0.0
0.0021052976024681807   -0.001672482401906413   -0.00045806637145837125
0.0   0.0   0.0
0.0   0.0   0.0
0.0021052976024681807   -0.001672482401906413   -0.00045806637145837125
0.0009936263860794471   -0.0015219947745749348   -0.00039581285129533186
0.0009913187918663404   -0.0015141035774447517   -0.00033237807495454125
0.0   0.0   0.0
0.0021052976024681807   -0.001672482401906413   -0.00045806637145837125
0.0009913187918663404   -0.0015141035774447517   -0.00033237807495454125
0.0   0.0   0.0
0.0   0.0   0.0
0.0009936263860794471   -0.0015219947745749348   -0.00039581285129533186
0.0   0.0   0.0
0.0   0.0   0.0
0.0009936263860794471   -0.0015219947745749348   -0.00039581285129533186
0.0021052976024681807   -0.001672482401906413   -0.00045806637145837125
0.0   0.0   0.0
0.0020429666487258016   -0.0016377157247217343   -0.0005798875390155472
0.0   0.0   0.0
0.0   0.0   0.0
0.0020429666487258016   -0.0016377157247217343   -0.0005798875390155472
0.0   0.0   0.0
0.0   0.0   0.0
0.0020429666487258016   -0.0016377157247217343   -0.0005798875390155472
0.0009898403806235952   -0.0015002651673193161   -0.0004567313341032943
0.0009936263860794471   -0.0015219947745749348   -0.00039581285129533186
0.0   0.0   0.0
0.0020429666487258016   -0.0016377157247217343   -0.0005798875390155472
0.0009936263860794471   -0.0015219947745749348   -0.00039581285129533186
0.0   0.0   0.0
0.0   0.0   0.0
0.0009898403806235952   -0.0015002651673193161   -0.0004567313341032943
0.0   0.0   0.0
0.0   0.0   0.0
0.0009898403806235952   -0.0015002651673193161   -0.0004567313341032943
0.0020429666487258016   -0.0016377157247217343   -0.0005798875390155472
0.0   0.0   0.0
0.0019498452005633337   -0.0015489415480140817   -0.0007089133551915268
0.0   0.0   0.0
0.0   0.0   0.0
0.0019498452005633337   -0.0015489415480140817   -0.0007089133551915268
0.0   0.0   0.0
0.0   0.0   0.0
0.0019498452005633337   -0.0015489415480140817   -0.0007089133551915268
0.0010094617876916737   -0.0014423146177799046   -0.0005165407122862343
0.0009898403806235952   -0.0015002651673193161   -0.0004567313341032943
0.0   0.0   0.0
0.0019498452005633337   -0.0015489415480140817   -0.0007089133551915268
0.0009898403806235952   -0.0015002651673193161   -0.0004567313341032943
0.0   0.0   0.0
-0.002528156914613811   -0.0016653255186625338   -0.0008473179693585064
-0.0047171826525746995   -0.004639067517264735   -0.0011417977170620586
-0.0016081126455711069   -0.0014977677157712024   -0.0006226061546237176
-0.0026453260416188684   -0.0017738503369524234   -0.0006804811528010322
-0.0047171826525746995   -0.004639067517264735   -0.0011417977170620586
-0.0030105712731445856   -0.0044885494813340105   -0.0009403341884785032
-0.0016081126455711069   -0.0014977677157712024   -0.0006226061546237176
-0.0030134064270585636   -0.00456495705549216   -0.0008471780216455233
-0.0026453260416188684   -0.0017738503369524234   -0.0006804811528010322
-0.0015758971088989352   -0.0015725410470574623   -0.0005217457529464732
-0.0030134064270585636   -0.00456495705549216   -0.0008471780216455233
-0.0016081126455711069   -0.0014977677157712024   -0.0006226061546237176
-0.0026453260416188684   -0.0017738503369524234   -0.0006804811528010322
-0.0030134064270585636   -0.00456495705549216   -0.0008471780216455233
-0.004857554458819012   -0.004745761981856822   -0.0009906356425591456
-0.0047171826525746995   -0.004639067517264735   -0.0011417977170620586
-0.0026453260416188684   -0.0017738503369524234   -0.0006804811528010322
-0.0030134064270585636   -0.00456495705549216   -0.0008471780216455233
-0.0047171826525746995   -0.004639067517264735   -0.0011417977170620586
-0.0016081126455711069   -0.0014977677157712024   -0.0006226061546237176
-0.0026453260416188684   -0.0017738503369524234   -0.0006804811528010322
-0.004857554458819012   -0.004745761981856822   -0.0009906356425591456
-0.0015758971088989352   -0.0015725410470574623   -0.0005217457529464732
-0.0027274081126095902   -0.0018266469161087307   -0.0005207220105192984
-0.004857554458819012   -0.004745761981856822   -0.0009906356425591456
-0.0030134064270585636   -0.00456495705549216   -0.0008471780216455233
-0.0015758971088989352   -0.0015725410470574623   -0.0005217457529464732
-0.003024498929095152   -0.004611602140775095   -0.0007577058199375787
-0.0027274081126095902   -0.0018266469161087307   -0.0005207220105192984
-0.0015798956155890077   -0.0016109113337670557   -0.0004210814650069795
-0.003024498929095152   -0.004611602140775095   -0.0007577058199375787
-0.0015758971088989352   -0.0015725410470574623   -0.0005217457529464732
-0.0027274081126095902   -0.0018266469161087307   -0.0005207220105192984
-0.003024498929095152   -0.004611602140775095   -0.0007577058199375787
-0.004954779204614194   -0.004806082138469455   -0.0008426871504406111
-0.004857554458819012   -0.004745761981856822   -0.0009906356425591456
-0.0027274081126095902   -0.0018266469161087307   -0.0005207220105192984
-0.003024498929095152   -0.004611602140775095   -0.0007577058199375787
-0.004857554458819012   -0.004745761981856822   -0.0009906356425591456
-0.0015758971088989352   -0.0015725410470574623   -0.0005217457529464732
-0.0027274081126095902   -0.0018266469161087307   -0.0005207220105192984
-0.004954779204614194   -0.004806082138469455   -0.0008426871504406111
-0.0015798956155890077   -0.0016109113337670557   -0.0004210814650069795
-0.0029046779163341956   -0.0018668050992631945   -0.000335441442853464
-0.004954779204614194   -0.004806082138469455   -0.0008426871504406111
-0.003024498929095152   -0.004611602140775095   -0.0007577058199375787
-0.0015798956155890077   -0.0016109113337670557   -0.0004210814650069795
-0.0030146836582180944   -0.0046359181844353985   -0.0006740037876737428
-0.0029046779163341956   -0.0018668050992631945   -0.000335441442853464
-0.0015785626441709357   -0.001620841265444971   -0.00031705663680428397
-0.0030146836582180944   -0.0046359181844353985   -0.0006740037876737428
-0.0015798956155890077   -0.0016109113337670557   -0.0004210814650069795
-0.0029046779163341956   -0.0018668050992631945   -0.000335441442853464
-0.0030146836582180944   -0.0046359181844353985   -0.0006740037876737428
-0.005069661919225183   -0.0048413522011161855   -0.0007081859155372219
-0.004954779204614194   -0.004806082138469455   -0.0008426871504406111
-0.0029046779163341956   -0.0018668050992631945   -0.000335441442853464
-0.0030146836582180944   -0.0046359181844353985   -0.0006740037876737428
-0.004954779204614194   -0.004806082138469455   -0.0008426871504406111
-0.0015798956155890077   -0.0016109113337670557   -0.0004210814650069795
-0.0016081126455711069   -0.0014977677157712024   -0.0006226061546237176
-0.0030105712731445856   -0.0044885494813340105   -0.0009403341884785032
-0.0007328587323346716   -0.0014364076758937962   -0.00047375828942568287
-0.0015758971088989352   -0.0015725410470574623   -0.0005217457529464732
-0.0030105712731445856   -0.0044885494813340105   -0.0009403341884785032
-0.0013981467999041443   -0.004418505979809087   -0.000802877740733691
-0.0007328587323346716   -0.0014364076758937962   -0.00047375828942568287
-0.0013853505972088464   -0.004467066297957313   -0.0007550722642932864
-0.0015758971088989352   -0.0015725410470574623   -0.0005217457529464732
-0.0007044186650820087   -0.001485023592201874   -0.00042608939499031465
-0.0013853505972088464   -0.004467066297957313   -0.0007550722642932864
-0.0007328587323346716   -0.0014364076758937962   -0.00047375828942568287
-0.0015758971088989352   -0.0015725410470574623   -0.0005217457529464732
-0.0013853505972088464   -0.004467066297957313   -0.0007550722642932864
-0.0030134064270585636   -0.00456495705549216   -0.0008471780216455233
-0.0030105712731445856   -0.0044885494813340105   -0.0009403341884785032
-0.0015758971088989352   -0.0015725410470574623   -0.0005217457529464732
-0.0013853505972088464   -0.004467066297957313   -0.0007550722642932864
-0.0030105712731445856   -0.0044885494813340105   -0.0009403341884785032
-0.0007328587323346716   -0.0014364076758937962   -0.00047375828942568287
-0.0015758971088989352   -0.0015725410470574623   -0.0005217457529464732
-0.0030134064270585636   -0.00456495705549216   -0.0008471780216455233
-0.0007044186650820087   -0.001485023592201874   -0.00042608939499031465
-0.0015798956155890077   -0.0016109113337670557   -0.0004210814650069795
-0.0030134064270585636   -0.00456495705549216   -0.0008471780216455233
-0.0013853505972088464   -0.004467066297957313   -0.0007550722642932864
-0.0007044186650820087   -0.001485023592201874   -0.00042608939499031465
-0.0013739284270503284   -0.004490643220905492   -0.0007117672044326368
-0.0015798956155890077   -0.0016109113337670557   -0.0004210814650069795
-0.0006882636149995028   -0.0015035724521110922   -0.00037971541712233134
-0.0013739284270503284   -0.004490643220905492   -0.0007117672044326368
-0.0007044186650820087   -0.001485023592201874   -0.00042608939499031465
-0.0015798956155890077   -0.0016109113337670557   -0.0004210814650069795
-0.0013739284270503284   -0.004490643220905492   -0.0007117672044326368
-0.003024498929095152   -0.004611602140775095   -0.0007577058199375787
-0.0030134064270585636   -0.00456495705549216   -0.0008471780216455233
-0.0015798956155890077   -0.0016109113337670557   -0.0004210814650069795
-0.0013739284270503284   -0.004490643220905492   -0.0007117672044326368
-0.0030134064270585636   -0.00456495705549216   -0.0008471780216455233
-0.0007044186650820087   -0.001485023592201874   -0.00042608939499031465
-0.0015798956155890077   -0.0016109113337670557   -0.0004210814650069795
-0.003024498929095152   -0.004611602140775095   -0.0007577058199375787
-0.0006882636149995028   -0.0015035724521110922   -0.00037971541712233134
-0.0015785626441709357   -0.001620841265444971   -0.00031705663680428397
-0.003024498929095152   -0.004611602140775095   -0.0007577058199375787
-0.0013739284270503284   -0.004490643220905492   -0.0007117672044326368
-0.0006882636149995028   -0.0015035724521110922   -0.00037971541712233134
-0.001357225520292516   -0.0044901236051713   -0.0006741024311863966
-0.0015785626441709357   -0.001620841265444971   -0.00031705663680428397
-0.0006734795325166447   -0.0014958765028534248   -0.00033182536058276656
-0.001357225520292516   -0.0044901236051713   -0.0006741024311863966
-0.0006882636149995028   -0.0015035724521110922   -0.00037971541712233134
-0.0015785626441709357   -0.001620841265444971   -0.00031705663680428397
-0.001357225520292516   -0.0044901236051713   -0.0006741024311863966
-0.0030146836582180944   -0.0046359181844353985   -0.0006740037876737428
-0.003024498929095152   -0.004611602140775095   -0.0007577058199375787
-0.0015785626441709357   -0.001620841265444971   -0.00031705663680428397
-0.001357225520292516   -0.0044901236051713   -0.0006741024311863966
-0.003024498929095152   -0.004611602140775095   -0.0007577058199375787
-0.0006882636149995028   -0.0015035724521110922   -0.00037971541712233134
-0.0007328587323346716   -0.0014364076758937962   -0.00047375828942568287
-0.0013981467999041443   -0.004418505979809087   -0.000802877740733691
9.371079704773014e-05   -0.0014443392267628886   -0.000379042188901675
-0.0007044186650820087   -0.001485023592201874   -0.00042608939499031465
-0.0013981467999041443   -0.004418505979809087   -0.000802877740733691
0.00015625137573050982   -0.004420635470127097   -0.0007161450548676893
9.371079704773014e-05   -0.0014443392267628886   -0.000379042188901675
0.00017185206793707516   -0.00444353025437283   -0.0007128438700142227
-0.0007044186650820087   -0.001485023592201874   -0.00042608939499031465
0.00011207069924294416   -0.0014694770814255719   -0.00038550949814318965
0.00017185206793707516   -0.00444353025437283   -0.0007128438700142227
9.371079704773014e-05   -0.0014443392267628886   -0.000379042188901675
-0.0007044186650820087   -0.001485023592201874   -0.00042608939499031465
0.00017185206793707516   -0.00444353025437283   -0.0007128438700142227
-0.0013853505972088464   -0.004467066297957313   -0.0007550722642932864
-0.0013981467999041443   -0.004418505979809087   -0.000802877740733691
-0.0007044186650820087   -0.001485023592201874   -0.00042608939499031465
0.00017185206793707516   -0.00444353025437283   -0.0007128438700142227
-0.0013981467999041443   -0.004418505979809087   -0.000802877740733691
9.371079704773014e-05   -0.0014443392267628886   -0.000379042188901675
-0.0007044186650820087   -0.001485023592201874   -0.00042608939499031465
-0.0013853505972088464   -0.004467066297957313   -0.0007550722642932864
0.00011207069924294416   -0.0014694770814255719   -0.00038550949814318965
-0.0006882636149995028   -0.0015035724521110922   -0.00037971541712233134
-0.0013853505972088464   -0.004467066297957313   -0.0007550722642932864
0.00017185206793707516   -0.00444353025437283   -0.0007128438700142227
0.00011207069924294416   -0.0014694770814255719   -0.00038550949814318965
0.00018258207859950232   -0.00444202474668219   -0.0007146477909751312
-0.0006882636149995028   -0.0015035724521110922   -0.00037971541712233134
0.0001266204214478021   -0.0014673405382052281   -0.0003913945485752741
0.00018258207859950232   -0.00444202474668219   -0.0007146477909751312
0.00011207069924294416   -0.0014694770814255719   -0.00038550949814318965
-0.0006882636149995028   -0.0015035724521110922   -0.00037971541712233134
0.00018258207859950232   -0.00444202474668219   -0.0007146477909751312
-0.0013739284270503284   -0.004490643220905492   -0.0007117672044326368
-0.0013853505972088464   -0.004467066297957313   -0.0007550722642932864
-0.0006882636149995028   -0.0015035724521110922   -0.00037971541712233134
0.00018258207859950232   -0.00444202474668219   -0.0007146477909751312
-0.0013853505972088464   -0.004467066297957313   -0.0007550722642932864
0.00011207069924294416   -0.0014694770814255719   -0.00038550949814318965
-0.0006882636149995028   -0.0015035724521110922   -0.00037971541712233134
-0.0013739284270503284   -0.004490643220905492   -0.0007117672044326368
0.0001266204214478021   -0.0014673405382052281   -0.0003913945485752741
-0.0006734795325166447   -0.0014958765028534248   -0.00033182536058276656
-0.0013739284270503284   -0.004490643220905492   -0.0007117672044326368
0.00018258207859950232   -0.00444202474668219   -0.0007146477909751312
0.0001266204214478021   -0.0014673405382052281   -0.0003913945485752741
0.00019403909034959913   -0.004415377945850775   -0.0007216366157652005
-0.0006734795325166447   -0.0014958765028534248   -0.00033182536058276656
0.00014604915548689114   -0.0014357015237023297   -0.0003974952564107823
0.00019403909034959913   -0.004415377945850775   -0.0007216366157652005
0.0001266204214478021   -0.0014673405382052281   -0.0003913945485752741
-0.0006734795325166447   -0.0014958765028534248   -0.00033182536058276656
0.00019403909034959913   -0.004415377945850775   -0.0007216366157652005
-0.001357225520292516   -0.0044901236051713   -0.0006741024311863966
-0.0013739284270503284   -0.004490643220905492   -0.0007117672044326368
-0.0006734795325166447   -0.0014958765028534248   -0.00033182536058276656
0.00019403909034959913   -0.004415377945850775   -0.0007216366157652005
-0.0013739284270503284   -0.004490643220905492   -0.0007117672044326368
0.0001266204214478021   -0.0014673405382052281   -0.0003913945485752741
9.371079704773014e-05   -0.0014443392267628886   -0.000379042188901675
0.00015625137573050982   -0.004420635470127097   -0.0007161450548676893
0.0009913187918663404   -0.0015141035774447517   -0.00033237807495454125
0.00011207069924294416   -0.0014694770814255719   -0.00038550949814318965
0.00015625137573050982   -0.004420635470127097   -0.0007161450548676893
0.0018038859216353846   -0.004492347145028579   -0.0006759595581126766
0.0009913187918663404   -0.0015141035774447517   -0.00033237807495454125
0.0018131385408113724   -0.004491891829924836   -0.0007186007566923973
0.00011207069924294416   -0.0014694770814255719   -0.00038550949814318965
0.0009936263860794471   -0.0015219947745749348   -0.00039581285129533186
0.0018131385408113724   -0.004491891829924836   -0.0007186007566923973
0.0009913187918663404   -0.0015141035774447517   -0.00033237807495454125
0.00011207069924294416   -0.0014694770814255719   -0.00038550949814318965
0.0018131385408113724   -0.004491891829924836   -0.0007186007566923973
0.00017185206793707516   -0.00444353025437283   -0.0007128438700142227
0.00015625137573050982   -0.004420635470127097   -0.0007161450548676893
0.00011207069924294416   -0.0014694770814255719   -0.00038550949814318965
0.0018131385408113724   -0.004491891829924836   -0.0007186007566923973
0.00015625137573050982   -0.004420635470127097   -0.0007161450548676893
0.0009913187918663404   -0.0015141035774447517   -0.00033237807495454125
0.00011207069924294416   -0.0014694770814255719   -0.00038550949814318965
0.00017185206793707516   -0.00444353025437283   -0.0007128438700142227
0.0009936263860794471   -0.0015219947745749348   -0.00039581285129533186
0.0001266204214478021   -0.0014673405382052281   -0.0003913945485752741
0.00017185206793707516   -0.00444353025437283   -0.0007128438700142227
0.0018131385408113724   -0.004491891829924836   -0.0007186007566923973
0.0009936263860794471   -0.0015219947745749348   -0.00039581285129533186
0.0018056000436345943   -0.004467532767174588   -0.0007670171972752224
0.0001266204214478021   -0.0014673405382052281   -0.0003913945485752741
0.0009898403806235952   -0.0015002651673193161   -0.0004567313341032943
0.0018056000436345943   -0.004467532767174588   -0.0007670171972752224
0.0009936263860794471   -0.0015219947745749348   -0.00039581285129533186
0.0001266204214478021   -0.0014673405382052281   -0.0003913945485752741
0.0018056000436345943   -0.004467532767174588   -0.0007670171972752224
0.00018258207859950232   -0.00444202474668219   -0.0007146477909751312
0.00017185206793707516   -0.00444353025437283   -0.0007128438700142227
0.0001266204214478021   -0.0014673405382052281   -0.0003913945485752741
0.0018056000436345943   -0.004467532767174588   -0.0007670171972752224
0.00017185206793707516   -0.00444353025437283   -0.0007128438700142227
0.0009936263860794471   -0.0015219947745749348   -0.00039581285129533186
0.0001266204214478021   -0.0014673405382052281   -0.0003913945485752741
0.00018258207859950232   -0.00444202474668219   -0.0007146477909751312
0.0009898403806235952   -0.0015002651673193161   -0.0004567313341032943
0.00014604915548689114   -0.0014357015237023297   -0.0003974952564107823
0.00018258207859950232   -0.00444202474668219   -0.0007146477909751312
0.0018056000436345943   -0.004467532767174588   -0.0007670171972752224
0.0009898403806235952   -0.0015002651673193161   -0.0004567313341032943
0.0018015846934193228   -0.0044126426831989606   -0.0008194146765005834
0.00014604915548689114   -0.0014357015237023297   -0.0003974952564107823
0.0010094617876916737   -0.0014423146177799046   -0.0005165407122862343
0.0018015846934193228   -0.0044126426831989606   -0.0008194146765005834
0.0009898403806235952   -0.0015002651673193161   -0.0004567313341032943
0.00014604915548689114   -0.0014357015237023297   -0.0003974952564107823
0.0018015846934193228   -0.0044126426831989606   -0.0008194146765005834
0.00019403909034959913   -0.004415377945850775   -0.0007216366157652005
0.00018258207859950232   -0.00444202474668219   -0.0007146477909751312
0.00014604915548689114   -0.0014357015237023297   -0.0003974952564107823
0.0018015846934193228   -0.0044126426831989606   -0.0008194146765005834
0.00018258207859950232   -0.00444202474668219   -0.0007146477909751312
0.0009898403806235952   -0.0015002651673193161   -0.0004567313341032943
0.0009913187918663404   -0.0015141035774447517   -0.00033237807495454125
0.0018038859216353846   -0.004492347145028579   -0.0006759595581126766
0.0022409246308035796   -0.0016911758143845225   -0.0003140666209259589
0.0009936263860794471   -0.0015219947745749348   -0.00039581285129533186
0.0018038859216353846   -0.004492347145028579   -0.0006759595581126766
0.0037932011643059173   -0.00462549267139309   -0.0006657048282155478
0.0022409246308035796   -0.0016911758143845225   -0.0003140666209259589
0.003717276998997816   -0.004612540026510996   -0.0007617501961260385
0.0009936263860794471   -0.0015219947745749348   -0.00039581285129533186
0.0021052976024681807   -0.001672482401906413   -0.00045806637145837125
0.003717276998997816   -0.004612540026510996   -0.0007617501961260385
0.0022409246308035796   -0.0016911758143845225   -0.0003140666209259589
0.0009936263860794471   -0.0015219947745749348   -0.00039581285129533186
0.003717276998997816   -0.004612540026510996   -0.0007617501961260385
0.0018131385408113724   -0.004491891829924836   -0.0007186007566923973
0.0018038859216353846   -0.004492347145028579   -0.0006759595581126766
0.0009936263860794471   -0.0015219947745749348   -0.00039581285129533186
0.003717276998997816   -0.004612540026510996   -0.0007617501961260385
0.0018038859216353846   -0.004492347145028579   -0.0006759595581126766
0.0022409246308035796   -0.0016911758143845225   -0.0003140666209259589
0.0009936263860794471   -0.0015219947745749348   -0.00039581285129533186
0.0018131385408113724   -0.004491891829924836   -0.0007186007566923973
0.0021052976024681807   -0.001672482401906413   -0.00045806637145837125
0.0009898403806235952   -0.0015002651673193161   -0.0004567313341032943
0.0018131385408113724   -0.004491891829924836   -0.0007186007566923973
0.003717276998997816   -0.004612540026510996   -0.0007617501961260385
0.0021052976024681807   -0.001672482401906413   -0.00045806637145837125
0.0036493184727919466   -0.00457503319984222   -0.0008699370310041196
0.0009898403806235952   -0.0015002651673193161   -0.0004567313341032943
0.0020429666487258016   -0.0016377157247217343   -0.0005798875390155472
0.0036493184727919466   -0.00457503319984222   -0.0008699370310041196
0.0021052976024681807   -0.001672482401906413   -0.00045806637145837125
0.0009898403806235952   -0.0015002651673193161   -0.0004567313341032943
0.0036493184727919466   -0.00457503319984222   -0.0008699370310041196
0.0018056000436345943   -0.004467532767174588   -0.0007670171972752224
0.0018131385408113724   -0.004491891829924836   -0.0007186007566923973
0.0009898403806235952   -0.0015002651673193161   -0.0004567313341032943
0.0036493184727919466   -0.00457503319984222   -0.0008699370310041196
0.0018131385408113724   -0.004491891829924836   -0.0007186007566923973
0.0021052976024681807   -0.001672482401906413   -0.00045806637145837125
0.0009898403806235952   -0.0015002651673193161   -0.0004567313341032943
0.0018056000436345943   -0.004467532767174588   -0.0007670171972752224
0.0020429666487258016   -0.0016377157247217343   -0.0005798875390155472
0.0010094617876916737   -0.0014423146177799046   -0.0005165407122862343
0.0018056000436345943   -0.004467532767174588   -0.0007670171972752224
0.0036493184727919466   -0.00457503319984222   -0.0008699370310041196
0.0020429666487258016   -0.0016377157247217343   -0.0005798875390155472
0.0035469544856090453   -0.004491862487200377   -0.0009826394206205599
0.0010094617876916737   -0.0014423146177799046   -0.0005165407122862343
0.0019498452005633337   -0.0015489415480140817   -0.0007089133551915268
0.0035469544856090453   -0.004491862487200377   -0.0009826394206205599
0.0020429666487258016   -0.0016377157247217343   -0.0005798875390155472
0.0010094617876916737   -0.0014423146177799046   -0.0005165407122862343
0.0035469544856090453   -0.004491862487200377   -0.0009826394206205599
0.0018015846934193228   -0.0044126426831989606   -0.0008194146765005834
0.0018056000436345943   -0.004467532767174588   -0.0007670171972752224
0.0010094617876916737   -0.0014423146177799046   -0.0005165407122862343
0.0035469544856090453   -0.004491862487200377   -0.0009826394206205599
0.0018056000436345943   -0.004467532767174588   -0.0007670171972752224
0.0020429666487258016   -0.0016377157247217343   -0.0005798875390155472
-0.0047171826525746995   -0.004639067517264735   -0.0011417977170620586
-0.0064572303711504355   -0.008687240428877661   -0.0013012248865926152
-0.0030105712731445856   -0.0044885494813340105   -0.0009403341884785032
-0.004857554458819012   -0.004745761981856822   -0.0009906356425591456
-0.0064572303711504355   -0.008687240428877661   -0.0013012248865926152
-0.004152227419722195   -0.008572422695232024   -0.001138204027803132
-0.0030105712731445856   -0.0044885494813340105   -0.0009403341884785032
-0.00416044500587012   -0.008638238795669724   -0.00106605479014365
-0.004857554458819012   -0.004745761981856822   -0.0009906356425591456
-0.0030134064270585636   -0.00456495705549216   -0.0008471780216455233
-0.00416044500587012   -0.008638238795669724   -0.00106605479014365
-0.0030105712731445856   -0.0044885494813340105   -0.0009403341884785032
-0.004857554458819012   -0.004745761981856822   -0.0009906356425591456
-0.00416044500587012   -0.008638238795669724   -0.00106605479014365
-0.0065708355516770935   -0.00877724000183055   -0.0011887772447217164
-0.0064572303711504355   -0.008687240428877661   -0.0013012248865926152
-0.004857554458819012   -0.004745761981856822   -0.0009906356425591456
-0.00416044500587012   -0.008638238795669724   -0.00106605479014365
-0.0064572303711504355   -0.008687240428877661   -0.0013012248865926152
-0.0030105712731445856   -0.0044885494813340105   -0.0009403341884785032
-0.004857554458819012   -0.004745761981856822   -0.0009906356425591456
-0.0065708355516770935   -0.00877724000183055   -0.0011887772447217164
-0.0030134064270585636   -0.00456495705549216   -0.0008471780216455233
-0.004954779204614194   -0.004806082138469455   -0.0008426871504406111
-0.0065708355516770935   -0.00877724000183055   -0.0011887772447217164
-0.00416044500587012   -0.008638238795669724   -0.00106605479014365
-0.0030134064270585636   -0.00456495705549216   -0.0008471780216455233
-0.0041702299729737425   -0.0086841155031299   -0.0009991593110468
-0.004954779204614194   -0.004806082138469455   -0.0008426871504406111
-0.003024498929095152   -0.004611602140775095   -0.0007577058199375787
-0.0041702299729737425   -0.0086841155031299   -0.0009991593110468
-0.0030134064270585636   -0.00456495705549216   -0.0008471780216455233
-0.004954779204614194   -0.004806082138469455   -0.0008426871504406111
-0.0041702299729737425   -0.0086841155031299   -0.0009991593110468
-0.0066420469193928505   -0.008833760202054557   -0.0010840277243284965
-0.0065708355516770935   -0.00877724000183055   -0.0011887772447217164
-0.004954779204614194   -0.004806082138469455   -0.0008426871504406111
-0.0041702299729737425   -0.0086841155031299   -0.0009991593110468
-0.0065708355516770935   -0.00877724000183055   -0.0011887772447217164
-0.0030134064270585636   -0.00456495705549216   -0.0008471780216455233
-0.004954779204614194   -0.004806082138469455   -0.0008426871504406111
-0.0066420469193928505   -0.008833760202054557   -0.0010840277243284965
-0.003024498929095152   -0.004611602140775095   -0.0007577058199375787
-0.005069661919225183   -0.0048413522011161855   -0.0007081859155372219
-0.0066420469193928505   -0.008833760202054557   -0.0010840277243284965
-0.0041702299729737425   -0.0086841155031299   -0.0009991593110468
-0.003024498929095152   -0.004611602140775095   -0.0007577058199375787
-0.004161475005475919   -0.008714412317946663   -0.0009363961068425333
-0.005069661919225183   -0.0048413522011161855   -0.0007081859155372219
-0.0030146836582180944   -0.0046359181844353985   -0.0006740037876737428
-0.004161475005475919   -0.008714412317946663   -0.0009363961068425333
-0.003024498929095152   -0.004611602140775095   -0.0007577058199375787
-0.005069661919225183   -0.0048413522011161855   -0.0007081859155372219
-0.004161475005475919   -0.008714412317946663   -0.0009363961068425333
-0.006723070317088876   -0.008874593575948296   -0.000987697035097422
-0.0066420469193928505   -0.008833760202054557   -0.0010840277243284965
-0.005069661919225183   -0.0048413522011161855   -0.0007081859155372219
-0.004161475005475919   -0.008714412317946663   -0.0009363961068425333
-0.0066420469193928505   -0.008833760202054557   -0.0010840277243284965
-0.003024498929095152   -0.004611602140775095   -0.0007577058199375787
-0.0030105712731445856   -0.0044885494813340105   -0.0009403341884785032
-0.004152227419722195   -0.008572422695232024   -0.001138204027803132
-0.0013981467999041443   -0.004418505979809087   -0.000802877740733691
-0.0030134064270585636   -0.00456495705549216   -0.0008471780216455233
-0.004152227419722195   -0.008572422695232024   -0.001138204027803132
-0.0019801825400906172   -0.008515097950911002   -0.0010249844080982592
-0.0013981467999041443   -0.004418505979809087   -0.000802877740733691
-0.0019743441563731985   -0.008557114224874518   -0.00098412196678529
-0.0030134064270585636   -0.00456495705549216   -0.0008471780216455233
-0.0013853505972088464   -0.004467066297957313   -0.0007550722642932864
-0.0019743441563731985   -0.008557114224874518   -0.00098412196678529
-0.0013981467999041443   -0.004418505979809087   -0.000802877740733691
-0.0030134064270585636   -0.00456495705549216   -0.0008471780216455233
-0.0019743441563731985   -0.008557114224874518   -0.00098412196678529
-0.00416044500587012   -0.008638238795669724   -0.00106605479014365
-0.004152227419722195   -0.008572422695232024   -0.001138204027803132
-0.0030134064270585636   -0.00456495705549216   -0.0008471780216455233
-0.0019743441563731985   -0.008557114224874518   -0.00098412196678529
-0.004152227419722195   -0.008572422695232024   -0.001138204027803132
-0.0013981467999041443   -0.004418505979809087   -0.000802877740733691
-0.0030134064270585636   -0.00456495705549216   -0.0008471780216455233
-0.00416044500587012   -0.008638238795669724   -0.00106605479014365
-0.0013853505972088464   -0.004467066297957313   -0.0007550722642932864
-0.003024498929095152   -0.004611602140775095   -0.0007577058199375787
-0.00416044500587012   -0.008638238795669724   -0.00106605479014365
-0.0019743441563731985   -0.008557114224874518   -0.00098412196678529
-0.0013853505972088464   -0.004467066297957313   -0.0007550722642932864
-0.00196739556090496   -0.008581823558555392   -0.0009482567866416844
-0.003024498929095152   -0.004611602140775095   -0.0007577058199375787
-0.0013739284270503284   -0.004490643220905492   -0.0007117672044326368
-0.00196739556090496   -0.008581823558555392   -0.0009482567866416844
-0.0013853505972088464   -0.004467066297957313   -0.0007550722642932864
-0.003024498929095152   -0.004611602140775095   -0.0007577058199375787
-0.00196739556090496   -0.008581823558555392   -0.0009482567866416844
-0.0041702299729737425   -0.0086841155031299   -0.0009991593110468
-0.00416044500587012   -0.008638238795669724   -0.00106605479014365
-0.003024498929095152   -0.004611602140775095   -0.0007577058199375787
-0.00196739556090496   -0.008581823558555392   -0.0009482567866416844
-0.00416044500587012   -0.008638238795669724   -0.00106605479014365
-0.0013853505972088464   -0.004467066297957313   -0.0007550722642932864
-0.003024498929095152   -0.004611602140775095   -0.0007577058199375787
-0.0041702299729737425   -0.0086841155031299   -0.0009991593110468
-0.0013739284270503284   -0.004490643220905492   -0.0007117672044326368
-0.0030146836582180944   -0.0046359181844353985   -0.0006740037876737428
-0.0041702299729737425   -0.0086841155031299   -0.0009991593110468
-0.00196739556090496   -0.008581823558555392   -0.0009482567866416844
-0.0013739284270503284   -0.004490643220905492   -0.0007117672044326368
-0.001956522750015228   -0.008589579005387095   -0.0009173765573415412
-0.0030146836582180944   -0.0046359181844353985   -0.0006740037876737428
-0.001357225520292516   -0.0044901236051713   -0.0006741024311863966
-0.001956522750015228   -0.008589579005387095   -0.0009173765573415412
-0.0013739284270503284   -0.004490643220905492   -0.0007117672044326368
-0.0030146836582180944   -0.0046359181844353985   -0.0006740037876737428
-0.001956522750015228   -0.008589579005387095   -0.0009173765573415412
-0.004161475005475919   -0.008714412317946663   -0.0009363961068425333
-0.0041702299729737425   -0.0086841155031299   -0.0009991593110468
-0.0030146836582180944   -0.0046359181844353985   -0.0006740037876737428
-0.001956522750015228   -0.008589579005387095   -0.0009173765573415412
-0.0041702299729737425   -0.0086841155031299   -0.0009991593110468
-0.0013739284270503284   -0.004490643220905492   -0.0007117672044326368
-0.0013981467999041443   -0.004418505979809087   -0.000802877740733691
-0.0019801825400906172   -0.008515097950911002   -0.0010249844080982592
0.00015625137573050982   -0.004420635470127097   -0.0007161450548676893
-0.0013853505972088464   -0.004467066297957313   -0.0007550722642932864
-0.0019801825400906172   -0.008515097950911002   -0.0010249844080982592
0.00012769512927314545   -0.008512031639412223   -0.0009549705364126284
0.00015625137573050982   -0.004420635470127097   -0.0007161450548676893
0.00013772718099940826   -0.008530599145770848   -0.0009452329781828087
-0.0013853505972088464   -0.004467066297957313   -0.0007550722642932864
0.00017185206793707516   -0.00444353025437283   -0.0007128438700142227
0.00013772718099940826   -0.008530599145770848   -0.0009452329781828087
0.00015625137573050982   -0.004420635470127097   -0.0007161450548676893
-0.0013853505972088464   -0.004467066297957313   -0.0007550722642932864
0.00013772718099940826   -0.008530599145770848   -0.0009452329781828087
-0.0019743441563731985   -0.008557114224874518   -0.00098412196678529
-0.0019801825400906172   -0.008515097950911002   -0.0010249844080982592
-0.0013853505972088464   -0.004467066297957313   -0.0007550722642932864
0.00013772718099940826   -0.008530599145770848   -0.0009452329781828087
-0.0019801825400906172   -0.008515097950911002   -0.0010249844080982592
0.00015625137573050982   -0.004420635470127097   -0.0007161450548676893
-0.0013853505972088464   -0.004467066297957313   -0.0007550722642932864
-0.0019743441563731985   -0.008557114224874518   -0.00098412196678529
0.00017185206793707516   -0.00444353025437283   -0.0007128438700142227
-0.0013739284270503284   -0.004490643220905492   -0.0007117672044326368
-0.0019743441563731985   -0.008557114224874518   -0.00098412196678529
0.00013772718099940826   -0.008530599145770848   -0.0009452329781828087
0.00017185206793707516   -0.00444353025437283   -0.0007128438700142227
0.00014447215126347728   -0.008531927410399874   -0.0009403651524386064
-0.0013739284270503284   -0.004490643220905492   -0.0007117672044326368
0.00018258207859950232   -0.00444202474668219   -0.0007146477909751312
0.00014447215126347728   -0.008531927410399874   -0.0009403651524386064
0.00017185206793707516   -0.00444353025437283   -0.0007128438700142227
-0.0013739284270503284   -0.004490643220905492   -0.0007117672044326368
0.00014447215126347728   -0.008531927410399874   -0.0009403651524386064
-0.00196739556090496   -0.008581823558555392   -0.0009482567866416844
-0.0019743441563731985   -0.008557114224874518   -0.00098412196678529
-0.0013739284270503284   -0.004490643220905492   -0.0007117672044326368
0.00014447215126347728   -0.008531927410399874   -0.0009403651524386064
-0.0019743441563731985   -0.008557114224874518   -0.00098412196678529
0.00017185206793707516   -0.00444353025437283   -0.0007128438700142227
-0.0013739284270503284   -0.004490643220905492   -0.0007117672044326368
-0.00196739556090496   -0.008581823558555392   -0.0009482567866416844
0.00018258207859950232   -0.00444202474668219   -0.0007146477909751312
-0.001357225520292516   -0.0044901236051713   -0.0006741024311863966
-0.00196739556090496   -0.008581823558555392   -0.0009482567866416844
0.00014447215126347728   -0.008531927410399874   -0.0009403651524386064
0.00018258207859950232   -0.00444202474668219   -0.0007146477909751312
0.00014960435258331103   -0.008515760613765244   -0.0009406596303662278
-0.001357225520292516   -0.0044901236051713   -0.0006741024311863966
0.00019403909034959913   -0.004415377945850775   -0.0007216366157652005
0.00014960435258331103   -0.008515760613765244   -0.0009406596303662278
0.00018258207859950232   -0.00444202474668219   -0.0007146477909751312
-0.001357225520292516   -0.0044901236051713   -0.0006741024311863966
0.00014960435258331103   -0.008515760613765244   -0.0009406596303662278
-0.001956522750015228   -0.008589579005387095   -0.0009173765573415412
-0.00196739556090496   -0.008581823558555392   -0.0009482567866416844
-0.001357225520292516   -0.0044901236051713   -0.0006741024311863966
0.00014960435258331103   -0.008515760613765244   -0.0009406596303662278
-0.00196739556090496   -0.008581823558555392   -0.0009482567866416844
0.00018258207859950232   -0.00444202474668219   -0.0007146477909751312
0.00015625137573050982   -0.004420635470127097   -0.0007161450548676893
0.00012769512927314545   -0.008512031639412223   -0.0009549705364126284
0.0018038859216353846   -0.004492347145028579   -0.0006759595581126766
0.00017185206793707516   -0.00444353025437283   -0.0007128438700142227
0.00012769512927314545   -0.008512031639412223   -0.0009549705364126284
0.0023257880694624975   -0.008559990565603274   -0.0009269921440679667
0.0018038859216353846   -0.004492347145028579   -0.0006759595581126766
0.0023347510523232806   -0.008557033910487098   -0.0009490186580334207
0.00017185206793707516   -0.00444353025437283   -0.0007128438700142227
0.0018131385408113724   -0.004491891829924836   -0.0007186007566923973
0.0023347510523232806   -0.008557033910487098   -0.0009490186580334207
0.0018038859216353846   -0.004492347145028579   -0.0006759595581126766
0.00017185206793707516   -0.00444353025437283   -0.0007128438700142227
0.0023347510523232806   -0.008557033910487098   -0.0009490186580334207
0.00013772718099940826   -0.008530599145770848   -0.0009452329781828087
0.00012769512927314545   -0.008512031639412223   -0.0009549705364126284
0.00017185206793707516   -0.00444353025437283   -0.0007128438700142227
0.0023347510523232806   -0.008557033910487098   -0.0009490186580334207
0.00012769512927314545   -0.008512031639412223   -0.0009549705364126284
0.0018038859216353846   -0.004492347145028579   -0.0006759595581126766
0.00017185206793707516   -0.00444353025437283   -0.0007128438700142227
0.00013772718099940826   -0.008530599145770848   -0.0009452329781828087
0.0018131385408113724   -0.004491891829924836   -0.0007186007566923973
0.00018258207859950232   -0.00444202474668219   -0.0007146477909751312
0.00013772718099940826   -0.008530599145770848   -0.0009452329781828087
0.0023347510523232806   -0.008557033910487098   -0.0009490186580334207
0.0018131385408113724   -0.004491891829924836   -0.0007186007566923973
0.0023298457084389586   -0.008537237931592499   -0.0009755570921138944
0.00018258207859950232   -0.00444202474668219   -0.0007146477909751312
0.0018056000436345943   -0.004467532767174588   -0.0007670171972752224
0.0023298457084389586   -0.008537237931592499   -0.0009755570921138944
0.0018131385408113724   -0.004491891829924836   -0.0007186007566923973
0.00018258207859950232   -0.00444202474668219   -0.0007146477909751312
0.0023298457084389586   -0.008537237931592499   -0.0009755570921138944
0.00014447215126347728   -0.008531927410399874   -0.0009403651524386064
0.00013772718099940826   -0.008530599145770848   -0.0009452329781828087
0.00018258207859950232   -0.00444202474668219   -0.0007146477909751312
0.0023298457084389586   -0.008537237931592499   -0.0009755570921138944
0.00013772718099940826   -0.008530599145770848   -0.0009452329781828087
0.0018131385408113724   -0.004491891829924836   -0.0007186007566923973
0.00018258207859950232   -0.00444202474668219   -0.0007146477909751312
0.00014447215126347728   -0.008531927410399874   -0.0009403651524386064
0.0018056000436345943   -0.004467532767174588   -0.0007670171972752224
0.00019403909034959913   -0.004415377945850775   -0.0007216366157652005
0.00014447215126347728   -0.008531927410399874   -0.0009403651524386064
0.0023298457084389586   -0.008537237931592499   -0.0009755570921138944
0.0018056000436345943   -0.004467532767174588   -0.0007670171972752224
0.002321932394182545   -0.008496399351898437   -0.001007144718757825
0.00019403909034959913   -0.004415377945850775   -0.0007216366157652005
0.0018015846934193228   -0.0044126426831989606   -0.0008194146765005834
0.002321932394182545   -0.008496399351898437   -0.001007144718757825
0.0018056000436345943   -0.004467532767174588   -0.0007670171972752224
0.00019403909034959913   -0.004415377945850775   -0.0007216366157652005
0.002321932394182545   -0.008496399351898437   -0.001007144718757825
0.00014960435258331103   -0.008515760613765244   -0.0009406596303662278
0.00014447215126347728   -0.008531927410399874   -0.0009403651524386064
0.00019403909034959913   -0.004415377945850775   -0.0007216366157652005
0.002321932394182545   -0.008496399351898437   -0.001007144718757825
0.00014447215126347728   -0.008531927410399874   -0.0009403651524386064
0.0018056000436345943   -0.004467532767174588   -0.0007670171972752224
0.0018038859216353846   -0.004492347145028579   -0.0006759595581126766
0.0023257880694624975   -0.008559990565603274   -0.0009269921440679667
0.0037932011643059173   -0.00462549267139309   -0.0006657048282155478
0.0018131385408113724   -0.004491891829924836   -0.0007186007566923973
0.0023257880694624975   -0.008559990565603274   -0.0009269921440679667
0.004829609772668301   -0.008646777769289701   -0.0009282853443093763
0.0037932011643059173   -0.00462549267139309   -0.0006657048282155478
0.0047890816369385745   -0.008631369605214281   -0.0009860656764342005
0.0018131385408113724   -0.004491891829924836   -0.0007186007566923973
0.003717276998997816   -0.004612540026510996   -0.0007617501961260385
0.0047890816369385745   -0.008631369605214281   -0.0009860656764342005
0.0037932011643059173   -0.00462549267139309   -0.0006657048282155478
0.0018131385408113724   -0.004491891829924836   -0.0007186007566923973
0.0047890816369385745   -0.008631369605214281   -0.0009860656764342005
0.0023347510523232806   -0.008557033910487098   -0.0009490186580334207
0.0023257880694624975   -0.008559990565603274   -0.0009269921440679667
0.0018131385408113724   -0.004491891829924836   -0.0007186007566923973
0.0047890816369385745   -0.008631369605214281   -0.0009860656764342005
0.0023257880694624975   -0.008559990565603274   -0.0009269921440679667
0.0037932011643059173   -0.00462549267139309   -0.0006657048282155478
0.0018131385408113724   -0.004491891829924836   -0.0007186007566923973
0.0023347510523232806   -0.008557033910487098   -0.0009490186580334207
0.003717276998997816   -0.004612540026510996   -0.0007617501961260385
0.0018056000436345943   -0.004467532767174588   -0.0007670171972752224
0.0023347510523232806   -0.008557033910487098   -0.0009490186580334207
0.0047890816369385745   -0.008631369605214281   -0.0009860656764342005
0.003717276998997816   -0.004612540026510996   -0.0007617501961260385
0.0047484171854806625   -0.008600950013918272   -0.0010519829095227721
0.0018056000436345943   -0.004467532767174588   -0.0007670171972752224
0.0036493184727919466   -0.00457503319984222   -0.0008699370310041196
0.0047484171854806625   -0.008600950013918272   -0.0010519829095227721
0.003717276998997816   -0.004612540026510996   -0.0007617501961260385
0.0018056000436345943   -0.004467532767174588   -0.0007670171972752224
0.0047484171854806625   -0.008600950013918272   -0.0010519829095227721
0.0023298457084389586   -0.008537237931592499   -0.0009755570921138944
0.0023347510523232806   -0.008557033910487098   -0.0009490186580334207
0.0018056000436345943   -0.004467532767174588   -0.0007670171972752224
0.0047484171854806625   -0.008600950013918272   -0.0010519829095227721
0.0023347510523232806   -0.008557033910487098   -0.0009490186580334207
0.003717276998997816   -0.004612540026510996   -0.0007617501961260385
0.0018056000436345943   -0.004467532767174588   -0.0007670171972752224
0.0023298457084389586   -0.008537237931592499   -0.0009755570921138944
0.0036493184727919466   -0.00457503319984222   -0.0008699370310041196
0.0018015846934193228   -0.0044126426831989606   -0.0008194146765005834
0.0023298457084389586   -0.008537237931592499   -0.0009755570921138944
0.0047484171854806625   -0.008600950013918272   -0.0010519829095227721
0.0036493184727919466   -0.00457503319984222   -0.0008699370310041196
0.0046752139219517885   -0.008537462522678138   -0.001126046059670093
0.0018015846934193228   -0.0044126426831989606   -0.0008194146765005834
0.0035469544856090453   -0.004491862487200377   -0.0009826394206205599
0.0046752139219517885   -0.008537462522678138   -0.001126046059670093
0.0036493184727919466   -0.00457503319984222   -0.0008699370310041196
0.0018015846934193228   -0.0044126426831989606   -0.0008194146765005834
0.0046752139219517885   -0.008537462522678138   -0.001126046059670093
0.002321932394182545   -0.008496399351898437   -0.001007144718757825
0.0023298457084389586   -0.008537237931592499   -0.0009755570921138944
0.0018015846934193228   -0.0044126426831989606   -0.0008194146765005834
0.0046752139219517885   -0.008537462522678138   -0.001126046059670093
0.0023298457084389586   -0.008537237931592499   -0.0009755570921138944
0.0036493184727919466   -0.00457503319984222   -0.0008699370310041196
-0.0064572303711504355   -0.008687240428877661   -0.0013012248865926152
-0.0077044590262546   -0.013479873608595726   -0.0013887191533013378
-0.004152227419722195   -0.008572422695232024   -0.001138204027803132
-0.0065708355516770935   -0.00877724000183055   -0.0011887772447217164
-0.0077044590262546   -0.013479873608595726   -0.0013887191533013378
-0.005002711362830333   -0.013407017265547966   -0.0012561431230707174
-0.004152227419722195   -0.008572422695232024   -0.001138204027803132
-0.005007808540633459   -0.013463497713608665   -0.0012045996872379766
-0.0065708355516770935   -0.00877724000183055   -0.0011887772447217164
-0.00416044500587012   -0.008638238795669724   -0.00106605479014365
-0.005007808540633459   -0.013463497713608665   -0.0012045996872379766
-0.004152227419722195   -0.008572422695232024   -0.001138204027803132
-0.0065708355516770935   -0.00877724000183055   -0.0011887772447217164
-0.005007808540633459   -0.013463497713608665   -0.0012045996872379766
-0.0077804615335186605   -0.013556329938171987   -0.0013142899126279521
-0.0077044590262546   -0.013479873608595726   -0.0013887191533013378
-0.0065708355516770935   -0.00877724000183055   -0.0011887772447217164
-0.005007808540633459   -0.013463497713608665   -0.0012045996872379766
-0.0077044590262546   -0.013479873608595726   -0.0013887191533013378
-0.004152227419722195   -0.008572422695232024   -0.001138204027803132
-0.0065708355516770935   -0.00877724000183055   -0.0011887772447217164
-0.0077804615335186605   -0.013556329938171987   -0.0013142899126279521
-0.00416044500587012   -0.008638238795669724   -0.00106605479014365
-0.0066420469193928505   -0.008833760202054557   -0.0010840277243284965
-0.0077804615335186605   -0.013556329938171987   -0.0013142899126279521
-0.005007808540633459   -0.013463497713608665   -0.0012045996872379766
-0.00416044500587012   -0.008638238795669724   -0.00106605479014365
-0.005011150681362375   -0.01350835440080615   -0.0011582087722790148
-0.0066420469193928505   -0.008833760202054557   -0.0010840277243284965
-0.0041702299729737425   -0.0086841155031299   -0.0009991593110468
-0.005011150681362375   -0.01350835440080615   -0.0011582087722790148
-0.00416044500587012   -0.008638238795669724   -0.00106605479014365
-0.0066420469193928505   -0.008833760202054557   -0.0010840277243284965
-0.005011150681362375   -0.01350835440080615   -0.0011582087722790148
-0.007823616647376245   -0.013610520107297575   -0.0012470420974193901
-0.0077804615335186605   -0.013556329938171987   -0.0013142899126279521
-0.0066420469193928505   -0.008833760202054557   -0.0010840277243284965
-0.005011150681362375   -0.01350835440080615   -0.0011582087722790148
-0.0077804615335186605   -0.013556329938171987   -0.0013142899126279521
-0.00416044500587012   -0.008638238795669724   -0.00106605479014365
-0.0066420469193928505   -0.008833760202054557   -0.0010840277243284965
-0.007823616647376245   -0.013610520107297575   -0.0012470420974193901
-0.0041702299729737425   -0.0086841155031299   -0.0009991593110468
-0.006723070317088876   -0.008874593575948296   -0.000987697035097422
-0.007823616647376245   -0.013610520107297575   -0.0012470420974193901
-0.005011150681362375   -0.01350835440080615   -0.0011582087722790148
-0.0041702299729737425   -0.0086841155031299   -0.0009991593110468
-0.004999851081473871   -0.013545315971498002   -0.0011162796255322772
-0.006723070317088876   -0.008874593575948296   -0.000987697035097422
-0.004161475005475919   -0.008714412317946663   -0.0009363961068425333
-0.004999851081473871   -0.013545315971498002   -0.0011162796255322772
-0.0041702299729737425   -0.0086841155031299   -0.0009991593110468
-0.006723070317088876   -0.008874593575948296   -0.000987697035097422
-0.004999851081473871   -0.013545315971498002   -0.0011162796255322772
-0.007867992087709663   -0.013659258639929046   -0.0011878346877093823
-0.007823616647376245   -0.013610520107297575   -0.0012470420974193901
-0.006723070317088876   -0.008874593575948296   -0.000987697035097422
-0.004999851081473871   -0.013545315971498002   -0.0011162796255322772
-0.007823616647376245   -0.013610520107297575   -0.0012470420974193901
-0.0041702299729737425   -0.0086841155031299   -0.0009991593110468
-0.004152227419722195   -0.008572422695232024   -0.001138204027803132
-0.005002711362830333   -0.013407017265547966   -0.0012561431230707174
-0.0019801825400906172   -0.008515097950911002   -0.0010249844080982592
-0.00416044500587012   -0.008638238795669724   -0.00106605479014365
-0.005002711362830333   -0.013407017265547966   -0.0012561431230707174
-0.0024706652182176873   -0.01336922692415702   -0.0011643711120639683
-0.0019801825400906172   -0.008515097950911002   -0.0010249844080982592
-0.00246507715735986   -0.013404600272274095   -0.0011302345645167048
-0.00416044500587012   -0.008638238795669724   -0.00106605479014365
-0.0019743441563731985   -0.008557114224874518   -0.00098412196678529
-0.00246507715735986   -0.013404600272274095   -0.0011302345645167048
-0.0019801825400906172   -0.008515097950911002   -0.0010249844080982592
-0.00416044500587012   -0.008638238795669724   -0.00106605479014365
-0.00246507715735986   -0.013404600272274095   -0.0011302345645167048
-0.005007808540633459   -0.013463497713608665   -0.0012045996872379766
-0.005002711362830333   -0.013407017265547966   -0.0012561431230707174
-0.00416044500587012   -0.008638238795669724   -0.00106605479014365
-0.00246507715735986   -0.013404600272274095   -0.0011302345645167048
-0.005002711362830333   -0.013407017265547966   -0.0012561431230707174
-0.0019801825400906172   -0.008515097950911002   -0.0010249844080982592
-0.00416044500587012   -0.008638238795669724   -0.00106605479014365
-0.005007808540633459   -0.013463497713608665   -0.0012045996872379766
-0.0019743441563731985   -0.008557114224874518   -0.00098412196678529
-0.0041702299729737425   -0.0086841155031299   -0.0009991593110468
-0.005007808540633459   -0.013463497713608665   -0.0012045996872379766
-0.00246507715735986   -0.013404600272274095   -0.0011302345645167048
-0.0019743441563731985   -0.008557114224874518   -0.00098412196678529
-0.002457783136852676   -0.013430224728930797   -0.0011011684285568352
-0.0041702299729737425   -0.0086841155031299   -0.0009991593110468
-0.00196739556090496   -0.008581823558555392   -0.0009482567866416844
-0.002457783136852676   -0.013430224728930797   -0.0011011684285568352
-0.0019743441563731985   -0.008557114224874518   -0.00098412196678529
-0.0041702299729737425   -0.0086841155031299   -0.0009991593110468
-0.002457783136852676   -0.013430224728930797   -0.0011011684285568352
-0.005011150681362375   -0.01350835440080615   -0.0011582087722790148
-0.005007808540633459   -0.013463497713608665   -0.0012045996872379766
-0.0041702299729737425   -0.0086841155031299   -0.0009991593110468
-0.002457783136852676   -0.013430224728930797   -0.0011011684285568352
-0.005007808540633459   -0.013463497713608665   -0.0012045996872379766
-0.0019743441563731985   -0.008557114224874518   -0.00098412196678529
-0.0041702299729737425   -0.0086841155031299   -0.0009991593110468
-0.005011150681362375   -0.01350835440080615   -0.0011582087722790148
-0.00196739556090496   -0.008581823558555392   -0.0009482567866416844
-0.004161475005475919   -0.008714412317946663   -0.0009363961068425333
-0.005011150681362375   -0.01350835440080615   -0.0011582087722790148
-0.002457783136852676   -0.013430224728930797   -0.0011011684285568352
-0.00196739556090496   -0.008581823558555392   -0.0009482567866416844
-0.0024473284164089957   -0.013446269243266425   -0.0010772601100456868
-0.004161475005475919   -0.008714412317946663   -0.0009363961068425333
-0.001956522750015228   -0.008589579005387095   -0.0009173765573415412
-0.0024473284164089957   -0.013446269243266425   -0.0010772601100456868
-0.00196739556090496   -0.008581823558555392   -0.0009482567866416844
-0.004161475005475919   -0.008714412317946663   -0.0009363961068425333
-0.0024473284164089957   -0.013446269243266425   -0.0010772601100456868
-0.004999851081473871   -0.013545315971498002   -0.0011162796255322772
-0.005011150681362375   -0.01350835440080615   -0.0011582087722790148
-0.004161475005475919   -0.008714412317946663   -0.0009363961068425333
-0.0024473284164089957   -0.013446269243266425   -0.0010772601100456868
-0.005011150681362375   -0.01350835440080615   -0.0011582087722790148
-0.00196739556090496   -0.008581823558555392   -0.0009482567866416844
-0.0019801825400906172   -0.008515097950911002   -0.0010249844080982592
-0.0024706652182176873   -0.01336922692415702   -0.0011643711120639683
0.00012769512927314545   -0.008512031639412223   -0.0009549705364126284
-0.0019743441563731985   -0.008557114224874518   -0.00098412196678529
-0.0024706652182176873   -0.01336922692415702   -0.0011643711120639683
-7.5993555613061834e-06   -0.013362643861079566   -0.001111118326790936
0.00012769512927314545   -0.008512031639412223   -0.0009549705364126284
2.155466504077058e-06   -0.013376768203027077   -0.0010945349892886958
-0.0019743441563731985   -0.008557114224874518   -0.00098412196678529
0.00013772718099940826   -0.008530599145770848   -0.0009452329781828087
2.155466504077058e-06   -0.013376768203027077   -0.0010945349892886958
0.00012769512927314545   -0.008512031639412223   -0.0009549705364126284
-0.0019743441563731985   -0.008557114224874518   -0.00098412196678529
2.155466504077058e-06   -0.013376768203027077   -0.0010945349892886958
-0.00246507715735986   -0.013404600272274095   -0.0011302345645167048
-0.0024706652182176873   -0.01336922692415702   -0.0011643711120639683
-0.0019743441563731985   -0.008557114224874518   -0.00098412196678529
2.155466504077058e-06   -0.013376768203027077   -0.0010945349892886958
-0.0024706652182176873   -0.01336922692415702   -0.0011643711120639683
0.00012769512927314545   -0.008512031639412223   -0.0009549705364126284
-0.0019743441563731985   -0.008557114224874518   -0.00098412196678529
-0.00246507715735986   -0.013404600272274095   -0.0011302345645167048
0.00013772718099940826   -0.008530599145770848   -0.0009452329781828087
-0.00196739556090496   -0.008581823558555392   -0.0009482567866416844
-0.00246507715735986   -0.013404600272274095   -0.0011302345645167048
2.155466504077058e-06   -0.013376768203027077   -0.0010945349892886958
0.00013772718099940826   -0.008530599145770848   -0.0009452329781828087
9.355332139345433e-06   -0.013381075292336956   -0.0010829610442924314
-0.00196739556090496   -0.008581823558555392   -0.0009482567866416844
0.00014447215126347728   -0.008531927410399874   -0.0009403651524386064
9.355332139345433e-06   -0.013381075292336956   -0.0010829610442924314
0.00013772718099940826   -0.008530599145770848   -0.0009452329781828087
-0.00196739556090496   -0.008581823558555392   -0.0009482567866416844
9.355332139345433e-06   -0.013381075292336956   -0.0010829610442924314
-0.002457783136852676   -0.013430224728930797   -0.0011011684285568352
-0.00246507715735986   -0.013404600272274095   -0.0011302345645167048
-0.00196739556090496   -0.008581823558555392   -0.0009482567866416844
9.355332139345433e-06   -0.013381075292336956   -0.0010829610442924314
-0.00246507715735986   -0.013404600272274095   -0.0011302345645167048
0.00013772718099940826   -0.008530599145770848   -0.0009452329781828087
-0.00196739556090496   -0.008581823558555392   -0.0009482567866416844
-0.002457783136852676   -0.013430224728930797   -0.0011011684285568352
0.00014447215126347728   -0.008531927410399874   -0.0009403651524386064
-0.001956522750015228   -0.008589579005387095   -0.0009173765573415412
-0.002457783136852676   -0.013430224728930797   -0.0011011684285568352
9.355332139345433e-06   -0.013381075292336956   -0.0010829610442924314
0.00014447215126347728   -0.008531927410399874   -0.0009403651524386064
1.4268551879206694e-05   -0.013375429741927172   -0.0010766154283128953
-0.001956522750015228   -0.008589579005387095   -0.0009173765573415412
0.00014960435258331103   -0.008515760613765244   -0.0009406596303662278
1.4268551879206694e-05   -0.013375429741927172   -0.0010766154283128953
0.00014447215126347728   -0.008531927410399874   -0.0009403651524386064
-0.001956522750015228   -0.008589579005387095   -0.0009173765573415412
1.4268551879206694e-05   -0.013375429741927172   -0.0010766154283128953
-0.0024473284164089957   -0.013446269243266425   -0.0010772601100456868
-0.002457783136852676   -0.013430224728930797   -0.0011011684285568352
-0.001956522750015228   -0.008589579005387095   -0.0009173765573415412
1.4268551879206694e-05   -0.013375429741927172   -0.0010766154283128953
-0.002457783136852676   -0.013430224728930797   -0.0011011684285568352
0.00014447215126347728   -0.008531927410399874   -0.0009403651524386064
0.00012769512927314545   -0.008512031639412223   -0.0009549705364126284
-7.5993555613061834e-06   -0.013362643861079566   -0.001111118326790936
0.0023257880694624975   -0.008559990565603274   -0.0009269921440679667
0.00013772718099940826   -0.008530599145770848   -0.0009452329781828087
-7.5993555613061834e-06   -0.013362643861079566   -0.001111118326790936
0.002540218930021571   -0.013384579683816558   -0.0010962037503636744
0.0023257880694624975   -0.008559990565603274   -0.0009269921440679667
0.0025520268549415605   -0.013378661942893097   -0.001097536420575632
0.00013772718099940826   -0.008530599145770848   -0.0009452329781828087
0.0023347510523232806   -0.008557033910487098   -0.0009490186580334207
0.0025520268549415605   -0.013378661942893097   -0.001097536420575632
0.0023257880694624975   -0.008559990565603274   -0.0009269921440679667
0.00013772718099940826   -0.008530599145770848   -0.0009452329781828087
0.0025520268549415605   -0.013378661942893097   -0.001097536420575632
2.155466504077058e-06   -0.013376768203027077   -0.0010945349892886958
-7.5993555613061834e-06   -0.013362643861079566   -0.001111118326790936
0.00013772718099940826   -0.008530599145770848   -0.0009452329781828087
0.0025520268549415605   -0.013378661942893097   -0.001097536420575632
-7.5993555613061834e-06   -0.013362643861079566   -0.001111118326790936
0.0023257880694624975   -0.008559990565603274   -0.0009269921440679667
0.00013772718099940826   -0.008530599145770848   -0.0009452329781828087
2.155466504077058e-06   -0.013376768203027077   -0.0010945349892886958
0.0023347510523232806   -0.008557033910487098   -0.0009490186580334207
0.00014447215126347728   -0.008531927410399874   -0.0009403651524386064
2.155466504077058e-06   -0.013376768203027077   -0.0010945349892886958
0.0025520268549415605   -0.013378661942893097   -0.001097536420575632
0.0023347510523232806   -0.008557033910487098   -0.0009490186580334207
0.002553900630793815   -0.013363713423416747   -0.0011036063921840231
0.00014447215126347728   -0.008531927410399874   -0.0009403651524386064
0.0023298457084389586   -0.008537237931592499   -0.0009755570921138944
0.002553900630793815   -0.013363713423416747   -0.0011036063921840231
0.0023347510523232806   -0.008557033910487098   -0.0009490186580334207
0.00014447215126347728   -0.008531927410399874   -0.0009403651524386064
0.002553900630793815   -0.013363713423416747   -0.0011036063921840231
9.355332139345433e-06   -0.013381075292336956   -0.0010829610442924314
2.155466504077058e-06   -0.013376768203027077   -0.0010945349892886958
0.00014447215126347728   -0.008531927410399874   -0.0009403651524386064
0.002553900630793815   -0.013363713423416747   -0.0011036063921840231
2.155466504077058e-06   -0.013376768203027077   -0.0010945349892886958
0.0023347510523232806   -0.008557033910487098   -0.0009490186580334207
0.00014447215126347728   -0.008531927410399874   -0.0009403651524386064
9.355332139345433e-06   -0.013381075292336956   -0.0010829610442924314
0.0023298457084389586   -0.008537237931592499   -0.0009755570921138944
0.00014960435258331103   -0.008515760613765244   -0.0009406596303662278
9.355332139345433e-06   -0.013381075292336956   -0.0010829610442924314
0.002553900630793815   -0.013363713423416747   -0.0011036063921840231
0.0023298457084389586   -0.008537237931592499   -0.0009755570921138944
0.002549323980108923   -0.013336026868437085   -0.001114597281378892
0.00014960435258331103   -0.008515760613765244   -0.0009406596303662278
0.002321932394182545   -0.008496399351898437   -0.001007144718757825
0.002549323980108923   -0.013336026868437085   -0.001114597281378892
0.0023298457084389586   -0.008537237931592499   -0.0009755570921138944
0.00014960435258331103   -0.008515760613765244   -0.0009406596303662278
0.002549323980108923   -0.013336026868437085   -0.001114597281378892
1.4268551879206694e-05   -0.013375429741927172   -0.0010766154283128953
9.355332139345433e-06   -0.013381075292336956   -0.0010829610442924314
0.00014960435258331103   -0.008515760613765244   -0.0009406596303662278
0.002549323980108923   -0.013336026868437085   -0.001114597281378892
9.355332139345433e-06   -0.013381075292336956   -0.0010829610442924314
0.0023298457084389586   -0.008537237931592499   -0.0009755570921138944
0.0023257880694624975   -0.008559990565603274   -0.0009269921440679667
0.002540218930021571   -0.013384579683816558   -0.0010962037503636744
0.004829609772668301   -0.008646777769289701   -0.0009282853443093763
0.0023347510523232806   -0.008557033910487098   -0.0009490186580334207
0.002540218930021571   -0.013384579683816558   -0.0010962037503636744
0.005353542024224476   -0.013424730090628388   -0.0011114202410324684
0.004829609772668301   -0.008646777769289701   -0.0009282853443093763
0.005350168610804423   -0.013405201668636508   -0.001131978448542839
0.0023347510523232806   -0.008557033910487098   -0.0009490186580334207
0.0047890816369385745   -0.008631369605214281   -0.0009860656764342005
0.005350168610804423   -0.013405201668636508   -0.001131978448542839
0.004829609772668301   -0.008646777769289701   -0.0009282853443093763
0.0023347510523232806   -0.008557033910487098   -0.0009490186580334207
0.005350168610804423   -0.013405201668636508   -0.001131978448542839
0.0025520268549415605   -0.013378661942893097   -0.001097536420575632
0.002540218930021571   -0.013384579683816558   -0.0010962037503636744
0.0023347510523232806   -0.008557033910487098   -0.0009490186580334207
0.005350168610804423   -0.013405201668636508   -0.001131978448542839
0.002540218930021571   -0.013384579683816558   -0.0010962037503636744
0.004829609772668301   -0.008646777769289701   -0.0009282853443093763
0.0023347510523232806   -0.008557033910487098   -0.0009490186580334207
0.0025520268549415605   -0.013378661942893097   -0.001097536420575632
0.0047890816369385745   -0.008631369605214281   -0.0009860656764342005
0.0023298457084389586   -0.008537237931592499   -0.0009755570921138944
0.0025520268549415605   -0.013378661942893097   -0.001097536420575632
0.005350168610804423   -0.013405201668636508   -0.001131978448542839
0.0047890816369385745   -0.008631369605214281   -0.0009860656764342005
0.005338151100504814   -0.013380888625062318   -0.0011602291723991816
0.0023298457084389586   -0.008537237931592499   -0.0009755570921138944
0.0047484171854806625   -0.008600950013918272   -0.0010519829095227721
0.005338151100504814   -0.013380888625062318   -0.0011602291723991816
0.0047890816369385745   -0.008631369605214281   -0.0009860656764342005
0.0023298457084389586   -0.008537237931592499   -0.0009755570921138944
0.005338151100504814   -0.013380888625062318   -0.0011602291723991816
0.002553900630793815   -0.013363713423416747   -0.0011036063921840231
0.0025520268549415605   -0.013378661942893097   -0.001097536420575632
0.0023298457084389586   -0.008537237931592499   -0.0009755570921138944
0.005338151100504814   -0.013380888625062318   -0.0011602291723991816
0.0025520268549415605   -0.013378661942893097   -0.001097536420575632
0.0047890816369385745   -0.008631369605214281   -0.0009860656764342005
0.0023298457084389586   -0.008537237931592499   -0.0009755570921138944
0.002553900630793815   -0.013363713423416747   -0.0011036063921840231
0.0047484171854806625   -0.008600950013918272   -0.0010519829095227721
0.002321932394182545   -0.008496399351898437   -0.001007144718757825
0.002553900630793815   -0.013363713423416747   -0.0011036063921840231
0.005338151100504814   -0.013380888625062318   -0.0011602291723991816
0.0047484171854806625   -0.008600950013918272   -0.0010519829095227721
0.005303086608327903   -0.013334853177041582   -0.0011961164934910537
0.002321932394182545   -0.008496399351898437   -0.001007144718757825
0.0046752139219517885   -0.008537462522678138   -0.001126046059670093
0.005303086608327903   -0.013334853177041582   -0.0011961164934910537
0.0047484171854806625   -0.008600950013918272   -0.0010519829095227721
0.002321932394182545   -0.008496399351898437   -0.001007144718757825
0.005303086608327903   -0.013334853177041582   -0.0011961164934910537
0.002549323980108923   -0.013336026868437085   -0.001114597281378892
0.002553900630793815   -0.013363713423416747   -0.0011036063921840231
0.002321932394182545   -0.008496399351898437   -0.001007144718757825
0.005303086608327903   -0.013334853177041582   -0.0011961164934910537
0.002553900630793815   -0.013363713423416747   -0.0011036063921840231
0.0047484171854806625   -0.008600950013918272   -0.0010519829095227721
-0.0077044590262546   -0.013479873608595726   -0.0013887191533013378
-0.008456579094800964   -0.018689558140832247   -0.0014152472442121734
-0.005002711362830333   -0.013407017265547966   -0.0012561431230707174
-0.0077804615335186605   -0.013556329938171987   -0.0013142899126279521
-0.008456579094800964   -0.018689558140832247   -0.0014152472442121734
-0.005559772191760149   -0.018660045604231096   -0.0013099461987472081
-0.005002711362830333   -0.013407017265547966   -0.0012561431230707174
-0.005556771099726633   -0.018708097510683697   -0.0012784014121735435
-0.0077804615335186605   -0.013556329938171987   -0.0013142899126279521
-0.005007808540633459   -0.013463497713608665   -0.0012045996872379766
-0.005556771099726633   -0.018708097510683697   -0.0012784014121735435
-0.005002711362830333   -0.013407017265547966   -0.0012561431230707174
-0.0077804615335186605   -0.013556329938171987   -0.0013142899126279521
-0.005556771099726633   -0.018708097510683697   -0.0012784014121735435
-0.008491502458271419   -0.018754195318431293   -0.0013770835528451346
-0.008456579094800964   -0.018689558140832247   -0.0014152472442121734
-0.0077804615335186605   -0.013556329938171987   -0.0013142899126279521
-0.005556771099726633   -0.018708097510683697   -0.0012784014121735435
-0.008456579094800964   -0.018689558140832247   -0.0014152472442121734
-0.005002711362830333   -0.013407017265547966   -0.0012561431230707174
-0.0077804615335186605   -0.013556329938171987   -0.0013142899126279521
-0.008491502458271419   -0.018754195318431293   -0.0013770835528451346
-0.005007808540633459   -0.013463497713608665   -0.0012045996872379766
-0.007823616647376245   -0.013610520107297575   -0.0012470420974193901
-0.008491502458271419   -0.018754195318431293   -0.0013770835528451346
-0.005556771099726633   -0.018708097510683697   -0.0012784014121735435
-0.005007808540633459   -0.013463497713608665   -0.0012045996872379766
-0.005548525933435491   -0.01875251956552868   -0.0012520974742533796
-0.007823616647376245   -0.013610520107297575   -0.0012470420974193901
-0.005011150681362375   -0.01350835440080615   -0.0011582087722790148
-0.005548525933435491   -0.01875251956552868   -0.0012520974742533796
-0.005007808540633459   -0.013463497713608665   -0.0012045996872379766
-0.007823616647376245   -0.013610520107297575   -0.0012470420974193901
-0.005548525933435491   -0.01875251956552868   -0.0012520974742533796
-0.008501975395115269   -0.01880702928590471   -0.001346460316243542
-0.008491502458271419   -0.018754195318431293   -0.0013770835528451346
-0.007823616647376245   -0.013610520107297575   -0.0012470420974193901
-0.005548525933435491   -0.01875251956552868   -0.0012520974742533796
-0.008491502458271419   -0.018754195318431293   -0.0013770835528451346
-0.005007808540633459   -0.013463497713608665   -0.0012045996872379766
-0.007823616647376245   -0.013610520107297575   -0.0012470420974193901
-0.008501975395115269   -0.01880702928590471   -0.001346460316243542
-0.005011150681362375   -0.01350835440080615   -0.0011582087722790148
-0.007867992087709663   -0.013659258639929046   -0.0011878346877093823
-0.008501975395115269   -0.01880702928590471   -0.001346460316243542
-0.005548525933435491   -0.01875251956552868   -0.0012520974742533796
-0.005011150681362375   -0.01350835440080615   -0.0011582087722790148
-0.00552940859532883   -0.01879670673352534   -0.0012306591008655382
-0.007867992087709663   -0.013659258639929046   -0.0011878346877093823
-0.004999851081473871   -0.013545315971498002   -0.0011162796255322772
-0.00552940859532883   -0.01879670673352534   -0.0012306591008655382
-0.005011150681362375   -0.01350835440080615   -0.0011582087722790148
-0.007867992087709663   -0.013659258639929046   -0.0011878346877093823
-0.00552940859532883   -0.01879670673352534   -0.0012306591008655382
-0.008504755560983688   -0.01886455714254268   -0.0013240342148958962
-0.008501975395115269   -0.01880702928590471   -0.001346460316243542
-0.007867992087709663   -0.013659258639929046   -0.0011878346877093823
-0.00552940859532883   -0.01879670673352534   -0.0012306591008655382
-0.008501975395115269   -0.01880702928590471   -0.001346460316243542
-0.005011150681362375   -0.01350835440080615   -0.0011582087722790148
-0.005002711362830333   -0.013407017265547966   -0.0012561431230707174
-0.005559772191760149   -0.018660045604231096   -0.0013099461987472081
-0.0024706652182176873   -0.01336922692415702   -0.0011643711120639683
-0.005007808540633459   -0.013463497713608665   -0.0012045996872379766
-0.005559772191760149   -0.018660045604231096   -0.0013099461987472081
-0.0028690274711254504   -0.018642928219287803   -0.0012382857256379432
-0.0024706652182176873   -0.01336922692415702   -0.0011643711120639683
-0.00285820248562751   -0.01867194493989864   -0.0012106542174823533
-0.005007808540633459   -0.013463497713608665   -0.0012045996872379766
-0.00246507715735986   -0.013404600272274095   -0.0011302345645167048
-0.00285820248562751   -0.01867194493989864   -0.0012106542174823533
-0.0024706652182176873   -0.01336922692415702   -0.0011643711120639683
-0.005007808540633459   -0.013463497713608665   -0.0012045996872379766
-0.00285820248562751   -0.01867194493989864   -0.0012106542174823533
-0.005556771099726633   -0.018708097510683697   -0.0012784014121735435
-0.005559772191760149   -0.018660045604231096   -0.0013099461987472081
-0.005007808540633459   -0.013463497713608665   -0.0012045996872379766
-0.00285820248562751   -0.01867194493989864   -0.0012106542174823533
-0.005559772191760149   -0.018660045604231096   -0.0013099461987472081
-0.0024706652182176873   -0.01336922692415702   -0.0011643711120639683
-0.005007808540633459   -0.013463497713608665   -0.0012045996872379766
-0.005556771099726633   -0.018708097510683697   -0.0012784014121735435
-0.00246507715735986   -0.013404600272274095   -0.0011302345645167048
-0.005011150681362375   -0.01350835440080615   -0.0011582087722790148
-0.005556771099726633   -0.018708097510683697   -0.0012784014121735435
-0.00285820248562751   -0.01867194493989864   -0.0012106542174823533
-0.00246507715735986   -0.013404600272274095   -0.0011302345645167048
-0.002845115801375873   -0.01869864021983578   -0.0011882636024740697
-0.005011150681362375   -0.01350835440080615   -0.0011582087722790148
-0.002457783136852676   -0.013430224728930797   -0.0011011684285568352
-0.002845115801375873   -0.01869864021983578   -0.0011882636024740697
-0.00246507715735986   -0.013404600272274095   -0.0011302345645167048
-0.005011150681362375   -0.01350835440080615   -0.0011582087722790148
-0.002845115801375873   -0.01869864021983578   -0.0011882636024740697
-0.005548525933435491   -0.01875251956552868   -0.0012520974742533796
-0.005556771099726633   -0.018708097510683697   -0.0012784014121735435
-0.005011150681362375   -0.01350835440080615   -0.0011582087722790148
-0.002845115801375873   -0.01869864021983578   -0.0011882636024740697
-0.005556771099726633   -0.018708097510683697   -0.0012784014121735435
-0.00246507715735986   -0.013404600272274095   -0.0011302345645167048
-0.005011150681362375   -0.01350835440080615   -0.0011582087722790148
-0.005548525933435491   -0.01875251956552868   -0.0012520974742533796
-0.002457783136852676   -0.013430224728930797   -0.0011011684285568352
-0.004999851081473871   -0.013545315971498002   -0.0011162796255322772
-0.005548525933435491   -0.01875251956552868   -0.0012520974742533796
-0.002845115801375873   -0.01869864021983578   -0.0011882636024740697
-0.002457783136852676   -0.013430224728930797   -0.0011011684285568352
-0.002829535097919924   -0.01872310342412416   -0.0011712439572293479
-0.004999851081473871   -0.013545315971498002   -0.0011162796255322772
-0.0024473284164089957   -0.013446269243266425   -0.0010772601100456868
-0.002829535097919924   -0.01872310342412416   -0.0011712439572293479
-0.002457783136852676   -0.013430224728930797   -0.0011011684285568352
-0.004999851081473871   -0.013545315971498002   -0.0011162796255322772
-0.002829535097919924   -0.01872310342412416   -0.0011712439572293479
-0.00552940859532883   -0.01879670673352534   -0.0012306591008655382
-0.005548525933435491   -0.01875251956552868   -0.0012520974742533796
-0.004999851081473871   -0.013545315971498002   -0.0011162796255322772
-0.002829535097919924   -0.01872310342412416   -0.0011712439572293479
-0.005548525933435491   -0.01875251956552868   -0.0012520974742533796
-0.002457783136852676   -0.013430224728930797   -0.0011011684285568352
-0.0024706652182176873   -0.01336922692415702   -0.0011643711120639683
-0.0028690274711254504   -0.018642928219287803   -0.0012382857256379432
-7.5993555613061834e-06   -0.013362643861079566   -0.001111118326790936
-0.00246507715735986   -0.013404600272274095   -0.0011302345645167048
-0.0028690274711254504   -0.018642928219287803   -0.0012382857256379432
-0.0002511383899976484   -0.018633002701877475   -0.001201434566220905
-7.5993555613061834e-06   -0.013362643861079566   -0.001111118326790936
-0.00023629549725184856   -0.01864260138538347   -0.0011780020744218155
-0.00246507715735986   -0.013404600272274095   -0.0011302345645167048
2.155466504077058e-06   -0.013376768203027077   -0.0010945349892886958
-0.00023629549725184856   -0.01864260138538347   -0.0011780020744218155
-7.5993555613061834e-06   -0.013362643861079566   -0.001111118326790936
-0.00246507715735986   -0.013404600272274095   -0.0011302345645167048
-0.00023629549725184856   -0.01864260138538347   -0.0011780020744218155
-0.00285820248562751   -0.01867194493989864   -0.0012106542174823533
-0.0028690274711254504   -0.018642928219287803   -0.0012382857256379432
-0.00246507715735986   -0.013404600272274095   -0.0011302345645167048
-0.00023629549725184856   -0.01864260138538347   -0.0011780020744218155
-0.0028690274711254504   -0.018642928219287803   -0.0012382857256379432
-7.5993555613061834e-06   -0.013362643861079566   -0.001111118326790936
-0.00246507715735986   -0.013404600272274095   -0.0011302345645167048
-0.00285820248562751   -0.01867194493989864   -0.0012106542174823533
2.155466504077058e-06   -0.013376768203027077   -0.0010945349892886958
-0.002457783136852676   -0.013430224728930797   -0.0011011684285568352
-0.00285820248562751   -0.01867194493989864   -0.0012106542174823533
-0.00023629549725184856   -0.01864260138538347   -0.0011780020744218155
2.155466504077058e-06   -0.013376768203027077   -0.0010945349892886958
-0.00022334256110916016   -0.01864970990642798   -0.00115976877003475
-0.002457783136852676   -0.013430224728930797   -0.0011011684285568352
9.355332139345433e-06   -0.013381075292336956   -0.0010829610442924314
-0.00022334256110916016   -0.01864970990642798   -0.00115976877003475
2.155466504077058e-06   -0.013376768203027077   -0.0010945349892886958
-0.002457783136852676   -0.013430224728930797   -0.0011011684285568352
-0.00022334256110916016   -0.01864970990642798   -0.00115976877003475
-0.002845115801375873   -0.01869864021983578   -0.0011882636024740697
-0.00285820248562751   -0.01867194493989864   -0.0012106542174823533
-0.002457783136852676   -0.013430224728930797   -0.0011011684285568352
-0.00022334256110916016   -0.01864970990642798   -0.00115976877003475
-0.00285820248562751   -0.01867194493989864   -0.0012106542174823533
2.155466504077058e-06   -0.013376768203027077   -0.0010945349892886958
-0.002457783136852676   -0.013430224728930797   -0.0011011684285568352
-0.002845115801375873   -0.01869864021983578   -0.0011882636024740697
9.355332139345433e-06   -0.013381075292336956   -0.0010829610442924314
-0.0024473284164089957   -0.013446269243266425   -0.0010772601100456868
-0.002845115801375873   -0.01869864021983578   -0.0011882636024740697
-0.00022334256110916016   -0.01864970990642798   -0.00115976877003475
9.355332139345433e-06   -0.013381075292336956   -0.0010829610442924314
-0.00021326889231891685   -0.018654289145237438   -0.0011469219839223132
-0.0024473284164089957   -0.013446269243266425   -0.0010772601100456868
1.4268551879206694e-05   -0.013375429741927172   -0.0010766154283128953
-0.00021326889231891685   -0.018654289145237438   -0.0011469219839223132
9.355332139345433e-06   -0.013381075292336956   -0.0010829610442924314
-0.0024473284164089957   -0.013446269243266425   -0.0010772601100456868
-0.00021326889231891685   -0.018654289145237438   -0.0011469219839223132
-0.002829535097919924   -0.01872310342412416   -0.0011712439572293479
-0.002845115801375873   -0.01869864021983578   -0.0011882636024740697
-0.0024473284164089957   -0.013446269243266425   -0.0010772601100456868
-0.00021326889231891685   -0.018654289145237438   -0.0011469219839223132
-0.002845115801375873   -0.01869864021983578   -0.0011882636024740697
9.355332139345433e-06   -0.013381075292336956   -0.0010829610442924314
-7.5993555613061834e-06   -0.013362643861079566   -0.001111118326790936
-0.0002511383899976484   -0.018633002701877475   -0.001201434566220905
0.002540218930021571   -0.013384579683816558   -0.0010962037503636744
2.155466504077058e-06   -0.013376768203027077   -0.0010945349892886958
-0.0002511383899976484   -0.018633002701877475   -0.001201434566220905
0.0024464781636346824   -0.018628552874234768   -0.0011997516309701398
0.002540218930021571   -0.013384579683816558   -0.0010962037503636744
0.002465957014410544   -0.0186193185458289   -0.0011807246701065778
2.155466504077058e-06   -0.013376768203027077   -0.0010945349892886958
0.0025520268549415605   -0.013378661942893097   -0.001097536420575632
0.002465957014410544   -0.0186193185458289   -0.0011807246701065778
0.002540218930021571   -0.013384579683816558   -0.0010962037503636744
2.155466504077058e-06   -0.013376768203027077   -0.0010945349892886958
0.002465957014410544   -0.0186193185458289   -0.0011807246701065778
-0.00023629549725184856   -0.01864260138538347   -0.0011780020744218155
-0.0002511383899976484   -0.018633002701877475   -0.001201434566220905
2.155466504077058e-06   -0.013376768203027077   -0.0010945349892886958
0.002465957014410544   -0.0186193185458289   -0.0011807246701065778
-0.0002511383899976484   -0.018633002701877475   -0.001201434566220905
0.002540218930021571   -0.013384579683816558   -0.0010962037503636744
2.155466504077058e-06   -0.013376768203027077   -0.0010945349892886958
-0.00023629549725184856   -0.01864260138538347   -0.0011780020744218155
0.0025520268549415605   -0.013378661942893097   -0.001097536420575632
9.355332139345433e-06   -0.013381075292336956   -0.0010829610442924314
-0.00023629549725184856   -0.01864260138538347   -0.0011780020744218155
0.002465957014410544   -0.0186193185458289   -0.0011807246701065778
0.0025520268549415605   -0.013378661942893097   -0.001097536420575632
0.002479331402337073   -0.018608703014686798   -0.0011667451327451437
9.355332139345433e-06   -0.013381075292336956   -0.0010829610442924314
0.002553900630793815   -0.013363713423416747   -0.0011036063921840231
0.002479331402337073   -0.018608703014686798   -0.0011667451327451437
0.0025520268549415605   -0.013378661942893097   -0.001097536420575632
9.355332139345433e-06   -0.013381075292336956   -0.0010829610442924314
0.002479331402337073   -0.018608703014686798   -0.0011667451327451437
-0.00022334256110916016   -0.01864970990642798   -0.00115976877003475
-0.00023629549725184856   -0.01864260138538347   -0.0011780020744218155
9.355332139345433e-06   -0.013381075292336956   -0.0010829610442924314
0.002479331402337073   -0.018608703014686798   -0.0011667451327451437
-0.00023629549725184856   -0.01864260138538347   -0.0011780020744218155
0.0025520268549415605   -0.013378661942893097   -0.001097536420575632
9.355332139345433e-06   -0.013381075292336956   -0.0010829610442924314
-0.00022334256110916016   -0.01864970990642798   -0.00115976877003475
0.002553900630793815   -0.013363713423416747   -0.0011036063921840231
1.4268551879206694e-05   -0.013375429741927172   -0.0010766154283128953
-0.00022334256110916016   -0.01864970990642798   -0.00115976877003475
0.002479331402337073   -0.018608703014686798   -0.0011667451327451437
0.002553900630793815   -0.013363713423416747   -0.0011036063921840231
0.002482765539585661   -0.018593270666615116   -0.001157711549431013
1.4268551879206694e-05   -0.013375429741927172   -0.0010766154283128953
0.002549323980108923   -0.013336026868437085   -0.001114597281378892
0.002482765539585661   -0.018593270666615116   -0.001157711549431013
0.002553900630793815   -0.013363713423416747   -0.0011036063921840231
1.4268551879206694e-05   -0.013375429741927172   -0.0010766154283128953
0.002482765539585661   -0.018593270666615116   -0.001157711549431013
-0.00021326889231891685   -0.018654289145237438   -0.0011469219839223132
-0.00022334256110916016   -0.01864970990642798   -0.00115976877003475
1.4268551879206694e-05   -0.013375429741927172   -0.0010766154283128953
0.002482765539585661   -0.018593270666615116   -0.001157711549431013
-0.00022334256110916016   -0.01864970990642798   -0.00115976877003475
0.002553900630793815   -0.013363713423416747   -0.0011036063921840231
0.002540218930021571   -0.013384579683816558   -0.0010962037503636744
0.0024464781636346824   -0.018628552874234768   -0.0011997516309701398
0.005353542024224476   -0.013424730090628388   -0.0011114202410324684
0.0025520268549415605   -0.013378661942893097   -0.001097536420575632
0.0024464781636346824   -0.018628552874234768   -0.0011997516309701398
0.005369175933167189   -0.018622150828613182   -0.0012298486666131624
0.005353542024224476   -0.013424730090628388   -0.0011114202410324684
0.005407001187432739   -0.018598001882557846   -0.0012139420282221054
0.0025520268549415605   -0.013378661942893097   -0.001097536420575632
0.005350168610804423   -0.013405201668636508   -0.001131978448542839
0.005407001187432739   -0.018598001882557846   -0.0012139420282221054
0.005353542024224476   -0.013424730090628388   -0.0011114202410324684
0.0025520268549415605   -0.013378661942893097   -0.001097536420575632
0.005407001187432739   -0.018598001882557846   -0.0012139420282221054
0.002465957014410544   -0.0186193185458289   -0.0011807246701065778
0.0024464781636346824   -0.018628552874234768   -0.0011997516309701398
0.0025520268549415605   -0.013378661942893097   -0.001097536420575632
0.005407001187432739   -0.018598001882557846   -0.0012139420282221054
0.0024464781636346824   -0.018628552874234768   -0.0011997516309701398
0.005353542024224476   -0.013424730090628388   -0.0011114202410324684
0.0025520268549415605   -0.013378661942893097   -0.001097536420575632
0.002465957014410544   -0.0186193185458289   -0.0011807246701065778
0.005350168610804423   -0.013405201668636508   -0.001131978448542839
0.002553900630793815   -0.013363713423416747   -0.0011036063921840231
0.002465957014410544   -0.0186193185458289   -0.0011807246701065778
0.005407001187432739   -0.018598001882557846   -0.0012139420282221054
0.005350168610804423   -0.013405201668636508   -0.001131978448542839
0.005427530732481358   -0.01857901345391915   -0.001205714274177984
0.002553900630793815   -0.013363713423416747   -0.0011036063921840231
0.005338151100504814   -0.013380888625062318   -0.0011602291723991816
0.005427530732481358   -0.01857901345391915   -0.001205714274177984
0.005350168610804423   -0.013405201668636508   -0.001131978448542839
0.002553900630793815   -0.013363713423416747   -0.0011036063921840231
0.005427530732481358   -0.01857901345391915   -0.001205714274177984
0.002479331402337073   -0.018608703014686798   -0.0011667451327451437
0.002465957014410544   -0.0186193185458289   -0.0011807246701065778
0.002553900630793815   -0.013363713423416747   -0.0011036063921840231
0.005427530732481358   -0.01857901345391915   -0.001205714274177984
0.002465957014410544   -0.0186193185458289   -0.0011807246701065778
0.005350168610804423   -0.013405201668636508   -0.001131978448542839
0.002553900630793815   -0.013363713423416747   -0.0011036063921840231
0.002479331402337073   -0.018608703014686798   -0.0011667451327451437
0.005338151100504814   -0.013380888625062318   -0.0011602291723991816
0.002549323980108923   -0.013336026868437085   -0.001114597281378892
0.002479331402337073   -0.018608703014686798   -0.0011667451327451437
0.005427530732481358   -0.01857901345391915   -0.001205714274177984
0.005338151100504814   -0.013380888625062318   -0.0011602291723991816
0.005433636141967731   -0.018548803116738673   -0.0012052966755922974
0.002549323980108923   -0.013336026868437085   -0.001114597281378892
0.005303086608327903   -0.013334853177041582   -0.0011961164934910537
0.005433636141967731   -0.018548803116738673   -0.0012052966755922974
0.005338151100504814   -0.013380888625062318   -0.0011602291723991816
0.002549323980108923   -0.013336026868437085   -0.001114597281378892
0.005433636141967731   -0.018548803116738673   -0.0012052966755922974
0.002482765539585661   -0.018593270666615116   -0.001157711549431013
0.002479331402337073   -0.018608703014686798   -0.0011667451327451437
0.002549323980108923   -0.013336026868437085   -0.001114597281378892
0.005433636141967731   -0.018548803116738673   -0.0012052966755922974
0.002479331402337073   -0.018608703014686798   -0.0011667451327451437
0.005338151100504814   -0.013380888625062318   -0.0011602291723991816
-0.008456579094800964   -0.018689558140832247   -0.0014152472442121734
-0.008715515727461313   -0.023986310711975798   -0.0013923904756831316
-0.005559772191760149   -0.018660045604231096   -0.0013099461987472081
-0.008491502458271419   -0.018754195318431293   -0.0013770835528451346
-0.008715515727461313   -0.023986310711975798   -0.0013923904756831316
-0.005825162866940011   -0.02400030833882748   -0.0013147876910103776
-0.005559772191760149   -0.018660045604231096   -0.0013099461987472081
-0.00580904188791689   -0.024039805912550467   -0.0013028697142853456
-0.008491502458271419   -0.018754195318431293   -0.0013770835528451346
-0.005556771099726633   -0.018708097510683697   -0.0012784014121735435
-0.00580904188791689   -0.024039805912550467   -0.0013028697142853456
-0.005559772191760149   -0.018660045604231096   -0.0013099461987472081
-0.008491502458271419   -0.018754195318431293   -0.0013770835528451346
-0.00580904188791689   -0.024039805912550467   -0.0013028697142853456
-0.008704680288727682   -0.02403919003974021   -0.0013902091215272216
-0.008715515727461313   -0.023986310711975798   -0.0013923904756831316
-0.008491502458271419   -0.018754195318431293   -0.0013770835528451346
-0.00580904188791689   -0.024039805912550467   -0.0013028697142853456
-0.008715515727461313   -0.023986310711975798   -0.0013923904756831316
-0.005559772191760149   -0.018660045604231096   -0.0013099461987472081
-0.008491502458271419   -0.018754195318431293   -0.0013770835528451346
-0.008704680288727682   -0.02403919003974021   -0.0013902091215272216
-0.005556771099726633   -0.018708097510683697   -0.0012784014121735435
-0.008501975395115269   -0.01880702928590471   -0.001346460316243542
-0.008704680288727682   -0.02403919003974021   -0.0013902091215272216
-0.00580904188791689   -0.024039805912550467   -0.0013028697142853456
-0.005556771099726633   -0.018708097510683697   -0.0012784014121735435
-0.005784210811655787   -0.02408368556411048   -0.0012963293390711279
-0.008501975395115269   -0.01880702928590471   -0.001346460316243542
-0.005548525933435491   -0.01875251956552868   -0.0012520974742533796
-0.005784210811655787   -0.02408368556411048   -0.0012963293390711279
-0.005556771099726633   -0.018708097510683697   -0.0012784014121735435
-0.008501975395115269   -0.01880702928590471   -0.001346460316243542
-0.005784210811655787   -0.02408368556411048   -0.0012963293390711279
-0.008677413761051642   -0.024090676685482593   -0.0013960611029816934
-0.008704680288727682   -0.02403919003974021   -0.0013902091215272216
-0.008501975395115269   -0.01880702928590471   -0.001346460316243542
-0.005784210811655787   -0.02408368556411048   -0.0012963293390711279
-0.008704680288727682   -0.02403919003974021   -0.0013902091215272216
-0.005556771099726633   -0.018708097510683697   -0.0012784014121735435
-0.008501975395115269   -0.01880702928590471   -0.001346460316243542
-0.008677413761051642   -0.024090676685482593   -0.0013960611029816934
-0.005548525933435491   -0.01875251956552868   -0.0012520974742533796
-0.008504755560983688   -0.01886455714254268   -0.0013240342148958962
-0.008677413761051642   -0.024090676685482593   -0.0013960611029816934
-0.005784210811655787   -0.02408368556411048   -0.0012963293390711279
-0.005548525933435491   -0.01875251956552868   -0.0012520974742533796
-0.0057522404888772725   -0.024134976941514855   -0.001295070795028745
-0.008504755560983688   -0.01886455714254268   -0.0013240342148958962
-0.00552940859532883   -0.01879670673352534   -0.0012306591008655382
-0.0057522404888772725   -0.024134976941514855   -0.001295070795028745
-0.005548525933435491   -0.01875251956552868   -0.0012520974742533796
-0.008504755560983688   -0.01886455714254268   -0.0013240342148958962
-0.0057522404888772725   -0.024134976941514855   -0.001295070795028745
-0.008633597673626722   -0.02415712684274624   -0.0014103633771377863
-0.008677413761051642   -0.024090676685482593   -0.0013960611029816934
-0.008504755560983688   -0.01886455714254268   -0.0013240342148958962
-0.0057522404888772725   -0.024134976941514855   -0.001295070795028745
-0.008677413761051642   -0.024090676685482593   -0.0013960611029816934
-0.005548525933435491   -0.01875251956552868   -0.0012520974742533796
-0.005559772191760149   -0.018660045604231096   -0.0013099461987472081
-0.005825162866940011   -0.02400030833882748   -0.0013147876910103776
-0.0028690274711254504   -0.018642928219287803   -0.0012382857256379432
-0.005556771099726633   -0.018708097510683697   -0.0012784014121735435
-0.005825162866940011   -0.02400030833882748   -0.0013147876910103776
-0.0031771147993191816   -0.024003219372206033   -0.0012632402183785983
-0.0028690274711254504   -0.018642928219287803   -0.0012382857256379432
-0.0031557558428431894   -0.024025808406243986   -0.001241904362019821
-0.005556771099726633   -0.018708097510683697   -0.0012784014121735435
-0.00285820248562751   -0.01867194493989864   -0.0012106542174823533
-0.0031557558428431894   -0.024025808406243986   -0.001241904362019821
-0.0028690274711254504   -0.018642928219287803   -0.0012382857256379432
-0.005556771099726633   -0.018708097510683697   -0.0012784014121735435
-0.0031557558428431894   -0.024025808406243986   -0.001241904362019821
-0.00580904188791689   -0.024039805912550467   -0.0013028697142853456
-0.005825162866940011   -0.02400030833882748   -0.0013147876910103776
-0.005556771099726633   -0.018708097510683697   -0.0012784014121735435
-0.0031557558428431894   -0.024025808406243986   -0.001241904362019821
-0.005825162866940011   -0.02400030833882748   -0.0013147876910103776
-0.0028690274711254504   -0.018642928219287803   -0.0012382857256379432
-0.005556771099726633   -0.018708097510683697   -0.0012784014121735435
-0.00580904188791689   -0.024039805912550467   -0.0013028697142853456
-0.00285820248562751   -0.01867194493989864   -0.0012106542174823533
-0.005548525933435491   -0.01875251956552868   -0.0012520974742533796
-0.00580904188791689   -0.024039805912550467   -0.0013028697142853456
-0.0031557558428431894   -0.024025808406243986   -0.001241904362019821
-0.00285820248562751   -0.01867194493989864   -0.0012106542174823533
-0.003131707472067906   -0.024053384433263887   -0.0012259631796263854
-0.005548525933435491   -0.01875251956552868   -0.0012520974742533796
-0.002845115801375873   -0.01869864021983578   -0.0011882636024740697
-0.003131707472067906   -0.024053384433263887   -0.0012259631796263854
-0.00285820248562751   -0.01867194493989864   -0.0012106542174823533
-0.005548525933435491   -0.01875251956552868   -0.0012520974742533796
-0.003131707472067906   -0.024053384433263887   -0.0012259631796263854
-0.005784210811655787   -0.02408368556411048   -0.0012963293390711279
-0.00580904188791689   -0.024039805912550467   -0.0013028697142853456
-0.005548525933435491   -0.01875251956552868   -0.0012520974742533796
-0.003131707472067906   -0.024053384433263887   -0.0012259631796263854
-0.00580904188791689   -0.024039805912550467   -0.0013028697142853456
-0.00285820248562751   -0.01867194493989864   -0.0012106542174823533
-0.005548525933435491   -0.01875251956552868   -0.0012520974742533796
-0.005784210811655787   -0.02408368556411048   -0.0012963293390711279
-0.002845115801375873   -0.01869864021983578   -0.0011882636024740697
-0.00552940859532883   -0.01879670673352534   -0.0012306591008655382
-0.005784210811655787   -0.02408368556411048   -0.0012963293390711279
-0.003131707472067906   -0.024053384433263887   -0.0012259631796263854
-0.002845115801375873   -0.01869864021983578   -0.0011882636024740697
-0.003105826127238204   -0.024086033675847107   -0.0012155961252381718
-0.00552940859532883   -0.01879670673352534   -0.0012306591008655382
-0.002829535097919924   -0.01872310342412416   -0.0011712439572293479
-0.003105826127238204   -0.024086033675847107   -0.0012155961252381718
-0.002845115801375873   -0.01869864021983578   -0.0011882636024740697
-0.00552940859532883   -0.01879670673352534   -0.0012306591008655382
-0.003105826127238204   -0.024086033675847107   -0.0012155961252381718
-0.0057522404888772725   -0.024134976941514855   -0.001295070795028745
-0.005784210811655787   -0.02408368556411048   -0.0012963293390711279
-0.00552940859532883   -0.01879670673352534   -0.0012306591008655382
-0.003105826127238204   -0.024086033675847107   -0.0012155961252381718
-0.005784210811655787   -0.02408368556411048   -0.0012963293390711279
-0.002845115801375873   -0.01869864021983578   -0.0011882636024740697
-0.0028690274711254504   -0.018642928219287803   -0.0012382857256379432
-0.0031771147993191816   -0.024003219372206033   -0.0012632402183785983
-0.0002511383899976484   -0.018633002701877475   -0.001201434566220905
-0.00285820248562751   -0.01867194493989864   -0.0012106542174823533
-0.0031771147993191816   -0.024003219372206033   -0.0012632402183785983
-0.000603871649385558   -0.02398902907396489   -0.0012424181101993448
-0.0002511383899976484   -0.018633002701877475   -0.001201434566220905
-0.000578692121328671   -0.023994110150463287   -0.0012121347164328479
-0.00285820248562751   -0.01867194493989864   -0.0012106542174823533
-0.00023629549725184856   -0.01864260138538347   -0.0011780020744218155
-0.000578692121328671   -0.023994110150463287   -0.0012121347164328479
-0.0002511383899976484   -0.018633002701877475   -0.001201434566220905
-0.00285820248562751   -0.01867194493989864   -0.0012106542174823533
-0.000578692121328671   -0.023994110150463287   -0.0012121347164328479
-0.0031557558428431894   -0.024025808406243986   -0.001241904362019821
-0.0031771147993191816   -0.024003219372206033   -0.0012632402183785983
-0.00285820248562751   -0.01867194493989864   -0.0012106542174823533
-0.000578692121328671   -0.023994110150463287   -0.0012121347164328479
-0.0031771147993191816   -0.024003219372206033   -0.0012632402183785983
-0.0002511383899976484   -0.018633002701877475   -0.001201434566220905
-0.00285820248562751   -0.01867194493989864   -0.0012106542174823533
-0.0031557558428431894   -0.024025808406243986   -0.001241904362019821
-0.00023629549725184856   -0.01864260138538347   -0.0011780020744218155
-0.002845115801375873   -0.01869864021983578   -0.0011882636024740697
-0.0031557558428431894   -0.024025808406243986   -0.001241904362019821
-0.000578692121328671   -0.023994110150463287   -0.0012121347164328479
-0.00023629549725184856   -0.01864260138538347   -0.0011780020744218155
-0.0005548435616301023   -0.02400379834739016   -0.0011872115779148903
-0.002845115801375873   -0.01869864021983578   -0.0011882636024740697
-0.00022334256110916016   -0.01864970990642798   -0.00115976877003475
-0.0005548435616301023   -0.02400379834739016   -0.0011872115779148903
-0.00023629549725184856   -0.01864260138538347   -0.0011780020744218155
-0.002845115801375873   -0.01869864021983578   -0.0011882636024740697
-0.0005548435616301023   -0.02400379834739016   -0.0011872115779148903
-0.003131707472067906   -0.024053384433263887   -0.0012259631796263854
-0.0031557558428431894   -0.024025808406243986   -0.001241904362019821
-0.002845115801375873   -0.01869864021983578   -0.0011882636024740697
-0.0005548435616301023   -0.02400379834739016   -0.0011872115779148903
-0.0031557558428431894   -0.024025808406243986   -0.001241904362019821
-0.00023629549725184856   -0.01864260138538347   -0.0011780020744218155
-0.002845115801375873   -0.01869864021983578   -0.0011882636024740697
-0.003131707472067906   -0.024053384433263887   -0.0012259631796263854
-0.00022334256110916016   -0.01864970990642798   -0.00115976877003475
-0.002829535097919924   -0.01872310342412416   -0.0011712439572293479
-0.003131707472067906   -0.024053384433263887   -0.0012259631796263854
-0.0005548435616301023   -0.02400379834739016   -0.0011872115779148903
-0.00022334256110916016   -0.01864970990642798   -0.00115976877003475
-0.0005345000584368637   -0.024018309771763918   -0.0011678338746589673
-0.002829535097919924   -0.01872310342412416   -0.0011712439572293479
-0.00021326889231891685   -0.018654289145237438   -0.0011469219839223132
-0.0005345000584368637   -0.024018309771763918   -0.0011678338746589673
-0.00022334256110916016   -0.01864970990642798   -0.00115976877003475
-0.002829535097919924   -0.01872310342412416   -0.0011712439572293479
-0.0005345000584368637   -0.024018309771763918   -0.0011678338746589673
-0.003105826127238204   -0.024086033675847107   -0.0012155961252381718
-0.003131707472067906   -0.024053384433263887   -0.0012259631796263854
-0.002829535097919924   -0.01872310342412416   -0.0011712439572293479
-0.0005345000584368637   -0.024018309771763918   -0.0011678338746589673
-0.003131707472067906   -0.024053384433263887   -0.0012259631796263854
-0.00022334256110916016   -0.01864970990642798   -0.00115976877003475
-0.0002511383899976484   -0.018633002701877475   -0.001201434566220905
-0.000603871649385558   -0.02398902907396489   -0.0012424181101993448
0.0024464781636346824   -0.018628552874234768   -0.0011997516309701398
-0.00023629549725184856   -0.01864260138538347   -0.0011780020744218155
-0.000603871649385558   -0.02398902907396489   -0.0012424181101993448
0.002046379539907425   -0.023957556922664873   -0.0012533550563441813
0.0024464781636346824   -0.018628552874234768   -0.0011997516309701398
0.0020784121974382606   -0.023945054232007563   -0.0012142679291795597
-0.00023629549725184856   -0.01864260138538347   -0.0011780020744218155
0.002465957014410544   -0.0186193185458289   -0.0011807246701065778
0.0020784121974382606   -0.023945054232007563   -0.0012142679291795597
0.0024464781636346824   -0.018628552874234768   -0.0011997516309701398
-0.00023629549725184856   -0.01864260138538347   -0.0011780020744218155
0.0020784121974382606   -0.023945054232007563   -0.0012142679291795597
-0.000578692121328671   -0.023994110150463287   -0.0012121347164328479
-0.000603871649385558   -0.02398902907396489   -0.0012424181101993448
-0.00023629549725184856   -0.01864260138538347   -0.0011780020744218155
0.0020784121974382606   -0.023945054232007563   -0.0012142679291795597
-0.000603871649385558   -0.02398902907396489   -0.0012424181101993448
0.0024464781636346824   -0.018628552874234768   -0.0011997516309701398
-0.00023629549725184856   -0.01864260138538347   -0.0011780020744218155
-0.000578692121328671   -0.023994110150463287   -0.0012121347164328479
0.002465957014410544   -0.0186193185458289   -0.0011807246701065778
-0.00022334256110916016   -0.01864970990642798   -0.00115976877003475
-0.000578692121328671   -0.023994110150463287   -0.0012121347164328479
0.0020784121974382606   -0.023945054232007563   -0.0012142679291795597
0.002465957014410544   -0.0186193185458289   -0.0011807246701065778
0.002108117252751435   -0.023938541347698534   -0.0011805226344098088
-0.00022334256110916016   -0.01864970990642798   -0.00115976877003475
0.002479331402337073   -0.018608703014686798   -0.0011667451327451437
0.002108117252751435   -0.023938541347698534   -0.0011805226344098088
0.002465957014410544   -0.0186193185458289   -0.0011807246701065778
-0.00022334256110916016   -0.01864970990642798   -0.00115976877003475
0.002108117252751435   -0.023938541347698534   -0.0011805226344098088
-0.0005548435616301023   -0.02400379834739016   -0.0011872115779148903
-0.000578692121328671   -0.023994110150463287   -0.0012121347164328479
-0.00022334256110916016   -0.01864970990642798   -0.00115976877003475
0.002108117252751435   -0.023938541347698534   -0.0011805226344098088
-0.000578692121328671   -0.023994110150463287   -0.0012121347164328479
0.002465957014410544   -0.0186193185458289   -0.0011807246701065778
-0.00022334256110916016   -0.01864970990642798   -0.00115976877003475
-0.0005548435616301023   -0.02400379834739016   -0.0011872115779148903
0.002479331402337073   -0.018608703014686798   -0.0011667451327451437
-0.00021326889231891685   -0.018654289145237438   -0.0011469219839223132
-0.0005548435616301023   -0.02400379834739016   -0.0011872115779148903
0.002108117252751435   -0.023938541347698534   -0.0011805226344098088
0.002479331402337073   -0.018608703014686798   -0.0011667451327451437
0.002124353459987462   -0.02393492813224086   -0.0011517703823407895
-0.00021326889231891685   -0.018654289145237438   -0.0011469219839223132
0.002482765539585661   -0.018593270666615116   -0.001157711549431013
0.002124353459987462   -0.02393492813224086   -0.0011517703823407895
0.002479331402337073   -0.018608703014686798   -0.0011667451327451437
-0.00021326889231891685   -0.018654289145237438   -0.0011469219839223132
0.002124353459987462   -0.02393492813224086   -0.0011517703823407895
-0.0005345000584368637   -0.024018309771763918   -0.0011678338746589673
-0.0005548435616301023   -0.02400379834739016   -0.0011872115779148903
-0.00021326889231891685   -0.018654289145237438   -0.0011469219839223132
0.002124353459987462   -0.02393492813224086   -0.0011517703823407895
-0.0005548435616301023   -0.02400379834739016   -0.0011872115779148903
0.002479331402337073   -0.018608703014686798   -0.0011667451327451437
0.0024464781636346824   -0.018628552874234768   -0.0011997516309701398
0.002046379539907425   -0.023957556922664873   -0.0012533550563441813
0.005369175933167189   -0.018622150828613182   -0.0012298486666131624
0.002465957014410544   -0.0186193185458289   -0.0011807246701065778
0.002046379539907425   -0.023957556922664873   -0.0012533550563441813
0.00488261377839456   -0.023904545388384966   -0.0012978118444427493
0.005369175933167189   -0.018622150828613182   -0.0012298486666131624
0.0049657163414199975   -0.023876073351466923   -0.0012463604333628887
0.002465957014410544   -0.0186193185458289   -0.0011807246701065778
0.005407001187432739   -0.018598001882557846   -0.0012139420282221054
0.0049657163414199975   -0.023876073351466923   -0.0012463604333628887
0.005369175933167189   -0.018622150828613182   -0.0012298486666131624
0.002465957014410544   -0.0186193185458289   -0.0011807246701065778
0.0049657163414199975   -0.023876073351466923   -0.0012463604333628887
0.0020784121974382606   -0.023945054232007563   -0.0012142679291795597
0.002046379539907425   -0.023957556922664873   -0.0012533550563441813
0.002465957014410544   -0.0186193185458289   -0.0011807246701065778
0.0049657163414199975   -0.023876073351466923   -0.0012463604333628887
0.002046379539907425   -0.023957556922664873   -0.0012533550563441813
0.005369175933167189   -0.018622150828613182   -0.0012298486666131624
0.002465957014410544   -0.0186193185458289   -0.0011807246701065778
0.0020784121974382606   -0.023945054232007563   -0.0012142679291795597
0.005407001187432739   -0.018598001882557846   -0.0012139420282221054
0.002479331402337073   -0.018608703014686798   -0.0011667451327451437
0.0020784121974382606   -0.023945054232007563   -0.0012142679291795597
0.0049657163414199975   -0.023876073351466923   -0.0012463604333628887
0.005407001187432739   -0.018598001882557846   -0.0012139420282221054
0.00502307256784451   -0.023862251119022307   -0.001202527037354465
0.002479331402337073   -0.018608703014686798   -0.0011667451327451437
0.005427530732481358   -0.01857901345391915   -0.001205714274177984
0.00502307256784451   -0.023862251119022307   -0.001202527037354465
0.005407001187432739   -0.018598001882557846   -0.0012139420282221054
0.002479331402337073   -0.018608703014686798   -0.0011667451327451437
0.00502307256784451   -0.023862251119022307   -0.001202527037354465
0.002108117252751435   -0.023938541347698534   -0.0011805226344098088
0.0020784121974382606   -0.023945054232007563   -0.0012142679291795597
0.002479331402337073   -0.018608703014686798   -0.0011667451327451437
0.00502307256784451   -0.023862251119022307   -0.001202527037354465
0.0020784121974382606   -0.023945054232007563   -0.0012142679291795597
0.005407001187432739   -0.018598001882557846   -0.0012139420282221054
0.002479331402337073   -0.018608703014686798   -0.0011667451327451437
0.002108117252751435   -0.023938541347698534   -0.0011805226344098088
0.005427530732481358   -0.01857901345391915   -0.001205714274177984
0.002482765539585661   -0.018593270666615116   -0.001157711549431013
0.002108117252751435   -0.023938541347698534   -0.0011805226344098088
0.00502307256784451   -0.023862251119022307   -0.001202527037354465
0.005427530732481358   -0.01857901345391915   -0.001205714274177984
0.005074335347152818   -0.02384738959010294   -0.0011666305104608172
0.002482765539585661   -0.018593270666615116   -0.001157711549431013
0.005433636141967731   -0.018548803116738673   -0.0012052966755922974
0.005074335347152818   -0.02384738959010294   -0.0011666305104608172
0.005427530732481358   -0.01857901345391915   -0.001205714274177984
0.002482765539585661   -0.018593270666615116   -0.001157711549431013
0.005074335347152818   -0.02384738959010294   -0.0011666305104608172
0.002124353459987462   -0.02393492813224086   -0.0011517703823407895
0.002108117252751435   -0.023938541347698534   -0.0011805226344098088
0.002482765539585661   -0.018593270666615116   -0.001157711549431013
0.005074335347152818   -0.02384738959010294   -0.0011666305104608172
0.002108117252751435   -0.023938541347698534   -0.0011805226344098088
0.005427530732481358   -0.01857901345391915   -0.001205714274177984
-0.008715515727461313   -0.023986310711975798   -0.0013923904756831316
-0.008479067626404324   -0.029038130756576155   -0.001332129796618277
-0.005825162866940011   -0.02400030833882748   -0.0013147876910103776
-0.008704680288727682   -0.02403919003974021   -0.0013902091215272216
-0.008479067626404324   -0.029038130756576155   -0.001332129796618277
-0.0058003541062035275   -0.029096249226893512   -0.0012855860092228096
-0.005825162866940011   -0.02400030833882748   -0.0013147876910103776
-0.005766287349358933   -0.029125667067322995   -0.0012927130077938587
-0.008704680288727682   -0.02403919003974021   -0.0013902091215272216
-0.00580904188791689   -0.024039805912550467   -0.0013028697142853456
-0.005766287349358933   -0.029125667067322995   -0.0012927130077938587
-0.005825162866940011   -0.02400030833882748   -0.0013147876910103776
-0.008704680288727682   -0.02403919003974021   -0.0013902091215272216
-0.005766287349358933   -0.029125667067322995   -0.0012927130077938587
-0.008417532812284396   -0.029077862223986187   -0.001365875178655234
-0.008479067626404324   -0.029038130756576155   -0.001332129796618277
-0.008704680288727682   -0.02403919003974021   -0.0013902091215272216
-0.005766287349358933   -0.029125667067322995   -0.0012927130077938587
-0.008479067626404324   -0.029038130756576155   -0.001332129796618277
-0.005825162866940011   -0.02400030833882748   -0.0013147876910103776
-0.008704680288727682   -0.02403919003974021   -0.0013902091215272216
-0.008417532812284396   -0.029077862223986187   -0.001365875178655234
-0.00580904188791689   -0.024039805912550467   -0.0013028697142853456
-0.008677413761051642   -0.024090676685482593   -0.0013960611029816934
-0.008417532812284396   -0.029077862223986187   -0.001365875178655234
-0.005766287349358933   -0.029125667067322995   -0.0012927130077938587
-0.00580904188791689   -0.024039805912550467   -0.0013028697142853456
-0.005720269311464503   -0.029167695715585567   -0.0013053315172732861
-0.008677413761051642   -0.024090676685482593   -0.0013960611029816934
-0.005784210811655787   -0.02408368556411048   -0.0012963293390711279
-0.005720269311464503   -0.029167695715585567   -0.0013053315172732861
-0.00580904188791689   -0.024039805912550467   -0.0013028697142853456
-0.008677413761051642   -0.024090676685482593   -0.0013960611029816934
-0.005720269311464503   -0.029167695715585567   -0.0013053315172732861
-0.008347518445535532   -0.02912680976538379   -0.0014082532822634135
-0.008417532812284396   -0.029077862223986187   -0.001365875178655234
-0.008677413761051642   -0.024090676685482593   -0.0013960611029816934
-0.005720269311464503   -0.029167695715585567   -0.0013053315172732861
-0.008417532812284396   -0.029077862223986187   -0.001365875178655234
-0.00580904188791689   -0.024039805912550467   -0.0013028697142853456
-0.008677413761051642   -0.024090676685482593   -0.0013960611029816934
-0.008347518445535532   -0.02912680976538379   -0.0014082532822634135
-0.005784210811655787   -0.02408368556411048   -0.0012963293390711279
-0.008633597673626722   -0.02415712684274624   -0.0014103633771377863
-0.008347518445535532   -0.02912680976538379   -0.0014082532822634135
-0.005720269311464503   -0.029167695715585567   -0.0013053315172732861
-0.005784210811655787   -0.02408368556411048   -0.0012963293390711279
-0.005670939920081661   -0.029224906107841318   -0.0013235961222654719
-0.008633597673626722   -0.02415712684274624   -0.0014103633771377863
-0.0057522404888772725   -0.024134976941514855   -0.001295070795028745
-0.005670939920081661   -0.029224906107841318   -0.0013235961222654719
-0.005784210811655787   -0.02408368556411048   -0.0012963293390711279
-0.008633597673626722   -0.02415712684274624   -0.0014103633771377863
-0.005670939920081661   -0.029224906107841318   -0.0013235961222654719
-0.008252342267678313   -0.029201412088987504   -0.001459434779960044
-0.008347518445535532   -0.02912680976538379   -0.0014082532822634135
-0.008633597673626722   -0.02415712684274624   -0.0014103633771377863
-0.005670939920081661   -0.029224906107841318   -0.0013235961222654719
-0.008347518445535532   -0.02912680976538379   -0.0014082532822634135
-0.005784210811655787   -0.02408368556411048   -0.0012963293390711279
-0.005825162866940011   -0.02400030833882748   -0.0013147876910103776
-0.0058003541062035275   -0.029096249226893512   -0.0012855860092228096
-0.0031771147993191816   -0.024003219372206033   -0.0012632402183785983
-0.00580904188791689   -0.024039805912550467   -0.0013028697142853456
-0.0058003541062035275   -0.029096249226893512   -0.0012855860092228096
-0.003397962477029694   -0.02911906123227827   -0.0012558415407976232
-0.0031771147993191816   -0.024003219372206033   -0.0012632402183785983
-0.0033609236060834656   -0.0291342919375766   -0.0012402973398809814
-0.00580904188791689   -0.024039805912550467   -0.0013028697142853456
-0.0031557558428431894   -0.024025808406243986   -0.001241904362019821
-0.0033609236060834656   -0.0291342919375766   -0.0012402973398809814
-0.0031771147993191816   -0.024003219372206033   -0.0012632402183785983
-0.00580904188791689   -0.024039805912550467   -0.0013028697142853456
-0.0033609236060834656   -0.0291342919375766   -0.0012402973398809814
-0.005766287349358933   -0.029125667067322995   -0.0012927130077938587
-0.0058003541062035275   -0.029096249226893512   -0.0012855860092228096
-0.00580904188791689   -0.024039805912550467   -0.0013028697142853456
-0.0033609236060834656   -0.0291342919375766   -0.0012402973398809814
-0.0058003541062035275   -0.029096249226893512   -0.0012855860092228096
-0.0031771147993191816   -0.024003219372206033   -0.0012632402183785983
-0.00580904188791689   -0.024039805912550467   -0.0013028697142853456
-0.005766287349358933   -0.029125667067322995   -0.0012927130077938587
-0.0031557558428431894   -0.024025808406243986   -0.001241904362019821
-0.005784210811655787   -0.02408368556411048   -0.0012963293390711279
-0.005766287349358933   -0.029125667067322995   -0.0012927130077938587
-0.0033609236060834656   -0.0291342919375766   -0.0012402973398809814
-0.0031557558428431894   -0.024025808406243986   -0.001241904362019821
-0.0033211032977548817   -0.029161635668871238   -0.0012301763503939802
-0.005784210811655787   -0.02408368556411048   -0.0012963293390711279
-0.003131707472067906   -0.024053384433263887   -0.0012259631796263854
-0.0033211032977548817   -0.029161635668871238   -0.0012301763503939802
-0.0031557558428431894   -0.024025808406243986   -0.001241904362019821
-0.005784210811655787   -0.02408368556411048   -0.0012963293390711279
-0.0033211032977548817   -0.029161635668871238   -0.0012301763503939802
-0.005720269311464503   -0.029167695715585567   -0.0013053315172732861
-0.005766287349358933   -0.029125667067322995   -0.0012927130077938587
-0.005784210811655787   -0.02408368556411048   -0.0012963293390711279
-0.0033211032977548817   -0.029161635668871238   -0.0012301763503939802
-0.005766287349358933   -0.029125667067322995   -0.0012927130077938587
-0.0031557558428431894   -0.024025808406243986   -0.001241904362019821
-0.005784210811655787   -0.02408368556411048   -0.0012963293390711279
-0.005720269311464503   -0.029167695715585567   -0.0013053315172732861
-0.003131707472067906   -0.024053384433263887   -0.0012259631796263854
-0.0057522404888772725   -0.024134976941514855   -0.001295070795028745
-0.005720269311464503   -0.029167695715585567   -0.0013053315172732861
-0.0033211032977548817   -0.029161635668871238   -0.0012301763503939802
-0.003131707472067906   -0.024053384433263887   -0.0012259631796263854
-0.0032801739516835665   -0.029201432163501927   -0.001225748506083897
-0.0057522404888772725   -0.024134976941514855   -0.001295070795028745
-0.003105826127238204   -0.024086033675847107   -0.0012155961252381718
-0.0032801739516835665   -0.029201432163501927   -0.001225748506083897
-0.003131707472067906   -0.024053384433263887   -0.0012259631796263854
-0.0057522404888772725   -0.024134976941514855   -0.001295070795028745
-0.0032801739516835665   -0.029201432163501927   -0.001225748506083897
-0.005670939920081661   -0.029224906107841318   -0.0013235961222654719
-0.005720269311464503   -0.029167695715585567   -0.0013053315172732861
-0.0057522404888772725   -0.024134976941514855   -0.001295070795028745
-0.0032801739516835665   -0.029201432163501927   -0.001225748506083897
-0.005720269311464503   -0.029167695715585567   -0.0013053315172732861
-0.003131707472067906   -0.024053384433263887   -0.0012259631796263854
-0.0031771147993191816   -0.024003219372206033   -0.0012632402183785983
-0.003397962477029694   -0.02911906123227827   -0.0012558415407976232
-0.000603871649385558   -0.02398902907396489   -0.0012424181101993448
-0.0031557558428431894   -0.024025808406243986   -0.001241904362019821
-0.003397962477029694   -0.02911906123227827   -0.0012558415407976232
-0.0010681289240083059   -0.02910118413860491   -0.0012512380822000187
-0.000603871649385558   -0.02398902907396489   -0.0012424181101993448
-0.0010271719442729145   -0.02910137434633932   -0.0012138003046726219
-0.0031557558428431894   -0.024025808406243986   -0.001241904362019821
-0.000578692121328671   -0.023994110150463287   -0.0012121347164328479
-0.0010271719442729145   -0.02910137434633932   -0.0012138003046726219
-0.000603871649385558   -0.02398902907396489   -0.0012424181101993448
-0.0031557558428431894   -0.024025808406243986   -0.001241904362019821
-0.0010271719442729145   -0.02910137434633932   -0.0012138003046726219
-0.0033609236060834656   -0.0291342919375766   -0.0012402973398809814
-0.003397962477029694   -0.02911906123227827   -0.0012558415407976232
-0.0031557558428431894   -0.024025808406243986   -0.001241904362019821
-0.0010271719442729145   -0.02910137434633932   -0.0012138003046726219
-0.003397962477029694   -0.02911906123227827   -0.0012558415407976232
-0.000603871649385558   -0.02398902907396489   -0.0012424181101993448
-0.0031557558428431894   -0.024025808406243986   -0.001241904362019821
-0.0033609236060834656   -0.0291342919375766   -0.0012402973398809814
-0.000578692121328671   -0.023994110150463287   -0.0012121347164328479
-0.003131707472067906   -0.024053384433263887   -0.0012259631796263854
-0.0033609236060834656   -0.0291342919375766   -0.0012402973398809814
-0.0010271719442729145   -0.02910137434633932   -0.0012138003046726219
-0.000578692121328671   -0.023994110150463287   -0.0012121347164328479
-0.0009872726907312716   -0.02911280811039359   -0.0011818023353918135
-0.003131707472067906   -0.024053384433263887   -0.0012259631796263854
-0.0005548435616301023   -0.02400379834739016   -0.0011872115779148903
-0.0009872726907312716   -0.02911280811039359   -0.0011818023353918135
-0.000578692121328671   -0.023994110150463287   -0.0012121347164328479
-0.003131707472067906   -0.024053384433263887   -0.0012259631796263854
-0.0009872726907312716   -0.02911280811039359   -0.0011818023353918135
-0.0033211032977548817   -0.029161635668871238   -0.0012301763503939802
-0.0033609236060834656   -0.0291342919375766   -0.0012402973398809814
-0.003131707472067906   -0.024053384433263887   -0.0012259631796263854
-0.0009872726907312716   -0.02911280811039359   -0.0011818023353918135
-0.0033609236060834656   -0.0291342919375766   -0.0012402973398809814
-0.000578692121328671   -0.023994110150463287   -0.0012121347164328479
-0.003131707472067906   -0.024053384433263887   -0.0012259631796263854
-0.0033211032977548817   -0.029161635668871238   -0.0012301763503939802
-0.0005548435616301023   -0.02400379834739016   -0.0011872115779148903
-0.003105826127238204   -0.024086033675847107   -0.0012155961252381718
-0.0033211032977548817   -0.029161635668871238   -0.0012301763503939802
-0.0009872726907312716   -0.02911280811039359   -0.0011818023353918135
-0.0005548435616301023   -0.02400379834739016   -0.0011872115779148903
-0.0009516276569504661   -0.029136418097084116   -0.0011554318431464194
-0.003105826127238204   -0.024086033675847107   -0.0012155961252381718
-0.0005345000584368637   -0.024018309771763918   -0.0011678338746589673
-0.0009516276569504661   -0.029136418097084116   -0.0011554318431464194
-0.0005548435616301023   -0.02400379834739016   -0.0011872115779148903
-0.003105826127238204   -0.024086033675847107   -0.0012155961252381718
-0.0009516276569504661   -0.029136418097084116   -0.0011554318431464194
-0.0032801739516835665   -0.029201432163501927   -0.001225748506083897
-0.0033211032977548817   -0.029161635668871238   -0.0012301763503939802
-0.003105826127238204   -0.024086033675847107   -0.0012155961252381718
-0.0009516276569504661   -0.029136418097084116   -0.0011554318431464194
-0.0033211032977548817   -0.029161635668871238   -0.0012301763503939802
-0.0005548435616301023   -0.02400379834739016   -0.0011872115779148903
-0.000603871649385558   -0.02398902907396489   -0.0012424181101993448
-0.0010681289240083059   -0.02910118413860491   -0.0012512380822000187
0.002046379539907425   -0.023957556922664873   -0.0012533550563441813
-0.000578692121328671   -0.023994110150463287   -0.0012121347164328479
-0.0010681289240083059   -0.02910118413860491   -0.0012512380822000187
0.001341168192155547   -0.02904373789952942   -0.001273743147432234
0.002046379539907425   -0.023957556922664873   -0.0012533550563441813
0.0013912628724246587   -0.029027871423422884   -0.0012146016592536894
-0.000578692121328671   -0.023994110150463287   -0.0012121347164328479
0.0020784121974382606   -0.023945054232007563   -0.0012142679291795597
0.0013912628724246587   -0.029027871423422884   -0.0012146016592536894
0.002046379539907425   -0.023957556922664873   -0.0012533550563441813
-0.000578692121328671   -0.023994110150463287   -0.0012121347164328479
0.0013912628724246587   -0.029027871423422884   -0.0012146016592536894
-0.0010271719442729145   -0.02910137434633932   -0.0012138003046726219
-0.0010681289240083059   -0.02910118413860491   -0.0012512380822000187
-0.000578692121328671   -0.023994110150463287   -0.0012121347164328479
0.0013912628724246587   -0.029027871423422884   -0.0012146016592536894
-0.0010681289240083059   -0.02910118413860491   -0.0012512380822000187
0.002046379539907425   -0.023957556922664873   -0.0012533550563441813
-0.000578692121328671   -0.023994110150463287   -0.0012121347164328479
-0.0010271719442729145   -0.02910137434633932   -0.0012138003046726219
0.0020784121974382606   -0.023945054232007563   -0.0012142679291795597
-0.0005548435616301023   -0.02400379834739016   -0.0011872115779148903
-0.0010271719442729145   -0.02910137434633932   -0.0012138003046726219
0.0013912628724246587   -0.029027871423422884   -0.0012146016592536894
0.0020784121974382606   -0.023945054232007563   -0.0012142679291795597
0.001442690983813002   -0.029024858302598978   -0.0011612440527976884
-0.0005548435616301023   -0.02400379834739016   -0.0011872115779148903
0.002108117252751435   -0.023938541347698534   -0.0011805226344098088
0.001442690983813002   -0.029024858302598978   -0.0011612440527976884
0.0020784121974382606   -0.023945054232007563   -0.0012142679291795597
-0.0005548435616301023   -0.02400379834739016   -0.0011872115779148903
0.001442690983813002   -0.029024858302598978   -0.0011612440527976884
-0.0009872726907312716   -0.02911280811039359   -0.0011818023353918135
-0.0010271719442729145   -0.02910137434633932   -0.0012138003046726219
-0.0005548435616301023   -0.02400379834739016   -0.0011872115779148903
0.001442690983813002   -0.029024858302598978   -0.0011612440527976884
-0.0010271719442729145   -0.02910137434633932   -0.0012138003046726219
0.0020784121974382606   -0.023945054232007563   -0.0012142679291795597
-0.0005548435616301023   -0.02400379834739016   -0.0011872115779148903
-0.0009872726907312716   -0.02911280811039359   -0.0011818023353918135
0.002108117252751435   -0.023938541347698534   -0.0011805226344098088
-0.0005345000584368637   -0.024018309771763918   -0.0011678338746589673
-0.0009872726907312716   -0.02911280811039359   -0.0011818023353918135
0.001442690983813002   -0.029024858302598978   -0.0011612440527976884
0.002108117252751435   -0.023938541347698534   -0.0011805226344098088
0.0014770002097797262   -0.02903233988022363   -0.0011129062362216346
-0.0005345000584368637   -0.024018309771763918   -0.0011678338746589673
0.002124353459987462   -0.02393492813224086   -0.0011517703823407895
0.0014770002097797262   -0.02903233988022363   -0.0011129062362216346
0.002108117252751435   -0.023938541347698534   -0.0011805226344098088
-0.0005345000584368637   -0.024018309771763918   -0.0011678338746589673
0.0014770002097797262   -0.02903233988022363   -0.0011129062362216346
-0.0009516276569504661   -0.029136418097084116   -0.0011554318431464194
-0.0009872726907312716   -0.02911280811039359   -0.0011818023353918135
-0.0005345000584368637   -0.024018309771763918   -0.0011678338746589673
0.0014770002097797262   -0.02903233988022363   -0.0011129062362216346
-0.0009872726907312716   -0.02911280811039359   -0.0011818023353918135
0.002108117252751435   -0.023938541347698534   -0.0011805226344098088
0.002046379539907425   -0.023957556922664873   -0.0012533550563441813
0.001341168192155547   -0.02904373789952942   -0.001273743147432234
0.00488261377839456   -0.023904545388384966   -0.0012978118444427493
0.0020784121974382606   -0.023945054232007563   -0.0012142679291795597
0.001341168192155547   -0.02904373789952942   -0.001273743147432234
0.003902306393805612   -0.028944923265551974   -0.0013312548626835034
0.00488261377839456   -0.023904545388384966   -0.0012978118444427493
0.004035653628047685   -0.02891235762868758   -0.0012451055006004277
0.0020784121974382606   -0.023945054232007563   -0.0012142679291795597
0.0049657163414199975   -0.023876073351466923   -0.0012463604333628887
0.004035653628047685   -0.02891235762868758   -0.0012451055006004277
0.00488261377839456   -0.023904545388384966   -0.0012978118444427493
0.0020784121974382606   -0.023945054232007563   -0.0012142679291795597
0.004035653628047685   -0.02891235762868758   -0.0012451055006004277
0.0013912628724246587   -0.029027871423422884   -0.0012146016592536894
0.001341168192155547   -0.02904373789952942   -0.001273743147432234
0.0020784121974382606   -0.023945054232007563   -0.0012142679291795597
0.004035653628047685   -0.02891235762868758   -0.0012451055006004277
0.001341168192155547   -0.02904373789952942   -0.001273743147432234
0.00488261377839456   -0.023904545388384966   -0.0012978118444427493
0.0020784121974382606   -0.023945054232007563   -0.0012142679291795597
0.0013912628724246587   -0.029027871423422884   -0.0012146016592536894
0.0049657163414199975   -0.023876073351466923   -0.0012463604333628887
0.002108117252751435   -0.023938541347698534   -0.0011805226344098088
0.0013912628724246587   -0.029027871423422884   -0.0012146016592536894
0.004035653628047685   -0.02891235762868758   -0.0012451055006004277
0.0049657163414199975   -0.023876073351466923   -0.0012463604333628887
0.004134533487823487   -0.028903351504509088   -0.0011666572085617017
0.002108117252751435   -0.023938541347698534   -0.0011805226344098088
0.00502307256784451   -0.023862251119022307   -0.001202527037354465
0.004134533487823487   -0.028903351504509088   -0.0011666572085617017
0.0049657163414199975   -0.023876073351466923   -0.0012463604333628887
0.002108117252751435   -0.023938541347698534   -0.0011805226344098088
0.004134533487823487   -0.028903351504509088   -0.0011666572085617017
0.001442690983813002   -0.029024858302598978   -0.0011612440527976884
0.0013912628724246587   -0.029027871423422884   -0.0012146016592536894
0.002108117252751435   -0.023938541347698534   -0.0011805226344098088
0.004134533487823487   -0.028903351504509088   -0.0011666572085617017
0.0013912628724246587   -0.029027871423422884   -0.0012146016592536894
0.0049657163414199975   -0.023876073351466923   -0.0012463604333628887
0.002108117252751435   -0.023938541347698534   -0.0011805226344098088
0.001442690983813002   -0.029024858302598978   -0.0011612440527976884
0.00502307256784451   -0.023862251119022307   -0.001202527037354465
0.002124353459987462   -0.02393492813224086   -0.0011517703823407895
0.001442690983813002   -0.029024858302598978   -0.0011612440527976884
0.004134533487823487   -0.028903351504509088   -0.0011666572085617017
0.00502307256784451   -0.023862251119022307   -0.001202527037354465
0.004235028377403227   -0.02890331684378131   -0.0010962677266307017
0.002124353459987462   -0.02393492813224086   -0.0011517703823407895
0.005074335347152818   -0.02384738959010294   -0.0011666305104608172
0.004235028377403227   -0.02890331684378131   -0.0010962677266307017
0.00502307256784451   -0.023862251119022307   -0.001202527037354465
0.002124353459987462   -0.02393492813224086   -0.0011517703823407895
0.004235028377403227   -0.02890331684378131   -0.0010962677266307017
0.0014770002097797262   -0.02903233988022363   -0.0011129062362216346
0.001442690983813002   -0.029024858302598978   -0.0011612440527976884
0.002124353459987462   -0.02393492813224086   -0.0011517703823407895
0.004235028377403227   -0.02890331684378131   -0.0010962677266307017
0.001442690983813002   -0.029024858302598978   -0.0011612440527976884
0.00502307256784451   -0.023862251119022307   -0.001202527037354465
-0.008479067626404324   -0.029038130756576155   -0.001332129796618277
-0.0077391368062606145   -0.03350351221843944   -0.001242920518345399
-0.0058003541062035275   -0.029096249226893512   -0.0012855860092228096
-0.008417532812284396   -0.029077862223986187   -0.001365875178655234
-0.0077391368062606145   -0.03350351221843944   -0.001242920518345399
-0.0054858329771037976   -0.03360797386786216   -0.001235554088654606
-0.0058003541062035275   -0.029096249226893512   -0.0012855860092228096
-0.0054299082821887895   -0.03362305740743131   -0.0012603110855592095
-0.008417532812284396   -0.029077862223986187   -0.001365875178655234
-0.005766287349358933   -0.029125667067322995   -0.0012927130077938587
-0.0054299082821887895   -0.03362305740743131   -0.0012603110855592095
-0.0058003541062035275   -0.029096249226893512   -0.0012855860092228096
-0.008417532812284396   -0.029077862223986187   -0.001365875178655234
-0.0054299082821887895   -0.03362305740743131   -0.0012603110855592095
-0.007622364727093155   -0.033525864392656826   -0.0013123617523136122
-0.0077391368062606145   -0.03350351221843944   -0.001242920518345399
-0.008417532812284396   -0.029077862223986187   -0.001365875178655234
-0.0054299082821887895   -0.03362305740743131   -0.0012603110855592095
-0.0077391368062606145   -0.03350351221843944   -0.001242920518345399
-0.0058003541062035275   -0.029096249226893512   -0.0012855860092228096
-0.008417532812284396   -0.029077862223986187   -0.001365875178655234
-0.007622364727093155   -0.033525864392656826   -0.0013123617523136122
-0.005766287349358933   -0.029125667067322995   -0.0012927130077938587
-0.008347518445535532   -0.02912680976538379   -0.0014082532822634135
-0.007622364727093155   -0.033525864392656826   -0.0013123617523136122
-0.0054299082821887895   -0.03362305740743131   -0.0012603110855592095
-0.005766287349358933   -0.029125667067322995   -0.0012927130077938587
-0.005359653235591291   -0.03365932339778691   -0.0012906200072034647
-0.008347518445535532   -0.02912680976538379   -0.0014082532822634135
-0.005720269311464503   -0.029167695715585567   -0.0013053315172732861
-0.005359653235591291   -0.03365932339778691   -0.0012906200072034647
-0.005766287349358933   -0.029125667067322995   -0.0012927130077938587
-0.008347518445535532   -0.02912680976538379   -0.0014082532822634135
-0.005359653235591291   -0.03365932339778691   -0.0012906200072034647
-0.007506041368901223   -0.03356843075627937   -0.0013908412552899507
-0.007622364727093155   -0.033525864392656826   -0.0013123617523136122
-0.008347518445535532   -0.02912680976538379   -0.0014082532822634135
-0.005359653235591291   -0.03365932339778691   -0.0012906200072034647
-0.007622364727093155   -0.033525864392656826   -0.0013123617523136122
-0.005766287349358933   -0.029125667067322995   -0.0012927130077938587
-0.008347518445535532   -0.02912680976538379   -0.0014082532822634135
-0.007506041368901223   -0.03356843075627937   -0.0013908412552899507
-0.005720269311464503   -0.029167695715585567   -0.0013053315172732861
-0.008252342267678313   -0.029201412088987504   -0.001459434779960044
-0.007506041368901223   -0.03356843075627937   -0.0013908412552899507
-0.005359653235591291   -0.03365932339778691   -0.0012906200072034647
-0.005720269311464503   -0.029167695715585567   -0.0013053315172732861
-0.005290362858726798   -0.03371883432380297   -0.0013264282688720682
-0.008252342267678313   -0.029201412088987504   -0.001459434779960044
-0.005670939920081661   -0.029224906107841318   -0.0013235961222654719
-0.005290362858726798   -0.03371883432380297   -0.0013264282688720682
-0.005720269311464503   -0.029167695715585567   -0.0013053315172732861
-0.008252342267678313   -0.029201412088987504   -0.001459434779960044
-0.005290362858726798   -0.03371883432380297   -0.0013264282688720682
-0.007357081993858679   -0.033647805776361714   -0.0014782045017470067
-0.007506041368901223   -0.03356843075627937   -0.0013908412552899507
-0.008252342267678313   -0.029201412088987504   -0.001459434779960044
-0.005290362858726798   -0.03371883432380297   -0.0013264282688720682
-0.007506041368901223   -0.03356843075627937   -0.0013908412552899507
-0.005720269311464503   -0.029167695715585567   -0.0013053315172732861
-0.0058003541062035275   -0.029096249226893512   -0.0012855860092228096
-0.0054858329771037976   -0.03360797386786216   -0.001235554088654606
-0.003397962477029694   -0.02911906123227827   -0.0012558415407976232
-0.005766287349358933   -0.029125667067322995   -0.0012927130077938587
-0.0054858329771037976   -0.03360797386786216   -0.001235554088654606
-0.0035328779308481657   -0.033656615368503985   -0.001232719801565964
-0.003397962477029694   -0.02911906123227827   -0.0012558415407976232
-0.003475554322419123   -0.03366151672480443   -0.0012215698774287128
-0.005766287349358933   -0.029125667067322995   -0.0012927130077938587
-0.0033609236060834656   -0.0291342919375766   -0.0012402973398809814
-0.003475554322419123   -0.03366151672480443   -0.0012215698774287128
-0.003397962477029694   -0.02911906123227827   -0.0012558415407976232
-0.005766287349358933   -0.029125667067322995   -0.0012927130077938587
-0.003475554322419123   -0.03366151672480443   -0.0012215698774287128
-0.0054299082821887895   -0.03362305740743131   -0.0012603110855592095
-0.0054858329771037976   -0.03360797386786216   -0.001235554088654606
-0.005766287349358933   -0.029125667067322995   -0.0012927130077938587
-0.003475554322419123   -0.03366151672480443   -0.0012215698774287128
-0.0054858329771037976   -0.03360797386786216   -0.001235554088654606
-0.003397962477029694   -0.02911906123227827   -0.0012558415407976232
-0.005766287349358933   -0.029125667067322995   -0.0012927130077938587
-0.0054299082821887895   -0.03362305740743131   -0.0012603110855592095
-0.0033609236060834656   -0.0291342919375766   -0.0012402973398809814
-0.005720269311464503   -0.029167695715585567   -0.0013053315172732861
-0.0054299082821887895   -0.03362305740743131   -0.0012603110855592095
-0.003475554322419123   -0.03366151672480443   -0.0012215698774287128
-0.0033609236060834656   -0.0291342919375766   -0.0012402973398809814
-0.003416368174861854   -0.03368534444037198   -0.0012158071957584806
-0.005720269311464503   -0.029167695715585567   -0.0013053315172732861
-0.0033211032977548817   -0.029161635668871238   -0.0012301763503939802
-0.003416368174861854   -0.03368534444037198   -0.0012158071957584806
-0.0033609236060834656   -0.0291342919375766   -0.0012402973398809814
-0.005720269311464503   -0.029167695715585567   -0.0013053315172732861
-0.003416368174861854   -0.03368534444037198   -0.0012158071957584806
-0.005359653235591291   -0.03365932339778691   -0.0012906200072034647
-0.0054299082821887895   -0.03362305740743131   -0.0012603110855592095
-0.005720269311464503   -0.029167695715585567   -0.0013053315172732861
-0.003416368174861854   -0.03368534444037198   -0.0012158071957584806
-0.0054299082821887895   -0.03362305740743131   -0.0012603110855592095
-0.0033609236060834656   -0.0291342919375766   -0.0012402973398809814
-0.005720269311464503   -0.029167695715585567   -0.0013053315172732861
-0.005359653235591291   -0.03365932339778691   -0.0012906200072034647
-0.0033211032977548817   -0.029161635668871238   -0.0012301763503939802
-0.005670939920081661   -0.029224906107841318   -0.0013235961222654719
-0.005359653235591291   -0.03365932339778691   -0.0012906200072034647
-0.003416368174861854   -0.03368534444037198   -0.0012158071957584806
-0.0033211032977548817   -0.029161635668871238   -0.0012301763503939802
-0.0033572674394584524   -0.033729186603179945   -0.0012153714449580333
-0.005670939920081661   -0.029224906107841318   -0.0013235961222654719
-0.0032801739516835665   -0.029201432163501927   -0.001225748506083897
-0.0033572674394584524   -0.033729186603179945   -0.0012153714449580333
-0.0033211032977548817   -0.029161635668871238   -0.0012301763503939802
-0.005670939920081661   -0.029224906107841318   -0.0013235961222654719
-0.0033572674394584524   -0.033729186603179945   -0.0012153714449580333
-0.005290362858726798   -0.03371883432380297   -0.0013264282688720682
-0.005359653235591291   -0.03365932339778691   -0.0012906200072034647
-0.005670939920081661   -0.029224906107841318   -0.0013235961222654719
-0.0033572674394584524   -0.033729186603179945   -0.0012153714449580333
-0.005359653235591291   -0.03365932339778691   -0.0012906200072034647
-0.0033211032977548817   -0.029161635668871238   -0.0012301763503939802
-0.003397962477029694   -0.02911906123227827   -0.0012558415407976232
-0.0035328779308481657   -0.033656615368503985   -0.001232719801565964
-0.0010681289240083059   -0.02910118413860491   -0.0012512380822000187
-0.0033609236060834656   -0.0291342919375766   -0.0012402973398809814
-0.0035328779308481657   -0.033656615368503985   -0.001232719801565964
-0.0016445610952477993   -0.03364721154254194   -0.0012469584618118165
-0.0010681289240083059   -0.02910118413860491   -0.0012512380822000187
-0.0015817774739995815   -0.03364065567578888   -0.0012011555745189656
-0.0033609236060834656   -0.0291342919375766   -0.0012402973398809814
-0.0010271719442729145   -0.02910137434633932   -0.0012138003046726219
-0.0015817774739995815   -0.03364065567578888   -0.0012011555745189656
-0.0010681289240083059   -0.02910118413860491   -0.0012512380822000187
-0.0033609236060834656   -0.0291342919375766   -0.0012402973398809814
-0.0015817774739995815   -0.03364065567578888   -0.0012011555745189656
-0.003475554322419123   -0.03366151672480443   -0.0012215698774287128
-0.0035328779308481657   -0.033656615368503985   -0.001232719801565964
-0.0033609236060834656   -0.0291342919375766   -0.0012402973398809814
-0.0015817774739995815   -0.03364065567578888   -0.0012011555745189656
-0.0035328779308481657   -0.033656615368503985   -0.001232719801565964
-0.0010681289240083059   -0.02910118413860491   -0.0012512380822000187
-0.0033609236060834656   -0.0291342919375766   -0.0012402973398809814
-0.003475554322419123   -0.03366151672480443   -0.0012215698774287128
-0.0010271719442729145   -0.02910137434633932   -0.0012138003046726219
-0.0033211032977548817   -0.029161635668871238   -0.0012301763503939802
-0.003475554322419123   -0.03366151672480443   -0.0012215698774287128
-0.0015817774739995815   -0.03364065567578888   -0.0012011555745189656
-0.0010271719442729145   -0.02910137434633932   -0.0012138003046726219
-0.0015208138197230488   -0.03365124651884744   -0.0011610964847793477
-0.0033211032977548817   -0.029161635668871238   -0.0012301763503939802
-0.0009872726907312716   -0.02911280811039359   -0.0011818023353918135
-0.0015208138197230488   -0.03365124651884744   -0.0011610964847793477
-0.0010271719442729145   -0.02910137434633932   -0.0012138003046726219
-0.0033211032977548817   -0.029161635668871238   -0.0012301763503939802
-0.0015208138197230488   -0.03365124651884744   -0.0011610964847793477
-0.003416368174861854   -0.03368534444037198   -0.0012158071957584806
-0.003475554322419123   -0.03366151672480443   -0.0012215698774287128
-0.0033211032977548817   -0.029161635668871238   -0.0012301763503939802
-0.0015208138197230488   -0.03365124651884744   -0.0011610964847793477
-0.003475554322419123   -0.03366151672480443   -0.0012215698774287128
-0.0010271719442729145   -0.02910137434633932   -0.0012138003046726219
-0.0033211032977548817   -0.029161635668871238   -0.0012301763503939802
-0.003416368174861854   -0.03368534444037198   -0.0012158071957584806
-0.0009872726907312716   -0.02911280811039359   -0.0011818023353918135
-0.0032801739516835665   -0.029201432163501927   -0.001225748506083897
-0.003416368174861854   -0.03368534444037198   -0.0012158071957584806
-0.0015208138197230488   -0.03365124651884744   -0.0011610964847793477
-0.0009872726907312716   -0.02911280811039359   -0.0011818023353918135
-0.0014657062396882718   -0.033681414648817486   -0.001126288395463914
-0.0032801739516835665   -0.029201432163501927   -0.001225748506083897
-0.0009516276569504661   -0.029136418097084116   -0.0011554318431464194
-0.0014657062396882718   -0.033681414648817486   -0.001126288395463914
-0.0009872726907312716   -0.02911280811039359   -0.0011818023353918135
-0.0032801739516835665   -0.029201432163501927   -0.001225748506083897
-0.0014657062396882718   -0.033681414648817486   -0.001126288395463914
-0.0033572674394584524   -0.033729186603179945   -0.0012153714449580333
-0.003416368174861854   -0.03368534444037198   -0.0012158071957584806
-0.0032801739516835665   -0.029201432163501927   -0.001225748506083897
-0.0014657062396882718   -0.033681414648817486   -0.001126288395463914
-0.003416368174861854   -0.03368534444037198   -0.0012158071957584806
-0.0009872726907312716   -0.02911280811039359   -0.0011818023353918135
-0.0010681289240083059   -0.02910118413860491   -0.0012512380822000187
-0.0016445610952477993   -0.03364721154254194   -0.0012469584618118165
0.001341168192155547   -0.02904373789952942   -0.001273743147432234
-0.0010271719442729145   -0.02910137434633932   -0.0012138003046726219
-0.0016445610952477993   -0.03364721154254194   -0.0012469584618118165
0.00033086751318921865   -0.03357767440632668   -0.0012813064683596148
0.001341168192155547   -0.02904373789952942   -0.001273743147432234
0.0004073036614331026   -0.03355660776071159   -0.0012009525441099142
-0.0010271719442729145   -0.02910137434633932   -0.0012138003046726219
0.0013912628724246587   -0.029027871423422884   -0.0012146016592536894
0.0004073036614331026   -0.03355660776071159   -0.0012009525441099142
0.001341168192155547   -0.02904373789952942   -0.001273743147432234
-0.0010271719442729145   -0.02910137434633932   -0.0012138003046726219
0.0004073036614331026   -0.03355660776071159   -0.0012009525441099142
-0.0015817774739995815   -0.03364065567578888   -0.0012011555745189656
-0.0016445610952477993   -0.03364721154254194   -0.0012469584618118165
-0.0010271719442729145   -0.02910137434633932   -0.0012138003046726219
0.0004073036614331026   -0.03355660776071159   -0.0012009525441099142
-0.0016445610952477993   -0.03364721154254194   -0.0012469584618118165
0.001341168192155547   -0.02904373789952942   -0.001273743147432234
-0.0010271719442729145   -0.02910137434633932   -0.0012138003046726219
-0.0015817774739995815   -0.03364065567578888   -0.0012011555745189656
0.0013912628724246587   -0.029027871423422884   -0.0012146016592536894
-0.0009872726907312716   -0.02911280811039359   -0.0011818023353918135
-0.0015817774739995815   -0.03364065567578888   -0.0012011555745189656
0.0004073036614331026   -0.03355660776071159   -0.0012009525441099142
0.0013912628724246587   -0.029027871423422884   -0.0012146016592536894
0.00048795380939350644   -0.03355470779839571   -0.001127871527943887
-0.0009872726907312716   -0.02911280811039359   -0.0011818023353918135
0.001442690983813002   -0.029024858302598978   -0.0011612440527976884
0.00048795380939350644   -0.03355470779839571   -0.001127871527943887
0.0013912628724246587   -0.029027871423422884   -0.0012146016592536894
-0.0009872726907312716   -0.02911280811039359   -0.0011818023353918135
0.00048795380939350644   -0.03355470779839571   -0.001127871527943887
-0.0015208138197230488   -0.03365124651884744   -0.0011610964847793477
-0.0015817774739995815   -0.03364065567578888   -0.0012011555745189656
-0.0009872726907312716   -0.02911280811039359   -0.0011818023353918135
0.00048795380939350644   -0.03355470779839571   -0.001127871527943887
-0.0015817774739995815   -0.03364065567578888   -0.0012011555745189656
0.0013912628724246587   -0.029027871423422884   -0.0012146016592536894
-0.0009872726907312716   -0.02911280811039359   -0.0011818023353918135
-0.0015208138197230488   -0.03365124651884744   -0.0011610964847793477
0.001442690983813002   -0.029024858302598978   -0.0011612440527976884
-0.0009516276569504661   -0.029136418097084116   -0.0011554318431464194
-0.0015208138197230488   -0.03365124651884744   -0.0011610964847793477
0.00048795380939350644   -0.03355470779839571   -0.001127871527943887
0.001442690983813002   -0.029024858302598978   -0.0011612440527976884
0.0005469361555712234   -0.033571088115822115   -0.001059794518029816
-0.0009516276569504661   -0.029136418097084116   -0.0011554318431464194
0.0014770002097797262   -0.02903233988022363   -0.0011129062362216346
0.0005469361555712234   -0.033571088115822115   -0.001059794518029816
0.001442690983813002   -0.029024858302598978   -0.0011612440527976884
-0.0009516276569504661   -0.029136418097084116   -0.0011554318431464194
0.0005469361555712234   -0.033571088115822115   -0.001059794518029816
-0.0014657062396882718   -0.033681414648817486   -0.001126288395463914
-0.0015208138197230488   -0.03365124651884744   -0.0011610964847793477
-0.0009516276569504661   -0.029136418097084116   -0.0011554318431464194
0.0005469361555712234   -0.033571088115822115   -0.001059794518029816
-0.0015208138197230488   -0.03365124651884744   -0.0011610964847793477
0.001442690983813002   -0.029024858302598978   -0.0011612440527976884
0.001341168192155547   -0.02904373789952942   -0.001273743147432234
0.00033086751318921865   -0.03357767440632668   -0.0012813064683596148
0.003902306393805612   -0.028944923265551974   -0.0013312548626835034
0.0013912628724246587   -0.029027871423422884   -0.0012146016592536894
0.00033086751318921865   -0.03357767440632668   -0.0012813064683596148
0.0024342783190093534   -0.033441452418031   -0.0013542720524025178
0.003902306393805612   -0.028944923265551974   -0.0013312548626835034
0.0026286458461658386   -0.03340109986110921   -0.001231248429374806
0.0013912628724246587   -0.029027871423422884   -0.0012146016592536894
0.004035653628047685   -0.02891235762868758   -0.0012451055006004277
0.0026286458461658386   -0.03340109986110921   -0.001231248429374806
0.003902306393805612   -0.028944923265551974   -0.0013312548626835034
0.0013912628724246587   -0.029027871423422884   -0.0012146016592536894
0.0026286458461658386   -0.03340109986110921   -0.001231248429374806
0.0004073036614331026   -0.03355660776071159   -0.0012009525441099142
0.00033086751318921865   -0.03357767440632668   -0.0012813064683596148
0.0013912628724246587   -0.029027871423422884   -0.0012146016592536894
0.0026286458461658386   -0.03340109986110921   -0.001231248429374806
0.00033086751318921865   -0.03357767440632668   -0.0012813064683596148
0.003902306393805612   -0.028944923265551974   -0.0013312548626835034
0.0013912628724246587   -0.029027871423422884   -0.0012146016592536894
0.0004073036614331026   -0.03355660776071159   -0.0012009525441099142
0.004035653628047685   -0.02891235762868758   -0.0012451055006004277
0.001442690983813002   -0.029024858302598978   -0.0011612440527976884
0.0004073036614331026   -0.03355660776071159   -0.0012009525441099142
0.0026286458461658386   -0.03340109986110921   -0.001231248429374806
0.004035653628047685   -0.02891235762868758   -0.0012451055006004277
0.0027777283895318696   -0.03339410954894707   -0.0011172470899441676
0.001442690983813002   -0.029024858302598978   -0.0011612440527976884
0.004134533487823487   -0.028903351504509088   -0.0011666572085617017
0.0027777283895318696   -0.03339410954894707   -0.0011172470899441676
0.004035653628047685   -0.02891235762868758   -0.0012451055006004277
0.001442690983813002   -0.029024858302598978   -0.0011612440527976884
0.0027777283895318696   -0.03339410954894707   -0.0011172470899441676
0.00048795380939350644   -0.03355470779839571   -0.001127871527943887
0.0004073036614331026   -0.03355660776071159   -0.0012009525441099142
0.001442690983813002   -0.029024858302598978   -0.0011612440527976884
0.0027777283895318696   -0.03339410954894707   -0.0011172470899441676
0.0004073036614331026   -0.03355660776071159   -0.0012009525441099142
0.004035653628047685   -0.02891235762868758   -0.0012451055006004277
0.001442690983813002   -0.029024858302598978   -0.0011612440527976884
0.00048795380939350644   -0.03355470779839571   -0.001127871527943887
0.004134533487823487   -0.028903351504509088   -0.0011666572085617017
0.0014770002097797262   -0.02903233988022363   -0.0011129062362216346
0.00048795380939350644   -0.03355470779839571   -0.001127871527943887
0.0027777283895318696   -0.03339410954894707   -0.0011172470899441676
0.004134533487823487   -0.028903351504509088   -0.0011666572085617017
0.002932514521961542   -0.03340619907095328   -0.0010131935165565346
0.0014770002097797262   -0.02903233988022363   -0.0011129062362216346
0.004235028377403227   -0.02890331684378131   -0.0010962677266307017
0.002932514521961542   -0.03340619907095328   -0.0010131935165565346
0.004134533487823487   -0.028903351504509088   -0.0011666572085617017
0.0014770002097797262   -0.02903233988022363   -0.0011129062362216346
0.002932514521961542   -0.03340619907095328   -0.0010131935165565346
0.0005469361555712234   -0.033571088115822115   -0.001059794518029816
0.00048795380939350644   -0.03355470779839571   -0.001127871527943887
0.0014770002097797262   -0.02903233988022363   -0.0011129062362216346
0.002932514521961542   -0.03340619907095328   -0.0010131935165565346
0.00048795380939350644   -0.03355470779839571   -0.001127871527943887
0.004134533487823487   -0.028903351504509088   -0.0011666572085617017
-0.0077391368062606145   -0.03350351221843944   -0.001242920518345399
-0.006488624769746113   -0.0370064504331366   -0.0011282400639709236
-0.0054858329771037976   -0.03360797386786216   -0.001235554088654606
-0.007622364727093155   -0.033525864392656826   -0.0013123617523136122
-0.006488624769746113   -0.0370064504331366   -0.0011282400639709236
-0.0048842325029531146   -0.03716070592454743   -0.001174417289564695
-0.0054858329771037976   -0.03360797386786216   -0.001235554088654606
-0.004804112391085361   -0.03715290724239355   -0.0012124940466715732
-0.007622364727093155   -0.033525864392656826   -0.0013123617523136122
-0.0054299082821887895   -0.03362305740743131   -0.0012603110855592095
-0.004804112391085361   -0.03715290724239355   -0.0012124940466715732
-0.0054858329771037976   -0.03360797386786216   -0.001235554088654606
-0.007622364727093155   -0.033525864392656826   -0.0013123617523136122
-0.004804112391085361   -0.03715290724239355   -0.0012124940466715732
-0.006315270110838821   -0.03700220449981194   -0.0012308765326222797
-0.006488624769746113   -0.0370064504331366   -0.0011282400639709236
-0.007622364727093155   -0.033525864392656826   -0.0013123617523136122
-0.004804112391085361   -0.03715290724239355   -0.0012124940466715732
-0.006488624769746113   -0.0370064504331366   -0.0011282400639709236
-0.0054858329771037976   -0.03360797386786216   -0.001235554088654606
-0.007622364727093155   -0.033525864392656826   -0.0013123617523136122
-0.006315270110838821   -0.03700220449981194   -0.0012308765326222797
-0.0054299082821887895   -0.03362305740743131   -0.0012603110855592095
-0.007506041368901223   -0.03356843075627937   -0.0013908412552899507
-0.006315270110838821   -0.03700220449981194   -0.0012308765326222797
-0.004804112391085361   -0.03715290724239355   -0.0012124940466715732
-0.0054299082821887895   -0.03362305740743131   -0.0012603110855592095
-0.004709776965809628   -0.03717536767201896   -0.0012562240659577553
-0.007506041368901223   -0.03356843075627937   -0.0013908412552899507
-0.005359653235591291   -0.03365932339778691   -0.0012906200072034647
-0.004709776965809628   -0.03717536767201896   -0.0012562240659577553
-0.0054299082821887895   -0.03362305740743131   -0.0012603110855592095
-0.007506041368901223   -0.03356843075627937   -0.0013908412552899507
-0.004709776965809628   -0.03717536767201896   -0.0012562240659577553
-0.006155578291940321   -0.037029913621829225   -0.0013414823459486681
-0.006315270110838821   -0.03700220449981194   -0.0012308765326222797
-0.007506041368901223   -0.03356843075627937   -0.0013908412552899507
-0.004709776965809628   -0.03717536767201896   -0.0012562240659577553
-0.006315270110838821   -0.03700220449981194   -0.0012308765326222797
-0.0054299082821887895   -0.03362305740743131   -0.0012603110855592095
-0.007506041368901223   -0.03356843075627937   -0.0013908412552899507
-0.006155578291940321   -0.037029913621829225   -0.0013414823459486681
-0.005359653235591291   -0.03365932339778691   -0.0012906200072034647
-0.007357081993858679   -0.033647805776361714   -0.0014782045017470067
-0.006155578291940321   -0.037029913621829225   -0.0013414823459486681
-0.004709776965809628   -0.03717536767201896   -0.0012562240659577553
-0.005359653235591291   -0.03365932339778691   -0.0012906200072034647
-0.004624201839460077   -0.03722861438105841   -0.0013052478767771358
-0.007357081993858679   -0.033647805776361714   -0.0014782045017470067
-0.005290362858726798   -0.03371883432380297   -0.0013264282688720682
-0.004624201839460077   -0.03722861438105841   -0.0013052478767771358
-0.005359653235591291   -0.03365932339778691   -0.0012906200072034647
-0.007357081993858679   -0.033647805776361714   -0.0014782045017470067
-0.004624201839460077   -0.03722861438105841   -0.0013052478767771358
-0.005960736314151594   -0.037103572038598126   -0.0014595997058236977
-0.006155578291940321   -0.037029913621829225   -0.0013414823459486681
-0.007357081993858679   -0.033647805776361714   -0.0014782045017470067
-0.004624201839460077   -0.03722861438105841   -0.0013052478767771358
-0.006155578291940321   -0.037029913621829225   -0.0013414823459486681
-0.005359653235591291   -0.03365932339778691   -0.0012906200072034647
-0.0054858329771037976   -0.03360797386786216   -0.001235554088654606
-0.0048842325029531146   -0.03716070592454743   -0.001174417289564695
-0.0035328779308481657   -0.033656615368503985   -0.001232719801565964
-0.0054299082821887895   -0.03362305740743131   -0.0012603110855592095
-0.0048842325029531146   -0.03716070592454743   -0.001174417289564695
-0.0035711457104469157   -0.03726000184435167   -0.0012105791553856438
-0.0035328779308481657   -0.033656615368503985   -0.001232719801565964
-0.003489026161678138   -0.03724735644154441   -0.0011989488445952362
-0.0054299082821887895   -0.03362305740743131   -0.0012603110855592095
-0.003475554322419123   -0.03366151672480443   -0.0012215698774287128
-0.003489026161678138   -0.03724735644154441   -0.0011989488445952362
-0.0035328779308481657   -0.033656615368503985   -0.001232719801565964
-0.0054299082821887895   -0.03362305740743131   -0.0012603110855592095
-0.003489026161678138   -0.03724735644154441   -0.0011989488445952362
-0.004804112391085361   -0.03715290724239355   -0.0012124940466715732
-0.0048842325029531146   -0.03716070592454743   -0.001174417289564695
-0.0054299082821887895   -0.03362305740743131   -0.0012603110855592095
-0.003489026161678138   -0.03724735644154441   -0.0011989488445952362
-0.0048842325029531146   -0.03716070592454743   -0.001174417289564695
-0.0035328779308481657   -0.033656615368503985   -0.001232719801565964
-0.0054299082821887895   -0.03362305740743131   -0.0012603110855592095
-0.004804112391085361   -0.03715290724239355   -0.0012124940466715732
-0.003475554322419123   -0.03366151672480443   -0.0012215698774287128
-0.005359653235591291   -0.03365932339778691   -0.0012906200072034647
-0.004804112391085361   -0.03715290724239355   -0.0012124940466715732
-0.003489026161678138   -0.03724735644154441   -0.0011989488445952362
-0.003475554322419123   -0.03366151672480443   -0.0012215698774287128
-0.003408003287497093   -0.03726086160271983   -0.0011928163304889656
-0.005359653235591291   -0.03365932339778691   -0.0012906200072034647
-0.003416368174861854   -0.03368534444037198   -0.0012158071957584806
-0.003408003287497093   -0.03726086160271983   -0.0011928163304889656
-0.003475554322419123   -0.03366151672480443   -0.0012215698774287128
-0.005359653235591291   -0.03365932339778691   -0.0012906200072034647
-0.003408003287497093   -0.03726086160271983   -0.0011928163304889656
-0.004709776965809628   -0.03717536767201896   -0.0012562240659577553
-0.004804112391085361   -0.03715290724239355   -0.0012124940466715732
-0.005359653235591291   -0.03365932339778691   -0.0012906200072034647
-0.003408003287497093   -0.03726086160271983   -0.0011928163304889656
-0.004804112391085361   -0.03715290724239355   -0.0012124940466715732
-0.003475554322419123   -0.03366151672480443   -0.0012215698774287128
-0.005359653235591291   -0.03365932339778691   -0.0012906200072034647
-0.004709776965809628   -0.03717536767201896   -0.0012562240659577553
-0.003416368174861854   -0.03368534444037198   -0.0012158071957584806
-0.005290362858726798   -0.03371883432380297   -0.0013264282688720682
-0.004709776965809628   -0.03717536767201896   -0.0012562240659577553
-0.003408003287497093   -0.03726086160271983   -0.0011928163304889656
-0.003416368174861854   -0.03368534444037198   -0.0012158071957584806
-0.0033333901695238415   -0.0373013616868911   -0.0011933230100061164
-0.005290362858726798   -0.03371883432380297   -0.0013264282688720682
-0.0033572674394584524   -0.033729186603179945   -0.0012153714449580333
-0.0033333901695238415   -0.0373013616868911   -0.0011933230100061164
-0.003416368174861854   -0.03368534444037198   -0.0012158071957584806
-0.005290362858726798   -0.03371883432380297   -0.0013264282688720682
-0.0033333901695238415   -0.0373013616868911   -0.0011933230100061164
-0.004624201839460077   -0.03722861438105841   -0.0013052478767771358
-0.004709776965809628   -0.03717536767201896   -0.0012562240659577553
-0.005290362858726798   -0.03371883432380297   -0.0013264282688720682
-0.0033333901695238415   -0.0373013616868911   -0.0011933230100061164
-0.004709776965809628   -0.03717536767201896   -0.0012562240659577553
-0.003416368174861854   -0.03368534444037198   -0.0012158071957584806
-0.0035328779308481657   -0.033656615368503985   -0.001232719801565964
-0.0035711457104469157   -0.03726000184435167   -0.0012105791553856438
-0.0016445610952477993   -0.03364721154254194   -0.0012469584618118165
-0.003475554322419123   -0.03366151672480443   -0.0012215698774287128
-0.0035711457104469157   -0.03726000184435167   -0.0012105791553856438
-0.0023132501954323493   -0.03731110633604476   -0.0012535449909163601
-0.0016445610952477993   -0.03364721154254194   -0.0012469584618118165
-0.0022207010648383385   -0.03729272115372472   -0.0011949964319472792
-0.003475554322419123   -0.03366151672480443   -0.0012215698774287128
-0.0015817774739995815   -0.03364065567578888   -0.0012011555745189656
-0.0022207010648383385   -0.03729272115372472   -0.0011949964319472792
-0.0016445610952477993   -0.03364721154254194   -0.0012469584618118165
-0.003475554322419123   -0.03366151672480443   -0.0012215698774287128
-0.0022207010648383385   -0.03729272115372472   -0.0011949964319472792
-0.003489026161678138   -0.03724735644154441   -0.0011989488445952362
-0.0035711457104469157   -0.03726000184435167   -0.0012105791553856438
-0.003475554322419123   -0.03366151672480443   -0.0012215698774287128
-0.0022207010648383385   -0.03729272115372472   -0.0011949964319472792
-0.0035711457104469157   -0.03726000184435167   -0.0012105791553856438
-0.0016445610952477993   -0.03364721154254194   -0.0012469584618118165
-0.003475554322419123   -0.03366151672480443   -0.0012215698774287128
-0.003489026161678138   -0.03724735644154441   -0.0011989488445952362
-0.0015817774739995815   -0.03364065567578888   -0.0012011555745189656
-0.003416368174861854   -0.03368534444037198   -0.0012158071957584806
-0.003489026161678138   -0.03724735644154441   -0.0011989488445952362
-0.0022207010648383385   -0.03729272115372472   -0.0011949964319472792
-0.0015817774739995815   -0.03364065567578888   -0.0012011555745189656
-0.002132430898837677   -0.03729738912202379   -0.0011413325374575586
-0.003416368174861854   -0.03368534444037198   -0.0012158071957584806
-0.0015208138197230488   -0.03365124651884744   -0.0011610964847793477
-0.002132430898837677   -0.03729738912202379   -0.0011413325374575586
-0.0015817774739995815   -0.03364065567578888   -0.0012011555745189656
-0.003416368174861854   -0.03368534444037198   -0.0012158071957584806
-0.002132430898837677   -0.03729738912202379   -0.0011413325374575586
-0.003408003287497093   -0.03726086160271983   -0.0011928163304889656
-0.003489026161678138   -0.03724735644154441   -0.0011989488445952362
-0.003416368174861854   -0.03368534444037198   -0.0012158071957584806
-0.002132430898837677   -0.03729738912202379   -0.0011413325374575586
-0.003489026161678138   -0.03724735644154441   -0.0011989488445952362
-0.0015817774739995815   -0.03364065567578888   -0.0012011555745189656
-0.003416368174861854   -0.03368534444037198   -0.0012158071957584806
-0.003408003287497093   -0.03726086160271983   -0.0011928163304889656
-0.0015208138197230488   -0.03365124651884744   -0.0011610964847793477
-0.0033572674394584524   -0.033729186603179945   -0.0012153714449580333
-0.003408003287497093   -0.03726086160271983   -0.0011928163304889656
-0.002132430898837677   -0.03729738912202379   -0.0011413325374575586
-0.0015208138197230488   -0.03365124651884744   -0.0011610964847793477
-0.0020589256370611136   -0.03732949510005486   -0.0010955478233051978
-0.0033572674394584524   -0.033729186603179945   -0.0012153714449580333
-0.0014657062396882718   -0.033681414648817486   -0.001126288395463914
-0.0020589256370611136   -0.03732949510005486   -0.0010955478233051978
-0.0015208138197230488   -0.03365124651884744   -0.0011610964847793477
-0.0033572674394584524   -0.033729186603179945   -0.0012153714449580333
-0.0020589256370611136   -0.03732949510005486   -0.0010955478233051978
-0.0033333901695238415   -0.0373013616868911   -0.0011933230100061164
-0.003408003287497093   -0.03726086160271983   -0.0011928163304889656
-0.0033572674394584524   -0.033729186603179945   -0.0012153714449580333
-0.0020589256370611136   -0.03732949510005486   -0.0010955478233051978
-0.003408003287497093   -0.03726086160271983   -0.0011928163304889656
-0.0015208138197230488   -0.03365124651884744   -0.0011610964847793477
-0.0016445610952477993   -0.03364721154254194   -0.0012469584618118165
-0.0023132501954323493   -0.03731110633604476   -0.0012535449909163601
0.00033086751318921865   -0.03357767440632668   -0.0012813064683596148
-0.0015817774739995815   -0.03364065567578888   -0.0012011555745189656
-0.0023132501954323493   -0.03731110633604476   -0.0012535449909163601
-0.0009772612576292156   -0.037295913975149114   -0.001304354577400215
0.00033086751318921865   -0.03357767440632668   -0.0012813064683596148
-0.0008584322219639948   -0.0372670529770938   -0.0012008623567668442
-0.0015817774739995815   -0.03364065567578888   -0.0012011555745189656
0.0004073036614331026   -0.03355660776071159   -0.0012009525441099142
-0.0008584322219639948   -0.0372670529770938   -0.0012008623567668442
0.00033086751318921865   -0.03357767440632668   -0.0012813064683596148
-0.0015817774739995815   -0.03364065567578888   -0.0012011555745189656
-0.0008584322219639948   -0.0372670529770938   -0.0012008623567668442
-0.0022207010648383385   -0.03729272115372472   -0.0011949964319472792
-0.0023132501954323493   -0.03731110633604476   -0.0012535449909163601
-0.0015817774739995815   -0.03364065567578888   -0.0012011555745189656
-0.0008584322219639948   -0.0372670529770938   -0.0012008623567668442
-0.0023132501954323493   -0.03731110633604476   -0.0012535449909163601
0.00033086751318921865   -0.03357767440632668   -0.0012813064683596148
-0.0015817774739995815   -0.03364065567578888   -0.0012011555745189656
-0.0022207010648383385   -0.03729272115372472   -0.0011949964319472792
0.0004073036614331026   -0.03355660776071159   -0.0012009525441099142
-0.0015208138197230488   -0.03365124651884744   -0.0011610964847793477
-0.0022207010648383385   -0.03729272115372472   -0.0011949964319472792
-0.0008584322219639948   -0.0372670529770938   -0.0012008623567668442
0.0004073036614331026   -0.03355660776071159   -0.0012009525441099142
-0.0007367238706345528   -0.03726209165131341   -0.0011025807056319957
-0.0015208138197230488   -0.03365124651884744   -0.0011610964847793477
0.00048795380939350644   -0.03355470779839571   -0.001127871527943887
-0.0007367238706345528   -0.03726209165131341   -0.0011025807056319957
0.0004073036614331026   -0.03355660776071159   -0.0012009525441099142
-0.0015208138197230488   -0.03365124651884744   -0.0011610964847793477
-0.0007367238706345528   -0.03726209165131341   -0.0011025807056319957
-0.002132430898837677   -0.03729738912202379   -0.0011413325374575586
-0.0022207010648383385   -0.03729272115372472   -0.0011949964319472792
-0.0015208138197230488   -0.03365124651884744   -0.0011610964847793477
-0.0007367238706345528   -0.03726209165131341   -0.0011025807056319957
-0.0022207010648383385   -0.03729272115372472   -0.0011949964319472792
0.0004073036614331026   -0.03355660776071159   -0.0012009525441099142
-0.0015208138197230488   -0.03365124651884744   -0.0011610964847793477
-0.002132430898837677   -0.03729738912202379   -0.0011413325374575586
0.00048795380939350644   -0.03355470779839571   -0.001127871527943887
-0.0014657062396882718   -0.033681414648817486   -0.001126288395463914
-0.002132430898837677   -0.03729738912202379   -0.0011413325374575586
-0.0007367238706345528   -0.03726209165131341   -0.0011025807056319957
0.00048795380939350644   -0.03355470779839571   -0.001127871527943887
-0.0006467082987606972   -0.03728608301967732   -0.00101320803139146
-0.0014657062396882718   -0.033681414648817486   -0.001126288395463914
0.0005469361555712234   -0.033571088115822115   -0.001059794518029816
-0.0006467082987606972   -0.03728608301967732   -0.00101320803139146
0.00048795380939350644   -0.03355470779839571   -0.001127871527943887
-0.0014657062396882718   -0.033681414648817486   -0.001126288395463914
-0.0006467082987606972   -0.03728608301967732   -0.00101320803139146
-0.0020589256370611136   -0.03732949510005486   -0.0010955478233051978
-0.002132430898837677   -0.03729738912202379   -0.0011413325374575586
-0.0014657062396882718   -0.033681414648817486   -0.001126288395463914
-0.0006467082987606972   -0.03728608301967732   -0.00101320803139146
-0.002132430898837677   -0.03729738912202379   -0.0011413325374575586
0.00048795380939350644   -0.03355470779839571   -0.001127871527943887
0.00033086751318921865   -0.03357767440632668   -0.0012813064683596148
-0.0009772612576292156   -0.037295913975149114   -0.001304354577400215
0.0024342783190093534   -0.033441452418031   -0.0013542720524025178
0.0004073036614331026   -0.03355660776071159   -0.0012009525441099142
-0.0009772612576292156   -0.037295913975149114   -0.001304354577400215
0.0004574050975308891   -0.037166878614348905   -0.0014077912509499765
0.0024342783190093534   -0.033441452418031   -0.0013542720524025178
0.000736020648235844   -0.037104294035969786   -0.0012386163484721217
0.0004073036614331026   -0.03355660776071159   -0.0012009525441099142
0.0026286458461658386   -0.03340109986110921   -0.001231248429374806
0.000736020648235844   -0.037104294035969786   -0.0012386163484721217
0.0024342783190093534   -0.033441452418031   -0.0013542720524025178
0.0004073036614331026   -0.03355660776071159   -0.0012009525441099142
0.000736020648235844   -0.037104294035969786   -0.0012386163484721217
-0.0008584322219639948   -0.0372670529770938   -0.0012008623567668442
-0.0009772612576292156   -0.037295913975149114   -0.001304354577400215
0.0004073036614331026   -0.03355660776071159   -0.0012009525441099142
0.000736020648235844   -0.037104294035969786   -0.0012386163484721217
-0.0009772612576292156   -0.037295913975149114   -0.001304354577400215
0.0024342783190093534   -0.033441452418031   -0.0013542720524025178
0.0004073036614331026   -0.03355660776071159   -0.0012009525441099142
-0.0008584322219639948   -0.0372670529770938   -0.0012008623567668442
0.0026286458461658386   -0.03340109986110921   -0.001231248429374806
0.00048795380939350644   -0.03355470779839571   -0.001127871527943887
-0.0008584322219639948   -0.0372670529770938   -0.0012008623567668442
0.000736020648235844   -0.037104294035969786   -0.0012386163484721217
0.0026286458461658386   -0.03340109986110921   -0.001231248429374806
0.0009548846260853353   -0.03709172691109061   -0.0010796316103680243
0.00048795380939350644   -0.03355470779839571   -0.001127871527943887
0.0027777283895318696   -0.03339410954894707   -0.0011172470899441676
0.0009548846260853353   -0.03709172691109061   -0.0010796316103680243
0.0026286458461658386   -0.03340109986110921   -0.001231248429374806
0.00048795380939350644   -0.03355470779839571   -0.001127871527943887
0.0009548846260853353   -0.03709172691109061   -0.0010796316103680243
-0.0007367238706345528   -0.03726209165131341   -0.0011025807056319957
-0.0008584322219639948   -0.0372670529770938   -0.0012008623567668442
0.00048795380939350644   -0.03355470779839571   -0.001127871527943887
0.0009548846260853353   -0.03709172691109061   -0.0010796316103680243
-0.0008584322219639948   -0.0372670529770938   -0.0012008623567668442
0.0026286458461658386   -0.03340109986110921   -0.001231248429374806
0.00048795380939350644   -0.03355470779839571   -0.001127871527943887
-0.0007367238706345528   -0.03726209165131341   -0.0011025807056319957
0.0027777283895318696   -0.03339410954894707   -0.0011172470899441676
0.0005469361555712234   -0.033571088115822115   -0.001059794518029816
-0.0007367238706345528   -0.03726209165131341   -0.0011025807056319957
0.0009548846260853353   -0.03709172691109061   -0.0010796316103680243
0.0027777283895318696   -0.03339410954894707   -0.0011172470899441676
0.0011827511912943756   -0.03710283276189316   -0.0009342657379298067
0.0005469361555712234   -0.033571088115822115   -0.001059794518029816
0.002932514521961542   -0.03340619907095328   -0.0010131935165565346
0.0011827511912943756   -0.03710283276189316   -0.0009342657379298067
0.0027777283895318696   -0.03339410954894707   -0.0011172470899441676
0.0005469361555712234   -0.033571088115822115   -0.001059794518029816
0.0011827511912943756   -0.03710283276189316   -0.0009342657379298067
-0.0006467082987606972   -0.03728608301967732   -0.00101320803139146
-0.0007367238706345528   -0.03726209165131341   -0.0011025807056319957
0.0005469361555712234   -0.033571088115822115   -0.001059794518029816
0.0011827511912943756   -0.03710283276189316   -0.0009342657379298067
-0.0007367238706345528   -0.03726209165131341   -0.0011025807056319957
0.0027777283895318696   -0.03339410954894707   -0.0011172470899441676
-0.006488624769746113   -0.0370064504331366   -0.0011282400639709236
-0.0047735030626216085   -0.03909165653720582   -0.0009933497154055828
-0.0048842325029531146   -0.03716070592454743   -0.001174417289564695
-0.006315270110838821   -0.03700220449981194   -0.0012308765326222797
-0.0047735030626216085   -0.03909165653720582   -0.0009933497154055828
-0.004023221689049436   -0.03928640833637119   -0.0011099096844576523
-0.0048842325029531146   -0.03716070592454743   -0.001174417289564695
-0.003922434220174868   -0.039248268676980065   -0.0011505458687392338
-0.006315270110838821   -0.03700220449981194   -0.0012308765326222797
-0.004804112391085361   -0.03715290724239355   -0.0012124940466715732
-0.003922434220174868   -0.039248268676980065   -0.0011505458687392338
-0.0048842325029531146   -0.03716070592454743   -0.001174417289564695
-0.006315270110838821   -0.03700220449981194   -0.0012308765326222797
-0.003922434220174868   -0.039248268676980065   -0.0011505458687392338
-0.0045578889442497396   -0.03904864268536903   -0.001116401328177407
-0.0047735030626216085   -0.03909165653720582   -0.0009933497154055828
-0.006315270110838821   -0.03700220449981194   -0.0012308765326222797
-0.003922434220174868   -0.039248268676980065   -0.0011505458687392338
-0.0047735030626216085   -0.03909165653720582   -0.0009933497154055828
-0.0048842325029531146   -0.03716070592454743   -0.001174417289564695
-0.006315270110838821   -0.03700220449981194   -0.0012308765326222797
-0.0045578889442497396   -0.03904864268536903   -0.001116401328177407
-0.004804112391085361   -0.03715290724239355   -0.0012124940466715732
-0.006155578291940321   -0.037029913621829225   -0.0013414823459486681
-0.0045578889442497396   -0.03904864268536903   -0.001116401328177407
-0.003922434220174868   -0.039248268676980065   -0.0011505458687392338
-0.004804112391085361   -0.03715290724239355   -0.0012124940466715732
-0.0038106384603284757   -0.03925060932878858   -0.0011916018165068782
-0.006155578291940321   -0.037029913621829225   -0.0013414823459486681
-0.004709776965809628   -0.03717536767201896   -0.0012562240659577553
-0.0038106384603284757   -0.03925060932878858   -0.0011916018165068782
-0.004804112391085361   -0.03715290724239355   -0.0012124940466715732
-0.006155578291940321   -0.037029913621829225   -0.0013414823459486681
-0.0038106384603284757   -0.03925060932878858   -0.0011916018165068782
-0.004371898233484419   -0.03905283511496859   -0.0012390192149058785
-0.0045578889442497396   -0.03904864268536903   -0.001116401328177407
-0.006155578291940321   -0.037029913621829225   -0.0013414823459486681
-0.0038106384603284757   -0.03925060932878858   -0.0011916018165068782
-0.0045578889442497396   -0.03904864268536903   -0.001116401328177407
-0.004804112391085361   -0.03715290724239355   -0.0012124940466715732
-0.006155578291940321   -0.037029913621829225   -0.0013414823459486681
-0.004371898233484419   -0.03905283511496859   -0.0012390192149058785
-0.004709776965809628   -0.03717536767201896   -0.0012562240659577553
-0.005960736314151594   -0.037103572038598126   -0.0014595997058236977
-0.004371898233484419   -0.03905283511496859   -0.0012390192149058785
-0.0038106384603284757   -0.03925060932878858   -0.0011916018165068782
-0.004709776965809628   -0.03717536767201896   -0.0012562240659577553
-0.003706875640898302   -0.039293639616630405   -0.0012332483551242318
-0.005960736314151594   -0.037103572038598126   -0.0014595997058236977
-0.004624201839460077   -0.03722861438105841   -0.0013052478767771358
-0.003706875640898302   -0.039293639616630405   -0.0012332483551242318
-0.004709776965809628   -0.03717536767201896   -0.0012562240659577553
-0.005960736314151594   -0.037103572038598126   -0.0014595997058236977
-0.003706875640898302   -0.039293639616630405   -0.0012332483551242318
-0.004151156466581062   -0.03910699354402928   -0.0013642654761354279
-0.004371898233484419   -0.03905283511496859   -0.0012390192149058785
-0.005960736314151594   -0.037103572038598126   -0.0014595997058236977
-0.003706875640898302   -0.039293639616630405   -0.0012332483551242318
-0.004371898233484419   -0.03905283511496859   -0.0012390192149058785
-0.004709776965809628   -0.03717536767201896   -0.0012562240659577553
-0.0048842325029531146   -0.03716070592454743   -0.001174417289564695
-0.004023221689049436   -0.03928640833637119   -0.0011099096844576523
-0.0035711457104469157   -0.03726000184435167   -0.0012105791553856438
-0.004804112391085361   -0.03715290724239355   -0.0012124940466715732
-0.004023221689049436   -0.03928640833637119   -0.0011099096844576523
-0.0034719599389431517   -0.03948019296898283   -0.0012128091364598725
-0.0035711457104469157   -0.03726000184435167   -0.0012105791553856438
-0.00336578792741374   -0.039440971667682394   -0.001184820943463968
-0.004804112391085361   -0.03715290724239355   -0.0012124940466715732
-0.003489026161678138   -0.03724735644154441   -0.0011989488445952362
-0.00336578792741374   -0.039440971667682394   -0.001184820943463968
-0.0035711457104469157   -0.03726000184435167   -0.0012105791553856438
-0.004804112391085361   -0.03715290724239355   -0.0012124940466715732
-0.00336578792741374   -0.039440971667682394   -0.001184820943463968
-0.003922434220174868   -0.039248268676980065   -0.0011505458687392338
-0.004023221689049436   -0.03928640833637119   -0.0011099096844576523
-0.004804112391085361   -0.03715290724239355   -0.0012124940466715732
-0.00336578792741374   -0.039440971667682394   -0.001184820943463968
-0.004023221689049436   -0.03928640833637119   -0.0011099096844576523
-0.0035711457104469157   -0.03726000184435167   -0.0012105791553856438
-0.004804112391085361   -0.03715290724239355   -0.0012124940466715732
-0.003922434220174868   -0.039248268676980065   -0.0011505458687392338
-0.003489026161678138   -0.03724735644154441   -0.0011989488445952362
-0.004709776965809628   -0.03717536767201896   -0.0012562240659577553
-0.003922434220174868   -0.039248268676980065   -0.0011505458687392338
-0.00336578792741374   -0.039440971667682394   -0.001184820943463968
-0.003489026161678138   -0.03724735644154441   -0.0011989488445952362
-0.003263058174291066   -0.03944060772565311   -0.001156496397239438
-0.004709776965809628   -0.03717536767201896   -0.0012562240659577553
-0.003408003287497093   -0.03726086160271983   -0.0011928163304889656
-0.003263058174291066   -0.03944060772565311   -0.001156496397239438
-0.003489026161678138   -0.03724735644154441   -0.0011989488445952362
-0.004709776965809628   -0.03717536767201896   -0.0012562240659577553
-0.003263058174291066   -0.03944060772565311   -0.001156496397239438
-0.0038106384603284757   -0.03925060932878858   -0.0011916018165068782
-0.003922434220174868   -0.039248268676980065   -0.0011505458687392338
-0.004709776965809628   -0.03717536767201896   -0.0012562240659577553
-0.003263058174291066   -0.03944060772565311   -0.001156496397239438
-0.003922434220174868   -0.039248268676980065   -0.0011505458687392338
-0.003489026161678138   -0.03724735644154441   -0.0011989488445952362
-0.004709776965809628   -0.03717536767201896   -0.0012562240659577553
-0.0038106384603284757   -0.03925060932878858   -0.0011916018165068782
-0.003408003287497093   -0.03726086160271983   -0.0011928163304889656
-0.004624201839460077   -0.03722861438105841   -0.0013052478767771358
-0.0038106384603284757   -0.03925060932878858   -0.0011916018165068782
-0.003263058174291066   -0.03944060772565311   -0.001156496397239438
-0.003408003287497093   -0.03726086160271983   -0.0011928163304889656
-0.003156018302400021   -0.03947831109495763   -0.0011293190854692377
-0.004624201839460077   -0.03722861438105841   -0.0013052478767771358
-0.0033333901695238415   -0.0373013616868911   -0.0011933230100061164
-0.003156018302400021   -0.03947831109495763   -0.0011293190854692377
-0.003408003287497093   -0.03726086160271983   -0.0011928163304889656
-0.004624201839460077   -0.03722861438105841   -0.0013052478767771358
-0.003156018302400021   -0.03947831109495763   -0.0011293190854692377
-0.003706875640898302   -0.039293639616630405   -0.0012332483551242318
-0.0038106384603284757   -0.03925060932878858   -0.0011916018165068782
-0.004624201839460077   -0.03722861438105841   -0.0013052478767771358
-0.003156018302400021   -0.03947831109495763   -0.0011293190854692377
-0.0038106384603284757   -0.03925060932878858   -0.0011916018165068782
-0.003408003287497093   -0.03726086160271983   -0.0011928163304889656
-0.0035711457104469157   -0.03726000184435167   -0.0012105791553856438
-0.0034719599389431517   -0.03948019296898283   -0.0012128091364598725
-0.0023132501954323493   -0.03731110633604476   -0.0012535449909163601
-0.003489026161678138   -0.03724735644154441   -0.0011989488445952362
-0.0034719599389431517   -0.03948019296898283   -0.0012128091364598725
-0.002967888307283656   -0.039712276291989715   -0.0013263646401694825
-0.0023132501954323493   -0.03731110633604476   -0.0012535449909163601
-0.002837840489029555   -0.03967805441914335   -0.0012259384746429155
-0.003489026161678138   -0.03724735644154441   -0.0011989488445952362
-0.0022207010648383385   -0.03729272115372472   -0.0011949964319472792
-0.002837840489029555   -0.03967805441914335   -0.0012259384746429155
-0.0023132501954323493   -0.03731110633604476   -0.0012535449909163601
-0.003489026161678138   -0.03724735644154441   -0.0011989488445952362
-0.002837840489029555   -0.03967805441914335   -0.0012259384746429155
-0.00336578792741374   -0.039440971667682394   -0.001184820943463968
-0.0034719599389431517   -0.03948019296898283   -0.0012128091364598725
-0.003489026161678138   -0.03724735644154441   -0.0011989488445952362
-0.002837840489029555   -0.03967805441914335   -0.0012259384746429155
-0.0034719599389431517   -0.03948019296898283   -0.0012128091364598725
-0.0023132501954323493   -0.03731110633604476   -0.0012535449909163601
-0.003489026161678138   -0.03724735644154441   -0.0011989488445952362
-0.00336578792741374   -0.039440971667682394   -0.001184820943463968
-0.0022207010648383385   -0.03729272115372472   -0.0011949964319472792
-0.003408003287497093   -0.03726086160271983   -0.0011928163304889656
-0.00336578792741374   -0.039440971667682394   -0.001184820943463968
-0.002837840489029555   -0.03967805441914335   -0.0012259384746429155
-0.0022207010648383385   -0.03729272115372472   -0.0011949964319472792
-0.002717219728262143   -0.03967642070858211   -0.0011257799974060752
-0.003408003287497093   -0.03726086160271983   -0.0011928163304889656
-0.002132430898837677   -0.03729738912202379   -0.0011413325374575586
-0.002717219728262143   -0.03967642070858211   -0.0011257799974060752
-0.0022207010648383385   -0.03729272115372472   -0.0011949964319472792
-0.003408003287497093   -0.03726086160271983   -0.0011928163304889656
-0.002717219728262143   -0.03967642070858211   -0.0011257799974060752
-0.003263058174291066   -0.03944060772565311   -0.001156496397239438
-0.00336578792741374   -0.039440971667682394   -0.001184820943463968
-0.003408003287497093   -0.03726086160271983   -0.0011928163304889656
-0.002717219728262143   -0.03967642070858211   -0.0011257799974060752
-0.00336578792741374   -0.039440971667682394   -0.001184820943463968
-0.0022207010648383385   -0.03729272115372472   -0.0011949964319472792
-0.003408003287497093   -0.03726086160271983   -0.0011928163304889656
-0.003263058174291066   -0.03944060772565311   -0.001156496397239438
-0.002132430898837677   -0.03729738912202379   -0.0011413325374575586
-0.0033333901695238415   -0.0373013616868911   -0.0011933230100061164
-0.003263058174291066   -0.03944060772565311   -0.001156496397239438
-0.002717219728262143   -0.03967642070858211   -0.0011257799974060752
-0.002132430898837677   -0.03729738912202379   -0.0011413325374575586
-0.0025878745656222613   -0.03970566705414099   -0.0010255200626370466
-0.0033333901695238415   -0.0373013616868911   -0.0011933230100061164
-0.0020589256370611136   -0.03732949510005486   -0.0010955478233051978
-0.0025878745656222613   -0.03970566705414099   -0.0010255200626370466
-0.002132430898837677   -0.03729738912202379   -0.0011413325374575586
-0.0033333901695238415   -0.0373013616868911   -0.0011933230100061164
-0.0025878745656222613   -0.03970566705414099   -0.0010255200626370466
-0.003156018302400021   -0.03947831109495763   -0.0011293190854692377
-0.003263058174291066   -0.03944060772565311   -0.001156496397239438
-0.0033333901695238415   -0.0373013616868911   -0.0011933230100061164
-0.0025878745656222613   -0.03970566705414099   -0.0010255200626370466
-0.003263058174291066   -0.03944060772565311   -0.001156496397239438
-0.002132430898837677   -0.03729738912202379   -0.0011413325374575586
-0.0023132501954323493   -0.03731110633604476   -0.0012535449909163601
-0.002967888307283656   -0.039712276291989715   -0.0013263646401694825
-0.0009772612576292156   -0.037295913975149114   -0.001304354577400215
-0.0022207010648383385   -0.03729272115372472   -0.0011949964319472792
-0.002967888307283656   -0.039712276291989715   -0.0013263646401694825
-0.002471789010357514   -0.04   -0.0014145299323259873
-0.0009772612576292156   -0.037295913975149114   -0.001304354577400215
-0.002307959833516567   -0.04   -0.0012612690285674114
-0.0022207010648383385   -0.03729272115372472   -0.0011949964319472792
-0.0008584322219639948   -0.0372670529770938   -0.0012008623567668442
-0.002307959833516567   -0.04   -0.0012612690285674114
-0.0009772612576292156   -0.037295913975149114   -0.001304354577400215
-0.0022207010648383385   -0.03729272115372472   -0.0011949964319472792
-0.002307959833516567   -0.04   -0.0012612690285674114
-0.002837840489029555   -0.03967805441914335   -0.0012259384746429155
-0.002967888307283656   -0.039712276291989715   -0.0013263646401694825
-0.0022207010648383385   -0.03729272115372472   -0.0011949964319472792
-0.002307959833516567   -0.04   -0.0012612690285674114
-0.002967888307283656   -0.039712276291989715   -0.0013263646401694825
-0.0009772612576292156   -0.037295913975149114   -0.001304354577400215
-0.0022207010648383385   -0.03729272115372472   -0.0011949964319472792
-0.002837840489029555   -0.03967805441914335   -0.0012259384746429155
-0.0008584322219639948   -0.0372670529770938   -0.0012008623567668442
-0.002132430898837677   -0.03729738912202379   -0.0011413325374575586
-0.002837840489029555   -0.03967805441914335   -0.0012259384746429155
-0.002307959833516567   -0.04   -0.0012612690285674114
-0.0008584322219639948   -0.0372670529770938   -0.0012008623567668442
-0.0021431389522504466   -0.04   -0.0011061978151236166
-0.002132430898837677   -0.03729738912202379   -0.0011413325374575586
-0.0007367238706345528   -0.03726209165131341   -0.0011025807056319957
-0.0021431389522504466   -0.04   -0.0011061978151236166
-0.0008584322219639948   -0.0372670529770938   -0.0012008623567668442
-0.002132430898837677   -0.03729738912202379   -0.0011413325374575586
-0.0021431389522504466   -0.04   -0.0011061978151236166
-0.002717219728262143   -0.03967642070858211   -0.0011257799974060752
-0.002837840489029555   -0.03967805441914335   -0.0012259384746429155
-0.002132430898837677   -0.03729738912202379   -0.0011413325374575586
-0.0021431389522504466   -0.04   -0.0011061978151236166
-0.002837840489029555   -0.03967805441914335   -0.0012259384746429155
-0.0008584322219639948   -0.0372670529770938   -0.0012008623567668442
-0.002132430898837677   -0.03729738912202379   -0.0011413325374575586
-0.002717219728262143   -0.03967642070858211   -0.0011257799974060752
-0.0007367238706345528   -0.03726209165131341   -0.0011025807056319957
-0.0020589256370611136   -0.03732949510005486   -0.0010955478233051978
-0.002717219728262143   -0.03967642070858211   -0.0011257799974060752
-0.0021431389522504466   -0.04   -0.0011061978151236166
-0.0007367238706345528   -0.03726209165131341   -0.0011025807056319957
-0.0019822898011172692   -0.04   -0.0009531950346531794
-0.0020589256370611136   -0.03732949510005486   -0.0010955478233051978
-0.0006467082987606972   -0.03728608301967732   -0.00101320803139146
-0.0019822898011172692   -0.04   -0.0009531950346531794
-0.0007367238706345528   -0.03726209165131341   -0.0011025807056319957
-0.0020589256370611136   -0.03732949510005486   -0.0010955478233051978
-0.0019822898011172692   -0.04   -0.0009531950346531794
-0.0025878745656222613   -0.03970566705414099   -0.0010255200626370466
-0.002717219728262143   -0.03967642070858211   -0.0011257799974060752
-0.0020589256370611136   -0.03732949510005486   -0.0010955478233051978
-0.0019822898011172692   -0.04   -0.0009531950346531794
-0.002717219728262143   -0.03967642070858211   -0.0011257799974060752
-0.0007367238706345528   -0.03726209165131341   -0.0011025807056319957
-0.0009772612576292156   -0.037295913975149114   -0.001304354577400215
-0.002471789010357514   -0.04   -0.0014145299323259873
0.0004574050975308891   -0.037166878614348905   -0.0014077912509499765
-0.0008584322219639948   -0.0372670529770938   -0.0012008623567668442
-0.002471789010357514   -0.04   -0.0014145299323259873
-0.0021095997997547765   -0.04   -0.0015213001254401424
0.0004574050975308891   -0.037166878614348905   -0.0014077912509499765
-0.0017653413461094758   -0.04   -0.001299193330714276
-0.0008584322219639948   -0.0372670529770938   -0.0012008623567668442
0.000736020648235844   -0.037104294035969786   -0.0012386163484721217
-0.0017653413461094758   -0.04   -0.001299193330714276
0.0004574050975308891   -0.037166878614348905   -0.0014077912509499765
-0.0008584322219639948   -0.0372670529770938   -0.0012008623567668442
-0.0017653413461094758   -0.04   -0.001299193330714276
-0.002307959833516567   -0.04   -0.0012612690285674114
-0.002471789010357514   -0.04   -0.0014145299323259873
-0.0008584322219639948   -0.0372670529770938   -0.0012008623567668442
-0.0017653413461094758   -0.04   -0.001299193330714276
-0.002471789010357514   -0.04   -0.0014145299323259873
0.0004574050975308891   -0.037166878614348905   -0.0014077912509499765
-0.0008584322219639948   -0.0372670529770938   -0.0012008623567668442
-0.002307959833516567   -0.04   -0.0012612690285674114
0.000736020648235844   -0.037104294035969786   -0.0012386163484721217
-0.0007367238706345528   -0.03726209165131341   -0.0011025807056319957
-0.002307959833516567   -0.04   -0.0012612690285674114
-0.0017653413461094758   -0.04   -0.001299193330714276
0.000736020648235844   -0.037104294035969786   -0.0012386163484721217
-0.0014908176816019235   -0.04   -0.0010867421710138226
-0.0007367238706345528   -0.03726209165131341   -0.0011025807056319957
0.0009548846260853353   -0.03709172691109061   -0.0010796316103680243
-0.0014908176816019235   -0.04   -0.0010867421710138226
0.000736020648235844   -0.037104294035969786   -0.0012386163484721217
-0.0007367238706345528   -0.03726209165131341   -0.0011025807056319957
-0.0014908176816019235   -0.04   -0.0010867421710138226
-0.0021431389522504466   -0.04   -0.0011061978151236166
-0.002307959833516567   -0.04   -0.0012612690285674114
-0.0007367238706345528   -0.03726209165131341   -0.0011025807056319957
-0.0014908176816019235   -0.04   -0.0010867421710138226
-0.002307959833516567   -0.04   -0.0012612690285674114
0.000736020648235844   -0.037104294035969786   -0.0012386163484721217
-0.0007367238706345528   -0.03726209165131341   -0.0011025807056319957
-0.0021431389522504466   -0.04   -0.0011061978151236166
0.0009548846260853353   -0.03709172691109061   -0.0010796316103680243
-0.0006467082987606972   -0.03728608301967732   -0.00101320803139146
-0.0021431389522504466   -0.04   -0.0011061978151236166
-0.0014908176816019235   -0.04   -0.0010867421710138226
0.0009548846260853353   -0.03709172691109061   -0.0010796316103680243
-0.0011517669610127607   -0.04   -0.0008661751592395948
-0.0006467082987606972   -0.03728608301967732   -0.00101320803139146
0.0011827511912943756   -0.03710283276189316   -0.0009342657379298067
-0.0011517669610127607   -0.04   -0.0008661751592395948
0.0009548846260853353   -0.03709172691109061   -0.0010796316103680243
-0.0006467082987606972   -0.03728608301967732   -0.00101320803139146
-0.0011517669610127607   -0.04   -0.0008661751592395948
-0.0019822898011172692   -0.04   -0.0009531950346531794
-0.0021431389522504466   -0.04   -0.0011061978151236166
-0.0006467082987606972   -0.03728608301967732   -0.00101320803139146
-0.0011517669610127607   -0.04   -0.0008661751592395948
-0.0021431389522504466   -0.04   -0.0011061978151236166
0.0009548846260853353   -0.03709172691109061   -0.0010796316103680243
-0.0047735030626216085   -0.03909165653720582   -0.0009933497154055828
-0.0028760904036969166   -0.03921177010370834   -0.0008505436860844825
-0.004023221689049436   -0.03928640833637119   -0.0011099096844576523
-0.0045578889442497396   -0.03904864268536903   -0.001116401328177407
-0.0028760904036969166   -0.03921177010370834   -0.0008505436860844825
-0.003040226950942575   -0.03936251343388339   -0.0010006705213820046
-0.004023221689049436   -0.03928640833637119   -0.0011099096844576523
-0.0029638738942125435   -0.03931035233339915   -0.0010558839950572834
-0.0045578889442497396   -0.03904864268536903   -0.001116401328177407
-0.003922434220174868   -0.039248268676980065   -0.0011505458687392338
-0.0029638738942125435   -0.03931035233339915   -0.0010558839950572834
-0.004023221689049436   -0.03928640833637119   -0.0011099096844576523
-0.0045578889442497396   -0.03904864268536903   -0.001116401328177407
-0.0029638738942125435   -0.03931035233339915   -0.0010558839950572834
-0.0026803605318497323   -0.039144741166870306   -0.0009798784475399188
-0.0028760904036969166   -0.03921177010370834   -0.0008505436860844825
-0.0045578889442497396   -0.03904864268536903   -0.001116401328177407
-0.0029638738942125435   -0.03931035233339915   -0.0010558839950572834
-0.0028760904036969166   -0.03921177010370834   -0.0008505436860844825
-0.004023221689049436   -0.03928640833637119   -0.0011099096844576523
-0.0045578889442497396   -0.03904864268536903   -0.001116401328177407
-0.0026803605318497323   -0.039144741166870306   -0.0009798784475399188
-0.003922434220174868   -0.039248268676980065   -0.0011505458687392338
-0.004371898233484419   -0.03905283511496859   -0.0012390192149058785
-0.0026803605318497323   -0.039144741166870306   -0.0009798784475399188
-0.0029638738942125435   -0.03931035233339915   -0.0010558839950572834
-0.003922434220174868   -0.039248268676980065   -0.0011505458687392338
-0.0028742098162159134   -0.03929155792826488   -0.0011068972200783246
-0.004371898233484419   -0.03905283511496859   -0.0012390192149058785
-0.0038106384603284757   -0.03925060932878858   -0.0011916018165068782
-0.0028742098162159134   -0.03929155792826488   -0.0011068972200783246
-0.003922434220174868   -0.039248268676980065   -0.0011505458687392338
-0.004371898233484419   -0.03905283511496859   -0.0012390192149058785
-0.0028742098162159134   -0.03929155792826488   -0.0011068972200783246
-0.0025174730797372555   -0.039124629804964436   -0.001104005067808485
-0.0026803605318497323   -0.039144741166870306   -0.0009798784475399188
-0.004371898233484419   -0.03905283511496859   -0.0012390192149058785
-0.0028742098162159134   -0.03929155792826488   -0.0011068972200783246
-0.0026803605318497323   -0.039144741166870306   -0.0009798784475399188
-0.003922434220174868   -0.039248268676980065   -0.0011505458687392338
-0.004371898233484419   -0.03905283511496859   -0.0012390192149058785
-0.0025174730797372555   -0.039124629804964436   -0.001104005067808485
-0.0038106384603284757   -0.03925060932878858   -0.0011916018165068782
-0.004151156466581062   -0.03910699354402928   -0.0013642654761354279
-0.0025174730797372555   -0.039124629804964436   -0.001104005067808485
-0.0028742098162159134   -0.03929155792826488   -0.0011068972200783246
-0.0038106384603284757   -0.03925060932878858   -0.0011916018165068782
-0.0027974632191568164   -0.039306422827030243   -0.0011534510835044473
-0.004151156466581062   -0.03910699354402928   -0.0013642654761354279
-0.003706875640898302   -0.039293639616630405   -0.0012332483551242318
-0.0027974632191568164   -0.039306422827030243   -0.0011534510835044473
-0.0038106384603284757   -0.03925060932878858   -0.0011916018165068782
-0.004151156466581062   -0.03910699354402928   -0.0013642654761354279
-0.0027974632191568164   -0.039306422827030243   -0.0011534510835044473
-0.0023329398288660574   -0.03914315169847955   -0.001222387862181817
-0.0025174730797372555   -0.039124629804964436   -0.001104005067808485
-0.004151156466581062   -0.03910699354402928   -0.0013642654761354279
-0.0027974632191568164   -0.039306422827030243   -0.0011534510835044473
-0.0025174730797372555   -0.039124629804964436   -0.001104005067808485
-0.0038106384603284757   -0.03925060932878858   -0.0011916018165068782
-0.004023221689049436   -0.03928640833637119   -0.0011099096844576523
-0.003040226950942575   -0.03936251343388339   -0.0010006705213820046
-0.0034719599389431517   -0.03948019296898283   -0.0012128091364598725
-0.003922434220174868   -0.039248268676980065   -0.0011505458687392338
-0.003040226950942575   -0.03936251343388339   -0.0010006705213820046
-0.0032666736740162377   -0.0394549510442105   -0.0011205903381371748
-0.0034719599389431517   -0.03948019296898283   -0.0012128091364598725
-0.003199165861476665   -0.039408341660192754   -0.001121929064268494
-0.003922434220174868   -0.039248268676980065   -0.0011505458687392338
-0.00336578792741374   -0.039440971667682394   -0.001184820943463968
-0.003199165861476665   -0.039408341660192754   -0.001121929064268494
-0.0034719599389431517   -0.03948019296898283   -0.0012128091364598725
-0.003922434220174868   -0.039248268676980065   -0.0011505458687392338
-0.003199165861476665   -0.039408341660192754   -0.001121929064268494
-0.0029638738942125435   -0.03931035233339915   -0.0010558839950572834
-0.003040226950942575   -0.03936251343388339   -0.0010006705213820046
-0.003922434220174868   -0.039248268676980065   -0.0011505458687392338
-0.003199165861476665   -0.039408341660192754   -0.001121929064268494
-0.003040226950942575   -0.03936251343388339   -0.0010006705213820046
-0.0034719599389431517   -0.03948019296898283   -0.0012128091364598725
-0.003922434220174868   -0.039248268676980065   -0.0011505458687392338
-0.0029638738942125435   -0.03931035233339915   -0.0010558839950572834
-0.00336578792741374   -0.039440971667682394   -0.001184820943463968
-0.0038106384603284757   -0.03925060932878858   -0.0011916018165068782
-0.0029638738942125435   -0.03931035233339915   -0.0010558839950572834
-0.003199165861476665   -0.039408341660192754   -0.001121929064268494
-0.00336578792741374   -0.039440971667682394   -0.001184820943463968
-0.0031240531498559223   -0.039391947498345764   -0.0011178232593954032
-0.0038106384603284757   -0.03925060932878858   -0.0011916018165068782
-0.003263058174291066   -0.03944060772565311   -0.001156496397239438
-0.0031240531498559223   -0.039391947498345764   -0.0011178232593954032
-0.00336578792741374   -0.039440971667682394   -0.001184820943463968
-0.0038106384603284757   -0.03925060932878858   -0.0011916018165068782
-0.0031240531498559223   -0.039391947498345764   -0.0011178232593954032
-0.0028742098162159134   -0.03929155792826488   -0.0011068972200783246
-0.0029638738942125435   -0.03931035233339915   -0.0010558839950572834
-0.0038106384603284757   -0.03925060932878858   -0.0011916018165068782
-0.0031240531498559223   -0.039391947498345764   -0.0011178232593954032
-0.0029638738942125435   -0.03931035233339915   -0.0010558839950572834
-0.00336578792741374   -0.039440971667682394   -0.001184820943463968
-0.0038106384603284757   -0.03925060932878858   -0.0011916018165068782
-0.0028742098162159134   -0.03929155792826488   -0.0011068972200783246
-0.003263058174291066   -0.03944060772565311   -0.001156496397239438
-0.003706875640898302   -0.039293639616630405   -0.0012332483551242318
-0.0028742098162159134   -0.03929155792826488   -0.0011068972200783246
-0.0031240531498559223   -0.039391947498345764   -0.0011178232593954032
-0.003263058174291066   -0.03944060772565311   -0.001156496397239438
-0.0030477159608462675   -0.039404426941442236   -0.001109443455024259
-0.003706875640898302   -0.039293639616630405   -0.0012332483551242318
-0.003156018302400021   -0.03947831109495763   -0.0011293190854692377
-0.0030477159608462675   -0.039404426941442236   -0.001109443455024259
-0.003263058174291066   -0.03944060772565311   -0.001156496397239438
-0.003706875640898302   -0.039293639616630405   -0.0012332483551242318
-0.0030477159608462675   -0.039404426941442236   -0.001109443455024259
-0.0027974632191568164   -0.039306422827030243   -0.0011534510835044473
-0.0028742098162159134   -0.03929155792826488   -0.0011068972200783246
-0.003706875640898302   -0.039293639616630405   -0.0012332483551242318
-0.0030477159608462675   -0.039404426941442236   -0.001109443455024259
-0.0028742098162159134   -0.03929155792826488   -0.0011068972200783246
-0.003263058174291066   -0.03944060772565311   -0.001156496397239438
-0.0034719599389431517   -0.03948019296898283   -0.0012128091364598725
-0.0032666736740162377   -0.0394549510442105   -0.0011205903381371748
-0.002967888307283656   -0.039712276291989715   -0.0013263646401694825
-0.00336578792741374   -0.039440971667682394   -0.001184820943463968
-0.0032666736740162377   -0.0394549510442105   -0.0011205903381371748
-0.003509982515592405   -0.039492632044648195   -0.001238740937384985
-0.002967888307283656   -0.039712276291989715   -0.0013263646401694825
-0.0034400474350953503   -0.03944809295786187   -0.0011882653426807904
-0.00336578792741374   -0.039440971667682394   -0.001184820943463968
-0.002837840489029555   -0.03967805441914335   -0.0012259384746429155
-0.0034400474350953503   -0.03944809295786187   -0.0011882653426807904
-0.002967888307283656   -0.039712276291989715   -0.0013263646401694825
-0.00336578792741374   -0.039440971667682394   -0.001184820943463968
-0.0034400474350953503   -0.03944809295786187   -0.0011882653426807904
-0.003199165861476665   -0.039408341660192754   -0.001121929064268494
-0.0032666736740162377   -0.0394549510442105   -0.0011205903381371748
-0.00336578792741374   -0.039440971667682394   -0.001184820943463968
-0.0034400474350953503   -0.03944809295786187   -0.0011882653426807904
-0.0032666736740162377   -0.0394549510442105   -0.0011205903381371748
-0.002967888307283656   -0.039712276291989715   -0.0013263646401694825
-0.00336578792741374   -0.039440971667682394   -0.001184820943463968
-0.003199165861476665   -0.039408341660192754   -0.001121929064268494
-0.002837840489029555   -0.03967805441914335   -0.0012259384746429155
-0.003263058174291066   -0.03944060772565311   -0.001156496397239438
-0.003199165861476665   -0.039408341660192754   -0.001121929064268494
-0.0034400474350953503   -0.03944809295786187   -0.0011882653426807904
-0.002837840489029555   -0.03967805441914335   -0.0012259384746429155
-0.003356243016055164   -0.03943425299532113   -0.001131156113458964
-0.003263058174291066   -0.03944060772565311   -0.001156496397239438
-0.002717219728262143   -0.03967642070858211   -0.0011257799974060752
-0.003356243016055164   -0.03943425299532113   -0.001131156113458964
-0.002837840489029555   -0.03967805441914335   -0.0012259384746429155
-0.003263058174291066   -0.03944060772565311   -0.001156496397239438
-0.003356243016055164   -0.03943425299532113   -0.001131156113458964
-0.0031240531498559223   -0.039391947498345764   -0.0011178232593954032
-0.003199165861476665   -0.039408341660192754   -0.001121929064268494
-0.003263058174291066   -0.03944060772565311   -0.001156496397239438
-0.003356243016055164   -0.03943425299532113   -0.001131156113458964
-0.003199165861476665   -0.039408341660192754   -0.001121929064268494
-0.002837840489029555   -0.03967805441914335   -0.0012259384746429155
-0.003263058174291066   -0.03944060772565311   -0.001156496397239438
-0.0031240531498559223   -0.039391947498345764   -0.0011178232593954032
-0.002717219728262143   -0.03967642070858211   -0.0011257799974060752
-0.003156018302400021   -0.03947831109495763   -0.0011293190854692377
-0.0031240531498559223   -0.039391947498345764   -0.0011178232593954032
-0.003356243016055164   -0.03943425299532113   -0.001131156113458964
-0.002717219728262143   -0.03967642070858211   -0.0011257799974060752
-0.0032701098112138506   -0.03944638486954753   -0.0010703762924702102
-0.003156018302400021   -0.03947831109495763   -0.0011293190854692377
-0.0025878745656222613   -0.03970566705414099   -0.0010255200626370466
-0.0032701098112138506   -0.03944638486954753   -0.0010703762924702102
-0.002717219728262143   -0.03967642070858211   -0.0011257799974060752
-0.003156018302400021   -0.03947831109495763   -0.0011293190854692377
-0.0032701098112138506   -0.03944638486954753   -0.0010703762924702102
-0.0030477159608462675   -0.039404426941442236   -0.001109443455024259
-0.0031240531498559223   -0.039391947498345764   -0.0011178232593954032
-0.003156018302400021   -0.03947831109495763   -0.0011293190854692377
-0.0032701098112138506   -0.03944638486954753   -0.0010703762924702102
-0.0031240531498559223   -0.039391947498345764   -0.0011178232593954032
-0.002717219728262143   -0.03967642070858211   -0.0011257799974060752
-0.002967888307283656   -0.039712276291989715   -0.0013263646401694825
-0.003509982515592405   -0.039492632044648195   -0.001238740937384985
-0.002471789010357514   -0.04   -0.0014145299323259873
-0.002837840489029555   -0.03967805441914335   -0.0012259384746429155
-0.003509982515592405   -0.039492632044648195   -0.001238740937384985
-0.0038627230387101477   -0.03944871271738034   -0.0013513136890741769
-0.002471789010357514   -0.04   -0.0014145299323259873
-0.00377141016279808   -0.03940648710852185   -0.0012514333786017243
-0.002837840489029555   -0.03967805441914335   -0.0012259384746429155
-0.002307959833516567   -0.04   -0.0012612690285674114
-0.00377141016279808   -0.03940648710852185   -0.0012514333786017243
-0.002471789010357514   -0.04   -0.0014145299323259873
-0.002837840489029555   -0.03967805441914335   -0.0012259384746429155
-0.00377141016279808   -0.03940648710852185   -0.0012514333786017243
-0.0034400474350953503   -0.03944809295786187   -0.0011882653426807904
-0.003509982515592405   -0.039492632044648195   -0.001238740937384985
-0.002837840489029555   -0.03967805441914335   -0.0012259384746429155
-0.00377141016279808   -0.03940648710852185   -0.0012514333786017243
-0.003509982515592405   -0.039492632044648195   -0.001238740937384985
-0.002471789010357514   -0.04   -0.0014145299323259873
-0.002837840489029555   -0.03967805441914335   -0.0012259384746429155
-0.0034400474350953503   -0.03944809295786187   -0.0011882653426807904
-0.002307959833516567   -0.04   -0.0012612690285674114
-0.002717219728262143   -0.03967642070858211   -0.0011257799974060752
-0.0034400474350953503   -0.03944809295786187   -0.0011882653426807904
-0.00377141016279808   -0.03940648710852185   -0.0012514333786017243
-0.002307959833516567   -0.04   -0.0012612690285674114
-0.0036507330893512106   -0.039397125912242786   -0.0011441365362504685
-0.002717219728262143   -0.03967642070858211   -0.0011257799974060752
-0.0021431389522504466   -0.04   -0.0011061978151236166
-0.0036507330893512106   -0.039397125912242786   -0.0011441365362504685
-0.002307959833516567   -0.04   -0.0012612690285674114
-0.002717219728262143   -0.03967642070858211   -0.0011257799974060752
-0.0036507330893512106   -0.039397125912242786   -0.0011441365362504685
-0.003356243016055164   -0.03943425299532113   -0.001131156113458964
-0.0034400474350953503   -0.03944809295786187   -0.0011882653426807904
-0.002717219728262143   -0.03967642070858211   -0.0011257799974060752
-0.0036507330893512106   -0.039397125912242786   -0.0011441365362504685
-0.0034400474350953503   -0.03944809295786187   -0.0011882653426807904
-0.002307959833516567   -0.04   -0.0012612690285674114
-0.002717219728262143   -0.03967642070858211   -0.0011257799974060752
-0.003356243016055164   -0.03943425299532113   -0.001131156113458964
-0.0021431389522504466   -0.04   -0.0011061978151236166
-0.0025878745656222613   -0.03970566705414099   -0.0010255200626370466
-0.003356243016055164   -0.03943425299532113   -0.001131156113458964
-0.0036507330893512106   -0.039397125912242786   -0.0011441365362504685
-0.0021431389522504466   -0.04   -0.0011061978151236166
-0.0035375111492282913   -0.039414356564143535   -0.0010327624744192723
-0.0025878745656222613   -0.03970566705414099   -0.0010255200626370466
-0.0019822898011172692   -0.04   -0.0009531950346531794
-0.0035375111492282913   -0.039414356564143535   -0.0010327624744192723
-0.0021431389522504466   -0.04   -0.0011061978151236166
-0.0025878745656222613   -0.03970566705414099   -0.0010255200626370466
-0.0035375111492282913   -0.039414356564143535   -0.0010327624744192723
-0.0032701098112138506   -0.03944638486954753   -0.0010703762924702102
-0.003356243016055164   -0.03943425299532113   -0.001131156113458964
-0.0025878745656222613   -0.03970566705414099   -0.0010255200626370466
-0.0035375111492282913   -0.039414356564143535   -0.0010327624744192723
-0.003356243016055164   -0.03943425299532113   -0.001131156113458964
-0.0021431389522504466   -0.04   -0.0011061978151236166
-0.002471789010357514   -0.04   -0.0014145299323259873
-0.0038627230387101477   -0.03944871271738034   -0.0013513136890741769
-0.0021095997997547765   -0.04   -0.0015213001254401424
-0.002307959833516567   -0.04   -0.0012612690285674114
-0.0038627230387101477   -0.03944871271738034   -0.0013513136890741769
-0.0045527162537508355   -0.03925605110667666   -0.0014712861155355406
-0.0021095997997547765   -0.04   -0.0015213001254401424
-0.00430793769834392   -0.03922015895971432   -0.001307461037876058
-0.002307959833516567   -0.04   -0.0012612690285674114
-0.0017653413461094758   -0.04   -0.001299193330714276
-0.00430793769834392   -0.03922015895971432   -0.001307461037876058
-0.0021095997997547765   -0.04   -0.0015213001254401424
-0.002307959833516567   -0.04   -0.0012612690285674114
-0.00430793769834392   -0.03922015895971432   -0.001307461037876058
-0.00377141016279808   -0.03940648710852185   -0.0012514333786017243
-0.0038627230387101477   -0.03944871271738034   -0.0013513136890741769
-0.002307959833516567   -0.04   -0.0012612690285674114
-0.00430793769834392   -0.03922015895971432   -0.001307461037876058
-0.0038627230387101477   -0.03944871271738034   -0.0013513136890741769
-0.0021095997997547765   -0.04   -0.0015213001254401424
-0.002307959833516567   -0.04   -0.0012612690285674114
-0.00377141016279808   -0.03940648710852185   -0.0012514333786017243
-0.0017653413461094758   -0.04   -0.001299193330714276
-0.0021431389522504466   -0.04   -0.0011061978151236166
-0.00377141016279808   -0.03940648710852185   -0.0012514333786017243
-0.00430793769834392   -0.03922015895971432   -0.001307461037876058
-0.0017653413461094758   -0.04   -0.001299193330714276
-0.0040834504315948985   -0.03921543544421877   -0.001132786320627864
-0.0021431389522504466   -0.04   -0.0011061978151236166
-0.0014908176816019235   -0.04   -0.0010867421710138226
-0.0040834504315948985   -0.03921543544421877   -0.001132786320627864
-0.0017653413461094758   -0.04   -0.001299193330714276
-0.0021431389522504466   -0.04   -0.0011061978151236166
-0.0040834504315948985   -0.03921543544421877   -0.001132786320627864
-0.0036507330893512106   -0.039397125912242786   -0.0011441365362504685
-0.00377141016279808   -0.03940648710852185   -0.0012514333786017243
-0.0021431389522504466   -0.04   -0.0011061978151236166
-0.0040834504315948985   -0.03921543544421877   -0.001132786320627864
-0.00377141016279808   -0.03940648710852185   -0.0012514333786017243
-0.0017653413461094758   -0.04   -0.001299193330714276
-0.0021431389522504466   -0.04   -0.0011061978151236166
-0.0036507330893512106   -0.039397125912242786   -0.0011441365362504685
-0.0014908176816019235   -0.04   -0.0010867421710138226
-0.0019822898011172692   -0.04   -0.0009531950346531794
-0.0036507330893512106   -0.039397125912242786   -0.0011441365362504685
-0.0040834504315948985   -0.03921543544421877   -0.001132786320627864
-0.0014908176816019235   -0.04   -0.0010867421710138226
-0.0037998699568559395   -0.03926245807142234   -0.0009502664200491807
-0.0019822898011172692   -0.04   -0.0009531950346531794
-0.0011517669610127607   -0.04   -0.0008661751592395948
-0.0037998699568559395   -0.03926245807142234   -0.0009502664200491807
-0.0014908176816019235   -0.04   -0.0010867421710138226
-0.0019822898011172692   -0.04   -0.0009531950346531794
-0.0037998699568559395   -0.03926245807142234   -0.0009502664200491807
-0.0035375111492282913   -0.039414356564143535   -0.0010327624744192723
-0.0036507330893512106   -0.039397125912242786   -0.0011441365362504685
-0.0019822898011172692   -0.04   -0.0009531950346531794
-0.0037998699568559395   -0.03926245807142234   -0.0009502664200491807
-0.0036507330893512106   -0.039397125912242786   -0.0011441365362504685
-0.0014908176816019235   -0.04   -0.0010867421710138226
-0.0028760904036969166   -0.03921177010370834   -0.0008505436860844825
-0.001202333800002568   -0.03775419275547656   -0.0007340810295299012
-0.003040226950942575   -0.03936251343388339   -0.0010006705213820046
-0.0026803605318497323   -0.039144741166870306   -0.0009798784475399188
-0.001202333800002568   -0.03775419275547656   -0.0007340810295299012
-0.0021947274423096542   -0.03786843525501474   -0.000893680183146108
-0.003040226950942575   -0.03936251343388339   -0.0010006705213820046
-0.0021404020852364785   -0.03780528289350995   -0.0009430310211123139
-0.0026803605318497323   -0.039144741166870306   -0.0009798784475399188
-0.0029638738942125435   -0.03931035233339915   -0.0010558839950572834
-0.0021404020852364785   -0.03780528289350995   -0.0009430310211123139
-0.003040226950942575   -0.03936251343388339   -0.0010006705213820046
-0.0026803605318497323   -0.039144741166870306   -0.0009798784475399188
-0.0021404020852364785   -0.03780528289350995   -0.0009430310211123139
-0.0010458066110720647   -0.03767594983506103   -0.0008461997180143018
-0.001202333800002568   -0.03775419275547656   -0.0007340810295299012
-0.0026803605318497323   -0.039144741166870306   -0.0009798784475399188
-0.0021404020852364785   -0.03780528289350995   -0.0009430310211123139
-0.001202333800002568   -0.03775419275547656   -0.0007340810295299012
-0.003040226950942575   -0.03936251343388339   -0.0010006705213820046
-0.0026803605318497323   -0.039144741166870306   -0.0009798784475399188
-0.0010458066110720647   -0.03767594983506103   -0.0008461997180143018
-0.0029638738942125435   -0.03931035233339915   -0.0010558839950572834
-0.0025174730797372555   -0.039124629804964436   -0.001104005067808485
-0.0010458066110720647   -0.03767594983506103   -0.0008461997180143018
-0.0021404020852364785   -0.03780528289350995   -0.0009430310211123139
-0.0029638738942125435   -0.03931035233339915   -0.0010558839950572834
-0.002079116474656805   -0.037770760649463574   -0.0009880004136520446
-0.0025174730797372555   -0.039124629804964436   -0.001104005067808485
-0.0028742098162159134   -0.03929155792826488   -0.0011068972200783246
-0.002079116474656805   -0.037770760649463574   -0.0009880004136520446
-0.0029638738942125435   -0.03931035233339915   -0.0010558839950572834
-0.0025174730797372555   -0.039124629804964436   -0.001104005067808485
-0.002079116474656805   -0.037770760649463574   -0.0009880004136520446
-0.0009226257654118113   -0.03763921995919337   -0.0009518280122774307
-0.0010458066110720647   -0.03767594983506103   -0.0008461997180143018
-0.0025174730797372555   -0.039124629804964436   -0.001104005067808485
-0.002079116474656805   -0.037770760649463574   -0.0009880004136520446
-0.0010458066110720647   -0.03767594983506103   -0.0008461997180143018
-0.0029638738942125435   -0.03931035233339915   -0.0010558839950572834
-0.0025174730797372555   -0.039124629804964436   -0.001104005067808485
-0.0009226257654118113   -0.03763921995919337   -0.0009518280122774307
-0.0028742098162159134   -0.03929155792826488   -0.0011068972200783246
-0.0023329398288660574   -0.03914315169847955   -0.001222387862181817
-0.0009226257654118113   -0.03763921995919337   -0.0009518280122774307
-0.002079116474656805   -0.037770760649463574   -0.0009880004136520446
-0.0028742098162159134   -0.03929155792826488   -0.0011068972200783246
-0.0020321655114920417   -0.0377638981655817   -0.0010287325969320531
-0.0023329398288660574   -0.03914315169847955   -0.001222387862181817
-0.0027974632191568164   -0.039306422827030243   -0.0011534510835044473
-0.0020321655114920417   -0.0377638981655817   -0.0010287325969320531
-0.0028742098162159134   -0.03929155792826488   -0.0011068972200783246
-0.0023329398288660574   -0.03914315169847955   -0.001222387862181817
-0.0020321655114920417   -0.0377638981655817   -0.0010287325969320531
-0.0007878146220749407   -0.03763334692823136   -0.00105069694991647
-0.0009226257654118113   -0.03763921995919337   -0.0009518280122774307
-0.0023329398288660574   -0.03914315169847955   -0.001222387862181817
-0.0020321655114920417   -0.0377638981655817   -0.0010287325969320531
-0.0009226257654118113   -0.03763921995919337   -0.0009518280122774307
-0.0028742098162159134   -0.03929155792826488   -0.0011068972200783246
-0.003040226950942575   -0.03936251343388339   -0.0010006705213820046
-0.0021947274423096542   -0.03786843525501474   -0.000893680183146108
-0.0032666736740162377   -0.0394549510442105   -0.0011205903381371748
-0.0029638738942125435   -0.03931035233339915   -0.0010558839950572834
-0.0021947274423096542   -0.03786843525501474   -0.000893680183146108
-0.0031764406094433933   -0.037908552481614524   -0.0010236563333706995
-0.0032666736740162377   -0.0394549510442105   -0.0011205903381371748
-0.00313084371569906   -0.03785347469379951   -0.0010262607789532894
-0.0029638738942125435   -0.03931035233339915   -0.0010558839950572834
-0.003199165861476665   -0.039408341660192754   -0.001121929064268494
-0.00313084371569906   -0.03785347469379951   -0.0010262607789532894
-0.0032666736740162377   -0.0394549510442105   -0.0011205903381371748
-0.0029638738942125435   -0.03931035233339915   -0.0010558839950572834
-0.00313084371569906   -0.03785347469379951   -0.0010262607789532894
-0.0021404020852364785   -0.03780528289350995   -0.0009430310211123139
-0.0021947274423096542   -0.03786843525501474   -0.000893680183146108
-0.0029638738942125435   -0.03931035233339915   -0.0010558839950572834
-0.00313084371569906   -0.03785347469379951   -0.0010262607789532894
-0.0021947274423096542   -0.03786843525501474   -0.000893680183146108
-0.0032666736740162377   -0.0394549510442105   -0.0011205903381371748
-0.0029638738942125435   -0.03931035233339915   -0.0010558839950572834
-0.0021404020852364785   -0.03780528289350995   -0.0009430310211123139
-0.003199165861476665   -0.039408341660192754   -0.001121929064268494
-0.0028742098162159134   -0.03929155792826488   -0.0011068972200783246
-0.0021404020852364785   -0.03780528289350995   -0.0009430310211123139
-0.00313084371569906   -0.03785347469379951   -0.0010262607789532894
-0.003199165861476665   -0.039408341660192754   -0.001121929064268494
-0.003083669861692817   -0.03782419951922143   -0.0010248056545228287
-0.0028742098162159134   -0.03929155792826488   -0.0011068972200783246
-0.0031240531498559223   -0.039391947498345764   -0.0011178232593954032
-0.003083669861692817   -0.03782419951922143   -0.0010248056545228287
-0.003199165861476665   -0.039408341660192754   -0.001121929064268494
-0.0028742098162159134   -0.03929155792826488   -0.0011068972200783246
-0.003083669861692817   -0.03782419951922143   -0.0010248056545228287
-0.002079116474656805   -0.037770760649463574   -0.0009880004136520446
-0.0021404020852364785   -0.03780528289350995   -0.0009430310211123139
-0.0028742098162159134   -0.03929155792826488   -0.0011068972200783246
-0.003083669861692817   -0.03782419951922143   -0.0010248056545228287
-0.0021404020852364785   -0.03780528289350995   -0.0009430310211123139
-0.003199165861476665   -0.039408341660192754   -0.001121929064268494
-0.0028742098162159134   -0.03929155792826488   -0.0011068972200783246
-0.002079116474656805   -0.037770760649463574   -0.0009880004136520446
-0.0031240531498559223   -0.039391947498345764   -0.0011178232593954032
-0.0027974632191568164   -0.039306422827030243   -0.0011534510835044473
-0.002079116474656805   -0.037770760649463574   -0.0009880004136520446
-0.003083669861692817   -0.03782419951922143   -0.0010248056545228287
-0.0031240531498559223   -0.039391947498345764   -0.0011178232593954032
-0.0030381928280207413   -0.037819515368681236   -0.0010192613242378322
-0.0027974632191568164   -0.039306422827030243   -0.0011534510835044473
-0.0030477159608462675   -0.039404426941442236   -0.001109443455024259
-0.0030381928280207413   -0.037819515368681236   -0.0010192613242378322
-0.0031240531498559223   -0.039391947498345764   -0.0011178232593954032
-0.0027974632191568164   -0.039306422827030243   -0.0011534510835044473
-0.0030381928280207413   -0.037819515368681236   -0.0010192613242378322
-0.0020321655114920417   -0.0377638981655817   -0.0010287325969320531
-0.002079116474656805   -0.037770760649463574   -0.0009880004136520446
-0.0027974632191568164   -0.039306422827030243   -0.0011534510835044473
-0.0030381928280207413   -0.037819515368681236   -0.0010192613242378322
-0.002079116474656805   -0.037770760649463574   -0.0009880004136520446
-0.0031240531498559223   -0.039391947498345764   -0.0011178232593954032
-0.0032666736740162377   -0.0394549510442105   -0.0011205903381371748
-0.0031764406094433933   -0.037908552481614524   -0.0010236563333706995
-0.003509982515592405   -0.039492632044648195   -0.001238740937384985
-0.003199165861476665   -0.039408341660192754   -0.001121929064268494
-0.0031764406094433933   -0.037908552481614524   -0.0010236563333706995
-0.004151675274521574   -0.03787248015774349   -0.0011453520597942825
-0.003509982515592405   -0.039492632044648195   -0.001238740937384985
-0.004106439414558015   -0.03782351884476812   -0.0011031146156068026
-0.003199165861476665   -0.039408341660192754   -0.001121929064268494
-0.0034400474350953503   -0.03944809295786187   -0.0011882653426807904
-0.004106439414558015   -0.03782351884476812   -0.0011031146156068026
-0.003509982515592405   -0.039492632044648195   -0.001238740937384985
-0.003199165861476665   -0.039408341660192754   -0.001121929064268494
-0.004106439414558015   -0.03782351884476812   -0.0011031146156068026
-0.00313084371569906   -0.03785347469379951   -0.0010262607789532894
-0.0031764406094433933   -0.037908552481614524   -0.0010236563333706995
-0.003199165861476665   -0.039408341660192754   -0.001121929064268494
-0.004106439414558015   -0.03782351884476812   -0.0011031146156068026
-0.0031764406094433933   -0.037908552481614524   -0.0010236563333706995
-0.003509982515592405   -0.039492632044648195   -0.001238740937384985
-0.003199165861476665   -0.039408341660192754   -0.001121929064268494
-0.00313084371569906   -0.03785347469379951   -0.0010262607789532894
-0.0034400474350953503   -0.03944809295786187   -0.0011882653426807904
-0.0031240531498559223   -0.039391947498345764   -0.0011178232593954032
-0.00313084371569906   -0.03785347469379951   -0.0010262607789532894
-0.004106439414558015   -0.03782351884476812   -0.0011031146156068026
-0.0034400474350953503   -0.03944809295786187   -0.0011882653426807904
-0.004055677390757453   -0.03779993688934047   -0.0010568815355543497
-0.0031240531498559223   -0.039391947498345764   -0.0011178232593954032
-0.003356243016055164   -0.03943425299532113   -0.001131156113458964
-0.004055677390757453   -0.03779993688934047   -0.0010568815355543497
-0.0034400474350953503   -0.03944809295786187   -0.0011882653426807904
-0.0031240531498559223   -0.039391947498345764   -0.0011178232593954032
-0.004055677390757453   -0.03779993688934047   -0.0010568815355543497
-0.003083669861692817   -0.03782419951922143   -0.0010248056545228287
-0.00313084371569906   -0.03785347469379951   -0.0010262607789532894
-0.0031240531498559223   -0.039391947498345764   -0.0011178232593954032
-0.004055677390757453   -0.03779993688934047   -0.0010568815355543497
-0.00313084371569906   -0.03785347469379951   -0.0010262607789532894
-0.0034400474350953503   -0.03944809295786187   -0.0011882653426807904
-0.0031240531498559223   -0.039391947498345764   -0.0011178232593954032
-0.003083669861692817   -0.03782419951922143   -0.0010248056545228287
-0.003356243016055164   -0.03943425299532113   -0.001131156113458964
-0.0030477159608462675   -0.039404426941442236   -0.001109443455024259
-0.003083669861692817   -0.03782419951922143   -0.0010248056545228287
-0.004055677390757453   -0.03779993688934047   -0.0010568815355543497
-0.003356243016055164   -0.03943425299532113   -0.001131156113458964
-0.004004746683363019   -0.03779933771874359   -0.0010061667043056606
-0.0030477159608462675   -0.039404426941442236   -0.001109443455024259
-0.0032701098112138506   -0.03944638486954753   -0.0010703762924702102
-0.004004746683363019   -0.03779933771874359   -0.0010061667043056606
-0.003356243016055164   -0.03943425299532113   -0.001131156113458964
-0.0030477159608462675   -0.039404426941442236   -0.001109443455024259
-0.004004746683363019   -0.03779933771874359   -0.0010061667043056606
-0.0030381928280207413   -0.037819515368681236   -0.0010192613242378322
-0.003083669861692817   -0.03782419951922143   -0.0010248056545228287
-0.0030477159608462675   -0.039404426941442236   -0.001109443455024259
-0.004004746683363019   -0.03779933771874359   -0.0010061667043056606
-0.003083669861692817   -0.03782419951922143   -0.0010248056545228287
-0.003356243016055164   -0.03943425299532113   -0.001131156113458964
-0.003509982515592405   -0.039492632044648195   -0.001238740937384985
-0.004151675274521574   -0.03787248015774349   -0.0011453520597942825
-0.0038627230387101477   -0.03944871271738034   -0.0013513136890741769
-0.0034400474350953503   -0.03944809295786187   -0.0011882653426807904
-0.004151675274521574   -0.03787248015774349   -0.0011453520597942825
-0.0052222781712009635   -0.03775551406408508   -0.001257296151693856
-0.0038627230387101477   -0.03944871271738034   -0.0013513136890741769
-0.005166787616184894   -0.03771264920225752   -0.0011711713742187154
-0.0034400474350953503   -0.03944809295786187   -0.0011882653426807904
-0.00377141016279808   -0.03940648710852185   -0.0012514333786017243
-0.005166787616184894   -0.03771264920225752   -0.0011711713742187154
-0.0038627230387101477   -0.03944871271738034   -0.0013513136890741769
-0.0034400474350953503   -0.03944809295786187   -0.0011882653426807904
-0.005166787616184894   -0.03771264920225752   -0.0011711713742187154
-0.004106439414558015   -0.03782351884476812   -0.0011031146156068026
-0.004151675274521574   -0.03787248015774349   -0.0011453520597942825
-0.0034400474350953503   -0.03944809295786187   -0.0011882653426807904
-0.005166787616184894   -0.03771264920225752   -0.0011711713742187154
-0.004151675274521574   -0.03787248015774349   -0.0011453520597942825
-0.0038627230387101477   -0.03944871271738034   -0.0013513136890741769
-0.0034400474350953503   -0.03944809295786187   -0.0011882653426807904
-0.004106439414558015   -0.03782351884476812   -0.0011031146156068026
-0.00377141016279808   -0.03940648710852185   -0.0012514333786017243
-0.003356243016055164   -0.03943425299532113   -0.001131156113458964
-0.004106439414558015   -0.03782351884476812   -0.0011031146156068026
-0.005166787616184894   -0.03771264920225752   -0.0011711713742187154
-0.00377141016279808   -0.03940648710852185   -0.0012514333786017243
-0.005090062611658106   -0.03769473806894206   -0.001081355900555558
-0.003356243016055164   -0.03943425299532113   -0.001131156113458964
-0.0036507330893512106   -0.039397125912242786   -0.0011441365362504685
-0.005090062611658106   -0.03769473806894206   -0.001081355900555558
-0.00377141016279808   -0.03940648710852185   -0.0012514333786017243
-0.003356243016055164   -0.03943425299532113   -0.001131156113458964
-0.005090062611658106   -0.03769473806894206   -0.001081355900555558
-0.004055677390757453   -0.03779993688934047   -0.0010568815355543497
-0.004106439414558015   -0.03782351884476812   -0.0011031146156068026
-0.003356243016055164   -0.03943425299532113   -0.001131156113458964
-0.005090062611658106   -0.03769473806894206   -0.001081355900555558
-0.004106439414558015   -0.03782351884476812   -0.0011031146156068026
-0.00377141016279808   -0.03940648710852185   -0.0012514333786017243
-0.003356243016055164   -0.03943425299532113   -0.001131156113458964
-0.004055677390757453   -0.03779993688934047   -0.0010568815355543497
-0.0036507330893512106   -0.039397125912242786   -0.0011441365362504685
-0.0032701098112138506   -0.03944638486954753   -0.0010703762924702102
-0.004055677390757453   -0.03779993688934047   -0.0010568815355543497
-0.005090062611658106   -0.03769473806894206   -0.001081355900555558
-0.0036507330893512106   -0.039397125912242786   -0.0011441365362504685
-0.005023287552754832   -0.03770179934633969   -0.0009853780173414367
-0.0032701098112138506   -0.03944638486954753   -0.0010703762924702102
-0.0035375111492282913   -0.039414356564143535   -0.0010327624744192723
-0.005023287552754832   -0.03770179934633969   -0.0009853780173414367
-0.0036507330893512106   -0.039397125912242786   -0.0011441365362504685
-0.0032701098112138506   -0.03944638486954753   -0.0010703762924702102
-0.005023287552754832   -0.03770179934633969   -0.0009853780173414367
-0.004004746683363019   -0.03779933771874359   -0.0010061667043056606
-0.004055677390757453   -0.03779993688934047   -0.0010568815355543497
-0.0032701098112138506   -0.03944638486954753   -0.0010703762924702102
-0.005023287552754832   -0.03770179934633969   -0.0009853780173414367
-0.004055677390757453   -0.03779993688934047   -0.0010568815355543497
-0.0036507330893512106   -0.039397125912242786   -0.0011441365362504685
-0.0038627230387101477   -0.03944871271738034   -0.0013513136890741769
-0.0052222781712009635   -0.03775551406408508   -0.001257296151693856
-0.0045527162537508355   -0.03925605110667666   -0.0014712861155355406
-0.00377141016279808   -0.03940648710852185   -0.0012514333786017243
-0.0052222781712009635   -0.03775551406408508   -0.001257296151693856
-0.006600782486969691   -0.03756528775732042   -0.0013652289091746056
-0.0045527162537508355   -0.03925605110667666   -0.0014712861155355406
-0.00642039554980759   -0.03751860938241776   -0.0012292005538409331
-0.00377141016279808   -0.03940648710852185   -0.0012514333786017243
-0.00430793769834392   -0.03922015895971432   -0.001307461037876058
-0.00642039554980759   -0.03751860938241776   -0.0012292005538409331
-0.0045527162537508355   -0.03925605110667666   -0.0014712861155355406
-0.00377141016279808   -0.03940648710852185   -0.0012514333786017243
-0.00642039554980759   -0.03751860938241776   -0.0012292005538409331
-0.005166787616184894   -0.03771264920225752   -0.0011711713742187154
-0.0052222781712009635   -0.03775551406408508   -0.001257296151693856
-0.00377141016279808   -0.03940648710852185   -0.0012514333786017243
-0.00642039554980759   -0.03751860938241776   -0.0012292005538409331
-0.0052222781712009635   -0.03775551406408508   -0.001257296151693856
-0.0045527162537508355   -0.03925605110667666   -0.0014712861155355406
-0.00377141016279808   -0.03940648710852185   -0.0012514333786017243
-0.005166787616184894   -0.03771264920225752   -0.0011711713742187154
-0.00430793769834392   -0.03922015895971432   -0.001307461037876058
-0.0036507330893512106   -0.039397125912242786   -0.0011441365362504685
-0.005166787616184894   -0.03771264920225752   -0.0011711713742187154
-0.00642039554980759   -0.03751860938241776   -0.0012292005538409331
-0.00430793769834392   -0.03922015895971432   -0.001307461037876058
-0.006259047797288457   -0.03750204222000973   -0.0010854067510879001
-0.0036507330893512106   -0.039397125912242786   -0.0011441365362504685
-0.0040834504315948985   -0.03921543544421877   -0.001132786320627864
-0.006259047797288457   -0.03750204222000973   -0.0010854067510879001
-0.00430793769834392   -0.03922015895971432   -0.001307461037876058
-0.0036507330893512106   -0.039397125912242786   -0.0011441365362504685
-0.006259047797288457   -0.03750204222000973   -0.0010854067510879001
-0.005090062611658106   -0.03769473806894206   -0.001081355900555558
-0.005166787616184894   -0.03771264920225752   -0.0011711713742187154
-0.0036507330893512106   -0.039397125912242786   -0.0011441365362504685
-0.006259047797288457   -0.03750204222000973   -0.0010854067510879001
-0.005166787616184894   -0.03771264920225752   -0.0011711713742187154
-0.00430793769834392   -0.03922015895971432   -0.001307461037876058
-0.0036507330893512106   -0.039397125912242786   -0.0011441365362504685
-0.005090062611658106   -0.03769473806894206   -0.001081355900555558
-0.0040834504315948985   -0.03921543544421877   -0.001132786320627864
-0.0035375111492282913   -0.039414356564143535   -0.0010327624744192723
-0.005090062611658106   -0.03769473806894206   -0.001081355900555558
-0.006259047797288457   -0.03750204222000973   -0.0010854067510879001
-0.0040834504315948985   -0.03921543544421877   -0.001132786320627864
-0.006049977135169064   -0.0375242454740621   -0.0009352003207410961
-0.0035375111492282913   -0.039414356564143535   -0.0010327624744192723
-0.0037998699568559395   -0.03926245807142234   -0.0009502664200491807
-0.006049977135169064   -0.0375242454740621   -0.0009352003207410961
-0.0040834504315948985   -0.03921543544421877   -0.001132786320627864
-0.0035375111492282913   -0.039414356564143535   -0.0010327624744192723
-0.006049977135169064   -0.0375242454740621   -0.0009352003207410961
-0.005023287552754832   -0.03770179934633969   -0.0009853780173414367
-0.005090062611658106   -0.03769473806894206   -0.001081355900555558
-0.0035375111492282913   -0.039414356564143535   -0.0010327624744192723
-0.006049977135169064   -0.0375242454740621   -0.0009352003207410961
-0.005090062611658106   -0.03769473806894206   -0.001081355900555558
-0.0040834504315948985   -0.03921543544421877   -0.001132786320627864
-0.001202333800002568   -0.03775419275547656   -0.0007340810295299012
0.00016048587685196919   -0.03505298474008014   -0.0006065124274830536
-0.0021947274423096542   -0.03786843525501474   -0.000893680183146108
-0.0010458066110720647   -0.03767594983506103   -0.0008461997180143018
0.00016048587685196919   -0.03505298474008014   -0.0006065124274830536
-0.0015208325978363884   -0.03513717092876064   -0.0007633254494541901
-0.0021947274423096542   -0.03786843525501474   -0.000893680183146108
-0.0014918967549368666   -0.03507095838240635   -0.0008026266423657791
-0.0010458066110720647   -0.03767594983506103   -0.0008461997180143018
-0.0021404020852364785   -0.03780528289350995   -0.0009430310211123139
-0.0014918967549368666   -0.03507095838240635   -0.0008026266423657791
-0.0021947274423096542   -0.03786843525501474   -0.000893680183146108
-0.0010458066110720647   -0.03767594983506103   -0.0008461997180143018
-0.0014918967549368666   -0.03507095838240635   -0.0008026266423657791
0.0002703584505530278   -0.03497341131103871   -0.0006961604193702495
0.00016048587685196919   -0.03505298474008014   -0.0006065124274830536
-0.0010458066110720647   -0.03767594983506103   -0.0008461997180143018
-0.0014918967549368666   -0.03507095838240635   -0.0008026266423657791
0.00016048587685196919   -0.03505298474008014   -0.0006065124274830536
-0.0021947274423096542   -0.03786843525501474   -0.000893680183146108
-0.0010458066110720647   -0.03767594983506103   -0.0008461997180143018
0.0002703584505530278   -0.03497341131103871   -0.0006961604193702495
-0.0021404020852364785   -0.03780528289350995   -0.0009430310211123139
-0.0009226257654118113   -0.03763921995919337   -0.0009518280122774307
0.0002703584505530278   -0.03497341131103871   -0.0006961604193702495
-0.0014918967549368666   -0.03507095838240635   -0.0008026266423657791
-0.0021404020852364785   -0.03780528289350995   -0.0009430310211123139
-0.0014588476843844897   -0.0350281853129579   -0.0008374211299312342
-0.0009226257654118113   -0.03763921995919337   -0.0009518280122774307
-0.002079116474656805   -0.037770760649463574   -0.0009880004136520446
-0.0014588476843844897   -0.0350281853129579   -0.0008374211299312342
-0.0021404020852364785   -0.03780528289350995   -0.0009430310211123139
-0.0009226257654118113   -0.03763921995919337   -0.0009518280122774307
-0.0014588476843844897   -0.0350281853129579   -0.0008374211299312342
0.00035124209302876203   -0.03492797807251242   -0.0007794999688646574
0.0002703584505530278   -0.03497341131103871   -0.0006961604193702495
-0.0009226257654118113   -0.03763921995919337   -0.0009518280122774307
-0.0014588476843844897   -0.0350281853129579   -0.0008374211299312342
0.0002703584505530278   -0.03497341131103871   -0.0006961604193702495
-0.0021404020852364785   -0.03780528289350995   -0.0009430310211123139
-0.0009226257654118113   -0.03763921995919337   -0.0009518280122774307
0.00035124209302876203   -0.03492797807251242   -0.0007794999688646574
-0.002079116474656805   -0.037770760649463574   -0.0009880004136520446
-0.0007878146220749407   -0.03763334692823136   -0.00105069694991647
0.00035124209302876203   -0.03492797807251242   -0.0007794999688646574
-0.0014588476843844897   -0.0350281853129579   -0.0008374211299312342
-0.002079116474656805   -0.037770760649463574   -0.0009880004136520446
-0.0014390769889448339   -0.03500756955346429   -0.0008681545541229669
-0.0007878146220749407   -0.03763334692823136   -0.00105069694991647
-0.0020321655114920417   -0.0377638981655817   -0.0010287325969320531
-0.0014390769889448339   -0.03500756955346429   -0.0008681545541229669
-0.002079116474656805   -0.037770760649463574   -0.0009880004136520446
-0.0007878146220749407   -0.03763334692823136   -0.00105069694991647
-0.0014390769889448339   -0.03500756955346429   -0.0008681545541229669
0.0004381010132302447   -0.03490640919663538   -0.0008565046861664214
0.00035124209302876203   -0.03492797807251242   -0.0007794999688646574
-0.0007878146220749407   -0.03763334692823136   -0.00105069694991647
-0.0014390769889448339   -0.03500756955346429   -0.0008681545541229669
0.00035124209302876203   -0.03492797807251242   -0.0007794999688646574
-0.002079116474656805   -0.037770760649463574   -0.0009880004136520446
-0.0021947274423096542   -0.03786843525501474   -0.000893680183146108
-0.0015208325978363884   -0.03513717092876064   -0.0007633254494541901
-0.0031764406094433933   -0.037908552481614524   -0.0010236563333706995
-0.0021404020852364785   -0.03780528289350995   -0.0009430310211123139
-0.0015208325978363884   -0.03513717092876064   -0.0007633254494541901
-0.003149246992425438   -0.03515332136481761   -0.0008922420254504445
-0.0031764406094433933   -0.037908552481614524   -0.0010236563333706995
-0.0031280485908284678   -0.03509655220636953   -0.0008931698539858451
-0.0021404020852364785   -0.03780528289350995   -0.0009430310211123139
-0.00313084371569906   -0.03785347469379951   -0.0010262607789532894
-0.0031280485908284678   -0.03509655220636953   -0.0008931698539858451
-0.0031764406094433933   -0.037908552481614524   -0.0010236563333706995
-0.0021404020852364785   -0.03780528289350995   -0.0009430310211123139
-0.0031280485908284678   -0.03509655220636953   -0.0008931698539858451
-0.0014918967549368666   -0.03507095838240635   -0.0008026266423657791
-0.0015208325978363884   -0.03513717092876064   -0.0007633254494541901
-0.0021404020852364785   -0.03780528289350995   -0.0009430310211123139
-0.0031280485908284678   -0.03509655220636953   -0.0008931698539858451
-0.0015208325978363884   -0.03513717092876064   -0.0007633254494541901
-0.0031764406094433933   -0.037908552481614524   -0.0010236563333706995
-0.0021404020852364785   -0.03780528289350995   -0.0009430310211123139
-0.0014918967549368666   -0.03507095838240635   -0.0008026266423657791
-0.00313084371569906   -0.03785347469379951   -0.0010262607789532894
-0.002079116474656805   -0.037770760649463574   -0.0009880004136520446
-0.0014918967549368666   -0.03507095838240635   -0.0008026266423657791
-0.0031280485908284678   -0.03509655220636953   -0.0008931698539858451
-0.00313084371569906   -0.03785347469379951   -0.0010262607789532894
-0.003106237291504208   -0.035060755384414874   -0.0008897758510169355
-0.002079116474656805   -0.037770760649463574   -0.0009880004136520446
-0.003083669861692817   -0.03782419951922143   -0.0010248056545228287
-0.003106237291504208   -0.035060755384414874   -0.0008897758510169355
-0.00313084371569906   -0.03785347469379951   -0.0010262607789532894
-0.002079116474656805   -0.037770760649463574   -0.0009880004136520446
-0.003106237291504208   -0.035060755384414874   -0.0008897758510169355
-0.0014588476843844897   -0.0350281853129579   -0.0008374211299312342
-0.0014918967549368666   -0.03507095838240635   -0.0008026266423657791
-0.002079116474656805   -0.037770760649463574   -0.0009880004136520446
-0.003106237291504208   -0.035060755384414874   -0.0008897758510169355
-0.0014918967549368666   -0.03507095838240635   -0.0008026266423657791
-0.00313084371569906   -0.03785347469379951   -0.0010262607789532894
-0.002079116474656805   -0.037770760649463574   -0.0009880004136520446
-0.0014588476843844897   -0.0350281853129579   -0.0008374211299312342
-0.003083669861692817   -0.03782419951922143   -0.0010248056545228287
-0.0020321655114920417   -0.0377638981655817   -0.0010287325969320531
-0.0014588476843844897   -0.0350281853129579   -0.0008374211299312342
-0.003106237291504208   -0.035060755384414874   -0.0008897758510169355
-0.003083669861692817   -0.03782419951922143   -0.0010248056545228287
-0.0030871651662152306   -0.03504559624611567   -0.0008823539510300449
-0.0020321655114920417   -0.0377638981655817   -0.0010287325969320531
-0.0030381928280207413   -0.037819515368681236   -0.0010192613242378322
-0.0030871651662152306   -0.03504559624611567   -0.0008823539510300449
-0.003083669861692817   -0.03782419951922143   -0.0010248056545228287
-0.0020321655114920417   -0.0377638981655817   -0.0010287325969320531
-0.0030871651662152306   -0.03504559624611567   -0.0008823539510300449
-0.0014390769889448339   -0.03500756955346429   -0.0008681545541229669
-0.0014588476843844897   -0.0350281853129579   -0.0008374211299312342
-0.0020321655114920417   -0.0377638981655817   -0.0010287325969320531
-0.0030871651662152306   -0.03504559624611567   -0.0008823539510300449
-0.0014588476843844897   -0.0350281853129579   -0.0008374211299312342
-0.003083669861692817   -0.03782419951922143   -0.0010248056545228287
-0.0031764406094433933   -0.037908552481614524   -0.0010236563333706995
-0.003149246992425438   -0.03515332136481761   -0.0008922420254504445
-0.004151675274521574   -0.03787248015774349   -0.0011453520597942825
-0.00313084371569906   -0.03785347469379951   -0.0010262607789532894
-0.003149246992425438   -0.03515332136481761   -0.0008922420254504445
-0.004752469367534285   -0.03510127380263526   -0.001008581415121347
-0.004151675274521574   -0.03787248015774349   -0.0011453520597942825
-0.004732740990281776   -0.03505231797872541   -0.0009720561261847088
-0.00313084371569906   -0.03785347469379951   -0.0010262607789532894
-0.004106439414558015   -0.03782351884476812   -0.0011031146156068026
-0.004732740990281776   -0.03505231797872541   -0.0009720561261847088
-0.004151675274521574   -0.03787248015774349   -0.0011453520597942825
-0.00313084371569906   -0.03785347469379951   -0.0010262607789532894
-0.004732740990281776   -0.03505231797872541   -0.0009720561261847088
-0.0031280485908284678   -0.03509655220636953   -0.0008931698539858451
-0.003149246992425438   -0.03515332136481761   -0.0008922420254504445
-0.00313084371569906   -0.03785347469379951   -0.0010262607789532894
-0.004732740990281776   -0.03505231797872541   -0.0009720561261847088
-0.003149246992425438   -0.03515332136481761   -0.0008922420254504445
-0.004151675274521574   -0.03787248015774349   -0.0011453520597942825
-0.00313084371569906   -0.03785347469379951   -0.0010262607789532894
-0.0031280485908284678   -0.03509655220636953   -0.0008931698539858451
-0.004106439414558015   -0.03782351884476812   -0.0011031146156068026
-0.003083669861692817   -0.03782419951922143   -0.0010248056545228287
-0.0031280485908284678   -0.03509655220636953   -0.0008931698539858451
-0.004732740990281776   -0.03505231797872541   -0.0009720561261847088
-0.004106439414558015   -0.03782351884476812   -0.0011031146156068026
-0.004708894396468932   -0.035024105874351216   -0.000931306204328853
-0.003083669861692817   -0.03782419951922143   -0.0010248056545228287
-0.004055677390757453   -0.03779993688934047   -0.0010568815355543497
-0.004708894396468932   -0.035024105874351216   -0.000931306204328853
-0.004106439414558015   -0.03782351884476812   -0.0011031146156068026
-0.003083669861692817   -0.03782419951922143   -0.0010248056545228287
-0.004708894396468932   -0.035024105874351216   -0.000931306204328853
-0.003106237291504208   -0.035060755384414874   -0.0008897758510169355
-0.0031280485908284678   -0.03509655220636953   -0.0008931698539858451
-0.003083669861692817   -0.03782419951922143   -0.0010248056545228287
-0.004708894396468932   -0.035024105874351216   -0.000931306204328853
-0.0031280485908284678   -0.03509655220636953   -0.0008931698539858451
-0.004106439414558015   -0.03782351884476812   -0.0011031146156068026
-0.003083669861692817   -0.03782419951922143   -0.0010248056545228287
-0.003106237291504208   -0.035060755384414874   -0.0008897758510169355
-0.004055677390757453   -0.03779993688934047   -0.0010568815355543497
-0.0030381928280207413   -0.037819515368681236   -0.0010192613242378322
-0.003106237291504208   -0.035060755384414874   -0.0008897758510169355
-0.004708894396468932   -0.035024105874351216   -0.000931306204328853
-0.004055677390757453   -0.03779993688934047   -0.0010568815355543497
-0.004685726857208215   -0.03501569522789117   -0.0008864609103255807
-0.0030381928280207413   -0.037819515368681236   -0.0010192613242378322
-0.004004746683363019   -0.03779933771874359   -0.0010061667043056606
-0.004685726857208215   -0.03501569522789117   -0.0008864609103255807
-0.004055677390757453   -0.03779993688934047   -0.0010568815355543497
-0.0030381928280207413   -0.037819515368681236   -0.0010192613242378322
-0.004685726857208215   -0.03501569522789117   -0.0008864609103255807
-0.0030871651662152306   -0.03504559624611567   -0.0008823539510300449
-0.003106237291504208   -0.035060755384414874   -0.0008897758510169355
-0.0030381928280207413   -0.037819515368681236   -0.0010192613242378322
-0.004685726857208215   -0.03501569522789117   -0.0008864609103255807
-0.003106237291504208   -0.035060755384414874   -0.0008897758510169355
-0.004055677390757453   -0.03779993688934047   -0.0010568815355543497
-0.004151675274521574   -0.03787248015774349   -0.0011453520597942825
-0.004752469367534285   -0.03510127380263526   -0.001008581415121347
-0.0052222781712009635   -0.03775551406408508   -0.001257296151693856
-0.004106439414558015   -0.03782351884476812   -0.0011031146156068026
-0.004752469367534285   -0.03510127380263526   -0.001008581415121347
-0.006432042505446355   -0.03498281660065396   -0.001111969930023929
-0.0052222781712009635   -0.03775551406408508   -0.001257296151693856
-0.006406154692249473   -0.03494128217661889   -0.0010379254885622322
-0.004106439414558015   -0.03782351884476812   -0.0011031146156068026
-0.005166787616184894   -0.03771264920225752   -0.0011711713742187154
-0.006406154692249473   -0.03494128217661889   -0.0010379254885622322
-0.0052222781712009635   -0.03775551406408508   -0.001257296151693856
-0.004106439414558015   -0.03782351884476812   -0.0011031146156068026
-0.006406154692249473   -0.03494128217661889   -0.0010379254885622322
-0.004732740990281776   -0.03505231797872541   -0.0009720561261847088
-0.004752469367534285   -0.03510127380263526   -0.001008581415121347
-0.004106439414558015   -0.03782351884476812   -0.0011031146156068026
-0.006406154692249473   -0.03494128217661889   -0.0010379254885622322
-0.004752469367534285   -0.03510127380263526   -0.001008581415121347
-0.0052222781712009635   -0.03775551406408508   -0.001257296151693856
-0.004106439414558015   -0.03782351884476812   -0.0011031146156068026
-0.004732740990281776   -0.03505231797872541   -0.0009720561261847088
-0.005166787616184894   -0.03771264920225752   -0.0011711713742187154
-0.004055677390757453   -0.03779993688934047   -0.0010568815355543497
-0.004732740990281776   -0.03505231797872541   -0.0009720561261847088
-0.006406154692249473   -0.03494128217661889   -0.0010379254885622322
-0.005166787616184894   -0.03771264920225752   -0.0011711713742187154
-0.006362202031186051   -0.034919945956002826   -0.0009603110930188039
-0.004055677390757453   -0.03779993688934047   -0.0010568815355543497
-0.005090062611658106   -0.03769473806894206   -0.001081355900555558
-0.006362202031186051   -0.034919945956002826   -0.0009603110930188039
-0.005166787616184894   -0.03771264920225752   -0.0011711713742187154
-0.004055677390757453   -0.03779993688934047   -0.0010568815355543497
-0.006362202031186051   -0.034919945956002826   -0.0009603110930188039
-0.004708894396468932   -0.035024105874351216   -0.000931306204328853
-0.004732740990281776   -0.03505231797872541   -0.0009720561261847088
-0.004055677390757453   -0.03779993688934047   -0.0010568815355543497
-0.006362202031186051   -0.034919945956002826   -0.0009603110930188039
-0.004732740990281776   -0.03505231797872541   -0.0009720561261847088
-0.005166787616184894   -0.03771264920225752   -0.0011711713742187154
-0.004055677390757453   -0.03779993688934047   -0.0010568815355543497
-0.004708894396468932   -0.035024105874351216   -0.000931306204328853
-0.005090062611658106   -0.03769473806894206   -0.001081355900555558
-0.004004746683363019   -0.03779933771874359   -0.0010061667043056606
-0.004708894396468932   -0.035024105874351216   -0.000931306204328853
-0.006362202031186051   -0.034919945956002826   -0.0009603110930188039
-0.005090062611658106   -0.03769473806894206   -0.001081355900555558
-0.00632663842632182   -0.0349199633861828   -0.0008780020807339465
-0.004004746683363019   -0.03779933771874359   -0.0010061667043056606
-0.005023287552754832   -0.03770179934633969   -0.0009853780173414367
-0.00632663842632182   -0.0349199633861828   -0.0008780020807339465
-0.005090062611658106   -0.03769473806894206   -0.001081355900555558
-0.004004746683363019   -0.03779933771874359   -0.0010061667043056606
-0.00632663842632182   -0.0349199633861828   -0.0008780020807339465
-0.004685726857208215   -0.03501569522789117   -0.0008864609103255807
-0.004708894396468932   -0.035024105874351216   -0.000931306204328853
-0.004004746683363019   -0.03779933771874359   -0.0010061667043056606
-0.00632663842632182   -0.0349199633861828   -0.0008780020807339465
-0.004708894396468932   -0.035024105874351216   -0.000931306204328853
-0.005090062611658106   -0.03769473806894206   -0.001081355900555558
-0.0052222781712009635   -0.03775551406408508   -0.001257296151693856
-0.006432042505446355   -0.03498281660065396   -0.001111969930023929
-0.006600782486969691   -0.03756528775732042   -0.0013652289091746056
-0.005166787616184894   -0.03771264920225752   -0.0011711713742187154
-0.006432042505446355   -0.03498281660065396   -0.001111969930023929
-0.008390536890493112   -0.034811878461003865   -0.0012087066050876277
-0.006600782486969691   -0.03756528775732042   -0.0013652289091746056
-0.008256783437473195   -0.034768406197909656   -0.00109272932804772
-0.005166787616184894   -0.03771264920225752   -0.0011711713742187154
-0.00642039554980759   -0.03751860938241776   -0.0012292005538409331
-0.008256783437473195   -0.034768406197909656   -0.00109272932804772
-0.006600782486969691   -0.03756528775732042   -0.0013652289091746056
-0.005166787616184894   -0.03771264920225752   -0.0011711713742187154
-0.008256783437473195   -0.034768406197909656   -0.00109272932804772
-0.006406154692249473   -0.03494128217661889   -0.0010379254885622322
-0.006432042505446355   -0.03498281660065396   -0.001111969930023929
-0.005166787616184894   -0.03771264920225752   -0.0011711713742187154
-0.008256783437473195   -0.034768406197909656   -0.00109272932804772
-0.006432042505446355   -0.03498281660065396   -0.001111969930023929
-0.006600782486969691   -0.03756528775732042   -0.0013652289091746056
-0.005166787616184894   -0.03771264920225752   -0.0011711713742187154
-0.006406154692249473   -0.03494128217661889   -0.0010379254885622322
-0.00642039554980759   -0.03751860938241776   -0.0012292005538409331
-0.005090062611658106   -0.03769473806894206   -0.001081355900555558
-0.006406154692249473   -0.03494128217661889   -0.0010379254885622322
-0.008256783437473195   -0.034768406197909656   -0.00109272932804772
-0.00642039554980759   -0.03751860938241776   -0.0012292005538409331
-0.008140916027322845   -0.03474893770801174   -0.0009708497785715428
-0.005090062611658106   -0.03769473806894206   -0.001081355900555558
-0.006259047797288457   -0.03750204222000973   -0.0010854067510879001
-0.008140916027322845   -0.03474893770801174   -0.0009708497785715428
-0.00642039554980759   -0.03751860938241776   -0.0012292005538409331
-0.005090062611658106   -0.03769473806894206   -0.001081355900555558
-0.008140916027322845   -0.03474893770801174   -0.0009708497785715428
-0.006362202031186051   -0.034919945956002826   -0.0009603110930188039
-0.006406154692249473   -0.03494128217661889   -0.0010379254885622322
-0.005090062611658106   -0.03769473806894206   -0.001081355900555558
-0.008140916027322845   -0.03474893770801174   -0.0009708497785715428
-0.006406154692249473   -0.03494128217661889   -0.0010379254885622322
-0.00642039554980759   -0.03751860938241776   -0.0012292005538409331
-0.005090062611658106   -0.03769473806894206   -0.001081355900555558
-0.006362202031186051   -0.034919945956002826   -0.0009603110930188039
-0.006259047797288457   -0.03750204222000973   -0.0010854067510879001
-0.005023287552754832   -0.03770179934633969   -0.0009853780173414367
-0.006362202031186051   -0.034919945956002826   -0.0009603110930188039
-0.008140916027322845   -0.03474893770801174   -0.0009708497785715428
-0.006259047797288457   -0.03750204222000973   -0.0010854067510879001
-0.007984905725592706   -0.03476205235266903   -0.0008438415422081752
-0.005023287552754832   -0.03770179934633969   -0.0009853780173414367
-0.006049977135169064   -0.0375242454740621   -0.0009352003207410961
-0.007984905725592706   -0.03476205235266903   -0.0008438415422081752
-0.006259047797288457   -0.03750204222000973   -0.0010854067510879001
-0.005023287552754832   -0.03770179934633969   -0.0009853780173414367
-0.007984905725592706   -0.03476205235266903   -0.0008438415422081752
-0.00632663842632182   -0.0349199633861828   -0.0008780020807339465
-0.006362202031186051   -0.034919945956002826   -0.0009603110930188039
-0.005023287552754832   -0.03770179934633969   -0.0009853780173414367
-0.007984905725592706   -0.03476205235266903   -0.0008438415422081752
-0.006362202031186051   -0.034919945956002826   -0.0009603110930188039
-0.006259047797288457   -0.03750204222000973   -0.0010854067510879001
0.00016048587685196919   -0.03505298474008014   -0.0006065124274830536
0.0012001014260115527   -0.03137281926567223   -0.0004619353380825508
-0.0015208325978363884   -0.03513717092876064   -0.0007633254494541901
0.0002703584505530278   -0.03497341131103871   -0.0006961604193702495
0.0012001014260115527   -0.03137281926567223   -0.0004619353380825508
-0.0010318583632410376   -0.03142882889153998   -0.0006116713869435794
-0.0015208325978363884   -0.03513717092876064   -0.0007633254494541901
-0.001025641286538198   -0.03136296486283587   -0.0006390800745016553
0.0002703584505530278   -0.03497341131103871   -0.0006961604193702495
-0.0014918967549368666   -0.03507095838240635   -0.0008026266423657791
-0.001025641286538198   -0.03136296486283587   -0.0006390800745016553
-0.0015208325978363884   -0.03513717092876064   -0.0007633254494541901
0.0002703584505530278   -0.03497341131103871   -0.0006961604193702495
-0.001025641286538198   -0.03136296486283587   -0.0006390800745016553
0.0012659832859301466   -0.03129512022633201   -0.0005285989361549127
0.0012001014260115527   -0.03137281926567223   -0.0004619353380825508
0.0002703584505530278   -0.03497341131103871   -0.0006961604193702495
-0.001025641286538198   -0.03136296486283587   -0.0006390800745016553
0.0012001014260115527   -0.03137281926567223   -0.0004619353380825508
-0.0015208325978363884   -0.03513717092876064   -0.0007633254494541901
0.0002703584505530278   -0.03497341131103871   -0.0006961604193702495
0.0012659832859301466   -0.03129512022633201   -0.0005285989361549127
-0.0014918967549368666   -0.03507095838240635   -0.0008026266423657791
0.00035124209302876203   -0.03492797807251242   -0.0007794999688646574
0.0012659832859301466   -0.03129512022633201   -0.0005285989361549127
-0.001025641286538198   -0.03136296486283587   -0.0006390800745016553
-0.0014918967549368666   -0.03507095838240635   -0.0008026266423657791
-0.0010177016341322335   -0.031315671227966205   -0.00066235285960442
0.00035124209302876203   -0.03492797807251242   -0.0007794999688646574
-0.0014588476843844897   -0.0350281853129579   -0.0008374211299312342
-0.0010177016341322335   -0.031315671227966205   -0.00066235285960442
-0.0014918967549368666   -0.03507095838240635   -0.0008026266423657791
0.00035124209302876203   -0.03492797807251242   -0.0007794999688646574
-0.0010177016341322335   -0.031315671227966205   -0.00066235285960442
0.0013082712695986715   -0.031244685105613963   -0.000589413835024413
0.0012659832859301466   -0.03129512022633201   -0.0005285989361549127
0.00035124209302876203   -0.03492797807251242   -0.0007794999688646574
-0.0010177016341322335   -0.031315671227966205   -0.00066235285960442
0.0012659832859301466   -0.03129512022633201   -0.0005285989361549127
-0.0014918967549368666   -0.03507095838240635   -0.0008026266423657791
0.00035124209302876203   -0.03492797807251242   -0.0007794999688646574
0.0013082712695986715   -0.031244685105613963   -0.000589413835024413
-0.0014588476843844897   -0.0350281853129579   -0.0008374211299312342
0.0004381010132302447   -0.03490640919663538   -0.0008565046861664214
0.0013082712695986715   -0.031244685105613963   -0.000589413835024413
-0.0010177016341322335   -0.031315671227966205   -0.00066235285960442
-0.0014588476843844897   -0.0350281853129579   -0.0008374211299312342
-0.0010211349634718244   -0.0312854091681689   -0.0006817907557450514
0.0004381010132302447   -0.03490640919663538   -0.0008565046861664214
-0.0014390769889448339   -0.03500756955346429   -0.0008681545541229669
-0.0010211349634718244   -0.0312854091681689   -0.0006817907557450514
-0.0014588476843844897   -0.0350281853129579   -0.0008374211299312342
0.0004381010132302447   -0.03490640919663538   -0.0008565046861664214
-0.0010211349634718244   -0.0312854091681689   -0.0006817907557450514
0.0013519454125013783   -0.03121158097304134   -0.0006445063916960666
0.0013082712695986715   -0.031244685105613963   -0.000589413835024413
0.0004381010132302447   -0.03490640919663538   -0.0008565046861664214
-0.0010211349634718244   -0.0312854091681689   -0.0006817907557450514
0.0013082712695986715   -0.031244685105613963   -0.000589413835024413
-0.0014588476843844897   -0.0350281853129579   -0.0008374211299312342
-0.0015208325978363884   -0.03513717092876064   -0.0007633254494541901
-0.0010318583632410376   -0.03142882889153998   -0.0006116713869435794
-0.003149246992425438   -0.03515332136481761   -0.0008922420254504445
-0.0014918967549368666   -0.03507095838240635   -0.0008026266423657791
-0.0010318583632410376   -0.03142882889153998   -0.0006116713869435794
-0.003181209040111579   -0.0314293119207351   -0.0007347942081898319
-0.003149246992425438   -0.03515332136481761   -0.0008922420254504445
-0.0031813881435488493   -0.031373706886254876   -0.0007321968401498923
-0.0014918967549368666   -0.03507095838240635   -0.0008026266423657791
-0.0031280485908284678   -0.03509655220636953   -0.0008931698539858451
-0.0031813881435488493   -0.031373706886254876   -0.0007321968401498923
-0.003149246992425438   -0.03515332136481761   -0.0008922420254504445
-0.0014918967549368666   -0.03507095838240635   -0.0008026266423657791
-0.0031813881435488493   -0.031373706886254876   -0.0007321968401498923
-0.001025641286538198   -0.03136296486283587   -0.0006390800745016553
-0.0010318583632410376   -0.03142882889153998   -0.0006116713869435794
-0.0014918967549368666   -0.03507095838240635   -0.0008026266423657791
-0.0031813881435488493   -0.031373706886254876   -0.0007321968401498923
-0.0010318583632410376   -0.03142882889153998   -0.0006116713869435794
-0.003149246992425438   -0.03515332136481761   -0.0008922420254504445
-0.0014918967549368666   -0.03507095838240635   -0.0008026266423657791
-0.001025641286538198   -0.03136296486283587   -0.0006390800745016553
-0.0031280485908284678   -0.03509655220636953   -0.0008931698539858451
-0.0014588476843844897   -0.0350281853129579   -0.0008374211299312342
-0.001025641286538198   -0.03136296486283587   -0.0006390800745016553
-0.0031813881435488493   -0.031373706886254876   -0.0007321968401498923
-0.0031280485908284678   -0.03509655220636953   -0.0008931698539858451
-0.0031814168235830362   -0.03133446623684668   -0.0007254753391558666
-0.0014588476843844897   -0.0350281853129579   -0.0008374211299312342
-0.003106237291504208   -0.035060755384414874   -0.0008897758510169355
-0.0031814168235830362   -0.03133446623684668   -0.0007254753391558666
-0.0031280485908284678   -0.03509655220636953   -0.0008931698539858451
-0.0014588476843844897   -0.0350281853129579   -0.0008374211299312342
-0.0031814168235830362   -0.03133446623684668   -0.0007254753391558666
-0.0010177016341322335   -0.031315671227966205   -0.00066235285960442
-0.001025641286538198   -0.03136296486283587   -0.0006390800745016553
-0.0014588476843844897   -0.0350281853129579   -0.0008374211299312342
-0.0031814168235830362   -0.03133446623684668   -0.0007254753391558666
-0.001025641286538198   -0.03136296486283587   -0.0006390800745016553
-0.0031280485908284678   -0.03509655220636953   -0.0008931698539858451
-0.0014588476843844897   -0.0350281853129579   -0.0008374211299312342
-0.0010177016341322335   -0.031315671227966205   -0.00066235285960442
-0.003106237291504208   -0.035060755384414874   -0.0008897758510169355
-0.0014390769889448339   -0.03500756955346429   -0.0008681545541229669
-0.0010177016341322335   -0.031315671227966205   -0.00066235285960442
-0.0031814168235830362   -0.03133446623684668   -0.0007254753391558666
-0.003106237291504208   -0.035060755384414874   -0.0008897758510169355
-0.003184307843062534   -0.031311620719266235   -0.0007148493089983112
-0.0014390769889448339   -0.03500756955346429   -0.0008681545541229669
-0.0030871651662152306   -0.03504559624611567   -0.0008823539510300449
-0.003184307843062534   -0.031311620719266235   -0.0007148493089983112
-0.003106237291504208   -0.035060755384414874   -0.0008897758510169355
-0.0014390769889448339   -0.03500756955346429   -0.0008681545541229669
-0.003184307843062534   -0.031311620719266235   -0.0007148493089983112
-0.0010211349634718244   -0.0312854091681689   -0.0006817907557450514
-0.0010177016341322335   -0.031315671227966205   -0.00066235285960442
-0.0014390769889448339   -0.03500756955346429   -0.0008681545541229669
-0.003184307843062534   -0.031311620719266235   -0.0007148493089983112
-0.0010177016341322335   -0.031315671227966205   -0.00066235285960442
-0.003106237291504208   -0.035060755384414874   -0.0008897758510169355
-0.003149246992425438   -0.03515332136481761   -0.0008922420254504445
-0.003181209040111579   -0.0314293119207351   -0.0007347942081898319
-0.004752469367534285   -0.03510127380263526   -0.001008581415121347
-0.0031280485908284678   -0.03509655220636953   -0.0008931698539858451
-0.003181209040111579   -0.0314293119207351   -0.0007347942081898319
-0.005294430684188994   -0.03137566394126611   -0.0008425303920543985
-0.004752469367534285   -0.03510127380263526   -0.001008581415121347
-0.005296213757873888   -0.031329035649917354   -0.0008102939130217223
-0.0031280485908284678   -0.03509655220636953   -0.0008931698539858451
-0.004732740990281776   -0.03505231797872541   -0.0009720561261847088
-0.005296213757873888   -0.031329035649917354   -0.0008102939130217223
-0.004752469367534285   -0.03510127380263526   -0.001008581415121347
-0.0031280485908284678   -0.03509655220636953   -0.0008931698539858451
-0.005296213757873888   -0.031329035649917354   -0.0008102939130217223
-0.0031813881435488493   -0.031373706886254876   -0.0007321968401498923
-0.003181209040111579   -0.0314293119207351   -0.0007347942081898319
-0.0031280485908284678   -0.03509655220636953   -0.0008931698539858451
-0.005296213757873888   -0.031329035649917354   -0.0008102939130217223
-0.003181209040111579   -0.0314293119207351   -0.0007347942081898319
-0.004752469367534285   -0.03510127380263526   -0.001008581415121347
-0.0031280485908284678   -0.03509655220636953   -0.0008931698539858451
-0.0031813881435488493   -0.031373706886254876   -0.0007321968401498923
-0.004732740990281776   -0.03505231797872541   -0.0009720561261847088
-0.003106237291504208   -0.035060755384414874   -0.0008897758510169355
-0.0031813881435488493   -0.031373706886254876   -0.0007321968401498923
-0.005296213757873888   -0.031329035649917354   -0.0008102939130217223
-0.004732740990281776   -0.03505231797872541   -0.0009720561261847088
-0.005294405536947236   -0.031298627512775394   -0.0007740163289348281
-0.003106237291504208   -0.035060755384414874   -0.0008897758510169355
-0.004708894396468932   -0.035024105874351216   -0.000931306204328853
-0.005294405536947236   -0.031298627512775394   -0.0007740163289348281
-0.004732740990281776   -0.03505231797872541   -0.0009720561261847088
-0.003106237291504208   -0.035060755384414874   -0.0008897758510169355
-0.005294405536947236   -0.031298627512775394   -0.0007740163289348281
-0.0031814168235830362   -0.03133446623684668   -0.0007254753391558666
-0.0031813881435488493   -0.031373706886254876   -0.0007321968401498923
-0.003106237291504208   -0.035060755384414874   -0.0008897758510169355
-0.005294405536947236   -0.031298627512775394   -0.0007740163289348281
-0.0031813881435488493   -0.031373706886254876   -0.0007321968401498923
-0.004732740990281776   -0.03505231797872541   -0.0009720561261847088
-0.003106237291504208   -0.035060755384414874   -0.0008897758510169355
-0.0031814168235830362   -0.03133446623684668   -0.0007254753391558666
-0.004708894396468932   -0.035024105874351216   -0.000931306204328853
-0.0030871651662152306   -0.03504559624611567   -0.0008823539510300449
-0.0031814168235830362   -0.03133446623684668   -0.0007254753391558666
-0.005294405536947236   -0.031298627512775394   -0.0007740163289348281
-0.004708894396468932   -0.035024105874351216   -0.000931306204328853
-0.005293258219329183   -0.031284160403100655   -0.0007338140162693312
-0.0030871651662152306   -0.03504559624611567   -0.0008823539510300449
-0.004685726857208215   -0.03501569522789117   -0.0008864609103255807
-0.005293258219329183   -0.031284160403100655   -0.0007338140162693312
-0.004708894396468932   -0.035024105874351216   -0.000931306204328853
-0.0030871651662152306   -0.03504559624611567   -0.0008823539510300449
-0.005293258219329183   -0.031284160403100655   -0.0007338140162693312
-0.003184307843062534   -0.031311620719266235   -0.0007148493089983112
-0.0031814168235830362   -0.03133446623684668   -0.0007254753391558666
-0.0030871651662152306   -0.03504559624611567   -0.0008823539510300449
-0.005293258219329183   -0.031284160403100655   -0.0007338140162693312
-0.0031814168235830362   -0.03133446623684668   -0.0007254753391558666
-0.004708894396468932   -0.035024105874351216   -0.000931306204328853
-0.004752469367534285   -0.03510127380263526   -0.001008581415121347
-0.005294430684188994   -0.03137566394126611   -0.0008425303920543985
-0.006432042505446355   -0.03498281660065396   -0.001111969930023929
-0.004732740990281776   -0.03505231797872541   -0.0009720561261847088
-0.005294430684188994   -0.03137566394126611   -0.0008425303920543985
-0.00747327258997133   -0.03126987045331584   -0.0009351371218079542
-0.006432042505446355   -0.03498281660065396   -0.001111969930023929
-0.007470547514741642   -0.031231806672620103   -0.0008729020615929824
-0.004732740990281776   -0.03505231797872541   -0.0009720561261847088
-0.006406154692249473   -0.03494128217661889   -0.0010379254885622322
-0.007470547514741642   -0.031231806672620103   -0.0008729020615929824
-0.006432042505446355   -0.03498281660065396   -0.001111969930023929
-0.004732740990281776   -0.03505231797872541   -0.0009720561261847088
-0.007470547514741642   -0.031231806672620103   -0.0008729020615929824
-0.005296213757873888   -0.031329035649917354   -0.0008102939130217223
-0.005294430684188994   -0.03137566394126611   -0.0008425303920543985
-0.004732740990281776   -0.03505231797872541   -0.0009720561261847088
-0.007470547514741642   -0.031231806672620103   -0.0008729020615929824
-0.005294430684188994   -0.03137566394126611   -0.0008425303920543985
-0.006432042505446355   -0.03498281660065396   -0.001111969930023929
-0.004732740990281776   -0.03505231797872541   -0.0009720561261847088
-0.005296213757873888   -0.031329035649917354   -0.0008102939130217223
-0.006406154692249473   -0.03494128217661889   -0.0010379254885622322
-0.004708894396468932   -0.035024105874351216   -0.000931306204328853
-0.005296213757873888   -0.031329035649917354   -0.0008102939130217223
-0.007470547514741642   -0.031231806672620103   -0.0008729020615929824
-0.006406154692249473   -0.03494128217661889   -0.0010379254885622322
-0.007452067945191045   -0.031209408846520136   -0.0008072370402142931
-0.004708894396468932   -0.035024105874351216   -0.000931306204328853
-0.006362202031186051   -0.034919945956002826   -0.0009603110930188039
-0.007452067945191045   -0.031209408846520136   -0.0008072370402142931
-0.006406154692249473   -0.03494128217661889   -0.0010379254885622322
-0.004708894396468932   -0.035024105874351216   -0.000931306204328853
-0.007452067945191045   -0.031209408846520136   -0.0008072370402142931
-0.005294405536947236   -0.031298627512775394   -0.0007740163289348281
-0.005296213757873888   -0.031329035649917354   -0.0008102939130217223
-0.004708894396468932   -0.035024105874351216   -0.000931306204328853
-0.007452067945191045   -0.031209408846520136   -0.0008072370402142931
-0.005296213757873888   -0.031329035649917354   -0.0008102939130217223
-0.006406154692249473   -0.03494128217661889   -0.0010379254885622322
-0.004708894396468932   -0.035024105874351216   -0.000931306204328853
-0.005294405536947236   -0.031298627512775394   -0.0007740163289348281
-0.006362202031186051   -0.034919945956002826   -0.0009603110930188039
-0.004685726857208215   -0.03501569522789117   -0.0008864609103255807
-0.005294405536947236   -0.031298627512775394   -0.0007740163289348281
-0.007452067945191045   -0.031209408846520136   -0.0008072370402142931
-0.006362202031186051   -0.034919945956002826   -0.0009603110930188039
-0.007439765631771025   -0.031204297654723843   -0.0007373287269696307
-0.004685726857208215   -0.03501569522789117   -0.0008864609103255807
-0.00632663842632182   -0.0349199633861828   -0.0008780020807339465
-0.007439765631771025   -0.031204297654723843   -0.0007373287269696307
-0.006362202031186051   -0.034919945956002826   -0.0009603110930188039
-0.004685726857208215   -0.03501569522789117   -0.0008864609103255807
-0.007439765631771025   -0.031204297654723843   -0.0007373287269696307
-0.005293258219329183   -0.031284160403100655   -0.0007338140162693312
-0.005294405536947236   -0.031298627512775394   -0.0007740163289348281
-0.004685726857208215   -0.03501569522789117   -0.0008864609103255807
-0.007439765631771025   -0.031204297654723843   -0.0007373287269696307
-0.005294405536947236   -0.031298627512775394   -0.0007740163289348281
-0.006362202031186051   -0.034919945956002826   -0.0009603110930188039
-0.006432042505446355   -0.03498281660065396   -0.001111969930023929
-0.00747327258997133   -0.03126987045331584   -0.0009351371218079542
-0.008390536890493112   -0.034811878461003865   -0.0012087066050876277
-0.006406154692249473   -0.03494128217661889   -0.0010379254885622322
-0.00747327258997133   -0.03126987045331584   -0.0009351371218079542
-0.009907099373977076   -0.031123673200558546   -0.0010188319468089112
-0.008390536890493112   -0.034811878461003865   -0.0012087066050876277
-0.009815033660593317   -0.03108622387573794   -0.0009235124926583435
-0.006406154692249473   -0.03494128217661889   -0.0010379254885622322
-0.008256783437473195   -0.034768406197909656   -0.00109272932804772
-0.009815033660593317   -0.03108622387573794   -0.0009235124926583435
-0.008390536890493112   -0.034811878461003865   -0.0012087066050876277
-0.006406154692249473   -0.03494128217661889   -0.0010379254885622322
-0.009815033660593317   -0.03108622387573794   -0.0009235124926583435
-0.007470547514741642   -0.031231806672620103   -0.0008729020615929824
-0.00747327258997133   -0.03126987045331584   -0.0009351371218079542
-0.006406154692249473   -0.03494128217661889   -0.0010379254885622322
-0.009815033660593317   -0.03108622387573794   -0.0009235124926583435
-0.00747327258997133   -0.03126987045331584   -0.0009351371218079542
-0.008390536890493112   -0.034811878461003865   -0.0012087066050876277
-0.006406154692249473   -0.03494128217661889   -0.0010379254885622322
-0.007470547514741642   -0.031231806672620103   -0.0008729020615929824
-0.008256783437473195   -0.034768406197909656   -0.00109272932804772
-0.006362202031186051   -0.034919945956002826   -0.0009603110930188039
-0.007470547514741642   -0.031231806672620103   -0.0008729020615929824
-0.009815033660593317   -0.03108622387573794   -0.0009235124926583435
-0.008256783437473195   -0.034768406197909656   -0.00109272932804772
-0.009736435604018176   -0.03106675400012631   -0.0008224149628542288
-0.006362202031186051   -0.034919945956002826   -0.0009603110930188039
-0.008140916027322845   -0.03474893770801174   -0.0009708497785715428
-0.009736435604018176   -0.03106675400012631   -0.0008224149628542288
-0.008256783437473195   -0.034768406197909656   -0.00109272932804772
-0.006362202031186051   -0.034919945956002826   -0.0009603110930188039
-0.009736435604018176   -0.03106675400012631   -0.0008224149628542288
-0.007452067945191045   -0.031209408846520136   -0.0008072370402142931
-0.007470547514741642   -0.031231806672620103   -0.0008729020615929824
-0.006362202031186051   -0.034919945956002826   -0.0009603110930188039
-0.009736435604018176   -0.03106675400012631   -0.0008224149628542288
-0.007470547514741642   -0.031231806672620103   -0.0008729020615929824
-0.008256783437473195   -0.034768406197909656   -0.00109272932804772
-0.006362202031186051   -0.034919945956002826   -0.0009603110930188039
-0.007452067945191045   -0.031209408846520136   -0.0008072370402142931
-0.008140916027322845   -0.03474893770801174   -0.0009708497785715428
-0.00632663842632182   -0.0349199633861828   -0.0008780020807339465
-0.007452067945191045   -0.031209408846520136   -0.0008072370402142931
-0.009736435604018176   -0.03106675400012631   -0.0008224149628542288
-0.008140916027322845   -0.03474893770801174   -0.0009708497785715428
-0.009623196130881742   -0.031074651607605735   -0.0007163374974601067
-0.00632663842632182   -0.0349199633861828   -0.0008780020807339465
-0.007984905725592706   -0.03476205235266903   -0.0008438415422081752
-0.009623196130881742   -0.031074651607605735   -0.0007163374974601067
-0.008140916027322845   -0.03474893770801174   -0.0009708497785715428
-0.00632663842632182   -0.0349199633861828   -0.0008780020807339465
-0.009623196130881742   -0.031074651607605735   -0.0007163374974601067
-0.007439765631771025   -0.031204297654723843   -0.0007373287269696307
-0.007452067945191045   -0.031209408846520136   -0.0008072370402142931
-0.00632663842632182   -0.0349199633861828   -0.0008780020807339465
-0.009623196130881742   -0.031074651607605735   -0.0007163374974601067
-0.007452067945191045   -0.031209408846520136   -0.0008072370402142931
-0.008140916027322845   -0.03474893770801174   -0.0009708497785715428
0.0012001014260115527   -0.03137281926567223   -0.0004619353380825508
0.0019211413783499546   -0.02693489462336168   -0.00030794115479030183
-0.0010318583632410376   -0.03142882889153998   -0.0006116713869435794
0.0012659832859301466   -0.03129512022633201   -0.0005285989361549127
0.0019211413783499546   -0.02693489462336168   -0.00030794115479030183
-0.0007323710097176606   -0.02696283824655628   -0.0004487817728995491
-0.0010318583632410376   -0.03142882889153998   -0.0006116713869435794
-0.000744486680784007   -0.026898605367118283   -0.00046373730115325043
0.0012659832859301466   -0.03129512022633201   -0.0005285989361549127
-0.001025641286538198   -0.03136296486283587   -0.0006390800745016553
-0.000744486680784007   -0.026898605367118283   -0.00046373730115325043
-0.0010318583632410376   -0.03142882889153998   -0.0006116713869435794
0.0012659832859301466   -0.03129512022633201   -0.0005285989361549127
-0.000744486680784007   -0.026898605367118283   -0.00046373730115325043
0.0019479223882155436   -0.026860031248776426   -0.00035197049979359074
0.0019211413783499546   -0.02693489462336168   -0.00030794115479030183
0.0012659832859301466   -0.03129512022633201   -0.0005285989361549127
-0.000744486680784007   -0.026898605367118283   -0.00046373730115325043
0.0019211413783499546   -0.02693489462336168   -0.00030794115479030183
-0.0010318583632410376   -0.03142882889153998   -0.0006116713869435794
0.0012659832859301466   -0.03129512022633201   -0.0005285989361549127
0.0019479223882155436   -0.026860031248776426   -0.00035197049979359074
-0.001025641286538198   -0.03136296486283587   -0.0006390800745016553
0.0013082712695986715   -0.031244685105613963   -0.000589413835024413
0.0019479223882155436   -0.026860031248776426   -0.00035197049979359074
-0.000744486680784007   -0.026898605367118283   -0.00046373730115325043
-0.001025641286538198   -0.03136296486283587   -0.0006390800745016553
-0.0007571753065430855   -0.026848205882160987   -0.00047498264506775007
0.0013082712695986715   -0.031244685105613963   -0.000589413835024413
-0.0010177016341322335   -0.031315671227966205   -0.00066235285960442
-0.0007571753065430855   -0.026848205882160987   -0.00047498264506775007
-0.001025641286538198   -0.03136296486283587   -0.0006390800745016553
0.0013082712695986715   -0.031244685105613963   -0.000589413835024413
-0.0007571753065430855   -0.026848205882160987   -0.00047498264506775007
0.001956606061688555   -0.026805995912395585   -0.0003905217927023554
0.0019479223882155436   -0.026860031248776426   -0.00035197049979359074
0.0013082712695986715   -0.031244685105613963   -0.000589413835024413
-0.0007571753065430855   -0.026848205882160987   -0.00047498264506775007
0.0019479223882155436   -0.026860031248776426   -0.00035197049979359074
-0.001025641286538198   -0.03136296486283587   -0.0006390800745016553
0.0013082712695986715   -0.031244685105613963   -0.000589413835024413
0.001956606061688555   -0.026805995912395585   -0.0003905217927023554
-0.0010177016341322335   -0.031315671227966205   -0.00066235285960442
0.0013519454125013783   -0.03121158097304134   -0.0006445063916960666
0.001956606061688555   -0.026805995912395585   -0.0003905217927023554
-0.0007571753065430855   -0.026848205882160987   -0.00047498264506775007
-0.0010177016341322335   -0.031315671227966205   -0.00066235285960442
-0.0007791157940999992   -0.026810026380249864   -0.00048264225386224674
0.0013519454125013783   -0.03121158097304134   -0.0006445063916960666
-0.0010211349634718244   -0.0312854091681689   -0.0006817907557450514
-0.0007791157940999992   -0.026810026380249864   -0.00048264225386224674
-0.0010177016341322335   -0.031315671227966205   -0.00066235285960442
0.0013519454125013783   -0.03121158097304134   -0.0006445063916960666
-0.0007791157940999992   -0.026810026380249864   -0.00048264225386224674
0.0019620996916913597   -0.026763086214991284   -0.0004238565384793993
0.001956606061688555   -0.026805995912395585   -0.0003905217927023554
0.0013519454125013783   -0.03121158097304134   -0.0006445063916960666
-0.0007791157940999992   -0.026810026380249864   -0.00048264225386224674
0.001956606061688555   -0.026805995912395585   -0.0003905217927023554
-0.0010177016341322335   -0.031315671227966205   -0.00066235285960442
-0.0010318583632410376   -0.03142882889153998   -0.0006116713869435794
-0.0007323710097176606   -0.02696283824655628   -0.0004487817728995491
-0.003181209040111579   -0.0314293119207351   -0.0007347942081898319
-0.001025641286538198   -0.03136296486283587   -0.0006390800745016553
-0.0007323710097176606   -0.02696283824655628   -0.0004487817728995491
-0.0032769495660233605   -0.026949007696967515   -0.000564320003826365
-0.003181209040111579   -0.0314293119207351   -0.0007347942081898319
-0.0032939904805828744   -0.026895494767683915   -0.0005574744422397918
-0.001025641286538198   -0.03136296486283587   -0.0006390800745016553
-0.0031813881435488493   -0.031373706886254876   -0.0007321968401498923
-0.0032939904805828744   -0.026895494767683915   -0.0005574744422397918
-0.003181209040111579   -0.0314293119207351   -0.0007347942081898319
-0.001025641286538198   -0.03136296486283587   -0.0006390800745016553
-0.0032939904805828744   -0.026895494767683915   -0.0005574744422397918
-0.000744486680784007   -0.026898605367118283   -0.00046373730115325043
-0.0007323710097176606   -0.02696283824655628   -0.0004487817728995491
-0.001025641286538198   -0.03136296486283587   -0.0006390800745016553
-0.0032939904805828744   -0.026895494767683915   -0.0005574744422397918
-0.0007323710097176606   -0.02696283824655628   -0.0004487817728995491
-0.003181209040111579   -0.0314293119207351   -0.0007347942081898319
-0.001025641286538198   -0.03136296486283587   -0.0006390800745016553
-0.000744486680784007   -0.026898605367118283   -0.00046373730115325043
-0.0031813881435488493   -0.031373706886254876   -0.0007321968401498923
-0.0010177016341322335   -0.031315671227966205   -0.00066235285960442
-0.000744486680784007   -0.026898605367118283   -0.00046373730115325043
-0.0032939904805828744   -0.026895494767683915   -0.0005574744422397918
-0.0031813881435488493   -0.031373706886254876   -0.0007321968401498923
-0.0033112676462380797   -0.026853835478515005   -0.000546805172434878
-0.0010177016341322335   -0.031315671227966205   -0.00066235285960442
-0.0031814168235830362   -0.03133446623684668   -0.0007254753391558666
-0.0033112676462380797   -0.026853835478515005   -0.000546805172434878
-0.0031813881435488493   -0.031373706886254876   -0.0007321968401498923
-0.0010177016341322335   -0.031315671227966205   -0.00066235285960442
-0.0033112676462380797   -0.026853835478515005   -0.000546805172434878
-0.0007571753065430855   -0.026848205882160987   -0.00047498264506775007
-0.000744486680784007   -0.026898605367118283   -0.00046373730115325043
-0.0010177016341322335   -0.031315671227966205   -0.00066235285960442
-0.0033112676462380797   -0.026853835478515005   -0.000546805172434878
-0.000744486680784007   -0.026898605367118283   -0.00046373730115325043
-0.0031813881435488493   -0.031373706886254876   -0.0007321968401498923
-0.0010177016341322335   -0.031315671227966205   -0.00066235285960442
-0.0007571753065430855   -0.026848205882160987   -0.00047498264506775007
-0.0031814168235830362   -0.03133446623684668   -0.0007254753391558666
-0.0010211349634718244   -0.0312854091681689   -0.0006817907557450514
-0.0007571753065430855   -0.026848205882160987   -0.00047498264506775007
-0.0033112676462380797   -0.026853835478515005   -0.000546805172434878
-0.0031814168235830362   -0.03133446623684668   -0.0007254753391558666
-0.0033312687072866716   -0.02682422896519459   -0.0005325018006328386
-0.0010211349634718244   -0.0312854091681689   -0.0006817907557450514
-0.003184307843062534   -0.031311620719266235   -0.0007148493089983112
-0.0033312687072866716   -0.02682422896519459   -0.0005325018006328386
-0.0031814168235830362   -0.03133446623684668   -0.0007254753391558666
-0.0010211349634718244   -0.0312854091681689   -0.0006817907557450514
-0.0033312687072866716   -0.02682422896519459   -0.0005325018006328386
-0.0007791157940999992   -0.026810026380249864   -0.00048264225386224674
-0.0007571753065430855   -0.026848205882160987   -0.00047498264506775007
-0.0010211349634718244   -0.0312854091681689   -0.0006817907557450514
-0.0033312687072866716   -0.02682422896519459   -0.0005325018006328386
-0.0007571753065430855   -0.026848205882160987   -0.00047498264506775007
-0.0031814168235830362   -0.03133446623684668   -0.0007254753391558666
-0.003181209040111579   -0.0314293119207351   -0.0007347942081898319
-0.0032769495660233605   -0.026949007696967515   -0.000564320003826365
-0.005294430684188994   -0.03137566394126611   -0.0008425303920543985
-0.0031813881435488493   -0.031373706886254876   -0.0007321968401498923
-0.0032769495660233605   -0.026949007696967515   -0.000564320003826365
-0.005778755688681114   -0.02689610581209704   -0.0006629774229651078
-0.005294430684188994   -0.03137566394126611   -0.0008425303920543985
-0.005797192859465351   -0.02685229886390761   -0.0006344467249404954
-0.0031813881435488493   -0.031373706886254876   -0.0007321968401498923
-0.005296213757873888   -0.031329035649917354   -0.0008102939130217223
-0.005797192859465351   -0.02685229886390761   -0.0006344467249404954
-0.005294430684188994   -0.03137566394126611   -0.0008425303920543985
-0.0031813881435488493   -0.031373706886254876   -0.0007321968401498923
-0.005797192859465351   -0.02685229886390761   -0.0006344467249404954
-0.0032939904805828744   -0.026895494767683915   -0.0005574744422397918
-0.0032769495660233605   -0.026949007696967515   -0.000564320003826365
-0.0031813881435488493   -0.031373706886254876   -0.0007321968401498923
-0.005797192859465351   -0.02685229886390761   -0.0006344467249404954
-0.0032769495660233605   -0.026949007696967515   -0.000564320003826365
-0.005294430684188994   -0.03137566394126611   -0.0008425303920543985
-0.0031813881435488493   -0.031373706886254876   -0.0007321968401498923
-0.0032939904805828744   -0.026895494767683915   -0.0005574744422397918
-0.005296213757873888   -0.031329035649917354   -0.0008102939130217223
-0.0031814168235830362   -0.03133446623684668   -0.0007254753391558666
-0.0032939904805828744   -0.026895494767683915   -0.0005574744422397918
-0.005797192859465351   -0.02685229886390761   -0.0006344467249404954
-0.005296213757873888   -0.031329035649917354   -0.0008102939130217223
-0.005812431817623061   -0.02682023310619257   -0.0006021624498107914
-0.0031814168235830362   -0.03133446623684668   -0.0007254753391558666
-0.005294405536947236   -0.031298627512775394   -0.0007740163289348281
-0.005812431817623061   -0.02682023310619257   -0.0006021624498107914
-0.005296213757873888   -0.031329035649917354   -0.0008102939130217223
-0.0031814168235830362   -0.03133446623684668   -0.0007254753391558666
-0.005812431817623061   -0.02682023310619257   -0.0006021624498107914
-0.0033112676462380797   -0.026853835478515005   -0.000546805172434878
-0.0032939904805828744   -0.026895494767683915   -0.0005574744422397918
-0.0031814168235830362   -0.03133446623684668   -0.0007254753391558666
-0.005812431817623061   -0.02682023310619257   -0.0006021624498107914
-0.0032939904805828744   -0.026895494767683915   -0.0005574744422397918
-0.005296213757873888   -0.031329035649917354   -0.0008102939130217223
-0.0031814168235830362   -0.03133446623684668   -0.0007254753391558666
-0.0033112676462380797   -0.026853835478515005   -0.000546805172434878
-0.005294405536947236   -0.031298627512775394   -0.0007740163289348281
-0.003184307843062534   -0.031311620719266235   -0.0007148493089983112
-0.0033112676462380797   -0.026853835478515005   -0.000546805172434878
-0.005812431817623061   -0.02682023310619257   -0.0006021624498107914
-0.005294405536947236   -0.031298627512775394   -0.0007740163289348281
-0.005828125777206708   -0.02679985752161774   -0.0005662334412300315
-0.003184307843062534   -0.031311620719266235   -0.0007148493089983112
-0.005293258219329183   -0.031284160403100655   -0.0007338140162693312
-0.005828125777206708   -0.02679985752161774   -0.0005662334412300315
-0.005294405536947236   -0.031298627512775394   -0.0007740163289348281
-0.003184307843062534   -0.031311620719266235   -0.0007148493089983112
-0.005828125777206708   -0.02679985752161774   -0.0005662334412300315
-0.0033312687072866716   -0.02682422896519459   -0.0005325018006328386
-0.0033112676462380797   -0.026853835478515005   -0.000546805172434878
-0.003184307843062534   -0.031311620719266235   -0.0007148493089983112
-0.005828125777206708   -0.02679985752161774   -0.0005662334412300315
-0.0033112676462380797   -0.026853835478515005   -0.000546805172434878
-0.005294405536947236   -0.031298627512775394   -0.0007740163289348281
-0.005294430684188994   -0.03137566394126611   -0.0008425303920543985
-0.005778755688681114   -0.02689610581209704   -0.0006629774229651078
-0.00747327258997133   -0.03126987045331584   -0.0009351371218079542
-0.005296213757873888   -0.031329035649917354   -0.0008102939130217223
-0.005778755688681114   -0.02689610581209704   -0.0006629774229651078
-0.008340038625933459   -0.02680516688561269   -0.0007451742856223072
-0.00747327258997133   -0.03126987045331584   -0.0009351371218079542
-0.008355199931050062   -0.026770817196860686   -0.0006946581947911223
-0.005296213757873888   -0.031329035649917354   -0.0008102939130217223
-0.007470547514741642   -0.031231806672620103   -0.0008729020615929824
-0.008355199931050062   -0.026770817196860686   -0.0006946581947911223
-0.00747327258997133   -0.03126987045331584   -0.0009351371218079542
-0.005296213757873888   -0.031329035649917354   -0.0008102939130217223
-0.008355199931050062   -0.026770817196860686   -0.0006946581947911223
-0.005797192859465351   -0.02685229886390761   -0.0006344467249404954
-0.005778755688681114   -0.02689610581209704   -0.0006629774229651078
-0.005296213757873888   -0.031329035649917354   -0.0008102939130217223
-0.008355199931050062   -0.026770817196860686   -0.0006946581947911223
-0.005778755688681114   -0.02689610581209704   -0.0006629774229651078
-0.00747327258997133   -0.03126987045331584   -0.0009351371218079542
-0.005296213757873888   -0.031329035649917354   -0.0008102939130217223
-0.005797192859465351   -0.02685229886390761   -0.0006344467249404954
-0.007470547514741642   -0.031231806672620103   -0.0008729020615929824
-0.005294405536947236   -0.031298627512775394   -0.0007740163289348281
-0.005797192859465351   -0.02685229886390761   -0.0006344467249404954
-0.008355199931050062   -0.026770817196860686   -0.0006946581947911223
-0.007470547514741642   -0.031231806672620103   -0.0008729020615929824
-0.00835683004627444   -0.02674752807587258   -0.000640907070057025
-0.005294405536947236   -0.031298627512775394   -0.0007740163289348281
-0.007452067945191045   -0.031209408846520136   -0.0008072370402142931
-0.00835683004627444   -0.02674752807587258   -0.000640907070057025
-0.007470547514741642   -0.031231806672620103   -0.0008729020615929824
-0.005294405536947236   -0.031298627512775394   -0.0007740163289348281
-0.00835683004627444   -0.02674752807587258   -0.000640907070057025
-0.005812431817623061   -0.02682023310619257   -0.0006021624498107914
-0.005797192859465351   -0.02685229886390761   -0.0006344467249404954
-0.005294405536947236   -0.031298627512775394   -0.0007740163289348281
-0.00835683004627444   -0.02674752807587258   -0.000640907070057025
-0.005797192859465351   -0.02685229886390761   -0.0006344467249404954
-0.007470547514741642   -0.031231806672620103   -0.0008729020615929824
-0.005294405536947236   -0.031298627512775394   -0.0007740163289348281
-0.005812431817623061   -0.02682023310619257   -0.0006021624498107914
-0.007452067945191045   -0.031209408846520136   -0.0008072370402142931
-0.005293258219329183   -0.031284160403100655   -0.0007338140162693312
-0.005812431817623061   -0.02682023310619257   -0.0006021624498107914
-0.00835683004627444   -0.02674752807587258   -0.000640907070057025
-0.007452067945191045   -0.031209408846520136   -0.0008072370402142931
-0.008362374935467173   -0.026736989141133934   -0.0005832330884670677
-0.005293258219329183   -0.031284160403100655   -0.0007338140162693312
-0.007439765631771025   -0.031204297654723843   -0.0007373287269696307
-0.008362374935467173   -0.026736989141133934   -0.0005832330884670677
-0.007452067945191045   -0.031209408846520136   -0.0008072370402142931
-0.005293258219329183   -0.031284160403100655   -0.0007338140162693312
-0.008362374935467173   -0.026736989141133934   -0.0005832330884670677
-0.005828125777206708   -0.02679985752161774   -0.0005662334412300315
-0.005812431817623061   -0.02682023310619257   -0.0006021624498107914
-0.005293258219329183   -0.031284160403100655   -0.0007338140162693312
-0.008362374935467173   -0.026736989141133934   -0.0005832330884670677
-0.005812431817623061   -0.02682023310619257   -0.0006021624498107914
-0.007452067945191045   -0.031209408846520136   -0.0008072370402142931
-0.00747327258997133   -0.03126987045331584   -0.0009351371218079542
-0.008340038625933459   -0.02680516688561269   -0.0007451742856223072
-0.009907099373977076   -0.031123673200558546   -0.0010188319468089112
-0.007470547514741642   -0.031231806672620103   -0.0008729020615929824
-0.008340038625933459   -0.02680516688561269   -0.0007451742856223072
-0.011133604045523129   -0.026685504944311426   -0.0008154107872148363
-0.009907099373977076   -0.031123673200558546   -0.0010188319468089112
-0.011079018701038642   -0.02665412350430132   -0.0007415306948678157
-0.007470547514741642   -0.031231806672620103   -0.0008729020615929824
-0.009815033660593317   -0.03108622387573794   -0.0009235124926583435
-0.011079018701038642   -0.02665412350430132   -0.0007415306948678157
-0.009907099373977076   -0.031123673200558546   -0.0010188319468089112
-0.007470547514741642   -0.031231806672620103   -0.0008729020615929824
-0.011079018701038642   -0.02665412350430132   -0.0007415306948678157
-0.008355199931050062   -0.026770817196860686   -0.0006946581947911223
-0.008340038625933459   -0.02680516688561269   -0.0007451742856223072
-0.007470547514741642   -0.031231806672620103   -0.0008729020615929824
-0.011079018701038642   -0.02665412350430132   -0.0007415306948678157
-0.008340038625933459   -0.02680516688561269   -0.0007451742856223072
-0.009907099373977076   -0.031123673200558546   -0.0010188319468089112
-0.007470547514741642   -0.031231806672620103   -0.0008729020615929824
-0.008355199931050062   -0.026770817196860686   -0.0006946581947911223
-0.009815033660593317   -0.03108622387573794   -0.0009235124926583435
-0.007452067945191045   -0.031209408846520136   -0.0008072370402142931
-0.008355199931050062   -0.026770817196860686   -0.0006946581947911223
-0.011079018701038642   -0.02665412350430132   -0.0007415306948678157
-0.009815033660593317   -0.03108622387573794   -0.0009235124926583435
-0.011033066756691981   -0.02663456084096274   -0.0006619947531310801
-0.007452067945191045   -0.031209408846520136   -0.0008072370402142931
-0.009736435604018176   -0.03106675400012631   -0.0008224149628542288
-0.011033066756691981   -0.02663456084096274   -0.0006619947531310801
-0.009815033660593317   -0.03108622387573794   -0.0009235124926583435
-0.007452067945191045   -0.031209408846520136   -0.0008072370402142931
-0.011033066756691981   -0.02663456084096274   -0.0006619947531310801
-0.00835683004627444   -0.02674752807587258   -0.000640907070057025
-0.008355199931050062   -0.026770817196860686   -0.0006946581947911223
-0.007452067945191045   -0.031209408846520136   -0.0008072370402142931
-0.011033066756691981   -0.02663456084096274   -0.0006619947531310801
-0.008355199931050062   -0.026770817196860686   -0.0006946581947911223
-0.009815033660593317   -0.03108622387573794   -0.0009235124926583435
-0.007452067945191045   -0.031209408846520136   -0.0008072370402142931
-0.00835683004627444   -0.02674752807587258   -0.000640907070057025
-0.009736435604018176   -0.03106675400012631   -0.0008224149628542288
-0.007439765631771025   -0.031204297654723843   -0.0007373287269696307
-0.00835683004627444   -0.02674752807587258   -0.000640907070057025
-0.011033066756691981   -0.02663456084096274   -0.0006619947531310801
-0.009736435604018176   -0.03106675400012631   -0.0008224149628542288
-0.01095764886016688   -0.026636603601323063   -0.0005775103571245573
-0.007439765631771025   -0.031204297654723843   -0.0007373287269696307
-0.009623196130881742   -0.031074651607605735   -0.0007163374974601067
-0.01095764886016688   -0.026636603601323063   -0.0005775103571245573
-0.009736435604018176   -0.03106675400012631   -0.0008224149628542288
-0.007439765631771025   -0.031204297654723843   -0.0007373287269696307
-0.01095764886016688   -0.026636603601323063   -0.0005775103571245573
-0.008362374935467173   -0.026736989141133934   -0.0005832330884670677
-0.00835683004627444   -0.02674752807587258   -0.000640907070057025
-0.007439765631771025   -0.031204297654723843   -0.0007373287269696307
-0.01095764886016688   -0.026636603601323063   -0.0005775103571245573
-0.00835683004627444   -0.02674752807587258   -0.000640907070057025
-0.009736435604018176   -0.03106675400012631   -0.0008224149628542288
0.0019211413783499546   -0.02693489462336168   -0.00030794115479030183
0.0023266460898566025   -0.02194456298702043   -0.00015752736625997916
-0.0007323710097176606   -0.02696283824655628   -0.0004487817728995491
0.0019479223882155436   -0.026860031248776426   -0.00035197049979359074
0.0023266460898566025   -0.02194456298702043   -0.00015752736625997916
-0.000624367172597164   -0.021944595721582624   -0.00028798361753733535
-0.0007323710097176606   -0.02696283824655628   -0.0004487817728995491
-0.0006502766809140057   -0.02188252884861024   -0.000290263295771721
0.0019479223882155436   -0.026860031248776426   -0.00035197049979359074
-0.000744486680784007   -0.026898605367118283   -0.00046373730115325043
-0.0006502766809140057   -0.02188252884861024   -0.000290263295771721
-0.0007323710097176606   -0.02696283824655628   -0.0004487817728995491
0.0019479223882155436   -0.026860031248776426   -0.00035197049979359074
-0.0006502766809140057   -0.02188252884861024   -0.000290263295771721
0.002319273235889945   -0.021872941036506163   -0.0001790626132125169
0.0023266460898566025   -0.02194456298702043   -0.00015752736625997916
0.0019479223882155436   -0.026860031248776426   -0.00035197049979359074
-0.0006502766809140057   -0.02188252884861024   -0.000290263295771721
0.0023266460898566025   -0.02194456298702043   -0.00015752736625997916
-0.0007323710097176606   -0.02696283824655628   -0.0004487817728995491
0.0019479223882155436   -0.026860031248776426   -0.00035197049979359074
0.002319273235889945   -0.021872941036506163   -0.0001790626132125169
-0.000744486680784007   -0.026898605367118283   -0.00046373730115325043
0.001956606061688555   -0.026805995912395585   -0.0003905217927023554
0.002319273235889945   -0.021872941036506163   -0.0001790626132125169
-0.0006502766809140057   -0.02188252884861024   -0.000290263295771721
-0.000744486680784007   -0.026898605367118283   -0.00046373730115325043
-0.0006790758489875246   -0.021829452695405132   -0.00028923532140244713
0.001956606061688555   -0.026805995912395585   -0.0003905217927023554
-0.0007571753065430855   -0.026848205882160987   -0.00047498264506775007
-0.0006790758489875246   -0.021829452695405132   -0.00028923532140244713
-0.000744486680784007   -0.026898605367118283   -0.00046373730115325043
0.001956606061688555   -0.026805995912395585   -0.0003905217927023554
-0.0006790758489875246   -0.021829452695405132   -0.00028923532140244713
0.002298999014325066   -0.021815778619991517   -0.0001952961499086146
0.002319273235889945   -0.021872941036506163   -0.0001790626132125169
0.001956606061688555   -0.026805995912395585   -0.0003905217927023554
-0.0006790758489875246   -0.021829452695405132   -0.00028923532140244713
0.002319273235889945   -0.021872941036506163   -0.0001790626132125169
-0.000744486680784007   -0.026898605367118283   -0.00046373730115325043
0.001956606061688555   -0.026805995912395585   -0.0003905217927023554
0.002298999014325066   -0.021815778619991517   -0.0001952961499086146
-0.0007571753065430855   -0.026848205882160987   -0.00047498264506775007
0.0019620996916913597   -0.026763086214991284   -0.0004238565384793993
0.002298999014325066   -0.021815778619991517   -0.0001952961499086146
-0.0006790758489875246   -0.021829452695405132   -0.00028923532140244713
-0.0007571753065430855   -0.026848205882160987   -0.00047498264506775007
-0.0007149929439685698   -0.021783964325727694   -0.0002847692935403337
0.0019620996916913597   -0.026763086214991284   -0.0004238565384793993
-0.0007791157940999992   -0.026810026380249864   -0.00048264225386224674
-0.0007149929439685698   -0.021783964325727694   -0.0002847692935403337
-0.0007571753065430855   -0.026848205882160987   -0.00047498264506775007
0.0019620996916913597   -0.026763086214991284   -0.0004238565384793993
-0.0007149929439685698   -0.021783964325727694   -0.0002847692935403337
0.002270525288997955   -0.021763547056363065   -0.0002065984031753919
0.002298999014325066   -0.021815778619991517   -0.0001952961499086146
0.0019620996916913597   -0.026763086214991284   -0.0004238565384793993
-0.0007149929439685698   -0.021783964325727694   -0.0002847692935403337
0.002298999014325066   -0.021815778619991517   -0.0001952961499086146
-0.0007571753065430855   -0.026848205882160987   -0.00047498264506775007
-0.0007323710097176606   -0.02696283824655628   -0.0004487817728995491
-0.000624367172597164   -0.021944595721582624   -0.00028798361753733535
-0.0032769495660233605   -0.026949007696967515   -0.000564320003826365
-0.000744486680784007   -0.026898605367118283   -0.00046373730115325043
-0.000624367172597164   -0.021944595721582624   -0.00028798361753733535
-0.0034396498923943935   -0.02191805850094699   -0.000395151513322233
-0.0032769495660233605   -0.026949007696967515   -0.000564320003826365
-0.0034688273781514948   -0.021866744333478468   -0.00038367846671196485
-0.000744486680784007   -0.026898605367118283   -0.00046373730115325043
-0.0032939904805828744   -0.026895494767683915   -0.0005574744422397918
-0.0034688273781514948   -0.021866744333478468   -0.00038367846671196485
-0.0032769495660233605   -0.026949007696967515   -0.000564320003826365
-0.000744486680784007   -0.026898605367118283   -0.00046373730115325043
-0.0034688273781514948   -0.021866744333478468   -0.00038367846671196485
-0.0006502766809140057   -0.02188252884861024   -0.000290263295771721
-0.000624367172597164   -0.021944595721582624   -0.00028798361753733535
-0.000744486680784007   -0.026898605367118283   -0.00046373730115325043
-0.0034688273781514948   -0.021866744333478468   -0.00038367846671196485
-0.000624367172597164   -0.021944595721582624   -0.00028798361753733535
-0.0032769495660233605   -0.026949007696967515   -0.000564320003826365
-0.000744486680784007   -0.026898605367118283   -0.00046373730115325043
-0.0006502766809140057   -0.02188252884861024   -0.000290263295771721
-0.0032939904805828744   -0.026895494767683915   -0.0005574744422397918
-0.0007571753065430855   -0.026848205882160987   -0.00047498264506775007
-0.0006502766809140057   -0.02188252884861024   -0.000290263295771721
-0.0034688273781514948   -0.021866744333478468   -0.00038367846671196485
-0.0032939904805828744   -0.026895494767683915   -0.0005574744422397918
-0.003498603504457711   -0.021822747999932102   -0.00036875552867501
-0.0007571753065430855   -0.026848205882160987   -0.00047498264506775007
-0.0033112676462380797   -0.026853835478515005   -0.000546805172434878
-0.003498603504457711   -0.021822747999932102   -0.00036875552867501
-0.0032939904805828744   -0.026895494767683915   -0.0005574744422397918
-0.0007571753065430855   -0.026848205882160987   -0.00047498264506775007
-0.003498603504457711   -0.021822747999932102   -0.00036875552867501
-0.0006790758489875246   -0.021829452695405132   -0.00028923532140244713
-0.0006502766809140057   -0.02188252884861024   -0.000290263295771721
-0.0007571753065430855   -0.026848205882160987   -0.00047498264506775007
-0.003498603504457711   -0.021822747999932102   -0.00036875552867501
-0.0006502766809140057   -0.02188252884861024   -0.000290263295771721
-0.0032939904805828744   -0.026895494767683915   -0.0005574744422397918
-0.0007571753065430855   -0.026848205882160987   -0.00047498264506775007
-0.0006790758489875246   -0.021829452695405132   -0.00028923532140244713
-0.0033112676462380797   -0.026853835478515005   -0.000546805172434878
-0.0007791157940999992   -0.026810026380249864   -0.00048264225386224674
-0.0006790758489875246   -0.021829452695405132   -0.00028923532140244713
-0.003498603504457711   -0.021822747999932102   -0.00036875552867501
-0.0033112676462380797   -0.026853835478515005   -0.000546805172434878
-0.0035309261738688097   -0.02178649802630181   -0.0003505495604258243
-0.0007791157940999992   -0.026810026380249864   -0.00048264225386224674
-0.0033312687072866716   -0.02682422896519459   -0.0005325018006328386
-0.0035309261738688097   -0.02178649802630181   -0.0003505495604258243
-0.0033112676462380797   -0.026853835478515005   -0.000546805172434878
-0.0007791157940999992   -0.026810026380249864   -0.00048264225386224674
-0.0035309261738688097   -0.02178649802630181   -0.0003505495604258243
-0.0007149929439685698   -0.021783964325727694   -0.0002847692935403337
-0.0006790758489875246   -0.021829452695405132   -0.00028923532140244713
-0.0007791157940999992   -0.026810026380249864   -0.00048264225386224674
-0.0035309261738688097   -0.02178649802630181   -0.0003505495604258243
-0.0006790758489875246   -0.021829452695405132   -0.00028923532140244713
-0.0033112676462380797   -0.026853835478515005   -0.000546805172434878
-0.0032769495660233605   -0.026949007696967515   -0.000564320003826365
-0.0034396498923943935   -0.02191805850094699   -0.000395151513322233
-0.005778755688681114   -0.02689610581209704   -0.0006629774229651078
-0.0032939904805828744   -0.026895494767683915   -0.0005574744422397918
-0.0034396498923943935   -0.02191805850094699   -0.000395151513322233
-0.006207357342054987   -0.021868084062452744   -0.00048528403573512655
-0.005778755688681114   -0.02689610581209704   -0.0006629774229651078
-0.00623745637014083   -0.02182664934732556   -0.00046009833685642365
-0.0032939904805828744   -0.026895494767683915   -0.0005574744422397918
-0.005797192859465351   -0.02685229886390761   -0.0006344467249404954
-0.00623745637014083   -0.02182664934732556   -0.00046009833685642365
-0.005778755688681114   -0.02689610581209704   -0.0006629774229651078
-0.0032939904805828744   -0.026895494767683915   -0.0005574744422397918
-0.00623745637014083   -0.02182664934732556   -0.00046009833685642365
-0.0034688273781514948   -0.021866744333478468   -0.00038367846671196485
-0.0034396498923943935   -0.02191805850094699   -0.000395151513322233
-0.0032939904805828744   -0.026895494767683915   -0.0005574744422397918
-0.00623745637014083   -0.02182664934732556   -0.00046009833685642365
-0.0034396498923943935   -0.02191805850094699   -0.000395151513322233
-0.005778755688681114   -0.02689610581209704   -0.0006629774229651078
-0.0032939904805828744   -0.026895494767683915   -0.0005574744422397918
-0.0034688273781514948   -0.021866744333478468   -0.00038367846671196485
-0.005797192859465351   -0.02685229886390761   -0.0006344467249404954
-0.0033112676462380797   -0.026853835478515005   -0.000546805172434878
-0.0034688273781514948   -0.021866744333478468   -0.00038367846671196485
-0.00623745637014083   -0.02182664934732556   -0.00046009833685642365
-0.005797192859465351   -0.02685229886390761   -0.0006344467249404954
-0.006264732999971373   -0.0217924808847391   -0.0004315447805216173
-0.0033112676462380797   -0.026853835478515005   -0.000546805172434878
-0.005812431817623061   -0.02682023310619257   -0.0006021624498107914
-0.006264732999971373   -0.0217924808847391   -0.0004315447805216173
-0.005797192859465351   -0.02685229886390761   -0.0006344467249404954
-0.0033112676462380797   -0.026853835478515005   -0.000546805172434878
-0.006264732999971373   -0.0217924808847391   -0.0004315447805216173
-0.003498603504457711   -0.021822747999932102   -0.00036875552867501
-0.0034688273781514948   -0.021866744333478468   -0.00038367846671196485
-0.0033112676462380797   -0.026853835478515005   -0.000546805172434878
-0.006264732999971373   -0.0217924808847391   -0.0004315447805216173
-0.0034688273781514948   -0.021866744333478468   -0.00038367846671196485
-0.005797192859465351   -0.02685229886390761   -0.0006344467249404954
-0.0033112676462380797   -0.026853835478515005   -0.000546805172434878
-0.003498603504457711   -0.021822747999932102   -0.00036875552867501
-0.005812431817623061   -0.02682023310619257   -0.0006021624498107914
-0.0033312687072866716   -0.02682422896519459   -0.0005325018006328386
-0.003498603504457711   -0.021822747999932102   -0.00036875552867501
-0.006264732999971373   -0.0217924808847391   -0.0004315447805216173
-0.005812431817623061   -0.02682023310619257   -0.0006021624498107914
-0.0062922721619326   -0.02176563257909317   -0.00039974984066286454
-0.0033312687072866716   -0.02682422896519459   -0.0005325018006328386
-0.005828125777206708   -0.02679985752161774   -0.0005662334412300315
-0.0062922721619326   -0.02176563257909317   -0.00039974984066286454
-0.005812431817623061   -0.02682023310619257   -0.0006021624498107914
-0.0033312687072866716   -0.02682422896519459   -0.0005325018006328386
-0.0062922721619326   -0.02176563257909317   -0.00039974984066286454
-0.0035309261738688097   -0.02178649802630181   -0.0003505495604258243
-0.003498603504457711   -0.021822747999932102   -0.00036875552867501
-0.0033312687072866716   -0.02682422896519459   -0.0005325018006328386
-0.0062922721619326   -0.02176563257909317   -0.00039974984066286454
-0.003498603504457711   -0.021822747999932102   -0.00036875552867501
-0.005812431817623061   -0.02682023310619257   -0.0006021624498107914
-0.005778755688681114   -0.02689610581209704   -0.0006629774229651078
-0.006207357342054987   -0.021868084062452744   -0.00048528403573512655
-0.008340038625933459   -0.02680516688561269   -0.0007451742856223072
-0.005797192859465351   -0.02685229886390761   -0.0006344467249404954
-0.006207357342054987   -0.021868084062452744   -0.00048528403573512655
-0.009030007781524234   -0.02179361865840043   -0.0005586161929558902
-0.008340038625933459   -0.02680516688561269   -0.0007451742856223072
-0.009057898865166192   -0.021762131883925354   -0.0005196102438130996
-0.005797192859465351   -0.02685229886390761   -0.0006344467249404954
-0.008355199931050062   -0.026770817196860686   -0.0006946581947911223
-0.009057898865166192   -0.021762131883925354   -0.0005196102438130996
-0.008340038625933459   -0.02680516688561269   -0.0007451742856223072
-0.005797192859465351   -0.02685229886390761   -0.0006344467249404954
-0.009057898865166192   -0.021762131883925354   -0.0005196102438130996
-0.00623745637014083   -0.02182664934732556   -0.00046009833685642365
-0.006207357342054987   -0.021868084062452744   -0.00048528403573512655
-0.005797192859465351   -0.02685229886390761   -0.0006344467249404954
-0.009057898865166192   -0.021762131883925354   -0.0005196102438130996
-0.006207357342054987   -0.021868084062452744   -0.00048528403573512655
-0.008340038625933459   -0.02680516688561269   -0.0007451742856223072
-0.005797192859465351   -0.02685229886390761   -0.0006344467249404954
-0.00623745637014083   -0.02182664934732556   -0.00046009833685642365
-0.008355199931050062   -0.026770817196860686   -0.0006946581947911223
-0.005812431817623061   -0.02682023310619257   -0.0006021624498107914
-0.00623745637014083   -0.02182664934732556   -0.00046009833685642365
-0.009057898865166192   -0.021762131883925354   -0.0005196102438130996
-0.008355199931050062   -0.026770817196860686   -0.0006946581947911223
-0.009074582357136155   -0.021737029381910918   -0.00047768655100025894
-0.005812431817623061   -0.02682023310619257   -0.0006021624498107914
-0.00835683004627444   -0.02674752807587258   -0.000640907070057025
-0.009074582357136155   -0.021737029381910918   -0.00047768655100025894
-0.008355199931050062   -0.026770817196860686   -0.0006946581947911223
-0.005812431817623061   -0.02682023310619257   -0.0006021624498107914
-0.009074582357136155   -0.021737029381910918   -0.00047768655100025894
-0.006264732999971373   -0.0217924808847391   -0.0004315447805216173
-0.00623745637014083   -0.02182664934732556   -0.00046009833685642365
-0.005812431817623061   -0.02682023310619257   -0.0006021624498107914
-0.009074582357136155   -0.021737029381910918   -0.00047768655100025894
-0.00623745637014083   -0.02182664934732556   -0.00046009833685642365
-0.008355199931050062   -0.026770817196860686   -0.0006946581947911223
-0.005812431817623061   -0.02682023310619257   -0.0006021624498107914
-0.006264732999971373   -0.0217924808847391   -0.0004315447805216173
-0.00835683004627444   -0.02674752807587258   -0.000640907070057025
-0.005828125777206708   -0.02679985752161774   -0.0005662334412300315
-0.006264732999971373   -0.0217924808847391   -0.0004315447805216173
-0.009074582357136155   -0.021737029381910918   -0.00047768655100025894
-0.00835683004627444   -0.02674752807587258   -0.000640907070057025
-0.00909301681404043   -0.021719892364917347   -0.00043224392002389514
-0.005828125777206708   -0.02679985752161774   -0.0005662334412300315
-0.008362374935467173   -0.026736989141133934   -0.0005832330884670677
-0.00909301681404043   -0.021719892364917347   -0.00043224392002389514
-0.00835683004627444   -0.02674752807587258   -0.000640907070057025
-0.005828125777206708   -0.02679985752161774   -0.0005662334412300315
-0.00909301681404043   -0.021719892364917347   -0.00043224392002389514
-0.0062922721619326   -0.02176563257909317   -0.00039974984066286454
-0.006264732999971373   -0.0217924808847391   -0.0004315447805216173
-0.005828125777206708   -0.02679985752161774   -0.0005662334412300315
-0.00909301681404043   -0.021719892364917347   -0.00043224392002389514
-0.006264732999971373   -0.0217924808847391   -0.0004315447805216173
-0.00835683004627444   -0.02674752807587258   -0.000640907070057025
-0.008340038625933459   -0.02680516688561269   -0.0007451742856223072
-0.009030007781524234   -0.02179361865840043   -0.0005586161929558902
-0.011133604045523129   -0.026685504944311426   -0.0008154107872148363
-0.008355199931050062   -0.026770817196860686   -0.0006946581947911223
-0.009030007781524234   -0.02179361865840043   -0.0005586161929558902
-0.012060437383620828   -0.021701648826400716   -0.0006167287038612322
-0.011133604045523129   -0.026685504944311426   -0.0008154107872148363
-0.012038535824217341   -0.02167522603138762   -0.0005645429344625209
-0.008355199931050062   -0.026770817196860686   -0.0006946581947911223
-0.011079018701038642   -0.02665412350430132   -0.0007415306948678157
-0.012038535824217341   -0.02167522603138762   -0.0005645429344625209
-0.011133604045523129   -0.026685504944311426   -0.0008154107872148363
-0.008355199931050062   -0.026770817196860686   -0.0006946581947911223
-0.012038535824217341   -0.02167522603138762   -0.0005645429344625209
-0.009057898865166192   -0.021762131883925354   -0.0005196102438130996
-0.009030007781524234   -0.02179361865840043   -0.0005586161929558902
-0.008355199931050062   -0.026770817196860686   -0.0006946581947911223
-0.012038535824217341   -0.02167522603138762   -0.0005645429344625209
-0.009030007781524234   -0.02179361865840043   -0.0005586161929558902
-0.011133604045523129   -0.026685504944311426   -0.0008154107872148363
-0.008355199931050062   -0.026770817196860686   -0.0006946581947911223
-0.009057898865166192   -0.021762131883925354   -0.0005196102438130996
-0.011079018701038642   -0.02665412350430132   -0.0007415306948678157
-0.00835683004627444   -0.02674752807587258   -0.000640907070057025
-0.009057898865166192   -0.021762131883925354   -0.0005196102438130996
-0.012038535824217341   -0.02167522603138762   -0.0005645429344625209
-0.011079018701038642   -0.02665412350430132   -0.0007415306948678157
-0.012020673063101547   -0.02165439865979822   -0.000507002516050846
-0.00835683004627444   -0.02674752807587258   -0.000640907070057025
-0.011033066756691981   -0.02663456084096274   -0.0006619947531310801
-0.012020673063101547   -0.02165439865979822   -0.000507002516050846
-0.011079018701038642   -0.02665412350430132   -0.0007415306948678157
-0.00835683004627444   -0.02674752807587258   -0.000640907070057025
-0.012020673063101547   -0.02165439865979822   -0.000507002516050846
-0.009074582357136155   -0.021737029381910918   -0.00047768655100025894
-0.009057898865166192   -0.021762131883925354   -0.0005196102438130996
-0.00835683004627444   -0.02674752807587258   -0.000640907070057025
-0.012020673063101547   -0.02165439865979822   -0.000507002516050846
-0.009057898865166192   -0.021762131883925354   -0.0005196102438130996
-0.011079018701038642   -0.02665412350430132   -0.0007415306948678157
-0.00835683004627444   -0.02674752807587258   -0.000640907070057025
-0.009074582357136155   -0.021737029381910918   -0.00047768655100025894
-0.011033066756691981   -0.02663456084096274   -0.0006619947531310801
-0.008362374935467173   -0.026736989141133934   -0.0005832330884670677
-0.009074582357136155   -0.021737029381910918   -0.00047768655100025894
-0.012020673063101547   -0.02165439865979822   -0.000507002516050846
-0.011033066756691981   -0.02663456084096274   -0.0006619947531310801
-0.01197881667868212   -0.02164896130078622   -0.0004447168364593965
-0.008362374935467173   -0.026736989141133934   -0.0005832330884670677
-0.01095764886016688   -0.026636603601323063   -0.0005775103571245573
-0.01197881667868212   -0.02164896130078622   -0.0004447168364593965
-0.011033066756691981   -0.02663456084096274   -0.0006619947531310801
-0.008362374935467173   -0.026736989141133934   -0.0005832330884670677
-0.01197881667868212   -0.02164896130078622   -0.0004447168364593965
-0.00909301681404043   -0.021719892364917347   -0.00043224392002389514
-0.009074582357136155   -0.021737029381910918   -0.00047768655100025894
-0.008362374935467173   -0.026736989141133934   -0.0005832330884670677
-0.01197881667868212   -0.02164896130078622   -0.0004447168364593965
-0.009074582357136155   -0.021737029381910918   -0.00047768655100025894
-0.011033066756691981   -0.02663456084096274   -0.0006619947531310801
0.0023266460898566025   -0.02194456298702043   -0.00015752736625997916
0.0024152134113345535   -0.016599871582488067   -2.5933070989131593e-05
-0.000624367172597164   -0.021944595721582624   -0.00028798361753733535
0.002319273235889945   -0.021872941036506163   -0.0001790626132125169
0.0024152134113345535   -0.016599871582488067   -2.5933070989131593e-05
-0.0007082235260934913   -0.016572997755789368   -0.0001429237819464352
-0.000624367172597164   -0.021944595721582624   -0.00028798361753733535
-0.0007440139374029222   -0.016513698589785148   -0.00013246308849001665
0.002319273235889945   -0.021872941036506163   -0.0001790626132125169
-0.0006502766809140057   -0.02188252884861024   -0.000290263295771721
-0.0007440139374029222   -0.016513698589785148   -0.00013246308849001665
-0.000624367172597164   -0.021944595721582624   -0.00028798361753733535
0.002319273235889945   -0.021872941036506163   -0.0001790626132125169
-0.0007440139374029222   -0.016513698589785148   -0.00013246308849001665
0.0023778607172616046   -0.016531654166694432   -2.448253559182402e-05
0.0024152134113345535   -0.016599871582488067   -2.5933070989131593e-05
0.002319273235889945   -0.021872941036506163   -0.0001790626132125169
-0.0007440139374029222   -0.016513698589785148   -0.00013246308849001665
0.0024152134113345535   -0.016599871582488067   -2.5933070989131593e-05
-0.000624367172597164   -0.021944595721582624   -0.00028798361753733535
0.002319273235889945   -0.021872941036506163   -0.0001790626132125169
0.0023778607172616046   -0.016531654166694432   -2.448253559182402e-05
-0.0006502766809140057   -0.02188252884861024   -0.000290263295771721
0.002298999014325066   -0.021815778619991517   -0.0001952961499086146
0.0023778607172616046   -0.016531654166694432   -2.448253559182402e-05
-0.0007440139374029222   -0.016513698589785148   -0.00013246308849001665
-0.0006502766809140057   -0.02188252884861024   -0.000290263295771721
-0.0007850379153499959   -0.01645797859523251   -0.00011898754347953302
0.002298999014325066   -0.021815778619991517   -0.0001952961499086146
-0.0006790758489875246   -0.021829452695405132   -0.00028923532140244713
-0.0007850379153499959   -0.01645797859523251   -0.00011898754347953302
-0.0006502766809140057   -0.02188252884861024   -0.000290263295771721
0.002298999014325066   -0.021815778619991517   -0.0001952961499086146
-0.0007850379153499959   -0.01645797859523251   -0.00011898754347953302
0.002331522675037683   -0.016471072430616886   -1.6882413393961192e-05
0.0023778607172616046   -0.016531654166694432   -2.448253559182402e-05
0.002298999014325066   -0.021815778619991517   -0.0001952961499086146
-0.0007850379153499959   -0.01645797859523251   -0.00011898754347953302
0.0023778607172616046   -0.016531654166694432   -2.448253559182402e-05
-0.0006502766809140057   -0.02188252884861024   -0.000290263295771721
0.002298999014325066   -0.021815778619991517   -0.0001952961499086146
0.002331522675037683   -0.016471072430616886   -1.6882413393961192e-05
-0.0006790758489875246   -0.021829452695405132   -0.00028923532140244713
0.002270525288997955   -0.021763547056363065   -0.0002065984031753919
0.002331522675037683   -0.016471072430616886   -1.6882413393961192e-05
-0.0007850379153499959   -0.01645797859523251   -0.00011898754347953302
-0.0006790758489875246   -0.021829452695405132   -0.00028923532140244713
-0.0008312037156048783   -0.01640506248446291   -0.00010174347021322657
0.002270525288997955   -0.021763547056363065   -0.0002065984031753919
-0.0007149929439685698   -0.021783964325727694   -0.0002847692935403337
-0.0008312037156048783   -0.01640506248446291   -0.00010174347021322657
-0.0006790758489875246   -0.021829452695405132   -0.00028923532140244713
0.002270525288997955   -0.021763547056363065   -0.0002065984031753919
-0.0008312037156048783   -0.01640506248446291   -0.00010174347021322657
0.002270311551378736   -0.016407890687815035   -3.4076983842622508e-06
0.002331522675037683   -0.016471072430616886   -1.6882413393961192e-05
0.002270525288997955   -0.021763547056363065   -0.0002065984031753919
-0.0008312037156048783   -0.01640506248446291   -0.00010174347021322657
0.002331522675037683   -0.016471072430616886   -1.6882413393961192e-05
-0.0006790758489875246   -0.021829452695405132   -0.00028923532140244713
-0.000624367172597164   -0.021944595721582624   -0.00028798361753733535
-0.0007082235260934913   -0.016572997755789368   -0.0001429237819464352
-0.0034396498923943935   -0.02191805850094699   -0.000395151513322233
-0.0006502766809140057   -0.02188252884861024   -0.000290263295771721
-0.0007082235260934913   -0.016572997755789368   -0.0001429237819464352
-0.00366767061049279   -0.016541061488590973   -0.00024141307236230173
-0.0034396498923943935   -0.02191805850094699   -0.000395151513322233
-0.0037043391460789147   -0.016491696128327394   -0.00022498692400570438
-0.0006502766809140057   -0.02188252884861024   -0.000290263295771721
-0.0034688273781514948   -0.021866744333478468   -0.00038367846671196485
-0.0037043391460789147   -0.016491696128327394   -0.00022498692400570438
-0.0034396498923943935   -0.02191805850094699   -0.000395151513322233
-0.0006502766809140057   -0.02188252884861024   -0.000290263295771721
-0.0037043391460789147   -0.016491696128327394   -0.00022498692400570438
-0.0007440139374029222   -0.016513698589785148   -0.00013246308849001665
-0.0007082235260934913   -0.016572997755789368   -0.0001429237819464352
-0.0006502766809140057   -0.02188252884861024   -0.000290263295771721
-0.0037043391460789147   -0.016491696128327394   -0.00022498692400570438
-0.0007082235260934913   -0.016572997755789368   -0.0001429237819464352
-0.0034396498923943935   -0.02191805850094699   -0.000395151513322233
-0.0006502766809140057   -0.02188252884861024   -0.000290263295771721
-0.0007440139374029222   -0.016513698589785148   -0.00013246308849001665
-0.0034688273781514948   -0.021866744333478468   -0.00038367846671196485
-0.0006790758489875246   -0.021829452695405132   -0.00028923532140244713
-0.0007440139374029222   -0.016513698589785148   -0.00013246308849001665
-0.0037043391460789147   -0.016491696128327394   -0.00022498692400570438
-0.0034688273781514948   -0.021866744333478468   -0.00038367846671196485
-0.0037418475051058477   -0.016445103455105713   -0.00020567934371788088
-0.0006790758489875246   -0.021829452695405132   -0.00028923532140244713
-0.003498603504457711   -0.021822747999932102   -0.00036875552867501
-0.0037418475051058477   -0.016445103455105713   -0.00020567934371788088
-0.0034688273781514948   -0.021866744333478468   -0.00038367846671196485
-0.0006790758489875246   -0.021829452695405132   -0.00028923532140244713
-0.0037418475051058477   -0.016445103455105713   -0.00020567934371788088
-0.0007850379153499959   -0.01645797859523251   -0.00011898754347953302
-0.0007440139374029222   -0.016513698589785148   -0.00013246308849001665
-0.0006790758489875246   -0.021829452695405132   -0.00028923532140244713
-0.0037418475051058477   -0.016445103455105713   -0.00020567934371788088
-0.0007440139374029222   -0.016513698589785148   -0.00013246308849001665
-0.0034688273781514948   -0.021866744333478468   -0.00038367846671196485
-0.0006790758489875246   -0.021829452695405132   -0.00028923532140244713
-0.0007850379153499959   -0.01645797859523251   -0.00011898754347953302
-0.003498603504457711   -0.021822747999932102   -0.00036875552867501
-0.0007149929439685698   -0.021783964325727694   -0.0002847692935403337
-0.0007850379153499959   -0.01645797859523251   -0.00011898754347953302
-0.0037418475051058477   -0.016445103455105713   -0.00020567934371788088
-0.003498603504457711   -0.021822747999932102   -0.00036875552867501
-0.0037817699475646747   -0.016402030591052295   -0.00018346565459244156
-0.0007149929439685698   -0.021783964325727694   -0.0002847692935403337
-0.0035309261738688097   -0.02178649802630181   -0.0003505495604258243
-0.0037817699475646747   -0.016402030591052295   -0.00018346565459244156
-0.003498603504457711   -0.021822747999932102   -0.00036875552867501
-0.0007149929439685698   -0.021783964325727694   -0.0002847692935403337
-0.0037817699475646747   -0.016402030591052295   -0.00018346565459244156
-0.0008312037156048783   -0.01640506248446291   -0.00010174347021322657
-0.0007850379153499959   -0.01645797859523251   -0.00011898754347953302
-0.0007149929439685698   -0.021783964325727694   -0.0002847692935403337
-0.0037817699475646747   -0.016402030591052295   -0.00018346565459244156
-0.0007850379153499959   -0.01645797859523251   -0.00011898754347953302
-0.003498603504457711   -0.021822747999932102   -0.00036875552867501
-0.0034396498923943935   -0.02191805850094699   -0.000395151513322233
-0.00366767061049279   -0.016541061488590973   -0.00024141307236230173
-0.006207357342054987   -0.021868084062452744   -0.00048528403573512655
-0.0034688273781514948   -0.021866744333478468   -0.00038367846671196485
-0.00366767061049279   -0.016541061488590973   -0.00024141307236230173
-0.006578652651856168   -0.016502482617313272   -0.00032474602161949645
-0.006207357342054987   -0.021868084062452744   -0.00048528403573512655
-0.0066151176626445055   -0.016462289201216212   -0.00030238295990244244
-0.0034688273781514948   -0.021866744333478468   -0.00038367846671196485
-0.00623745637014083   -0.02182664934732556   -0.00046009833685642365
-0.0066151176626445055   -0.016462289201216212   -0.00030238295990244244
-0.006207357342054987   -0.021868084062452744   -0.00048528403573512655
-0.0034688273781514948   -0.021866744333478468   -0.00038367846671196485
-0.0066151176626445055   -0.016462289201216212   -0.00030238295990244244
-0.0037043391460789147   -0.016491696128327394   -0.00022498692400570438
-0.00366767061049279   -0.016541061488590973   -0.00024141307236230173
-0.0034688273781514948   -0.021866744333478468   -0.00038367846671196485
-0.0066151176626445055   -0.016462289201216212   -0.00030238295990244244
-0.00366767061049279   -0.016541061488590973   -0.00024141307236230173
-0.006207357342054987   -0.021868084062452744   -0.00048528403573512655
-0.0034688273781514948   -0.021866744333478468   -0.00038367846671196485
-0.0037043391460789147   -0.016491696128327394   -0.00022498692400570438
-0.00623745637014083   -0.02182664934732556   -0.00046009833685642365
-0.003498603504457711   -0.021822747999932102   -0.00036875552867501
-0.0037043391460789147   -0.016491696128327394   -0.00022498692400570438
-0.0066151176626445055   -0.016462289201216212   -0.00030238295990244244
-0.00623745637014083   -0.02182664934732556   -0.00046009833685642365
-0.006649205809573768   -0.01642501489532013   -0.0002772365917310734
-0.003498603504457711   -0.021822747999932102   -0.00036875552867501
-0.006264732999971373   -0.0217924808847391   -0.0004315447805216173
-0.006649205809573768   -0.01642501489532013   -0.0002772365917310734
-0.00623745637014083   -0.02182664934732556   -0.00046009833685642365
-0.003498603504457711   -0.021822747999932102   -0.00036875552867501
-0.006649205809573768   -0.01642501489532013   -0.0002772365917310734
-0.0037418475051058477   -0.016445103455105713   -0.00020567934371788088
-0.0037043391460789147   -0.016491696128327394   -0.00022498692400570438
-0.003498603504457711   -0.021822747999932102   -0.00036875552867501
-0.006649205809573768   -0.01642501489532013   -0.0002772365917310734
-0.0037043391460789147   -0.016491696128327394   -0.00022498692400570438
-0.00623745637014083   -0.02182664934732556   -0.00046009833685642365
-0.003498603504457711   -0.021822747999932102   -0.00036875552867501
-0.0037418475051058477   -0.016445103455105713   -0.00020567934371788088
-0.006264732999971373   -0.0217924808847391   -0.0004315447805216173
-0.0035309261738688097   -0.02178649802630181   -0.0003505495604258243
-0.0037418475051058477   -0.016445103455105713   -0.00020567934371788088
-0.006649205809573768   -0.01642501489532013   -0.0002772365917310734
-0.006264732999971373   -0.0217924808847391   -0.0004315447805216173
-0.006683416468033066   -0.016390759034083623   -0.0002494428528140528
-0.0035309261738688097   -0.02178649802630181   -0.0003505495604258243
-0.0062922721619326   -0.02176563257909317   -0.00039974984066286454
-0.006683416468033066   -0.016390759034083623   -0.0002494428528140528
-0.006264732999971373   -0.0217924808847391   -0.0004315447805216173
-0.0035309261738688097   -0.02178649802630181   -0.0003505495604258243
-0.006683416468033066   -0.016390759034083623   -0.0002494428528140528
-0.0037817699475646747   -0.016402030591052295   -0.00018346565459244156
-0.0037418475051058477   -0.016445103455105713   -0.00020567934371788088
-0.0035309261738688097   -0.02178649802630181   -0.0003505495604258243
-0.006683416468033066   -0.016390759034083623   -0.0002494428528140528
-0.0037418475051058477   -0.016445103455105713   -0.00020567934371788088
-0.006264732999971373   -0.0217924808847391   -0.0004315447805216173
-0.006207357342054987   -0.021868084062452744   -0.00048528403573512655
-0.006578652651856168   -0.016502482617313272   -0.00032474602161949645
-0.009030007781524234   -0.02179361865840043   -0.0005586161929558902
-0.00623745637014083   -0.02182664934732556   -0.00046009833685642365
-0.006578652651856168   -0.016502482617313272   -0.00032474602161949645
-0.009542406100231006   -0.016450145544831422   -0.0003922056956182171
-0.009030007781524234   -0.02179361865840043   -0.0005586161929558902
-0.009577300849048061   -0.01641959768810766   -0.00036397763764744735
-0.00623745637014083   -0.02182664934732556   -0.00046009833685642365
-0.009057898865166192   -0.021762131883925354   -0.0005196102438130996
-0.009577300849048061   -0.01641959768810766   -0.00036397763764744735
-0.009030007781524234   -0.02179361865840043   -0.0005586161929558902
-0.00623745637014083   -0.02182664934732556   -0.00046009833685642365
-0.009577300849048061   -0.01641959768810766   -0.00036397763764744735
-0.0066151176626445055   -0.016462289201216212   -0.00030238295990244244
-0.006578652651856168   -0.016502482617313272   -0.00032474602161949645
-0.00623745637014083   -0.02182664934732556   -0.00046009833685642365
-0.009577300849048061   -0.01641959768810766   -0.00036397763764744735
-0.006578652651856168   -0.016502482617313272   -0.00032474602161949645
-0.009030007781524234   -0.02179361865840043   -0.0005586161929558902
-0.00623745637014083   -0.02182664934732556   -0.00046009833685642365
-0.0066151176626445055   -0.016462289201216212   -0.00030238295990244244
-0.009057898865166192   -0.021762131883925354   -0.0005196102438130996
-0.006264732999971373   -0.0217924808847391   -0.0004315447805216173
-0.0066151176626445055   -0.016462289201216212   -0.00030238295990244244
-0.009577300849048061   -0.01641959768810766   -0.00036397763764744735
-0.009057898865166192   -0.021762131883925354   -0.0005196102438130996
-0.009603609650635045   -0.016390921127671466   -0.0003334165498881725
-0.006264732999971373   -0.0217924808847391   -0.0004315447805216173
-0.009074582357136155   -0.021737029381910918   -0.00047768655100025894
-0.009603609650635045   -0.016390921127671466   -0.0003334165498881725
-0.009057898865166192   -0.021762131883925354   -0.0005196102438130996
-0.006264732999971373   -0.0217924808847391   -0.0004315447805216173
-0.009603609650635045   -0.016390921127671466   -0.0003334165498881725
-0.006649205809573768   -0.01642501489532013   -0.0002772365917310734
-0.0066151176626445055   -0.016462289201216212   -0.00030238295990244244
-0.006264732999971373   -0.0217924808847391   -0.0004315447805216173
-0.009603609650635045   -0.016390921127671466   -0.0003334165498881725
-0.0066151176626445055   -0.016462289201216212   -0.00030238295990244244
-0.009057898865166192   -0.021762131883925354   -0.0005196102438130996
-0.006264732999971373   -0.0217924808847391   -0.0004315447805216173
-0.006649205809573768   -0.01642501489532013   -0.0002772365917310734
-0.009074582357136155   -0.021737029381910918   -0.00047768655100025894
-0.0062922721619326   -0.02176563257909317   -0.00039974984066286454
-0.006649205809573768   -0.01642501489532013   -0.0002772365917310734
-0.009603609650635045   -0.016390921127671466   -0.0003334165498881725
-0.009074582357136155   -0.021737029381910918   -0.00047768655100025894
-0.009629748022554667   -0.016365441706930554   -0.00029992169219675345
-0.0062922721619326   -0.02176563257909317   -0.00039974984066286454
-0.00909301681404043   -0.021719892364917347   -0.00043224392002389514
-0.009629748022554667   -0.016365441706930554   -0.00029992169219675345
-0.009074582357136155   -0.021737029381910918   -0.00047768655100025894
-0.0062922721619326   -0.02176563257909317   -0.00039974984066286454
-0.009629748022554667   -0.016365441706930554   -0.00029992169219675345
-0.006683416468033066   -0.016390759034083623   -0.0002494428528140528
-0.006649205809573768   -0.01642501489532013   -0.0002772365917310734
-0.0062922721619326   -0.02176563257909317   -0.00039974984066286454
-0.009629748022554667   -0.016365441706930554   -0.00029992169219675345
-0.006649205809573768   -0.01642501489532013   -0.0002772365917310734
-0.009074582357136155   -0.021737029381910918   -0.00047768655100025894
-0.009030007781524234   -0.02179361865840043   -0.0005586161929558902
-0.009542406100231006   -0.016450145544831422   -0.0003922056956182171
-0.012060437383620828   -0.021701648826400716   -0.0006167287038612322
-0.009057898865166192   -0.021762131883925354   -0.0005196102438130996
-0.009542406100231006   -0.016450145544831422   -0.0003922056956182171
-0.012684991312119297   -0.01638799461431277   -0.00044183034304911336
-0.012060437383620828   -0.021701648826400716   -0.0006167287038612322
-0.012689487982592274   -0.016363860423521854   -0.0004103791151849791
-0.009057898865166192   -0.021762131883925354   -0.0005196102438130996
-0.012038535824217341   -0.02167522603138762   -0.0005645429344625209
-0.012689487982592274   -0.016363860423521854   -0.0004103791151849791
-0.012060437383620828   -0.021701648826400716   -0.0006167287038612322
-0.009057898865166192   -0.021762131883925354   -0.0005196102438130996
-0.012689487982592274   -0.016363860423521854   -0.0004103791151849791
-0.009577300849048061   -0.01641959768810766   -0.00036397763764744735
-0.009542406100231006   -0.016450145544831422   -0.0003922056956182171
-0.009057898865166192   -0.021762131883925354   -0.0005196102438130996
-0.012689487982592274   -0.016363860423521854   -0.0004103791151849791
-0.009542406100231006   -0.016450145544831422   -0.0003922056956182171
-0.012060437383620828   -0.021701648826400716   -0.0006167287038612322
-0.009057898865166192   -0.021762131883925354   -0.0005196102438130996
-0.009577300849048061   -0.01641959768810766   -0.00036397763764744735
-0.012038535824217341   -0.02167522603138762   -0.0005645429344625209
-0.009074582357136155   -0.021737029381910918   -0.00047768655100025894
-0.009577300849048061   -0.01641959768810766   -0.00036397763764744735
-0.012689487982592274   -0.016363860423521854   -0.0004103791151849791
-0.012038535824217341   -0.02167522603138762   -0.0005645429344625209
-0.012694248865206975   -0.01633960353538443   -0.0003742406867827702
-0.009074582357136155   -0.021737029381910918   -0.00047768655100025894
-0.012020673063101547   -0.02165439865979822   -0.000507002516050846
-0.012694248865206975   -0.01633960353538443   -0.0003742406867827702
-0.012038535824217341   -0.02167522603138762   -0.0005645429344625209
-0.009074582357136155   -0.021737029381910918   -0.00047768655100025894
-0.012694248865206975   -0.01633960353538443   -0.0003742406867827702
-0.009603609650635045   -0.016390921127671466   -0.0003334165498881725
-0.009577300849048061   -0.01641959768810766   -0.00036397763764744735
-0.009074582357136155   -0.021737029381910918   -0.00047768655100025894
-0.012694248865206975   -0.01633960353538443   -0.0003742406867827702
-0.009577300849048061   -0.01641959768810766   -0.00036397763764744735
-0.012038535824217341   -0.02167522603138762   -0.0005645429344625209
-0.009074582357136155   -0.021737029381910918   -0.00047768655100025894
-0.009603609650635045   -0.016390921127671466   -0.0003334165498881725
-0.012020673063101547   -0.02165439865979822   -0.000507002516050846
-0.00909301681404043   -0.021719892364917347   -0.00043224392002389514
-0.009603609650635045   -0.016390921127671466   -0.0003334165498881725
-0.012694248865206975   -0.01633960353538443   -0.0003742406867827702
-0.012020673063101547   -0.02165439865979822   -0.000507002516050846
-0.012681110797127538   -0.016324346638236585   -0.00033396531428360205
-0.00909301681404043   -0.021719892364917347   -0.00043224392002389514
-0.01197881667868212   -0.02164896130078622   -0.0004447168364593965
-0.012681110797127538   -0.016324346638236585   -0.00033396531428360205
-0.012020673063101547   -0.02165439865979822   -0.000507002516050846
-0.00909301681404043   -0.021719892364917347   -0.00043224392002389514
-0.012681110797127538   -0.016324346638236585   -0.00033396531428360205
-0.009629748022554667   -0.016365441706930554   -0.00029992169219675345
-0.009603609650635045   -0.016390921127671466   -0.0003334165498881725
-0.00909301681404043   -0.021719892364917347   -0.00043224392002389514
-0.012681110797127538   -0.016324346638236585   -0.00033396531428360205
-0.009603609650635045   -0.016390921127671466   -0.0003334165498881725
-0.012020673063101547   -0.02165439865979822   -0.000507002516050846
0.0024152134113345535   -0.016599871582488067   -2.5933070989131593e-05
0.0021718020005481132   -0.011087511699465553   6.498757343878382e-05
-0.0007082235260934913   -0.016572997755789368   -0.0001429237819464352
0.0023778607172616046   -0.016531654166694432   -2.448253559182402e-05
0.0021718020005481132   -0.011087511699465553   6.498757343878382e-05
-0.0009797700065578413   -0.011036168224217479   -2.7340977920690294e-05
-0.0007082235260934913   -0.016572997755789368   -0.0001429237819464352
-0.0010228133582214764   -0.010982650149988135   -5.075050642254946e-06
0.0023778607172616046   -0.016531654166694432   -2.448253559182402e-05
-0.0007440139374029222   -0.016513698589785148   -0.00013246308849001665
-0.0010228133582214764   -0.010982650149988135   -5.075050642254946e-06
-0.0007082235260934913   -0.016572997755789368   -0.0001429237819464352
0.0023778607172616046   -0.016531654166694432   -2.448253559182402e-05
-0.0010228133582214764   -0.010982650149988135   -5.075050642254946e-06
0.00210445571228172   -0.011022646524475769   9.23171812600887e-05
0.0021718020005481132   -0.011087511699465553   6.498757343878382e-05
0.0023778607172616046   -0.016531654166694432   -2.448253559182402e-05
-0.0010228133582214764   -0.010982650149988135   -5.075050642254946e-06
0.0021718020005481132   -0.011087511699465553   6.498757343878382e-05
-0.0007082235260934913   -0.016572997755789368   -0.0001429237819464352
0.0023778607172616046   -0.016531654166694432   -2.448253559182402e-05
0.00210445571228172   -0.011022646524475769   9.23171812600887e-05
-0.0007440139374029222   -0.016513698589785148   -0.00013246308849001665
0.002331522675037683   -0.016471072430616886   -1.6882413393961192e-05
0.00210445571228172   -0.011022646524475769   9.23171812600887e-05
-0.0010228133582214764   -0.010982650149988135   -5.075050642254946e-06
-0.0007440139374029222   -0.016513698589785148   -0.00013246308849001665
-0.0010732405848324024   -0.010926263414800902   2.121104984497699e-05
0.002331522675037683   -0.016471072430616886   -1.6882413393961192e-05
-0.0007850379153499959   -0.01645797859523251   -0.00011898754347953302
-0.0010732405848324024   -0.010926263414800902   2.121104984497699e-05
-0.0007440139374029222   -0.016513698589785148   -0.00013246308849001665
0.002331522675037683   -0.016471072430616886   -1.6882413393961192e-05
-0.0010732405848324024   -0.010926263414800902   2.121104984497699e-05
0.002028883939759163   -0.010958461630043511   0.00013191897098363195
0.00210445571228172   -0.011022646524475769   9.23171812600887e-05
0.002331522675037683   -0.016471072430616886   -1.6882413393961192e-05
-0.0010732405848324024   -0.010926263414800902   2.121104984497699e-05
0.00210445571228172   -0.011022646524475769   9.23171812600887e-05
-0.0007440139374029222   -0.016513698589785148   -0.00013246308849001665
0.002331522675037683   -0.016471072430616886   -1.6882413393961192e-05
0.002028883939759163   -0.010958461630043511   0.00013191897098363195
-0.0007850379153499959   -0.01645797859523251   -0.00011898754347953302
0.002270311551378736   -0.016407890687815035   -3.4076983842622508e-06
0.002028883939759163   -0.010958461630043511   0.00013191897098363195
-0.0010732405848324024   -0.010926263414800902   2.121104984497699e-05
-0.0007850379153499959   -0.01645797859523251   -0.00011898754347953302
-0.0011254889117926466   -0.01086648032943633   5.1475487723012995e-05
0.002270311551378736   -0.016407890687815035   -3.4076983842622508e-06
-0.0008312037156048783   -0.01640506248446291   -0.00010174347021322657
-0.0011254889117926466   -0.01086648032943633   5.1475487723012995e-05
-0.0007850379153499959   -0.01645797859523251   -0.00011898754347953302
0.002270311551378736   -0.016407890687815035   -3.4076983842622508e-06
-0.0011254889117926466   -0.01086648032943633   5.1475487723012995e-05
0.0019365076311048314   -0.010879523745372316   0.00017555585969578335
0.002028883939759163   -0.010958461630043511   0.00013191897098363195
0.002270311551378736   -0.016407890687815035   -3.4076983842622508e-06
-0.0011254889117926466   -0.01086648032943633   5.1475487723012995e-05
0.002028883939759163   -0.010958461630043511   0.00013191897098363195
-0.0007850379153499959   -0.01645797859523251   -0.00011898754347953302
-0.0007082235260934913   -0.016572997755789368   -0.0001429237819464352
-0.0009797700065578413   -0.011036168224217479   -2.7340977920690294e-05
-0.00366767061049279   -0.016541061488590973   -0.00024141307236230173
-0.0007440139374029222   -0.016513698589785148   -0.00013246308849001665
-0.0009797700065578413   -0.011036168224217479   -2.7340977920690294e-05
-0.003946196072869784   -0.011022848703900873   -0.00011605111313676637
-0.00366767061049279   -0.016541061488590973   -0.00024141307236230173
-0.0039852512911733445   -0.010976355321198165   -9.514794196027548e-05
-0.0007440139374029222   -0.016513698589785148   -0.00013246308849001665
-0.0037043391460789147   -0.016491696128327394   -0.00022498692400570438
-0.0039852512911733445   -0.010976355321198165   -9.514794196027548e-05
-0.00366767061049279   -0.016541061488590973   -0.00024141307236230173
-0.0007440139374029222   -0.016513698589785148   -0.00013246308849001665
-0.0039852512911733445   -0.010976355321198165   -9.514794196027548e-05
-0.0010228133582214764   -0.010982650149988135   -5.075050642254946e-06
-0.0009797700065578413   -0.011036168224217479   -2.7340977920690294e-05
-0.0007440139374029222   -0.016513698589785148   -0.00013246308849001665
-0.0039852512911733445   -0.010976355321198165   -9.514794196027548e-05
-0.0009797700065578413   -0.011036168224217479   -2.7340977920690294e-05
-0.00366767061049279   -0.016541061488590973   -0.00024141307236230173
-0.0007440139374029222   -0.016513698589785148   -0.00013246308849001665
-0.0010228133582214764   -0.010982650149988135   -5.075050642254946e-06
-0.0037043391460789147   -0.016491696128327394   -0.00022498692400570438
-0.0007850379153499959   -0.01645797859523251   -0.00011898754347953302
-0.0010228133582214764   -0.010982650149988135   -5.075050642254946e-06
-0.0039852512911733445   -0.010976355321198165   -9.514794196027548e-05
-0.0037043391460789147   -0.016491696128327394   -0.00022498692400570438
-0.00402568864272909   -0.010928031153709815   -7.213540004981699e-05
-0.0007850379153499959   -0.01645797859523251   -0.00011898754347953302
-0.0037418475051058477   -0.016445103455105713   -0.00020567934371788088
-0.00402568864272909   -0.010928031153709815   -7.213540004981699e-05
-0.0037043391460789147   -0.016491696128327394   -0.00022498692400570438
-0.0007850379153499959   -0.01645797859523251   -0.00011898754347953302
-0.00402568864272909   -0.010928031153709815   -7.213540004981699e-05
-0.0010732405848324024   -0.010926263414800902   2.121104984497699e-05
-0.0010228133582214764   -0.010982650149988135   -5.075050642254946e-06
-0.0007850379153499959   -0.01645797859523251   -0.00011898754347953302
-0.00402568864272909   -0.010928031153709815   -7.213540004981699e-05
-0.0010228133582214764   -0.010982650149988135   -5.075050642254946e-06
-0.0037043391460789147   -0.016491696128327394   -0.00022498692400570438
-0.0007850379153499959   -0.01645797859523251   -0.00011898754347953302
-0.0010732405848324024   -0.010926263414800902   2.121104984497699e-05
-0.0037418475051058477   -0.016445103455105713   -0.00020567934371788088
-0.0008312037156048783   -0.01640506248446291   -0.00010174347021322657
-0.0010732405848324024   -0.010926263414800902   2.121104984497699e-05
-0.00402568864272909   -0.010928031153709815   -7.213540004981699e-05
-0.0037418475051058477   -0.016445103455105713   -0.00020567934371788088
-0.004067823972177948   -0.010878791853340964   -4.660006622037418e-05
-0.0008312037156048783   -0.01640506248446291   -0.00010174347021322657
-0.0037817699475646747   -0.016402030591052295   -0.00018346565459244156
-0.004067823972177948   -0.010878791853340964   -4.660006622037418e-05
-0.0037418475051058477   -0.016445103455105713   -0.00020567934371788088
-0.0008312037156048783   -0.01640506248446291   -0.00010174347021322657
-0.004067823972177948   -0.010878791853340964   -4.660006622037418e-05
-0.0011254889117926466   -0.01086648032943633   5.1475487723012995e-05
-0.0010732405848324024   -0.010926263414800902   2.121104984497699e-05
-0.0008312037156048783   -0.01640506248446291   -0.00010174347021322657
-0.004067823972177948   -0.010878791853340964   -4.660006622037418e-05
-0.0010732405848324024   -0.010926263414800902   2.121104984497699e-05
-0.0037418475051058477   -0.016445103455105713   -0.00020567934371788088
-0.00366767061049279   -0.016541061488590973   -0.00024141307236230173
-0.003946196072869784   -0.011022848703900873   -0.00011605111313676637
-0.006578652651856168   -0.016502482617313272   -0.00032474602161949645
-0.0037043391460789147   -0.016491696128327394   -0.00022498692400570438
-0.003946196072869784   -0.011022848703900873   -0.00011605111313676637
-0.006881244483219377   -0.011019100462284251   -0.00019605873695859683
-0.006578652651856168   -0.016502482617313272   -0.00032474602161949645
-0.006918653465840398   -0.010978489448955802   -0.00017595809452645587
-0.0037043391460789147   -0.016491696128327394   -0.00022498692400570438
-0.0066151176626445055   -0.016462289201216212   -0.00030238295990244244
-0.006918653465840398   -0.010978489448955802   -0.00017595809452645587
-0.006578652651856168   -0.016502482617313272   -0.00032474602161949645
-0.0037043391460789147   -0.016491696128327394   -0.00022498692400570438
-0.006918653465840398   -0.010978489448955802   -0.00017595809452645587
-0.0039852512911733445   -0.010976355321198165   -9.514794196027548e-05
-0.003946196072869784   -0.011022848703900873   -0.00011605111313676637
-0.0037043391460789147   -0.016491696128327394   -0.00022498692400570438
-0.006918653465840398   -0.010978489448955802   -0.00017595809452645587
-0.003946196072869784   -0.011022848703900873   -0.00011605111313676637
-0.006578652651856168   -0.016502482617313272   -0.00032474602161949645
-0.0037043391460789147   -0.016491696128327394   -0.00022498692400570438
-0.0039852512911733445   -0.010976355321198165   -9.514794196027548e-05
-0.0066151176626445055   -0.016462289201216212   -0.00030238295990244244
-0.0037418475051058477   -0.016445103455105713   -0.00020567934371788088
-0.0039852512911733445   -0.010976355321198165   -9.514794196027548e-05
-0.006918653465840398   -0.010978489448955802   -0.00017595809452645587
-0.0066151176626445055   -0.016462289201216212   -0.00030238295990244244
-0.006954293741602377   -0.01093720535088277   -0.00015400698644010727
-0.0037418475051058477   -0.016445103455105713   -0.00020567934371788088
-0.006649205809573768   -0.01642501489532013   -0.0002772365917310734
-0.006954293741602377   -0.01093720535088277   -0.00015400698644010727
-0.0066151176626445055   -0.016462289201216212   -0.00030238295990244244
-0.0037418475051058477   -0.016445103455105713   -0.00020567934371788088
-0.006954293741602377   -0.01093720535088277   -0.00015400698644010727
-0.00402568864272909   -0.010928031153709815   -7.213540004981699e-05
-0.0039852512911733445   -0.010976355321198165   -9.514794196027548e-05
-0.0037418475051058477   -0.016445103455105713   -0.00020567934371788088
-0.006954293741602377   -0.01093720535088277   -0.00015400698644010727
-0.0039852512911733445   -0.010976355321198165   -9.514794196027548e-05
-0.0066151176626445055   -0.016462289201216212   -0.00030238295990244244
-0.0037418475051058477   -0.016445103455105713   -0.00020567934371788088
-0.00402568864272909   -0.010928031153709815   -7.213540004981699e-05
-0.006649205809573768   -0.01642501489532013   -0.0002772365917310734
-0.0037817699475646747   -0.016402030591052295   -0.00018346565459244156
-0.00402568864272909   -0.010928031153709815   -7.213540004981699e-05
-0.006954293741602377   -0.01093720535088277   -0.00015400698644010727
-0.006649205809573768   -0.01642501489532013   -0.0002772365917310734
-0.006989579485897757   -0.010895003113097238   -0.00013030472538424353
-0.0037817699475646747   -0.016402030591052295   -0.00018346565459244156
-0.006683416468033066   -0.016390759034083623   -0.0002494428528140528
-0.006989579485897757   -0.010895003113097238   -0.00013030472538424353
-0.006649205809573768   -0.01642501489532013   -0.0002772365917310734
-0.0037817699475646747   -0.016402030591052295   -0.00018346565459244156
-0.006989579485897757   -0.010895003113097238   -0.00013030472538424353
-0.004067823972177948   -0.010878791853340964   -4.660006622037418e-05
-0.00402568864272909   -0.010928031153709815   -7.213540004981699e-05
-0.0037817699475646747   -0.016402030591052295   -0.00018346565459244156
-0.006989579485897757   -0.010895003113097238   -0.00013030472538424353
-0.00402568864272909   -0.010928031153709815   -7.213540004981699e-05
-0.006649205809573768   -0.01642501489532013   -0.0002772365917310734
-0.006578652651856168   -0.016502482617313272   -0.00032474602161949645
-0.006881244483219377   -0.011019100462284251   -0.00019605873695859683
-0.009542406100231006   -0.016450145544831422   -0.0003922056956182171
-0.0066151176626445055   -0.016462289201216212   -0.00030238295990244244
-0.006881244483219377   -0.011019100462284251   -0.00019605873695859683
-0.009878611309397746   -0.011001825861194086   -0.0002629101321823234
-0.009542406100231006   -0.016450145544831422   -0.0003922056956182171
-0.009914271512058884   -0.010968982285239005   -0.0002437336519251005
-0.0066151176626445055   -0.016462289201216212   -0.00030238295990244244
-0.009577300849048061   -0.01641959768810766   -0.00036397763764744735
-0.009914271512058884   -0.010968982285239005   -0.0002437336519251005
-0.009542406100231006   -0.016450145544831422   -0.0003922056956182171
-0.0066151176626445055   -0.016462289201216212   -0.00030238295990244244
-0.009914271512058884   -0.010968982285239005   -0.0002437336519251005
-0.006918653465840398   -0.010978489448955802   -0.00017595809452645587
-0.006881244483219377   -0.011019100462284251   -0.00019605873695859683
-0.0066151176626445055   -0.016462289201216212   -0.00030238295990244244
-0.009914271512058884   -0.010968982285239005   -0.0002437336519251005
-0.006881244483219377   -0.011019100462284251   -0.00019605873695859683
-0.009542406100231006   -0.016450145544831422   -0.0003922056956182171
-0.0066151176626445055   -0.016462289201216212   -0.00030238295990244244
-0.006918653465840398   -0.010978489448955802   -0.00017595809452645587
-0.009577300849048061   -0.01641959768810766   -0.00036397763764744735
-0.006649205809573768   -0.01642501489532013   -0.0002772365917310734
-0.006918653465840398   -0.010978489448955802   -0.00017595809452645587
-0.009914271512058884   -0.010968982285239005   -0.0002437336519251005
-0.009577300849048061   -0.01641959768810766   -0.00036397763764744735
-0.009944407257963398   -0.010934359044802932   -0.0002232256893344365
-0.006649205809573768   -0.01642501489532013   -0.0002772365917310734
-0.009603609650635045   -0.016390921127671466   -0.0003334165498881725
-0.009944407257963398   -0.010934359044802932   -0.0002232256893344365
-0.009577300849048061   -0.01641959768810766   -0.00036397763764744735
-0.006649205809573768   -0.01642501489532013   -0.0002772365917310734
-0.009944407257963398   -0.010934359044802932   -0.0002232256893344365
-0.006954293741602377   -0.01093720535088277   -0.00015400698644010727
-0.006918653465840398   -0.010978489448955802   -0.00017595809452645587
-0.006649205809573768   -0.01642501489532013   -0.0002772365917310734
-0.009944407257963398   -0.010934359044802932   -0.0002232256893344365
-0.006918653465840398   -0.010978489448955802   -0.00017595809452645587
-0.009577300849048061   -0.01641959768810766   -0.00036397763764744735
-0.006649205809573768   -0.01642501489532013   -0.0002772365917310734
-0.006954293741602377   -0.01093720535088277   -0.00015400698644010727
-0.009603609650635045   -0.016390921127671466   -0.0003334165498881725
-0.006683416468033066   -0.016390759034083623   -0.0002494428528140528
-0.006954293741602377   -0.01093720535088277   -0.00015400698644010727
-0.009944407257963398   -0.010934359044802932   -0.0002232256893344365
-0.009603609650635045   -0.016390921127671466   -0.0003334165498881725
-0.009972885430605748   -0.010898877766584682   -0.0002008229132825526
-0.006683416468033066   -0.016390759034083623   -0.0002494428528140528
-0.009629748022554667   -0.016365441706930554   -0.00029992169219675345
-0.009972885430605748   -0.010898877766584682   -0.0002008229132825526
-0.009603609650635045   -0.016390921127671466   -0.0003334165498881725
-0.006683416468033066   -0.016390759034083623   -0.0002494428528140528
-0.009972885430605748   -0.010898877766584682   -0.0002008229132825526
-0.006989579485897757   -0.010895003113097238   -0.00013030472538424353
-0.006954293741602377   -0.01093720535088277   -0.00015400698644010727
-0.006683416468033066   -0.016390759034083623   -0.0002494428528140528
-0.009972885430605748   -0.010898877766584682   -0.0002008229132825526
-0.006954293741602377   -0.01093720535088277   -0.00015400698644010727
-0.009603609650635045   -0.016390921127671466   -0.0003334165498881725
-0.009542406100231006   -0.016450145544831422   -0.0003922056956182171
-0.009878611309397746   -0.011001825861194086   -0.0002629101321823234
-0.012684991312119297   -0.01638799461431277   -0.00044183034304911336
-0.009577300849048061   -0.01641959768810766   -0.00036397763764744735
-0.009878611309397746   -0.011001825861194086   -0.0002629101321823234
-0.013020056468165501   -0.01097313903747228   -0.0003117987169693156
-0.012684991312119297   -0.01638799461431277   -0.00044183034304911336
-0.013041797841187284   -0.010945819708006475   -0.00029716189003304374
-0.009577300849048061   -0.01641959768810766   -0.00036397763764744735
-0.012689487982592274   -0.016363860423521854   -0.0004103791151849791
-0.013041797841187284   -0.010945819708006475   -0.00029716189003304374
-0.012684991312119297   -0.01638799461431277   -0.00044183034304911336
-0.009577300849048061   -0.01641959768810766   -0.00036397763764744735
-0.013041797841187284   -0.010945819708006475   -0.00029716189003304374
-0.009914271512058884   -0.010968982285239005   -0.0002437336519251005
-0.009878611309397746   -0.011001825861194086   -0.0002629101321823234
-0.009577300849048061   -0.01641959768810766   -0.00036397763764744735
-0.013041797841187284   -0.010945819708006475   -0.00029716189003304374
-0.009878611309397746   -0.011001825861194086   -0.0002629101321823234
-0.012684991312119297   -0.01638799461431277   -0.00044183034304911336
-0.009577300849048061   -0.01641959768810766   -0.00036397763764744735
-0.009914271512058884   -0.010968982285239005   -0.0002437336519251005
-0.012689487982592274   -0.016363860423521854   -0.0004103791151849791
-0.009603609650635045   -0.016390921127671466   -0.0003334165498881725
-0.009914271512058884   -0.010968982285239005   -0.0002437336519251005
-0.013041797841187284   -0.010945819708006475   -0.00029716189003304374
-0.012689487982592274   -0.016363860423521854   -0.0004103791151849791
-0.013061678103621547   -0.010914801782463327   -0.0002792942231768762
-0.009603609650635045   -0.016390921127671466   -0.0003334165498881725
-0.012694248865206975   -0.01633960353538443   -0.0003742406867827702
-0.013061678103621547   -0.010914801782463327   -0.0002792942231768762
-0.012689487982592274   -0.016363860423521854   -0.0004103791151849791
-0.009603609650635045   -0.016390921127671466   -0.0003334165498881725
-0.013061678103621547   -0.010914801782463327   -0.0002792942231768762
-0.009944407257963398   -0.010934359044802932   -0.0002232256893344365
-0.009914271512058884   -0.010968982285239005   -0.0002437336519251005
-0.009603609650635045   -0.016390921127671466   -0.0003334165498881725
-0.013061678103621547   -0.010914801782463327   -0.0002792942231768762
-0.009914271512058884   -0.010968982285239005   -0.0002437336519251005
-0.012689487982592274   -0.016363860423521854   -0.0004103791151849791
-0.009603609650635045   -0.016390921127671466   -0.0003334165498881725
-0.009944407257963398   -0.010934359044802932   -0.0002232256893344365
-0.012694248865206975   -0.01633960353538443   -0.0003742406867827702
-0.009629748022554667   -0.016365441706930554   -0.00029992169219675345
-0.009944407257963398   -0.010934359044802932   -0.0002232256893344365
-0.013061678103621547   -0.010914801782463327   -0.0002792942231768762
-0.012694248865206975   -0.01633960353538443   -0.0003742406867827702
-0.013070839785862598   -0.010886651296480289   -0.00025898357491154514
-0.009629748022554667   -0.016365441706930554   -0.00029992169219675345
-0.012681110797127538   -0.016324346638236585   -0.00033396531428360205
-0.013070839785862598   -0.010886651296480289   -0.00025898357491154514
-0.012694248865206975   -0.01633960353538443   -0.0003742406867827702
-0.009629748022554667   -0.016365441706930554   -0.00029992169219675345
-0.013070839785862598   -0.010886651296480289   -0.00025898357491154514
-0.009972885430605748   -0.010898877766584682   -0.0002008229132825526
-0.009944407257963398   -0.010934359044802932   -0.0002232256893344365
-0.009629748022554667   -0.016365441706930554   -0.00029992169219675345
-0.013070839785862598   -0.010886651296480289   -0.00025898357491154514
-0.009944407257963398   -0.010934359044802932   -0.0002232256893344365
-0.012694248865206975   -0.01633960353538443   -0.0003742406867827702
0.0021718020005481132   -0.011087511699465553   6.498757343878382e-05
0.0015260488416522398   -0.005576458409584319   7.034078336589276e-05
-0.0009797700065578413   -0.011036168224217479   -2.7340977920690294e-05
0.00210445571228172   -0.011022646524475769   9.23171812600887e-05
0.0015260488416522398   -0.005576458409584319   7.034078336589276e-05
-0.0014181399184523993   -0.00550554152489607   3.805731804550693e-05
-0.0009797700065578413   -0.011036168224217479   -2.7340977920690294e-05
-0.0014611406840118564   -0.005479218730074381   6.92761778471064e-05
0.00210445571228172   -0.011022646524475769   9.23171812600887e-05
-0.0010228133582214764   -0.010982650149988135   -5.075050642254946e-06
-0.0014611406840118564   -0.005479218730074381   6.92761778471064e-05
-0.0009797700065578413   -0.011036168224217479   -2.7340977920690294e-05
0.00210445571228172   -0.011022646524475769   9.23171812600887e-05
-0.0014611406840118564   -0.005479218730074381   6.92761778471064e-05
0.0013918132207444394   -0.0055072358650142105   0.00014734822389257725
0.0015260488416522398   -0.005576458409584319   7.034078336589276e-05
0.00210445571228172   -0.011022646524475769   9.23171812600887e-05
-0.0014611406840118564   -0.005479218730074381   6.92761778471064e-05
0.0015260488416522398   -0.005576458409584319   7.034078336589276e-05
-0.0009797700065578413   -0.011036168224217479   -2.7340977920690294e-05
0.00210445571228172   -0.011022646524475769   9.23171812600887e-05
0.0013918132207444394   -0.0055072358650142105   0.00014734822389257725
-0.0010228133582214764   -0.010982650149988135   -5.075050642254946e-06
0.002028883939759163   -0.010958461630043511   0.00013191897098363195
0.0013918132207444394   -0.0055072358650142105   0.00014734822389257725
-0.0014611406840118564   -0.005479218730074381   6.92761778471064e-05
-0.0010228133582214764   -0.010982650149988135   -5.075050642254946e-06
-0.0015179709810426091   -0.00543126886108702   0.00010727591855953324
0.002028883939759163   -0.010958461630043511   0.00013191897098363195
-0.0010732405848324024   -0.010926263414800902   2.121104984497699e-05
-0.0015179709810426091   -0.00543126886108702   0.00010727591855953324
-0.0010228133582214764   -0.010982650149988135   -5.075050642254946e-06
0.002028883939759163   -0.010958461630043511   0.00013191897098363195
-0.0015179709810426091   -0.00543126886108702   0.00010727591855953324
0.0013133491164649604   -0.0054511207170284855   0.00020463984420720163
0.0013918132207444394   -0.0055072358650142105   0.00014734822389257725
0.002028883939759163   -0.010958461630043511   0.00013191897098363195
-0.0015179709810426091   -0.00543126886108702   0.00010727591855953324
0.0013918132207444394   -0.0055072358650142105   0.00014734822389257725
-0.0010228133582214764   -0.010982650149988135   -5.075050642254946e-06
0.002028883939759163   -0.010958461630043511   0.00013191897098363195
0.0013133491164649604   -0.0054511207170284855   0.00020463984420720163
-0.0010732405848324024   -0.010926263414800902   2.121104984497699e-05
0.0019365076311048314   -0.010879523745372316   0.00017555585969578335
0.0013133491164649604   -0.0054511207170284855   0.00020463984420720163
-0.0015179709810426091   -0.00543126886108702   0.00010727591855953324
-0.0010732405848324024   -0.010926263414800902   2.121104984497699e-05
-0.001565889370241122   -0.005379904508277698   0.0001407075289813464
0.0019365076311048314   -0.010879523745372316   0.00017555585969578335
-0.0011254889117926466   -0.01086648032943633   5.1475487723012995e-05
-0.001565889370241122   -0.005379904508277698   0.0001407075289813464
-0.0010732405848324024   -0.010926263414800902   2.121104984497699e-05
0.0019365076311048314   -0.010879523745372316   0.00017555585969578335
-0.001565889370241122   -0.005379904508277698   0.0001407075289813464
0.001212566111878993   -0.0053648831852126265   0.00027032368380262996
0.0013133491164649604   -0.0054511207170284855   0.00020463984420720163
0.0019365076311048314   -0.010879523745372316   0.00017555585969578335
-0.001565889370241122   -0.005379904508277698   0.0001407075289813464
0.0013133491164649604   -0.0054511207170284855   0.00020463984420720163
-0.0010732405848324024   -0.010926263414800902   2.121104984497699e-05
-0.0009797700065578413   -0.011036168224217479   -2.7340977920690294e-05
-0.0014181399184523993   -0.00550554152489607   3.805731804550693e-05
-0.003946196072869784   -0.011022848703900873   -0.00011605111313676637
-0.0010228133582214764   -0.010982650149988135   -5.075050642254946e-06
-0.0014181399184523993   -0.00550554152489607   3.805731804550693e-05
-0.004216334971911978   -0.005587911084839281   -3.1800343271258593e-05
-0.003946196072869784   -0.011022848703900873   -0.00011605111313676637
-0.004256210013989289   -0.0055469040870998335   -9.572263008553034e-06
-0.0010228133582214764   -0.010982650149988135   -5.075050642254946e-06
-0.0039852512911733445   -0.010976355321198165   -9.514794196027548e-05
-0.004256210013989289   -0.0055469040870998335   -9.572263008553034e-06
-0.003946196072869784   -0.011022848703900873   -0.00011605111313676637
-0.0010228133582214764   -0.010982650149988135   -5.075050642254946e-06
-0.004256210013989289   -0.0055469040870998335   -9.572263008553034e-06
-0.0014611406840118564   -0.005479218730074381   6.92761778471064e-05
-0.0014181399184523993   -0.00550554152489607   3.805731804550693e-05
-0.0010228133582214764   -0.010982650149988135   -5.075050642254946e-06
-0.004256210013989289   -0.0055469040870998335   -9.572263008553034e-06
-0.0014181399184523993   -0.00550554152489607   3.805731804550693e-05
-0.003946196072869784   -0.011022848703900873   -0.00011605111313676637
-0.0010228133582214764   -0.010982650149988135   -5.075050642254946e-06
-0.0014611406840118564   -0.005479218730074381   6.92761778471064e-05
-0.0039852512911733445   -0.010976355321198165   -9.514794196027548e-05
-0.0010732405848324024   -0.010926263414800902   2.121104984497699e-05
-0.0014611406840118564   -0.005479218730074381   6.92761778471064e-05
-0.004256210013989289   -0.0055469040870998335   -9.572263008553034e-06
-0.0039852512911733445   -0.010976355321198165   -9.514794196027548e-05
-0.004298100481583623   -0.005500408978270643   1.4028603194799958e-05
-0.0010732405848324024   -0.010926263414800902   2.121104984497699e-05
-0.00402568864272909   -0.010928031153709815   -7.213540004981699e-05
-0.004298100481583623   -0.005500408978270643   1.4028603194799958e-05
-0.0039852512911733445   -0.010976355321198165   -9.514794196027548e-05
-0.0010732405848324024   -0.010926263414800902   2.121104984497699e-05
-0.004298100481583623   -0.005500408978270643   1.4028603194799958e-05
-0.0015179709810426091   -0.00543126886108702   0.00010727591855953324
-0.0014611406840118564   -0.005479218730074381   6.92761778471064e-05
-0.0010732405848324024   -0.010926263414800902   2.121104984497699e-05
-0.004298100481583623   -0.005500408978270643   1.4028603194799958e-05
-0.0014611406840118564   -0.005479218730074381   6.92761778471064e-05
-0.0039852512911733445   -0.010976355321198165   -9.514794196027548e-05
-0.0010732405848324024   -0.010926263414800902   2.121104984497699e-05
-0.0015179709810426091   -0.00543126886108702   0.00010727591855953324
-0.00402568864272909   -0.010928031153709815   -7.213540004981699e-05
-0.0011254889117926466   -0.01086648032943633   5.1475487723012995e-05
-0.0015179709810426091   -0.00543126886108702   0.00010727591855953324
-0.004298100481583623   -0.005500408978270643   1.4028603194799958e-05
-0.00402568864272909   -0.010928031153709815   -7.213540004981699e-05
-0.004338043175466776   -0.005449448066474062   4.0102200802130345e-05
-0.0011254889117926466   -0.01086648032943633   5.1475487723012995e-05
-0.004067823972177948   -0.010878791853340964   -4.660006622037418e-05
-0.004338043175466776   -0.005449448066474062   4.0102200802130345e-05
-0.00402568864272909   -0.010928031153709815   -7.213540004981699e-05
-0.0011254889117926466   -0.01086648032943633   5.1475487723012995e-05
-0.004338043175466776   -0.005449448066474062   4.0102200802130345e-05
-0.001565889370241122   -0.005379904508277698   0.0001407075289813464
-0.0015179709810426091   -0.00543126886108702   0.00010727591855953324
-0.0011254889117926466   -0.01086648032943633   5.1475487723012995e-05
-0.004338043175466776   -0.005449448066474062   4.0102200802130345e-05
-0.0015179709810426091   -0.00543126886108702   0.00010727591855953324
-0.00402568864272909   -0.010928031153709815   -7.213540004981699e-05
-0.003946196072869784   -0.011022848703900873   -0.00011605111313676637
-0.004216334971911978   -0.005587911084839281   -3.1800343271258593e-05
-0.006881244483219377   -0.011019100462284251   -0.00019605873695859683
-0.0039852512911733445   -0.010976355321198165   -9.514794196027548e-05
-0.004216334971911978   -0.005587911084839281   -3.1800343271258593e-05
-0.0070814286461105425   -0.005652284060075721   -0.00010971322760582442
-0.006881244483219377   -0.011019100462284251   -0.00019605873695859683
-0.007117365310938434   -0.005610126971177899   -9.239491667828171e-05
-0.0039852512911733445   -0.010976355321198165   -9.514794196027548e-05
-0.006918653465840398   -0.010978489448955802   -0.00017595809452645587
-0.007117365310938434   -0.005610126971177899   -9.239491667828171e-05
-0.006881244483219377   -0.011019100462284251   -0.00019605873695859683
-0.0039852512911733445   -0.010976355321198165   -9.514794196027548e-05
-0.007117365310938434   -0.005610126971177899   -9.239491667828171e-05
-0.004256210013989289   -0.0055469040870998335   -9.572263008553034e-06
-0.004216334971911978   -0.005587911084839281   -3.1800343271258593e-05
-0.0039852512911733445   -0.010976355321198165   -9.514794196027548e-05
-0.007117365310938434   -0.005610126971177899   -9.239491667828171e-05
-0.004216334971911978   -0.005587911084839281   -3.1800343271258593e-05
-0.006881244483219377   -0.011019100462284251   -0.00019605873695859683
-0.0039852512911733445   -0.010976355321198165   -9.514794196027548e-05
-0.004256210013989289   -0.0055469040870998335   -9.572263008553034e-06
-0.006918653465840398   -0.010978489448955802   -0.00017595809452645587
-0.00402568864272909   -0.010928031153709815   -7.213540004981699e-05
-0.004256210013989289   -0.0055469040870998335   -9.572263008553034e-06
-0.007117365310938434   -0.005610126971177899   -9.239491667828171e-05
-0.006918653465840398   -0.010978489448955802   -0.00017595809452645587
-0.007151849252212651   -0.0055655159889453605   -7.507832394453453e-05
-0.00402568864272909   -0.010928031153709815   -7.213540004981699e-05
-0.006954293741602377   -0.01093720535088277   -0.00015400698644010727
-0.007151849252212651   -0.0055655159889453605   -7.507832394453453e-05
-0.006918653465840398   -0.010978489448955802   -0.00017595809452645587
-0.00402568864272909   -0.010928031153709815   -7.213540004981699e-05
-0.007151849252212651   -0.0055655159889453605   -7.507832394453453e-05
-0.004298100481583623   -0.005500408978270643   1.4028603194799958e-05
-0.004256210013989289   -0.0055469040870998335   -9.572263008553034e-06
-0.00402568864272909   -0.010928031153709815   -7.213540004981699e-05
-0.007151849252212651   -0.0055655159889453605   -7.507832394453453e-05
-0.004256210013989289   -0.0055469040870998335   -9.572263008553034e-06
-0.006918653465840398   -0.010978489448955802   -0.00017595809452645587
-0.00402568864272909   -0.010928031153709815   -7.213540004981699e-05
-0.004298100481583623   -0.005500408978270643   1.4028603194799958e-05
-0.006954293741602377   -0.01093720535088277   -0.00015400698644010727
-0.004067823972177948   -0.010878791853340964   -4.660006622037418e-05
-0.004298100481583623   -0.005500408978270643   1.4028603194799958e-05
-0.007151849252212651   -0.0055655159889453605   -7.507832394453453e-05
-0.006954293741602377   -0.01093720535088277   -0.00015400698644010727
-0.0071837054497902045   -0.00551714846299604   -5.6167944230809805e-05
-0.004067823972177948   -0.010878791853340964   -4.660006622037418e-05
-0.006989579485897757   -0.010895003113097238   -0.00013030472538424353
-0.0071837054497902045   -0.00551714846299604   -5.6167944230809805e-05
-0.006954293741602377   -0.01093720535088277   -0.00015400698644010727
-0.004067823972177948   -0.010878791853340964   -4.660006622037418e-05
-0.0071837054497902045   -0.00551714846299604   -5.6167944230809805e-05
-0.004338043175466776   -0.005449448066474062   4.0102200802130345e-05
-0.004298100481583623   -0.005500408978270643   1.4028603194799958e-05
-0.004067823972177948   -0.010878791853340964   -4.660006622037418e-05
-0.0071837054497902045   -0.00551714846299604   -5.6167944230809805e-05
-0.004298100481583623   -0.005500408978270643   1.4028603194799958e-05
-0.006954293741602377   -0.01093720535088277   -0.00015400698644010727
-0.006881244483219377   -0.011019100462284251   -0.00019605873695859683
-0.0070814286461105425   -0.005652284060075721   -0.00010971322760582442
-0.009878611309397746   -0.011001825861194086   -0.0002629101321823234
-0.006918653465840398   -0.010978489448955802   -0.00017595809452645587
-0.0070814286461105425   -0.005652284060075721   -0.00010971322760582442
-0.010047212153852554   -0.005678785911757784   -0.00018152628075020094
-0.009878611309397746   -0.011001825861194086   -0.0002629101321823234
-0.010079615091415793   -0.005641068064091909   -0.00016882466925615755
-0.006918653465840398   -0.010978489448955802   -0.00017595809452645587
-0.009914271512058884   -0.010968982285239005   -0.0002437336519251005
-0.010079615091415793   -0.005641068064091909   -0.00016882466925615755
-0.009878611309397746   -0.011001825861194086   -0.0002629101321823234
-0.006918653465840398   -0.010978489448955802   -0.00017595809452645587
-0.010079615091415793   -0.005641068064091909   -0.00016882466925615755
-0.007117365310938434   -0.005610126971177899   -9.239491667828171e-05
-0.0070814286461105425   -0.005652284060075721   -0.00010971322760582442
-0.006918653465840398   -0.010978489448955802   -0.00017595809452645587
-0.010079615091415793   -0.005641068064091909   -0.00016882466925615755
-0.0070814286461105425   -0.005652284060075721   -0.00010971322760582442
-0.009878611309397746   -0.011001825861194086   -0.0002629101321823234
-0.006918653465840398   -0.010978489448955802   -0.00017595809452645587
-0.007117365310938434   -0.005610126971177899   -9.239491667828171e-05
-0.009914271512058884   -0.010968982285239005   -0.0002437336519251005
-0.006954293741602377   -0.01093720535088277   -0.00015400698644010727
-0.007117365310938434   -0.005610126971177899   -9.239491667828171e-05
-0.010079615091415793   -0.005641068064091909   -0.00016882466925615755
-0.009914271512058884   -0.010968982285239005   -0.0002437336519251005
-0.010108495036059427   -0.005599871079149066   -0.00015643518801063434
-0.006954293741602377   -0.01093720535088277   -0.00015400698644010727
-0.009944407257963398   -0.010934359044802932   -0.0002232256893344365
-0.010108495036059427   -0.005599871079149066   -0.00015643518801063434
-0.009914271512058884   -0.010968982285239005   -0.0002437336519251005
-0.006954293741602377   -0.01093720535088277   -0.00015400698644010727
-0.010108495036059427   -0.005599871079149066   -0.00015643518801063434
-0.007151849252212651   -0.0055655159889453605   -7.507832394453453e-05
-0.007117365310938434   -0.005610126971177899   -9.239491667828171e-05
-0.006954293741602377   -0.01093720535088277   -0.00015400698644010727
-0.010108495036059427   -0.005599871079149066   -0.00015643518801063434
-0.007117365310938434   -0.005610126971177899   -9.239491667828171e-05
-0.009914271512058884   -0.010968982285239005   -0.0002437336519251005
-0.006954293741602377   -0.01093720535088277   -0.00015400698644010727
-0.007151849252212651   -0.0055655159889453605   -7.507832394453453e-05
-0.009944407257963398   -0.010934359044802932   -0.0002232256893344365
-0.006989579485897757   -0.010895003113097238   -0.00013030472538424353
-0.007151849252212651   -0.0055655159889453605   -7.507832394453453e-05
-0.010108495036059427   -0.005599871079149066   -0.00015643518801063434
-0.009944407257963398   -0.010934359044802932   -0.0002232256893344365
-0.010134667734629618   -0.005555960520848437   -0.0001436194307364031
-0.006989579485897757   -0.010895003113097238   -0.00013030472538424353
-0.009972885430605748   -0.010898877766584682   -0.0002008229132825526
-0.010134667734629618   -0.005555960520848437   -0.0001436194307364031
-0.009944407257963398   -0.010934359044802932   -0.0002232256893344365
-0.006989579485897757   -0.010895003113097238   -0.00013030472538424353
-0.010134667734629618   -0.005555960520848437   -0.0001436194307364031
-0.0071837054497902045   -0.00551714846299604   -5.6167944230809805e-05
-0.007151849252212651   -0.0055655159889453605   -7.507832394453453e-05
-0.006989579485897757   -0.010895003113097238   -0.00013030472538424353
-0.010134667734629618   -0.005555960520848437   -0.0001436194307364031
-0.007151849252212651   -0.0055655159889453605   -7.507832394453453e-05
-0.009944407257963398   -0.010934359044802932   -0.0002232256893344365
-0.009878611309397746   -0.011001825861194086   -0.0002629101321823234
-0.010047212153852554   -0.005678785911757784   -0.00018152628075020094
-0.013020056468165501   -0.01097313903747228   -0.0003117987169693156
-0.009914271512058884   -0.010968982285239005   -0.0002437336519251005
-0.010047212153852554   -0.005678785911757784   -0.00018152628075020094
-0.013120193124632522   -0.005681610233922117   -0.00024075875099366744
-0.013020056468165501   -0.01097313903747228   -0.0003117987169693156
-0.013147908049868682   -0.005645065024461746   -0.00023515737327088965
-0.009914271512058884   -0.010968982285239005   -0.0002437336519251005
-0.013041797841187284   -0.010945819708006475   -0.00029716189003304374
-0.013147908049868682   -0.005645065024461746   -0.00023515737327088965
-0.013020056468165501   -0.01097313903747228   -0.0003117987169693156
-0.009914271512058884   -0.010968982285239005   -0.0002437336519251005
-0.013147908049868682   -0.005645065024461746   -0.00023515737327088965
-0.010079615091415793   -0.005641068064091909   -0.00016882466925615755
-0.010047212153852554   -0.005678785911757784   -0.00018152628075020094
-0.009914271512058884   -0.010968982285239005   -0.0002437336519251005
-0.013147908049868682   -0.005645065024461746   -0.00023515737327088965
-0.010047212153852554   -0.005678785911757784   -0.00018152628075020094
-0.013020056468165501   -0.01097313903747228   -0.0003117987169693156
-0.009914271512058884   -0.010968982285239005   -0.0002437336519251005
-0.010079615091415793   -0.005641068064091909   -0.00016882466925615755
-0.013041797841187284   -0.010945819708006475   -0.00029716189003304374
-0.009944407257963398   -0.010934359044802932   -0.0002232256893344365
-0.010079615091415793   -0.005641068064091909   -0.00016882466925615755
-0.013147908049868682   -0.005645065024461746   -0.00023515737327088965
-0.013041797841187284   -0.010945819708006475   -0.00029716189003304374
-0.013172738353395752   -0.0056054358338921105   -0.00022857876493060625
-0.009944407257963398   -0.010934359044802932   -0.0002232256893344365
-0.013061678103621547   -0.010914801782463327   -0.0002792942231768762
-0.013172738353395752   -0.0056054358338921105   -0.00022857876493060625
-0.013041797841187284   -0.010945819708006475   -0.00029716189003304374
-0.009944407257963398   -0.010934359044802932   -0.0002232256893344365
-0.013172738353395752   -0.0056054358338921105   -0.00022857876493060625
-0.010108495036059427   -0.005599871079149066   -0.00015643518801063434
-0.010079615091415793   -0.005641068064091909   -0.00016882466925615755
-0.009944407257963398   -0.010934359044802932   -0.0002232256893344365
-0.013172738353395752   -0.0056054358338921105   -0.00022857876493060625
-0.010079615091415793   -0.005641068064091909   -0.00016882466925615755
-0.013041797841187284   -0.010945819708006475   -0.00029716189003304374
-0.009944407257963398   -0.010934359044802932   -0.0002232256893344365
-0.010108495036059427   -0.005599871079149066   -0.00015643518801063434
-0.013061678103621547   -0.010914801782463327   -0.0002792942231768762
-0.009972885430605748   -0.010898877766584682   -0.0002008229132825526
-0.010108495036059427   -0.005599871079149066   -0.00015643518801063434
-0.013172738353395752   -0.0056054358338921105   -0.00022857876493060625
-0.013061678103621547   -0.010914801782463327   -0.0002792942231768762
-0.013193456759522186   -0.005563494438509656   -0.00022236598218582863
-0.009972885430605748   -0.010898877766584682   -0.0002008229132825526
-0.013070839785862598   -0.010886651296480289   -0.00025898357491154514
-0.013193456759522186   -0.005563494438509656   -0.00022236598218582863
-0.013061678103621547   -0.010914801782463327   -0.0002792942231768762
-0.009972885430605748   -0.010898877766584682   -0.0002008229132825526
-0.013193456759522186   -0.005563494438509656   -0.00022236598218582863
-0.010134667734629618   -0.005555960520848437   -0.0001436194307364031
-0.010108495036059427   -0.005599871079149066   -0.00015643518801063434
-0.009972885430605748   -0.010898877766584682   -0.0002008229132825526
-0.013193456759522186   -0.005563494438509656   -0.00022236598218582863
-0.010108495036059427   -0.005599871079149066   -0.00015643518801063434
-0.013061678103621547   -0.010914801782463327   -0.0002792942231768762
0.0015260488416522398   -0.005576458409584319   7.034078336589276e-05
0.0   0.0   0.0
-0.0014181399184523993   -0.00550554152489607   3.805731804550693e-05
0.0013918132207444394   -0.0055072358650142105   0.00014734822389257725
0.0   0.0   0.0
-0.0017751095421516794   -0.0004588419812406767   -1.2880643876104659e-05
-0.0014181399184523993   -0.00550554152489607   3.805731804550693e-05
-0.0018813552508710172   -0.00035835904379994814   4.915841968901986e-05
0.0013918132207444394   -0.0055072358650142105   0.00014734822389257725
-0.0014611406840118564   -0.005479218730074381   6.92761778471064e-05
-0.0018813552508710172   -0.00035835904379994814   4.915841968901986e-05
-0.0014181399184523993   -0.00550554152489607   3.805731804550693e-05
0.0013918132207444394   -0.0055072358650142105   0.00014734822389257725
-0.0018813552508710172   -0.00035835904379994814   4.915841968901986e-05
0.0   0.0   0.0
0.0   0.0   0.0
0.0013918132207444394   -0.0055072358650142105   0.00014734822389257725
-0.0018813552508710172   -0.00035835904379994814   4.915841968901986e-05
0.0   0.0   0.0
-0.0014181399184523993   -0.00550554152489607   3.805731804550693e-05
0.0013918132207444394   -0.0055072358650142105   0.00014734822389257725
0.0   0.0   0.0
-0.0014611406840118564   -0.005479218730074381   6.92761778471064e-05
0.0013133491164649604   -0.0054511207170284855   0.00020463984420720163
0.0   0.0   0.0
-0.0018813552508710172   -0.00035835904379994814   4.915841968901986e-05
-0.0014611406840118564   -0.005479218730074381   6.92761778471064e-05
-0.0019482989342369738   -0.000310170837888632   8.526448720347212e-05
0.0013133491164649604   -0.0054511207170284855   0.00020463984420720163
-0.0015179709810426091   -0.00543126886108702   0.00010727591855953324
-0.0019482989342369738   -0.000310170837888632   8.526448720347212e-05
-0.0014611406840118564   -0.005479218730074381   6.92761778471064e-05
0.0013133491164649604   -0.0054511207170284855   0.00020463984420720163
-0.0019482989342369738   -0.000310170837888632   8.526448720347212e-05
0.0   0.0   0.0
0.0   0.0   0.0
0.0013133491164649604   -0.0054511207170284855   0.00020463984420720163
-0.0019482989342369738   -0.000310170837888632   8.526448720347212e-05
0.0   0.0   0.0
-0.0014611406840118564   -0.005479218730074381   6.92761778471064e-05
0.0013133491164649604   -0.0054511207170284855   0.00020463984420720163
0.0   0.0   0.0
-0.0015179709810426091   -0.00543126886108702   0.00010727591855953324
0.001212566111878993   -0.0053648831852126265   0.00027032368380262996
0.0   0.0   0.0
-0.0019482989342369738   -0.000310170837888632   8.526448720347212e-05
-0.0015179709810426091   -0.00543126886108702   0.00010727591855953324
-0.0020385136124732137   -0.00024602969214008286   0.00012676454151953808
0.001212566111878993   -0.0053648831852126265   0.00027032368380262996
-0.001565889370241122   -0.005379904508277698   0.0001407075289813464
-0.0020385136124732137   -0.00024602969214008286   0.00012676454151953808
-0.0015179709810426091   -0.00543126886108702   0.00010727591855953324
0.001212566111878993   -0.0053648831852126265   0.00027032368380262996
-0.0020385136124732137   -0.00024602969214008286   0.00012676454151953808
0.0   0.0   0.0
0.0   0.0   0.0
0.001212566111878993   -0.0053648831852126265   0.00027032368380262996
-0.0020385136124732137   -0.00024602969214008286   0.00012676454151953808
0.0   0.0   0.0
-0.0015179709810426091   -0.00543126886108702   0.00010727591855953324
-0.0014181399184523993   -0.00550554152489607   3.805731804550693e-05
-0.0017751095421516794   -0.0004588419812406767   -1.2880643876104659e-05
-0.004216334971911978   -0.005587911084839281   -3.1800343271258593e-05
-0.0014611406840118564   -0.005479218730074381   6.92761778471064e-05
-0.0017751095421516794   -0.0004588419812406767   -1.2880643876104659e-05
-0.004340159131195912   -0.000604235946330704   -9.1333366984033e-06
-0.004216334971911978   -0.005587911084839281   -3.1800343271258593e-05
-0.004395253540729153   -0.0005498084600366306   7.164886509041581e-06
-0.0014611406840118564   -0.005479218730074381   6.92761778471064e-05
-0.004256210013989289   -0.0055469040870998335   -9.572263008553034e-06
-0.004395253540729153   -0.0005498084600366306   7.164886509041581e-06
-0.004216334971911978   -0.005587911084839281   -3.1800343271258593e-05
-0.0014611406840118564   -0.005479218730074381   6.92761778471064e-05
-0.004395253540729153   -0.0005498084600366306   7.164886509041581e-06
-0.0018813552508710172   -0.00035835904379994814   4.915841968901986e-05
-0.0017751095421516794   -0.0004588419812406767   -1.2880643876104659e-05
-0.0014611406840118564   -0.005479218730074381   6.92761778471064e-05
-0.004395253540729153   -0.0005498084600366306   7.164886509041581e-06
-0.0017751095421516794   -0.0004588419812406767   -1.2880643876104659e-05
-0.004216334971911978   -0.005587911084839281   -3.1800343271258593e-05
-0.0014611406840118564   -0.005479218730074381   6.92761778471064e-05
-0.0018813552508710172   -0.00035835904379994814   4.915841968901986e-05
-0.004256210013989289   -0.0055469040870998335   -9.572263008553034e-06
-0.0015179709810426091   -0.00543126886108702   0.00010727591855953324
-0.0018813552508710172   -0.00035835904379994814   4.915841968901986e-05
-0.004395253540729153   -0.0005498084600366306   7.164886509041581e-06
-0.004256210013989289   -0.0055469040870998335   -9.572263008553034e-06
-0.004450238446884707   -0.0004859958449788308   3.605973964868098e-05
-0.0015179709810426091   -0.00543126886108702   0.00010727591855953324
-0.004298100481583623   -0.005500408978270643   1.4028603194799958e-05
-0.004450238446884707   -0.0004859958449788308   3.605973964868098e-05
-0.004256210013989289   -0.0055469040870998335   -9.572263008553034e-06
-0.0015179709810426091   -0.00543126886108702   0.00010727591855953324
-0.004450238446884707   -0.0004859958449788308   3.605973964868098e-05
-0.0019482989342369738   -0.000310170837888632   8.526448720347212e-05
-0.0018813552508710172   -0.00035835904379994814   4.915841968901986e-05
-0.0015179709810426091   -0.00543126886108702   0.00010727591855953324
-0.004450238446884707   -0.0004859958449788308   3.605973964868098e-05
-0.0018813552508710172   -0.00035835904379994814   4.915841968901986e-05
-0.004256210013989289   -0.0055469040870998335   -9.572263008553034e-06
-0.0015179709810426091   -0.00543126886108702   0.00010727591855953324
-0.0019482989342369738   -0.000310170837888632   8.526448720347212e-05
-0.004298100481583623   -0.005500408978270643   1.4028603194799958e-05
-0.001565889370241122   -0.005379904508277698   0.0001407075289813464
-0.0019482989342369738   -0.000310170837888632   8.526448720347212e-05
-0.004450238446884707   -0.0004859958449788308   3.605973964868098e-05
-0.004298100481583623   -0.005500408978270643   1.4028603194799958e-05
-0.004511601802209986   -0.0004119223290874249   6.3913483765055e-05
-0.001565889370241122   -0.005379904508277698   0.0001407075289813464
-0.004338043175466776   -0.005449448066474062   4.0102200802130345e-05
-0.004511601802209986   -0.0004119223290874249   6.3913483765055e-05
-0.004298100481583623   -0.005500408978270643   1.4028603194799958e-05
-0.001565889370241122   -0.005379904508277698   0.0001407075289813464
-0.004511601802209986   -0.0004119223290874249   6.3913483765055e-05
-0.0020385136124732137   -0.00024602969214008286   0.00012676454151953808
-0.0019482989342369738   -0.000310170837888632   8.526448720347212e-05
-0.001565889370241122   -0.005379904508277698   0.0001407075289813464
-0.004511601802209986   -0.0004119223290874249   6.3913483765055e-05
-0.0019482989342369738   -0.000310170837888632   8.526448720347212e-05
-0.004298100481583623   -0.005500408978270643   1.4028603194799958e-05
-0.004216334971911978   -0.005587911084839281   -3.1800343271258593e-05
-0.004340159131195912   -0.000604235946330704   -9.1333366984033e-06
-0.0070814286461105425   -0.005652284060075721   -0.00010971322760582442
-0.004256210013989289   -0.0055469040870998335   -9.572263008553034e-06
-0.004340159131195912   -0.000604235946330704   -9.1333366984033e-06
-0.007150836900805527   -0.0006466399002435773   -5.734479493434759e-05
-0.0070814286461105425   -0.005652284060075721   -0.00010971322760582442
-0.007184454934571989   -0.0006047277617088501   -5.2662411595891496e-05
-0.004256210013989289   -0.0055469040870998335   -9.572263008553034e-06
-0.007117365310938434   -0.005610126971177899   -9.239491667828171e-05
-0.007184454934571989   -0.0006047277617088501   -5.2662411595891496e-05
-0.0070814286461105425   -0.005652284060075721   -0.00010971322760582442
-0.004256210013989289   -0.0055469040870998335   -9.572263008553034e-06
-0.007184454934571989   -0.0006047277617088501   -5.2662411595891496e-05
-0.004395253540729153   -0.0005498084600366306   7.164886509041581e-06
-0.004340159131195912   -0.000604235946330704   -9.1333366984033e-06
-0.004256210013989289   -0.0055469040870998335   -9.572263008553034e-06
-0.007184454934571989   -0.0006047277617088501   -5.2662411595891496e-05
-0.004340159131195912   -0.000604235946330704   -9.1333366984033e-06
-0.0070814286461105425   -0.005652284060075721   -0.00010971322760582442
-0.004256210013989289   -0.0055469040870998335   -9.572263008553034e-06
-0.004395253540729153   -0.0005498084600366306   7.164886509041581e-06
-0.007117365310938434   -0.005610126971177899   -9.239491667828171e-05
-0.004298100481583623   -0.005500408978270643   1.4028603194799958e-05
-0.004395253540729153   -0.0005498084600366306   7.164886509041581e-06
-0.007184454934571989   -0.0006047277617088501   -5.2662411595891496e-05
-0.007117365310938434   -0.005610126971177899   -9.239491667828171e-05
-0.007219445345301791   -0.0005558187124198556   -4.454124099875821e-05
-0.004298100481583623   -0.005500408978270643   1.4028603194799958e-05
-0.007151849252212651   -0.0055655159889453605   -7.507832394453453e-05
-0.007219445345301791   -0.0005558187124198556   -4.454124099875821e-05
-0.007117365310938434   -0.005610126971177899   -9.239491667828171e-05
-0.004298100481583623   -0.005500408978270643   1.4028603194799958e-05
-0.007219445345301791   -0.0005558187124198556   -4.454124099875821e-05
-0.004450238446884707   -0.0004859958449788308   3.605973964868098e-05
-0.004395253540729153   -0.0005498084600366306   7.164886509041581e-06
-0.004298100481583623   -0.005500408978270643   1.4028603194799958e-05
-0.007219445345301791   -0.0005558187124198556   -4.454124099875821e-05
-0.004395253540729153   -0.0005498084600366306   7.164886509041581e-06
-0.007117365310938434   -0.005610126971177899   -9.239491667828171e-05
-0.004298100481583623   -0.005500408978270643   1.4028603194799958e-05
-0.004450238446884707   -0.0004859958449788308   3.605973964868098e-05
-0.007151849252212651   -0.0055655159889453605   -7.507832394453453e-05
-0.004338043175466776   -0.005449448066474062   4.0102200802130345e-05
-0.004450238446884707   -0.0004859958449788308   3.605973964868098e-05
-0.007219445345301791   -0.0005558187124198556   -4.454124099875821e-05
-0.007151849252212651   -0.0055655159889453605   -7.507832394453453e-05
-0.007253039354033728   -0.0004958734986478108   -3.379468151073455e-05
-0.004338043175466776   -0.005449448066474062   4.0102200802130345e-05
-0.0071837054497902045   -0.00551714846299604   -5.6167944230809805e-05
-0.007253039354033728   -0.0004958734986478108   -3.379468151073455e-05
-0.007151849252212651   -0.0055655159889453605   -7.507832394453453e-05
-0.004338043175466776   -0.005449448066474062   4.0102200802130345e-05
-0.007253039354033728   -0.0004958734986478108   -3.379468151073455e-05
-0.004511601802209986   -0.0004119223290874249   6.3913483765055e-05
-0.004450238446884707   -0.0004859958449788308   3.605973964868098e-05
-0.004338043175466776   -0.005449448066474062   4.0102200802130345e-05
-0.007253039354033728   -0.0004958734986478108   -3.379468151073455e-05
-0.004450238446884707   -0.0004859958449788308   3.605973964868098e-05
-0.007151849252212651   -0.0055655159889453605   -7.507832394453453e-05
-0.0070814286461105425   -0.005652284060075721   -0.00010971322760582442
-0.007150836900805527   -0.0006466399002435773   -5.734479493434759e-05
-0.010047212153852554   -0.005678785911757784   -0.00018152628075020094
-0.007117365310938434   -0.005610126971177899   -9.239491667828171e-05
-0.007150836900805527   -0.0006466399002435773   -5.734479493434759e-05
-0.010099500411806182   -0.0006413797598941244   -0.00012804729763069237
-0.010047212153852554   -0.005678785911757784   -0.00018152628075020094
-0.010122255897168524   -0.0006041126702324034   -0.0001260172601921224
-0.007117365310938434   -0.005610126971177899   -9.239491667828171e-05
-0.010079615091415793   -0.005641068064091909   -0.00016882466925615755
-0.010122255897168524   -0.0006041126702324034   -0.0001260172601921224
-0.010047212153852554   -0.005678785911757784   -0.00018152628075020094
-0.007117365310938434   -0.005610126971177899   -9.239491667828171e-05
-0.010122255897168524   -0.0006041126702324034   -0.0001260172601921224
-0.007184454934571989   -0.0006047277617088501   -5.2662411595891496e-05
-0.007150836900805527   -0.0006466399002435773   -5.734479493434759e-05
-0.007117365310938434   -0.005610126971177899   -9.239491667828171e-05
-0.010122255897168524   -0.0006041126702324034   -0.0001260172601921224
-0.007150836900805527   -0.0006466399002435773   -5.734479493434759e-05
-0.010047212153852554   -0.005678785911757784   -0.00018152628075020094
-0.007117365310938434   -0.005610126971177899   -9.239491667828171e-05
-0.007184454934571989   -0.0006047277617088501   -5.2662411595891496e-05
-0.010079615091415793   -0.005641068064091909   -0.00016882466925615755
-0.007151849252212651   -0.0055655159889453605   -7.507832394453453e-05
-0.007184454934571989   -0.0006047277617088501   -5.2662411595891496e-05
-0.010122255897168524   -0.0006041126702324034   -0.0001260172601921224
-0.010079615091415793   -0.005641068064091909   -0.00016882466925615755
-0.010145984916526941   -0.0005623782342151688   -0.00012446348323963877
-0.007151849252212651   -0.0055655159889453605   -7.507832394453453e-05
-0.010108495036059427   -0.005599871079149066   -0.00015643518801063434
-0.010145984916526941   -0.0005623782342151688   -0.00012446348323963877
-0.010079615091415793   -0.005641068064091909   -0.00016882466925615755
-0.007151849252212651   -0.0055655159889453605   -7.507832394453453e-05
-0.010145984916526941   -0.0005623782342151688   -0.00012446348323963877
-0.007219445345301791   -0.0005558187124198556   -4.454124099875821e-05
-0.007184454934571989   -0.0006047277617088501   -5.2662411595891496e-05
-0.007151849252212651   -0.0055655159889453605   -7.507832394453453e-05
-0.010145984916526941   -0.0005623782342151688   -0.00012446348323963877
-0.007184454934571989   -0.0006047277617088501   -5.2662411595891496e-05
-0.010079615091415793   -0.005641068064091909   -0.00016882466925615755
-0.007151849252212651   -0.0055655159889453605   -7.507832394453453e-05
-0.007219445345301791   -0.0005558187124198556   -4.454124099875821e-05
-0.010108495036059427   -0.005599871079149066   -0.00015643518801063434
-0.0071837054497902045   -0.00551714846299604   -5.6167944230809805e-05
-0.007219445345301791   -0.0005558187124198556   -4.454124099875821e-05
-0.010145984916526941   -0.0005623782342151688   -0.00012446348323963877
-0.010108495036059427   -0.005599871079149066   -0.00015643518801063434
-0.010164277323443332   -0.0005169321405260398   -0.00012347357730854277
-0.0071837054497902045   -0.00551714846299604   -5.6167944230809805e-05
-0.010134667734629618   -0.005555960520848437   -0.0001436194307364031
-0.010164277323443332   -0.0005169321405260398   -0.00012347357730854277
-0.010108495036059427   -0.005599871079149066   -0.00015643518801063434
-0.0071837054497902045   -0.00551714846299604   -5.6167944230809805e-05
-0.010164277323443332   -0.0005169321405260398   -0.00012347357730854277
-0.007253039354033728   -0.0004958734986478108   -3.379468151073455e-05
-0.007219445345301791   -0.0005558187124198556   -4.454124099875821e-05
-0.0071837054497902045   -0.00551714846299604   -5.6167944230809805e-05
-0.010164277323443332   -0.0005169321405260398   -0.00012347357730854277
-0.007219445345301791   -0.0005558187124198556   -4.454124099875821e-05
-0.010108495036059427   -0.005599871079149066   -0.00015643518801063434
-0.010047212153852554   -0.005678785911757784   -0.00018152628075020094
-0.010099500411806182   -0.0006413797598941244   -0.00012804729763069237
-0.013120193124632522   -0.005681610233922117   -0.00024075875099366744
-0.010079615091415793   -0.005641068064091909   -0.00016882466925615755
-0.010099500411806182   -0.0006413797598941244   -0.00012804729763069237
-0.013130707571411675   -0.0006370777278558354   -0.00019777707163695069
-0.013120193124632522   -0.005681610233922117   -0.00024075875099366744
-0.013148977965518397   -0.0005967451622267809   -0.00019765922600104268
-0.010079615091415793   -0.005641068064091909   -0.00016882466925615755
-0.013147908049868682   -0.005645065024461746   -0.00023515737327088965
-0.013148977965518397   -0.0005967451622267809   -0.00019765922600104268
-0.013120193124632522   -0.005681610233922117   -0.00024075875099366744
-0.010079615091415793   -0.005641068064091909   -0.00016882466925615755
-0.013148977965518397   -0.0005967451622267809   -0.00019765922600104268
-0.010122255897168524   -0.0006041126702324034   -0.0001260172601921224
-0.010099500411806182   -0.0006413797598941244   -0.00012804729763069237
-0.010079615091415793   -0.005641068064091909   -0.00016882466925615755
-0.013148977965518397   -0.0005967451622267809   -0.00019765922600104268
-0.010099500411806182   -0.0006413797598941244   -0.00012804729763069237
-0.013120193124632522   -0.005681610233922117   -0.00024075875099366744
-0.010079615091415793   -0.005641068064091909   -0.00016882466925615755
-0.010122255897168524   -0.0006041126702324034   -0.0001260172601921224
-0.013147908049868682   -0.005645065024461746   -0.00023515737327088965
-0.010108495036059427   -0.005599871079149066   -0.00015643518801063434
-0.010122255897168524   -0.0006041126702324034   -0.0001260172601921224
-0.013148977965518397   -0.0005967451622267809   -0.00019765922600104268
-0.013147908049868682   -0.005645065024461746   -0.00023515737327088965
-0.013169010742753106   -0.000556280257624639   -0.00020069760038187438
-0.010108495036059427   -0.005599871079149066   -0.00015643518801063434
-0.013172738353395752   -0.0056054358338921105   -0.00022857876493060625
-0.013169010742753106   -0.000556280257624639   -0.00020069760038187438
-0.013147908049868682   -0.005645065024461746   -0.00023515737327088965
-0.010108495036059427   -0.005599871079149066   -0.00015643518801063434
-0.013169010742753106   -0.000556280257624639   -0.00020069760038187438
-0.010145984916526941   -0.0005623782342151688   -0.00012446348323963877
-0.010122255897168524   -0.0006041126702324034   -0.0001260172601921224
-0.010108495036059427   -0.005599871079149066   -0.00015643518801063434
-0.013169010742753106   -0.000556280257624639   -0.00020069760038187438
-0.010122255897168524   -0.0006041126702324034   -0.0001260172601921224
-0.013147908049868682   -0.005645065024461746   -0.00023515737327088965
-0.010108495036059427   -0.005599871079149066   -0.00015643518801063434
-0.010145984916526941   -0.0005623782342151688   -0.00012446348323963877
-0.013172738353395752   -0.0056054358338921105   -0.00022857876493060625
-0.010134667734629618   -0.005555960520848437   -0.0001436194307364031
-0.010145984916526941   -0.0005623782342151688   -0.00012446348323963877
-0.013169010742753106   -0.000556280257624639   -0.00020069760038187438
-0.013172738353395752   -0.0056054358338921105   -0.00022857876493060625
-0.013183857930579293   -0.0005121050088164258   -0.0002038875959434294
-0.010134667734629618   -0.005555960520848437   -0.0001436194307364031
-0.013193456759522186   -0.005563494438509656   -0.00022236598218582863
-0.013183857930579293   -0.0005121050088164258   -0.0002038875959434294
-0.013172738353395752   -0.0056054358338921105   -0.00022857876493060625
-0.010134667734629618   -0.005555960520848437   -0.0001436194307364031
-0.013183857930579293   -0.0005121050088164258   -0.0002038875959434294
-0.010164277323443332   -0.0005169321405260398   -0.00012347357730854277
-0.010145984916526941   -0.0005623782342151688   -0.00012446348323963877
-0.010134667734629618   -0.005555960520848437   -0.0001436194307364031
-0.013183857930579293   -0.0005121050088164258   -0.0002038875959434294
-0.010145984916526941   -0.0005623782342151688   -0.00012446348323963877
-0.013172738353395752   -0.0056054358338921105   -0.00022857876493060625
              </DataArray>   
          </PointData>  
       </Piece>  
   </UnstructuredGrid> 
</VTKFile> 
