<?xml version="1.0"?> 
<VTKFile type="UnstructuredGrid"> 
   <UnstructuredGrid> 
      <Piece NumberOfPoints="6000"  NumberOfCells="1500">  
          <Points>  
             <DataArray type="Float64" NumberOfComponents="3" format="ascii">   
-500.0   0.0   0.0
-450.0   0.0   0.0
-500.0   30.0   0.0
-500.0   0.0   16.666666666666668
-450.0   0.0   0.0
-450.0   30.0   0.0
-500.0   30.0   0.0
-450.0   30.0   16.666666666666668
-500.0   0.0   16.666666666666668
-500.0   30.0   16.666666666666668
-450.0   30.0   16.666666666666668
-500.0   30.0   0.0
-500.0   0.0   16.666666666666668
-450.0   30.0   16.666666666666668
-450.0   0.0   16.666666666666668
-450.0   0.0   0.0
-500.0   0.0   16.666666666666668
-450.0   30.0   16.666666666666668
-450.0   0.0   0.0
-500.0   30.0   0.0
-500.0   0.0   16.666666666666668
-450.0   0.0   16.666666666666668
-500.0   30.0   16.666666666666668
-500.0   0.0   33.333333333333336
-450.0   0.0   16.666666666666668
-450.0   30.0   16.666666666666668
-500.0   30.0   16.666666666666668
-450.0   30.0   33.333333333333336
-500.0   0.0   33.333333333333336
-500.0   30.0   33.333333333333336
-450.0   30.0   33.333333333333336
-500.0   30.0   16.666666666666668
-500.0   0.0   33.333333333333336
-450.0   30.0   33.333333333333336
-450.0   0.0   33.333333333333336
-450.0   0.0   16.666666666666668
-500.0   0.0   33.333333333333336
-450.0   30.0   33.333333333333336
-450.0   0.0   16.666666666666668
-500.0   30.0   16.666666666666668
-500.0   0.0   33.333333333333336
-450.0   0.0   33.333333333333336
-500.0   30.0   33.333333333333336
-500.0   0.0   50.0
-450.0   0.0   33.333333333333336
-450.0   30.0   33.333333333333336
-500.0   30.0   33.333333333333336
-450.0   30.0   50.0
-500.0   0.0   50.0
-500.0   30.0   50.0
-450.0   30.0   50.0
-500.0   30.0   33.333333333333336
-500.0   0.0   50.0
-450.0   30.0   50.0
-450.0   0.0   50.0
-450.0   0.0   33.333333333333336
-500.0   0.0   50.0
-450.0   30.0   50.0
-450.0   0.0   33.333333333333336
-500.0   30.0   33.333333333333336
-500.0   30.0   0.0
-450.0   30.0   0.0
-500.0   60.0   0.0
-500.0   30.0   16.666666666666668
-450.0   30.0   0.0
-450.0   60.0   0.0
-500.0   60.0   0.0
-450.0   60.0   16.666666666666668
-500.0   30.0   16.666666666666668
-500.0   60.0   16.666666666666668
-450.0   60.0   16.666666666666668
-500.0   60.0   0.0
-500.0   30.0   16.666666666666668
-450.0   60.0   16.666666666666668
-450.0   30.0   16.666666666666668
-450.0   30.0   0.0
-500.0   30.0   16.666666666666668
-450.0   60.0   16.666666666666668
-450.0   30.0   0.0
-500.0   60.0   0.0
-500.0   30.0   16.666666666666668
-450.0   30.0   16.666666666666668
-500.0   60.0   16.666666666666668
-500.0   30.0   33.333333333333336
-450.0   30.0   16.666666666666668
-450.0   60.0   16.666666666666668
-500.0   60.0   16.666666666666668
-450.0   60.0   33.333333333333336
-500.0   30.0   33.333333333333336
-500.0   60.0   33.333333333333336
-450.0   60.0   33.333333333333336
-500.0   60.0   16.666666666666668
-500.0   30.0   33.333333333333336
-450.0   60.0   33.333333333333336
-450.0   30.0   33.333333333333336
-450.0   30.0   16.666666666666668
-500.0   30.0   33.333333333333336
-450.0   60.0   33.333333333333336
-450.0   30.0   16.666666666666668
-500.0   60.0   16.666666666666668
-500.0   30.0   33.333333333333336
-450.0   30.0   33.333333333333336
-500.0   60.0   33.333333333333336
-500.0   30.0   50.0
-450.0   30.0   33.333333333333336
-450.0   60.0   33.333333333333336
-500.0   60.0   33.333333333333336
-450.0   60.0   50.0
-500.0   30.0   50.0
-500.0   60.0   50.0
-450.0   60.0   50.0
-500.0   60.0   33.333333333333336
-500.0   30.0   50.0
-450.0   60.0   50.0
-450.0   30.0   50.0
-450.0   30.0   33.333333333333336
-500.0   30.0   50.0
-450.0   60.0   50.0
-450.0   30.0   33.333333333333336
-500.0   60.0   33.333333333333336
-500.0   60.0   0.0
-450.0   60.0   0.0
-500.0   90.0   0.0
-500.0   60.0   16.666666666666668
-450.0   60.0   0.0
-450.0   90.0   0.0
-500.0   90.0   0.0
-450.0   90.0   16.666666666666668
-500.0   60.0   16.666666666666668
-500.0   90.0   16.666666666666668
-450.0   90.0   16.666666666666668
-500.0   90.0   0.0
-500.0   60.0   16.666666666666668
-450.0   90.0   16.666666666666668
-450.0   60.0   16.666666666666668
-450.0   60.0   0.0
-500.0   60.0   16.666666666666668
-450.0   90.0   16.666666666666668
-450.0   60.0   0.0
-500.0   90.0   0.0
-500.0   60.0   16.666666666666668
-450.0   60.0   16.666666666666668
-500.0   90.0   16.666666666666668
-500.0   60.0   33.333333333333336
-450.0   60.0   16.666666666666668
-450.0   90.0   16.666666666666668
-500.0   90.0   16.666666666666668
-450.0   90.0   33.333333333333336
-500.0   60.0   33.333333333333336
-500.0   90.0   33.333333333333336
-450.0   90.0   33.333333333333336
-500.0   90.0   16.666666666666668
-500.0   60.0   33.333333333333336
-450.0   90.0   33.333333333333336
-450.0   60.0   33.333333333333336
-450.0   60.0   16.666666666666668
-500.0   60.0   33.333333333333336
-450.0   90.0   33.333333333333336
-450.0   60.0   16.666666666666668
-500.0   90.0   16.666666666666668
-500.0   60.0   33.333333333333336
-450.0   60.0   33.333333333333336
-500.0   90.0   33.333333333333336
-500.0   60.0   50.0
-450.0   60.0   33.333333333333336
-450.0   90.0   33.333333333333336
-500.0   90.0   33.333333333333336
-450.0   90.0   50.0
-500.0   60.0   50.0
-500.0   90.0   50.0
-450.0   90.0   50.0
-500.0   90.0   33.333333333333336
-500.0   60.0   50.0
-450.0   90.0   50.0
-450.0   60.0   50.0
-450.0   60.0   33.333333333333336
-500.0   60.0   50.0
-450.0   90.0   50.0
-450.0   60.0   33.333333333333336
-500.0   90.0   33.333333333333336
-500.0   90.0   0.0
-450.0   90.0   0.0
-500.0   120.0   0.0
-500.0   90.0   16.666666666666668
-450.0   90.0   0.0
-450.0   120.0   0.0
-500.0   120.0   0.0
-450.0   120.0   16.666666666666668
-500.0   90.0   16.666666666666668
-500.0   120.0   16.666666666666668
-450.0   120.0   16.666666666666668
-500.0   120.0   0.0
-500.0   90.0   16.666666666666668
-450.0   120.0   16.666666666666668
-450.0   90.0   16.666666666666668
-450.0   90.0   0.0
-500.0   90.0   16.666666666666668
-450.0   120.0   16.666666666666668
-450.0   90.0   0.0
-500.0   120.0   0.0
-500.0   90.0   16.666666666666668
-450.0   90.0   16.666666666666668
-500.0   120.0   16.666666666666668
-500.0   90.0   33.333333333333336
-450.0   90.0   16.666666666666668
-450.0   120.0   16.666666666666668
-500.0   120.0   16.666666666666668
-450.0   120.0   33.333333333333336
-500.0   90.0   33.333333333333336
-500.0   120.0   33.333333333333336
-450.0   120.0   33.333333333333336
-500.0   120.0   16.666666666666668
-500.0   90.0   33.333333333333336
-450.0   120.0   33.333333333333336
-450.0   90.0   33.333333333333336
-450.0   90.0   16.666666666666668
-500.0   90.0   33.333333333333336
-450.0   120.0   33.333333333333336
-450.0   90.0   16.666666666666668
-500.0   120.0   16.666666666666668
-500.0   90.0   33.333333333333336
-450.0   90.0   33.333333333333336
-500.0   120.0   33.333333333333336
-500.0   90.0   50.0
-450.0   90.0   33.333333333333336
-450.0   120.0   33.333333333333336
-500.0   120.0   33.333333333333336
-450.0   120.0   50.0
-500.0   90.0   50.0
-500.0   120.0   50.0
-450.0   120.0   50.0
-500.0   120.0   33.333333333333336
-500.0   90.0   50.0
-450.0   120.0   50.0
-450.0   90.0   50.0
-450.0   90.0   33.333333333333336
-500.0   90.0   50.0
-450.0   120.0   50.0
-450.0   90.0   33.333333333333336
-500.0   120.0   33.333333333333336
-500.0   120.0   0.0
-450.0   120.0   0.0
-500.0   150.0   0.0
-500.0   120.0   16.666666666666668
-450.0   120.0   0.0
-450.0   150.0   0.0
-500.0   150.0   0.0
-450.0   150.0   16.666666666666668
-500.0   120.0   16.666666666666668
-500.0   150.0   16.666666666666668
-450.0   150.0   16.666666666666668
-500.0   150.0   0.0
-500.0   120.0   16.666666666666668
-450.0   150.0   16.666666666666668
-450.0   120.0   16.666666666666668
-450.0   120.0   0.0
-500.0   120.0   16.666666666666668
-450.0   150.0   16.666666666666668
-450.0   120.0   0.0
-500.0   150.0   0.0
-500.0   120.0   16.666666666666668
-450.0   120.0   16.666666666666668
-500.0   150.0   16.666666666666668
-500.0   120.0   33.333333333333336
-450.0   120.0   16.666666666666668
-450.0   150.0   16.666666666666668
-500.0   150.0   16.666666666666668
-450.0   150.0   33.333333333333336
-500.0   120.0   33.333333333333336
-500.0   150.0   33.333333333333336
-450.0   150.0   33.333333333333336
-500.0   150.0   16.666666666666668
-500.0   120.0   33.333333333333336
-450.0   150.0   33.333333333333336
-450.0   120.0   33.333333333333336
-450.0   120.0   16.666666666666668
-500.0   120.0   33.333333333333336
-450.0   150.0   33.333333333333336
-450.0   120.0   16.666666666666668
-500.0   150.0   16.666666666666668
-500.0   120.0   33.333333333333336
-450.0   120.0   33.333333333333336
-500.0   150.0   33.333333333333336
-500.0   120.0   50.0
-450.0   120.0   33.333333333333336
-450.0   150.0   33.333333333333336
-500.0   150.0   33.333333333333336
-450.0   150.0   50.0
-500.0   120.0   50.0
-500.0   150.0   50.0
-450.0   150.0   50.0
-500.0   150.0   33.333333333333336
-500.0   120.0   50.0
-450.0   150.0   50.0
-450.0   120.0   50.0
-450.0   120.0   33.333333333333336
-500.0   120.0   50.0
-450.0   150.0   50.0
-450.0   120.0   33.333333333333336
-500.0   150.0   33.333333333333336
-450.0   0.0   0.0
-400.0   0.0   0.0
-450.0   30.0   0.0
-450.0   0.0   16.666666666666668
-400.0   0.0   0.0
-400.0   30.0   0.0
-450.0   30.0   0.0
-400.0   30.0   16.666666666666668
-450.0   0.0   16.666666666666668
-450.0   30.0   16.666666666666668
-400.0   30.0   16.666666666666668
-450.0   30.0   0.0
-450.0   0.0   16.666666666666668
-400.0   30.0   16.666666666666668
-400.0   0.0   16.666666666666668
-400.0   0.0   0.0
-450.0   0.0   16.666666666666668
-400.0   30.0   16.666666666666668
-400.0   0.0   0.0
-450.0   30.0   0.0
-450.0   0.0   16.666666666666668
-400.0   0.0   16.666666666666668
-450.0   30.0   16.666666666666668
-450.0   0.0   33.333333333333336
-400.0   0.0   16.666666666666668
-400.0   30.0   16.666666666666668
-450.0   30.0   16.666666666666668
-400.0   30.0   33.333333333333336
-450.0   0.0   33.333333333333336
-450.0   30.0   33.333333333333336
-400.0   30.0   33.333333333333336
-450.0   30.0   16.666666666666668
-450.0   0.0   33.333333333333336
-400.0   30.0   33.333333333333336
-400.0   0.0   33.333333333333336
-400.0   0.0   16.666666666666668
-450.0   0.0   33.333333333333336
-400.0   30.0   33.333333333333336
-400.0   0.0   16.666666666666668
-450.0   30.0   16.666666666666668
-450.0   0.0   33.333333333333336
-400.0   0.0   33.333333333333336
-450.0   30.0   33.333333333333336
-450.0   0.0   50.0
-400.0   0.0   33.333333333333336
-400.0   30.0   33.333333333333336
-450.0   30.0   33.333333333333336
-400.0   30.0   50.0
-450.0   0.0   50.0
-450.0   30.0   50.0
-400.0   30.0   50.0
-450.0   30.0   33.333333333333336
-450.0   0.0   50.0
-400.0   30.0   50.0
-400.0   0.0   50.0
-400.0   0.0   33.333333333333336
-450.0   0.0   50.0
-400.0   30.0   50.0
-400.0   0.0   33.333333333333336
-450.0   30.0   33.333333333333336
-450.0   30.0   0.0
-400.0   30.0   0.0
-450.0   60.0   0.0
-450.0   30.0   16.666666666666668
-400.0   30.0   0.0
-400.0   60.0   0.0
-450.0   60.0   0.0
-400.0   60.0   16.666666666666668
-450.0   30.0   16.666666666666668
-450.0   60.0   16.666666666666668
-400.0   60.0   16.666666666666668
-450.0   60.0   0.0
-450.0   30.0   16.666666666666668
-400.0   60.0   16.666666666666668
-400.0   30.0   16.666666666666668
-400.0   30.0   0.0
-450.0   30.0   16.666666666666668
-400.0   60.0   16.666666666666668
-400.0   30.0   0.0
-450.0   60.0   0.0
-450.0   30.0   16.666666666666668
-400.0   30.0   16.666666666666668
-450.0   60.0   16.666666666666668
-450.0   30.0   33.333333333333336
-400.0   30.0   16.666666666666668
-400.0   60.0   16.666666666666668
-450.0   60.0   16.666666666666668
-400.0   60.0   33.333333333333336
-450.0   30.0   33.333333333333336
-450.0   60.0   33.333333333333336
-400.0   60.0   33.333333333333336
-450.0   60.0   16.666666666666668
-450.0   30.0   33.333333333333336
-400.0   60.0   33.333333333333336
-400.0   30.0   33.333333333333336
-400.0   30.0   16.666666666666668
-450.0   30.0   33.333333333333336
-400.0   60.0   33.333333333333336
-400.0   30.0   16.666666666666668
-450.0   60.0   16.666666666666668
-450.0   30.0   33.333333333333336
-400.0   30.0   33.333333333333336
-450.0   60.0   33.333333333333336
-450.0   30.0   50.0
-400.0   30.0   33.333333333333336
-400.0   60.0   33.333333333333336
-450.0   60.0   33.333333333333336
-400.0   60.0   50.0
-450.0   30.0   50.0
-450.0   60.0   50.0
-400.0   60.0   50.0
-450.0   60.0   33.333333333333336
-450.0   30.0   50.0
-400.0   60.0   50.0
-400.0   30.0   50.0
-400.0   30.0   33.333333333333336
-450.0   30.0   50.0
-400.0   60.0   50.0
-400.0   30.0   33.333333333333336
-450.0   60.0   33.333333333333336
-450.0   60.0   0.0
-400.0   60.0   0.0
-450.0   90.0   0.0
-450.0   60.0   16.666666666666668
-400.0   60.0   0.0
-400.0   90.0   0.0
-450.0   90.0   0.0
-400.0   90.0   16.666666666666668
-450.0   60.0   16.666666666666668
-450.0   90.0   16.666666666666668
-400.0   90.0   16.666666666666668
-450.0   90.0   0.0
-450.0   60.0   16.666666666666668
-400.0   90.0   16.666666666666668
-400.0   60.0   16.666666666666668
-400.0   60.0   0.0
-450.0   60.0   16.666666666666668
-400.0   90.0   16.666666666666668
-400.0   60.0   0.0
-450.0   90.0   0.0
-450.0   60.0   16.666666666666668
-400.0   60.0   16.666666666666668
-450.0   90.0   16.666666666666668
-450.0   60.0   33.333333333333336
-400.0   60.0   16.666666666666668
-400.0   90.0   16.666666666666668
-450.0   90.0   16.666666666666668
-400.0   90.0   33.333333333333336
-450.0   60.0   33.333333333333336
-450.0   90.0   33.333333333333336
-400.0   90.0   33.333333333333336
-450.0   90.0   16.666666666666668
-450.0   60.0   33.333333333333336
-400.0   90.0   33.333333333333336
-400.0   60.0   33.333333333333336
-400.0   60.0   16.666666666666668
-450.0   60.0   33.333333333333336
-400.0   90.0   33.333333333333336
-400.0   60.0   16.666666666666668
-450.0   90.0   16.666666666666668
-450.0   60.0   33.333333333333336
-400.0   60.0   33.333333333333336
-450.0   90.0   33.333333333333336
-450.0   60.0   50.0
-400.0   60.0   33.333333333333336
-400.0   90.0   33.333333333333336
-450.0   90.0   33.333333333333336
-400.0   90.0   50.0
-450.0   60.0   50.0
-450.0   90.0   50.0
-400.0   90.0   50.0
-450.0   90.0   33.333333333333336
-450.0   60.0   50.0
-400.0   90.0   50.0
-400.0   60.0   50.0
-400.0   60.0   33.333333333333336
-450.0   60.0   50.0
-400.0   90.0   50.0
-400.0   60.0   33.333333333333336
-450.0   90.0   33.333333333333336
-450.0   90.0   0.0
-400.0   90.0   0.0
-450.0   120.0   0.0
-450.0   90.0   16.666666666666668
-400.0   90.0   0.0
-400.0   120.0   0.0
-450.0   120.0   0.0
-400.0   120.0   16.666666666666668
-450.0   90.0   16.666666666666668
-450.0   120.0   16.666666666666668
-400.0   120.0   16.666666666666668
-450.0   120.0   0.0
-450.0   90.0   16.666666666666668
-400.0   120.0   16.666666666666668
-400.0   90.0   16.666666666666668
-400.0   90.0   0.0
-450.0   90.0   16.666666666666668
-400.0   120.0   16.666666666666668
-400.0   90.0   0.0
-450.0   120.0   0.0
-450.0   90.0   16.666666666666668
-400.0   90.0   16.666666666666668
-450.0   120.0   16.666666666666668
-450.0   90.0   33.333333333333336
-400.0   90.0   16.666666666666668
-400.0   120.0   16.666666666666668
-450.0   120.0   16.666666666666668
-400.0   120.0   33.333333333333336
-450.0   90.0   33.333333333333336
-450.0   120.0   33.333333333333336
-400.0   120.0   33.333333333333336
-450.0   120.0   16.666666666666668
-450.0   90.0   33.333333333333336
-400.0   120.0   33.333333333333336
-400.0   90.0   33.333333333333336
-400.0   90.0   16.666666666666668
-450.0   90.0   33.333333333333336
-400.0   120.0   33.333333333333336
-400.0   90.0   16.666666666666668
-450.0   120.0   16.666666666666668
-450.0   90.0   33.333333333333336
-400.0   90.0   33.333333333333336
-450.0   120.0   33.333333333333336
-450.0   90.0   50.0
-400.0   90.0   33.333333333333336
-400.0   120.0   33.333333333333336
-450.0   120.0   33.333333333333336
-400.0   120.0   50.0
-450.0   90.0   50.0
-450.0   120.0   50.0
-400.0   120.0   50.0
-450.0   120.0   33.333333333333336
-450.0   90.0   50.0
-400.0   120.0   50.0
-400.0   90.0   50.0
-400.0   90.0   33.333333333333336
-450.0   90.0   50.0
-400.0   120.0   50.0
-400.0   90.0   33.333333333333336
-450.0   120.0   33.333333333333336
-450.0   120.0   0.0
-400.0   120.0   0.0
-450.0   150.0   0.0
-450.0   120.0   16.666666666666668
-400.0   120.0   0.0
-400.0   150.0   0.0
-450.0   150.0   0.0
-400.0   150.0   16.666666666666668
-450.0   120.0   16.666666666666668
-450.0   150.0   16.666666666666668
-400.0   150.0   16.666666666666668
-450.0   150.0   0.0
-450.0   120.0   16.666666666666668
-400.0   150.0   16.666666666666668
-400.0   120.0   16.666666666666668
-400.0   120.0   0.0
-450.0   120.0   16.666666666666668
-400.0   150.0   16.666666666666668
-400.0   120.0   0.0
-450.0   150.0   0.0
-450.0   120.0   16.666666666666668
-400.0   120.0   16.666666666666668
-450.0   150.0   16.666666666666668
-450.0   120.0   33.333333333333336
-400.0   120.0   16.666666666666668
-400.0   150.0   16.666666666666668
-450.0   150.0   16.666666666666668
-400.0   150.0   33.333333333333336
-450.0   120.0   33.333333333333336
-450.0   150.0   33.333333333333336
-400.0   150.0   33.333333333333336
-450.0   150.0   16.666666666666668
-450.0   120.0   33.333333333333336
-400.0   150.0   33.333333333333336
-400.0   120.0   33.333333333333336
-400.0   120.0   16.666666666666668
-450.0   120.0   33.333333333333336
-400.0   150.0   33.333333333333336
-400.0   120.0   16.666666666666668
-450.0   150.0   16.666666666666668
-450.0   120.0   33.333333333333336
-400.0   120.0   33.333333333333336
-450.0   150.0   33.333333333333336
-450.0   120.0   50.0
-400.0   120.0   33.333333333333336
-400.0   150.0   33.333333333333336
-450.0   150.0   33.333333333333336
-400.0   150.0   50.0
-450.0   120.0   50.0
-450.0   150.0   50.0
-400.0   150.0   50.0
-450.0   150.0   33.333333333333336
-450.0   120.0   50.0
-400.0   150.0   50.0
-400.0   120.0   50.0
-400.0   120.0   33.333333333333336
-450.0   120.0   50.0
-400.0   150.0   50.0
-400.0   120.0   33.333333333333336
-450.0   150.0   33.333333333333336
-400.0   0.0   0.0
-350.0   0.0   0.0
-400.0   30.0   0.0
-400.0   0.0   16.666666666666668
-350.0   0.0   0.0
-350.0   30.0   0.0
-400.0   30.0   0.0
-350.0   30.0   16.666666666666668
-400.0   0.0   16.666666666666668
-400.0   30.0   16.666666666666668
-350.0   30.0   16.666666666666668
-400.0   30.0   0.0
-400.0   0.0   16.666666666666668
-350.0   30.0   16.666666666666668
-350.0   0.0   16.666666666666668
-350.0   0.0   0.0
-400.0   0.0   16.666666666666668
-350.0   30.0   16.666666666666668
-350.0   0.0   0.0
-400.0   30.0   0.0
-400.0   0.0   16.666666666666668
-350.0   0.0   16.666666666666668
-400.0   30.0   16.666666666666668
-400.0   0.0   33.333333333333336
-350.0   0.0   16.666666666666668
-350.0   30.0   16.666666666666668
-400.0   30.0   16.666666666666668
-350.0   30.0   33.333333333333336
-400.0   0.0   33.333333333333336
-400.0   30.0   33.333333333333336
-350.0   30.0   33.333333333333336
-400.0   30.0   16.666666666666668
-400.0   0.0   33.333333333333336
-350.0   30.0   33.333333333333336
-350.0   0.0   33.333333333333336
-350.0   0.0   16.666666666666668
-400.0   0.0   33.333333333333336
-350.0   30.0   33.333333333333336
-350.0   0.0   16.666666666666668
-400.0   30.0   16.666666666666668
-400.0   0.0   33.333333333333336
-350.0   0.0   33.333333333333336
-400.0   30.0   33.333333333333336
-400.0   0.0   50.0
-350.0   0.0   33.333333333333336
-350.0   30.0   33.333333333333336
-400.0   30.0   33.333333333333336
-350.0   30.0   50.0
-400.0   0.0   50.0
-400.0   30.0   50.0
-350.0   30.0   50.0
-400.0   30.0   33.333333333333336
-400.0   0.0   50.0
-350.0   30.0   50.0
-350.0   0.0   50.0
-350.0   0.0   33.333333333333336
-400.0   0.0   50.0
-350.0   30.0   50.0
-350.0   0.0   33.333333333333336
-400.0   30.0   33.333333333333336
-400.0   30.0   0.0
-350.0   30.0   0.0
-400.0   60.0   0.0
-400.0   30.0   16.666666666666668
-350.0   30.0   0.0
-350.0   60.0   0.0
-400.0   60.0   0.0
-350.0   60.0   16.666666666666668
-400.0   30.0   16.666666666666668
-400.0   60.0   16.666666666666668
-350.0   60.0   16.666666666666668
-400.0   60.0   0.0
-400.0   30.0   16.666666666666668
-350.0   60.0   16.666666666666668
-350.0   30.0   16.666666666666668
-350.0   30.0   0.0
-400.0   30.0   16.666666666666668
-350.0   60.0   16.666666666666668
-350.0   30.0   0.0
-400.0   60.0   0.0
-400.0   30.0   16.666666666666668
-350.0   30.0   16.666666666666668
-400.0   60.0   16.666666666666668
-400.0   30.0   33.333333333333336
-350.0   30.0   16.666666666666668
-350.0   60.0   16.666666666666668
-400.0   60.0   16.666666666666668
-350.0   60.0   33.333333333333336
-400.0   30.0   33.333333333333336
-400.0   60.0   33.333333333333336
-350.0   60.0   33.333333333333336
-400.0   60.0   16.666666666666668
-400.0   30.0   33.333333333333336
-350.0   60.0   33.333333333333336
-350.0   30.0   33.333333333333336
-350.0   30.0   16.666666666666668
-400.0   30.0   33.333333333333336
-350.0   60.0   33.333333333333336
-350.0   30.0   16.666666666666668
-400.0   60.0   16.666666666666668
-400.0   30.0   33.333333333333336
-350.0   30.0   33.333333333333336
-400.0   60.0   33.333333333333336
-400.0   30.0   50.0
-350.0   30.0   33.333333333333336
-350.0   60.0   33.333333333333336
-400.0   60.0   33.333333333333336
-350.0   60.0   50.0
-400.0   30.0   50.0
-400.0   60.0   50.0
-350.0   60.0   50.0
-400.0   60.0   33.333333333333336
-400.0   30.0   50.0
-350.0   60.0   50.0
-350.0   30.0   50.0
-350.0   30.0   33.333333333333336
-400.0   30.0   50.0
-350.0   60.0   50.0
-350.0   30.0   33.333333333333336
-400.0   60.0   33.333333333333336
-400.0   60.0   0.0
-350.0   60.0   0.0
-400.0   90.0   0.0
-400.0   60.0   16.666666666666668
-350.0   60.0   0.0
-350.0   90.0   0.0
-400.0   90.0   0.0
-350.0   90.0   16.666666666666668
-400.0   60.0   16.666666666666668
-400.0   90.0   16.666666666666668
-350.0   90.0   16.666666666666668
-400.0   90.0   0.0
-400.0   60.0   16.666666666666668
-350.0   90.0   16.666666666666668
-350.0   60.0   16.666666666666668
-350.0   60.0   0.0
-400.0   60.0   16.666666666666668
-350.0   90.0   16.666666666666668
-350.0   60.0   0.0
-400.0   90.0   0.0
-400.0   60.0   16.666666666666668
-350.0   60.0   16.666666666666668
-400.0   90.0   16.666666666666668
-400.0   60.0   33.333333333333336
-350.0   60.0   16.666666666666668
-350.0   90.0   16.666666666666668
-400.0   90.0   16.666666666666668
-350.0   90.0   33.333333333333336
-400.0   60.0   33.333333333333336
-400.0   90.0   33.333333333333336
-350.0   90.0   33.333333333333336
-400.0   90.0   16.666666666666668
-400.0   60.0   33.333333333333336
-350.0   90.0   33.333333333333336
-350.0   60.0   33.333333333333336
-350.0   60.0   16.666666666666668
-400.0   60.0   33.333333333333336
-350.0   90.0   33.333333333333336
-350.0   60.0   16.666666666666668
-400.0   90.0   16.666666666666668
-400.0   60.0   33.333333333333336
-350.0   60.0   33.333333333333336
-400.0   90.0   33.333333333333336
-400.0   60.0   50.0
-350.0   60.0   33.333333333333336
-350.0   90.0   33.333333333333336
-400.0   90.0   33.333333333333336
-350.0   90.0   50.0
-400.0   60.0   50.0
-400.0   90.0   50.0
-350.0   90.0   50.0
-400.0   90.0   33.333333333333336
-400.0   60.0   50.0
-350.0   90.0   50.0
-350.0   60.0   50.0
-350.0   60.0   33.333333333333336
-400.0   60.0   50.0
-350.0   90.0   50.0
-350.0   60.0   33.333333333333336
-400.0   90.0   33.333333333333336
-400.0   90.0   0.0
-350.0   90.0   0.0
-400.0   120.0   0.0
-400.0   90.0   16.666666666666668
-350.0   90.0   0.0
-350.0   120.0   0.0
-400.0   120.0   0.0
-350.0   120.0   16.666666666666668
-400.0   90.0   16.666666666666668
-400.0   120.0   16.666666666666668
-350.0   120.0   16.666666666666668
-400.0   120.0   0.0
-400.0   90.0   16.666666666666668
-350.0   120.0   16.666666666666668
-350.0   90.0   16.666666666666668
-350.0   90.0   0.0
-400.0   90.0   16.666666666666668
-350.0   120.0   16.666666666666668
-350.0   90.0   0.0
-400.0   120.0   0.0
-400.0   90.0   16.666666666666668
-350.0   90.0   16.666666666666668
-400.0   120.0   16.666666666666668
-400.0   90.0   33.333333333333336
-350.0   90.0   16.666666666666668
-350.0   120.0   16.666666666666668
-400.0   120.0   16.666666666666668
-350.0   120.0   33.333333333333336
-400.0   90.0   33.333333333333336
-400.0   120.0   33.333333333333336
-350.0   120.0   33.333333333333336
-400.0   120.0   16.666666666666668
-400.0   90.0   33.333333333333336
-350.0   120.0   33.333333333333336
-350.0   90.0   33.333333333333336
-350.0   90.0   16.666666666666668
-400.0   90.0   33.333333333333336
-350.0   120.0   33.333333333333336
-350.0   90.0   16.666666666666668
-400.0   120.0   16.666666666666668
-400.0   90.0   33.333333333333336
-350.0   90.0   33.333333333333336
-400.0   120.0   33.333333333333336
-400.0   90.0   50.0
-350.0   90.0   33.333333333333336
-350.0   120.0   33.333333333333336
-400.0   120.0   33.333333333333336
-350.0   120.0   50.0
-400.0   90.0   50.0
-400.0   120.0   50.0
-350.0   120.0   50.0
-400.0   120.0   33.333333333333336
-400.0   90.0   50.0
-350.0   120.0   50.0
-350.0   90.0   50.0
-350.0   90.0   33.333333333333336
-400.0   90.0   50.0
-350.0   120.0   50.0
-350.0   90.0   33.333333333333336
-400.0   120.0   33.333333333333336
-400.0   120.0   0.0
-350.0   120.0   0.0
-400.0   150.0   0.0
-400.0   120.0   16.666666666666668
-350.0   120.0   0.0
-350.0   150.0   0.0
-400.0   150.0   0.0
-350.0   150.0   16.666666666666668
-400.0   120.0   16.666666666666668
-400.0   150.0   16.666666666666668
-350.0   150.0   16.666666666666668
-400.0   150.0   0.0
-400.0   120.0   16.666666666666668
-350.0   150.0   16.666666666666668
-350.0   120.0   16.666666666666668
-350.0   120.0   0.0
-400.0   120.0   16.666666666666668
-350.0   150.0   16.666666666666668
-350.0   120.0   0.0
-400.0   150.0   0.0
-400.0   120.0   16.666666666666668
-350.0   120.0   16.666666666666668
-400.0   150.0   16.666666666666668
-400.0   120.0   33.333333333333336
-350.0   120.0   16.666666666666668
-350.0   150.0   16.666666666666668
-400.0   150.0   16.666666666666668
-350.0   150.0   33.333333333333336
-400.0   120.0   33.333333333333336
-400.0   150.0   33.333333333333336
-350.0   150.0   33.333333333333336
-400.0   150.0   16.666666666666668
-400.0   120.0   33.333333333333336
-350.0   150.0   33.333333333333336
-350.0   120.0   33.333333333333336
-350.0   120.0   16.666666666666668
-400.0   120.0   33.333333333333336
-350.0   150.0   33.333333333333336
-350.0   120.0   16.666666666666668
-400.0   150.0   16.666666666666668
-400.0   120.0   33.333333333333336
-350.0   120.0   33.333333333333336
-400.0   150.0   33.333333333333336
-400.0   120.0   50.0
-350.0   120.0   33.333333333333336
-350.0   150.0   33.333333333333336
-400.0   150.0   33.333333333333336
-350.0   150.0   50.0
-400.0   120.0   50.0
-400.0   150.0   50.0
-350.0   150.0   50.0
-400.0   150.0   33.333333333333336
-400.0   120.0   50.0
-350.0   150.0   50.0
-350.0   120.0   50.0
-350.0   120.0   33.333333333333336
-400.0   120.0   50.0
-350.0   150.0   50.0
-350.0   120.0   33.333333333333336
-400.0   150.0   33.333333333333336
-350.0   0.0   0.0
-300.0   0.0   0.0
-350.0   30.0   0.0
-350.0   0.0   16.666666666666668
-300.0   0.0   0.0
-300.0   30.0   0.0
-350.0   30.0   0.0
-300.0   30.0   16.666666666666668
-350.0   0.0   16.666666666666668
-350.0   30.0   16.666666666666668
-300.0   30.0   16.666666666666668
-350.0   30.0   0.0
-350.0   0.0   16.666666666666668
-300.0   30.0   16.666666666666668
-300.0   0.0   16.666666666666668
-300.0   0.0   0.0
-350.0   0.0   16.666666666666668
-300.0   30.0   16.666666666666668
-300.0   0.0   0.0
-350.0   30.0   0.0
-350.0   0.0   16.666666666666668
-300.0   0.0   16.666666666666668
-350.0   30.0   16.666666666666668
-350.0   0.0   33.333333333333336
-300.0   0.0   16.666666666666668
-300.0   30.0   16.666666666666668
-350.0   30.0   16.666666666666668
-300.0   30.0   33.333333333333336
-350.0   0.0   33.333333333333336
-350.0   30.0   33.333333333333336
-300.0   30.0   33.333333333333336
-350.0   30.0   16.666666666666668
-350.0   0.0   33.333333333333336
-300.0   30.0   33.333333333333336
-300.0   0.0   33.333333333333336
-300.0   0.0   16.666666666666668
-350.0   0.0   33.333333333333336
-300.0   30.0   33.333333333333336
-300.0   0.0   16.666666666666668
-350.0   30.0   16.666666666666668
-350.0   0.0   33.333333333333336
-300.0   0.0   33.333333333333336
-350.0   30.0   33.333333333333336
-350.0   0.0   50.0
-300.0   0.0   33.333333333333336
-300.0   30.0   33.333333333333336
-350.0   30.0   33.333333333333336
-300.0   30.0   50.0
-350.0   0.0   50.0
-350.0   30.0   50.0
-300.0   30.0   50.0
-350.0   30.0   33.333333333333336
-350.0   0.0   50.0
-300.0   30.0   50.0
-300.0   0.0   50.0
-300.0   0.0   33.333333333333336
-350.0   0.0   50.0
-300.0   30.0   50.0
-300.0   0.0   33.333333333333336
-350.0   30.0   33.333333333333336
-350.0   30.0   0.0
-300.0   30.0   0.0
-350.0   60.0   0.0
-350.0   30.0   16.666666666666668
-300.0   30.0   0.0
-300.0   60.0   0.0
-350.0   60.0   0.0
-300.0   60.0   16.666666666666668
-350.0   30.0   16.666666666666668
-350.0   60.0   16.666666666666668
-300.0   60.0   16.666666666666668
-350.0   60.0   0.0
-350.0   30.0   16.666666666666668
-300.0   60.0   16.666666666666668
-300.0   30.0   16.666666666666668
-300.0   30.0   0.0
-350.0   30.0   16.666666666666668
-300.0   60.0   16.666666666666668
-300.0   30.0   0.0
-350.0   60.0   0.0
-350.0   30.0   16.666666666666668
-300.0   30.0   16.666666666666668
-350.0   60.0   16.666666666666668
-350.0   30.0   33.333333333333336
-300.0   30.0   16.666666666666668
-300.0   60.0   16.666666666666668
-350.0   60.0   16.666666666666668
-300.0   60.0   33.333333333333336
-350.0   30.0   33.333333333333336
-350.0   60.0   33.333333333333336
-300.0   60.0   33.333333333333336
-350.0   60.0   16.666666666666668
-350.0   30.0   33.333333333333336
-300.0   60.0   33.333333333333336
-300.0   30.0   33.333333333333336
-300.0   30.0   16.666666666666668
-350.0   30.0   33.333333333333336
-300.0   60.0   33.333333333333336
-300.0   30.0   16.666666666666668
-350.0   60.0   16.666666666666668
-350.0   30.0   33.333333333333336
-300.0   30.0   33.333333333333336
-350.0   60.0   33.333333333333336
-350.0   30.0   50.0
-300.0   30.0   33.333333333333336
-300.0   60.0   33.333333333333336
-350.0   60.0   33.333333333333336
-300.0   60.0   50.0
-350.0   30.0   50.0
-350.0   60.0   50.0
-300.0   60.0   50.0
-350.0   60.0   33.333333333333336
-350.0   30.0   50.0
-300.0   60.0   50.0
-300.0   30.0   50.0
-300.0   30.0   33.333333333333336
-350.0   30.0   50.0
-300.0   60.0   50.0
-300.0   30.0   33.333333333333336
-350.0   60.0   33.333333333333336
-350.0   60.0   0.0
-300.0   60.0   0.0
-350.0   90.0   0.0
-350.0   60.0   16.666666666666668
-300.0   60.0   0.0
-300.0   90.0   0.0
-350.0   90.0   0.0
-300.0   90.0   16.666666666666668
-350.0   60.0   16.666666666666668
-350.0   90.0   16.666666666666668
-300.0   90.0   16.666666666666668
-350.0   90.0   0.0
-350.0   60.0   16.666666666666668
-300.0   90.0   16.666666666666668
-300.0   60.0   16.666666666666668
-300.0   60.0   0.0
-350.0   60.0   16.666666666666668
-300.0   90.0   16.666666666666668
-300.0   60.0   0.0
-350.0   90.0   0.0
-350.0   60.0   16.666666666666668
-300.0   60.0   16.666666666666668
-350.0   90.0   16.666666666666668
-350.0   60.0   33.333333333333336
-300.0   60.0   16.666666666666668
-300.0   90.0   16.666666666666668
-350.0   90.0   16.666666666666668
-300.0   90.0   33.333333333333336
-350.0   60.0   33.333333333333336
-350.0   90.0   33.333333333333336
-300.0   90.0   33.333333333333336
-350.0   90.0   16.666666666666668
-350.0   60.0   33.333333333333336
-300.0   90.0   33.333333333333336
-300.0   60.0   33.333333333333336
-300.0   60.0   16.666666666666668
-350.0   60.0   33.333333333333336
-300.0   90.0   33.333333333333336
-300.0   60.0   16.666666666666668
-350.0   90.0   16.666666666666668
-350.0   60.0   33.333333333333336
-300.0   60.0   33.333333333333336
-350.0   90.0   33.333333333333336
-350.0   60.0   50.0
-300.0   60.0   33.333333333333336
-300.0   90.0   33.333333333333336
-350.0   90.0   33.333333333333336
-300.0   90.0   50.0
-350.0   60.0   50.0
-350.0   90.0   50.0
-300.0   90.0   50.0
-350.0   90.0   33.333333333333336
-350.0   60.0   50.0
-300.0   90.0   50.0
-300.0   60.0   50.0
-300.0   60.0   33.333333333333336
-350.0   60.0   50.0
-300.0   90.0   50.0
-300.0   60.0   33.333333333333336
-350.0   90.0   33.333333333333336
-350.0   90.0   0.0
-300.0   90.0   0.0
-350.0   120.0   0.0
-350.0   90.0   16.666666666666668
-300.0   90.0   0.0
-300.0   120.0   0.0
-350.0   120.0   0.0
-300.0   120.0   16.666666666666668
-350.0   90.0   16.666666666666668
-350.0   120.0   16.666666666666668
-300.0   120.0   16.666666666666668
-350.0   120.0   0.0
-350.0   90.0   16.666666666666668
-300.0   120.0   16.666666666666668
-300.0   90.0   16.666666666666668
-300.0   90.0   0.0
-350.0   90.0   16.666666666666668
-300.0   120.0   16.666666666666668
-300.0   90.0   0.0
-350.0   120.0   0.0
-350.0   90.0   16.666666666666668
-300.0   90.0   16.666666666666668
-350.0   120.0   16.666666666666668
-350.0   90.0   33.333333333333336
-300.0   90.0   16.666666666666668
-300.0   120.0   16.666666666666668
-350.0   120.0   16.666666666666668
-300.0   120.0   33.333333333333336
-350.0   90.0   33.333333333333336
-350.0   120.0   33.333333333333336
-300.0   120.0   33.333333333333336
-350.0   120.0   16.666666666666668
-350.0   90.0   33.333333333333336
-300.0   120.0   33.333333333333336
-300.0   90.0   33.333333333333336
-300.0   90.0   16.666666666666668
-350.0   90.0   33.333333333333336
-300.0   120.0   33.333333333333336
-300.0   90.0   16.666666666666668
-350.0   120.0   16.666666666666668
-350.0   90.0   33.333333333333336
-300.0   90.0   33.333333333333336
-350.0   120.0   33.333333333333336
-350.0   90.0   50.0
-300.0   90.0   33.333333333333336
-300.0   120.0   33.333333333333336
-350.0   120.0   33.333333333333336
-300.0   120.0   50.0
-350.0   90.0   50.0
-350.0   120.0   50.0
-300.0   120.0   50.0
-350.0   120.0   33.333333333333336
-350.0   90.0   50.0
-300.0   120.0   50.0
-300.0   90.0   50.0
-300.0   90.0   33.333333333333336
-350.0   90.0   50.0
-300.0   120.0   50.0
-300.0   90.0   33.333333333333336
-350.0   120.0   33.333333333333336
-350.0   120.0   0.0
-300.0   120.0   0.0
-350.0   150.0   0.0
-350.0   120.0   16.666666666666668
-300.0   120.0   0.0
-300.0   150.0   0.0
-350.0   150.0   0.0
-300.0   150.0   16.666666666666668
-350.0   120.0   16.666666666666668
-350.0   150.0   16.666666666666668
-300.0   150.0   16.666666666666668
-350.0   150.0   0.0
-350.0   120.0   16.666666666666668
-300.0   150.0   16.666666666666668
-300.0   120.0   16.666666666666668
-300.0   120.0   0.0
-350.0   120.0   16.666666666666668
-300.0   150.0   16.666666666666668
-300.0   120.0   0.0
-350.0   150.0   0.0
-350.0   120.0   16.666666666666668
-300.0   120.0   16.666666666666668
-350.0   150.0   16.666666666666668
-350.0   120.0   33.333333333333336
-300.0   120.0   16.666666666666668
-300.0   150.0   16.666666666666668
-350.0   150.0   16.666666666666668
-300.0   150.0   33.333333333333336
-350.0   120.0   33.333333333333336
-350.0   150.0   33.333333333333336
-300.0   150.0   33.333333333333336
-350.0   150.0   16.666666666666668
-350.0   120.0   33.333333333333336
-300.0   150.0   33.333333333333336
-300.0   120.0   33.333333333333336
-300.0   120.0   16.666666666666668
-350.0   120.0   33.333333333333336
-300.0   150.0   33.333333333333336
-300.0   120.0   16.666666666666668
-350.0   150.0   16.666666666666668
-350.0   120.0   33.333333333333336
-300.0   120.0   33.333333333333336
-350.0   150.0   33.333333333333336
-350.0   120.0   50.0
-300.0   120.0   33.333333333333336
-300.0   150.0   33.333333333333336
-350.0   150.0   33.333333333333336
-300.0   150.0   50.0
-350.0   120.0   50.0
-350.0   150.0   50.0
-300.0   150.0   50.0
-350.0   150.0   33.333333333333336
-350.0   120.0   50.0
-300.0   150.0   50.0
-300.0   120.0   50.0
-300.0   120.0   33.333333333333336
-350.0   120.0   50.0
-300.0   150.0   50.0
-300.0   120.0   33.333333333333336
-350.0   150.0   33.333333333333336
-300.0   0.0   0.0
-250.0   0.0   0.0
-300.0   30.0   0.0
-300.0   0.0   16.666666666666668
-250.0   0.0   0.0
-250.0   30.0   0.0
-300.0   30.0   0.0
-250.0   30.0   16.666666666666668
-300.0   0.0   16.666666666666668
-300.0   30.0   16.666666666666668
-250.0   30.0   16.666666666666668
-300.0   30.0   0.0
-300.0   0.0   16.666666666666668
-250.0   30.0   16.666666666666668
-250.0   0.0   16.666666666666668
-250.0   0.0   0.0
-300.0   0.0   16.666666666666668
-250.0   30.0   16.666666666666668
-250.0   0.0   0.0
-300.0   30.0   0.0
-300.0   0.0   16.666666666666668
-250.0   0.0   16.666666666666668
-300.0   30.0   16.666666666666668
-300.0   0.0   33.333333333333336
-250.0   0.0   16.666666666666668
-250.0   30.0   16.666666666666668
-300.0   30.0   16.666666666666668
-250.0   30.0   33.333333333333336
-300.0   0.0   33.333333333333336
-300.0   30.0   33.333333333333336
-250.0   30.0   33.333333333333336
-300.0   30.0   16.666666666666668
-300.0   0.0   33.333333333333336
-250.0   30.0   33.333333333333336
-250.0   0.0   33.333333333333336
-250.0   0.0   16.666666666666668
-300.0   0.0   33.333333333333336
-250.0   30.0   33.333333333333336
-250.0   0.0   16.666666666666668
-300.0   30.0   16.666666666666668
-300.0   0.0   33.333333333333336
-250.0   0.0   33.333333333333336
-300.0   30.0   33.333333333333336
-300.0   0.0   50.0
-250.0   0.0   33.333333333333336
-250.0   30.0   33.333333333333336
-300.0   30.0   33.333333333333336
-250.0   30.0   50.0
-300.0   0.0   50.0
-300.0   30.0   50.0
-250.0   30.0   50.0
-300.0   30.0   33.333333333333336
-300.0   0.0   50.0
-250.0   30.0   50.0
-250.0   0.0   50.0
-250.0   0.0   33.333333333333336
-300.0   0.0   50.0
-250.0   30.0   50.0
-250.0   0.0   33.333333333333336
-300.0   30.0   33.333333333333336
-300.0   30.0   0.0
-250.0   30.0   0.0
-300.0   60.0   0.0
-300.0   30.0   16.666666666666668
-250.0   30.0   0.0
-250.0   60.0   0.0
-300.0   60.0   0.0
-250.0   60.0   16.666666666666668
-300.0   30.0   16.666666666666668
-300.0   60.0   16.666666666666668
-250.0   60.0   16.666666666666668
-300.0   60.0   0.0
-300.0   30.0   16.666666666666668
-250.0   60.0   16.666666666666668
-250.0   30.0   16.666666666666668
-250.0   30.0   0.0
-300.0   30.0   16.666666666666668
-250.0   60.0   16.666666666666668
-250.0   30.0   0.0
-300.0   60.0   0.0
-300.0   30.0   16.666666666666668
-250.0   30.0   16.666666666666668
-300.0   60.0   16.666666666666668
-300.0   30.0   33.333333333333336
-250.0   30.0   16.666666666666668
-250.0   60.0   16.666666666666668
-300.0   60.0   16.666666666666668
-250.0   60.0   33.333333333333336
-300.0   30.0   33.333333333333336
-300.0   60.0   33.333333333333336
-250.0   60.0   33.333333333333336
-300.0   60.0   16.666666666666668
-300.0   30.0   33.333333333333336
-250.0   60.0   33.333333333333336
-250.0   30.0   33.333333333333336
-250.0   30.0   16.666666666666668
-300.0   30.0   33.333333333333336
-250.0   60.0   33.333333333333336
-250.0   30.0   16.666666666666668
-300.0   60.0   16.666666666666668
-300.0   30.0   33.333333333333336
-250.0   30.0   33.333333333333336
-300.0   60.0   33.333333333333336
-300.0   30.0   50.0
-250.0   30.0   33.333333333333336
-250.0   60.0   33.333333333333336
-300.0   60.0   33.333333333333336
-250.0   60.0   50.0
-300.0   30.0   50.0
-300.0   60.0   50.0
-250.0   60.0   50.0
-300.0   60.0   33.333333333333336
-300.0   30.0   50.0
-250.0   60.0   50.0
-250.0   30.0   50.0
-250.0   30.0   33.333333333333336
-300.0   30.0   50.0
-250.0   60.0   50.0
-250.0   30.0   33.333333333333336
-300.0   60.0   33.333333333333336
-300.0   60.0   0.0
-250.0   60.0   0.0
-300.0   90.0   0.0
-300.0   60.0   16.666666666666668
-250.0   60.0   0.0
-250.0   90.0   0.0
-300.0   90.0   0.0
-250.0   90.0   16.666666666666668
-300.0   60.0   16.666666666666668
-300.0   90.0   16.666666666666668
-250.0   90.0   16.666666666666668
-300.0   90.0   0.0
-300.0   60.0   16.666666666666668
-250.0   90.0   16.666666666666668
-250.0   60.0   16.666666666666668
-250.0   60.0   0.0
-300.0   60.0   16.666666666666668
-250.0   90.0   16.666666666666668
-250.0   60.0   0.0
-300.0   90.0   0.0
-300.0   60.0   16.666666666666668
-250.0   60.0   16.666666666666668
-300.0   90.0   16.666666666666668
-300.0   60.0   33.333333333333336
-250.0   60.0   16.666666666666668
-250.0   90.0   16.666666666666668
-300.0   90.0   16.666666666666668
-250.0   90.0   33.333333333333336
-300.0   60.0   33.333333333333336
-300.0   90.0   33.333333333333336
-250.0   90.0   33.333333333333336
-300.0   90.0   16.666666666666668
-300.0   60.0   33.333333333333336
-250.0   90.0   33.333333333333336
-250.0   60.0   33.333333333333336
-250.0   60.0   16.666666666666668
-300.0   60.0   33.333333333333336
-250.0   90.0   33.333333333333336
-250.0   60.0   16.666666666666668
-300.0   90.0   16.666666666666668
-300.0   60.0   33.333333333333336
-250.0   60.0   33.333333333333336
-300.0   90.0   33.333333333333336
-300.0   60.0   50.0
-250.0   60.0   33.333333333333336
-250.0   90.0   33.333333333333336
-300.0   90.0   33.333333333333336
-250.0   90.0   50.0
-300.0   60.0   50.0
-300.0   90.0   50.0
-250.0   90.0   50.0
-300.0   90.0   33.333333333333336
-300.0   60.0   50.0
-250.0   90.0   50.0
-250.0   60.0   50.0
-250.0   60.0   33.333333333333336
-300.0   60.0   50.0
-250.0   90.0   50.0
-250.0   60.0   33.333333333333336
-300.0   90.0   33.333333333333336
-300.0   90.0   0.0
-250.0   90.0   0.0
-300.0   120.0   0.0
-300.0   90.0   16.666666666666668
-250.0   90.0   0.0
-250.0   120.0   0.0
-300.0   120.0   0.0
-250.0   120.0   16.666666666666668
-300.0   90.0   16.666666666666668
-300.0   120.0   16.666666666666668
-250.0   120.0   16.666666666666668
-300.0   120.0   0.0
-300.0   90.0   16.666666666666668
-250.0   120.0   16.666666666666668
-250.0   90.0   16.666666666666668
-250.0   90.0   0.0
-300.0   90.0   16.666666666666668
-250.0   120.0   16.666666666666668
-250.0   90.0   0.0
-300.0   120.0   0.0
-300.0   90.0   16.666666666666668
-250.0   90.0   16.666666666666668
-300.0   120.0   16.666666666666668
-300.0   90.0   33.333333333333336
-250.0   90.0   16.666666666666668
-250.0   120.0   16.666666666666668
-300.0   120.0   16.666666666666668
-250.0   120.0   33.333333333333336
-300.0   90.0   33.333333333333336
-300.0   120.0   33.333333333333336
-250.0   120.0   33.333333333333336
-300.0   120.0   16.666666666666668
-300.0   90.0   33.333333333333336
-250.0   120.0   33.333333333333336
-250.0   90.0   33.333333333333336
-250.0   90.0   16.666666666666668
-300.0   90.0   33.333333333333336
-250.0   120.0   33.333333333333336
-250.0   90.0   16.666666666666668
-300.0   120.0   16.666666666666668
-300.0   90.0   33.333333333333336
-250.0   90.0   33.333333333333336
-300.0   120.0   33.333333333333336
-300.0   90.0   50.0
-250.0   90.0   33.333333333333336
-250.0   120.0   33.333333333333336
-300.0   120.0   33.333333333333336
-250.0   120.0   50.0
-300.0   90.0   50.0
-300.0   120.0   50.0
-250.0   120.0   50.0
-300.0   120.0   33.333333333333336
-300.0   90.0   50.0
-250.0   120.0   50.0
-250.0   90.0   50.0
-250.0   90.0   33.333333333333336
-300.0   90.0   50.0
-250.0   120.0   50.0
-250.0   90.0   33.333333333333336
-300.0   120.0   33.333333333333336
-300.0   120.0   0.0
-250.0   120.0   0.0
-300.0   150.0   0.0
-300.0   120.0   16.666666666666668
-250.0   120.0   0.0
-250.0   150.0   0.0
-300.0   150.0   0.0
-250.0   150.0   16.666666666666668
-300.0   120.0   16.666666666666668
-300.0   150.0   16.666666666666668
-250.0   150.0   16.666666666666668
-300.0   150.0   0.0
-300.0   120.0   16.666666666666668
-250.0   150.0   16.666666666666668
-250.0   120.0   16.666666666666668
-250.0   120.0   0.0
-300.0   120.0   16.666666666666668
-250.0   150.0   16.666666666666668
-250.0   120.0   0.0
-300.0   150.0   0.0
-300.0   120.0   16.666666666666668
-250.0   120.0   16.666666666666668
-300.0   150.0   16.666666666666668
-300.0   120.0   33.333333333333336
-250.0   120.0   16.666666666666668
-250.0   150.0   16.666666666666668
-300.0   150.0   16.666666666666668
-250.0   150.0   33.333333333333336
-300.0   120.0   33.333333333333336
-300.0   150.0   33.333333333333336
-250.0   150.0   33.333333333333336
-300.0   150.0   16.666666666666668
-300.0   120.0   33.333333333333336
-250.0   150.0   33.333333333333336
-250.0   120.0   33.333333333333336
-250.0   120.0   16.666666666666668
-300.0   120.0   33.333333333333336
-250.0   150.0   33.333333333333336
-250.0   120.0   16.666666666666668
-300.0   150.0   16.666666666666668
-300.0   120.0   33.333333333333336
-250.0   120.0   33.333333333333336
-300.0   150.0   33.333333333333336
-300.0   120.0   50.0
-250.0   120.0   33.333333333333336
-250.0   150.0   33.333333333333336
-300.0   150.0   33.333333333333336
-250.0   150.0   50.0
-300.0   120.0   50.0
-300.0   150.0   50.0
-250.0   150.0   50.0
-300.0   150.0   33.333333333333336
-300.0   120.0   50.0
-250.0   150.0   50.0
-250.0   120.0   50.0
-250.0   120.0   33.333333333333336
-300.0   120.0   50.0
-250.0   150.0   50.0
-250.0   120.0   33.333333333333336
-300.0   150.0   33.333333333333336
-250.0   0.0   0.0
-200.0   0.0   0.0
-250.0   30.0   0.0
-250.0   0.0   16.666666666666668
-200.0   0.0   0.0
-200.0   30.0   0.0
-250.0   30.0   0.0
-200.0   30.0   16.666666666666668
-250.0   0.0   16.666666666666668
-250.0   30.0   16.666666666666668
-200.0   30.0   16.666666666666668
-250.0   30.0   0.0
-250.0   0.0   16.666666666666668
-200.0   30.0   16.666666666666668
-200.0   0.0   16.666666666666668
-200.0   0.0   0.0
-250.0   0.0   16.666666666666668
-200.0   30.0   16.666666666666668
-200.0   0.0   0.0
-250.0   30.0   0.0
-250.0   0.0   16.666666666666668
-200.0   0.0   16.666666666666668
-250.0   30.0   16.666666666666668
-250.0   0.0   33.333333333333336
-200.0   0.0   16.666666666666668
-200.0   30.0   16.666666666666668
-250.0   30.0   16.666666666666668
-200.0   30.0   33.333333333333336
-250.0   0.0   33.333333333333336
-250.0   30.0   33.333333333333336
-200.0   30.0   33.333333333333336
-250.0   30.0   16.666666666666668
-250.0   0.0   33.333333333333336
-200.0   30.0   33.333333333333336
-200.0   0.0   33.333333333333336
-200.0   0.0   16.666666666666668
-250.0   0.0   33.333333333333336
-200.0   30.0   33.333333333333336
-200.0   0.0   16.666666666666668
-250.0   30.0   16.666666666666668
-250.0   0.0   33.333333333333336
-200.0   0.0   33.333333333333336
-250.0   30.0   33.333333333333336
-250.0   0.0   50.0
-200.0   0.0   33.333333333333336
-200.0   30.0   33.333333333333336
-250.0   30.0   33.333333333333336
-200.0   30.0   50.0
-250.0   0.0   50.0
-250.0   30.0   50.0
-200.0   30.0   50.0
-250.0   30.0   33.333333333333336
-250.0   0.0   50.0
-200.0   30.0   50.0
-200.0   0.0   50.0
-200.0   0.0   33.333333333333336
-250.0   0.0   50.0
-200.0   30.0   50.0
-200.0   0.0   33.333333333333336
-250.0   30.0   33.333333333333336
-250.0   30.0   0.0
-200.0   30.0   0.0
-250.0   60.0   0.0
-250.0   30.0   16.666666666666668
-200.0   30.0   0.0
-200.0   60.0   0.0
-250.0   60.0   0.0
-200.0   60.0   16.666666666666668
-250.0   30.0   16.666666666666668
-250.0   60.0   16.666666666666668
-200.0   60.0   16.666666666666668
-250.0   60.0   0.0
-250.0   30.0   16.666666666666668
-200.0   60.0   16.666666666666668
-200.0   30.0   16.666666666666668
-200.0   30.0   0.0
-250.0   30.0   16.666666666666668
-200.0   60.0   16.666666666666668
-200.0   30.0   0.0
-250.0   60.0   0.0
-250.0   30.0   16.666666666666668
-200.0   30.0   16.666666666666668
-250.0   60.0   16.666666666666668
-250.0   30.0   33.333333333333336
-200.0   30.0   16.666666666666668
-200.0   60.0   16.666666666666668
-250.0   60.0   16.666666666666668
-200.0   60.0   33.333333333333336
-250.0   30.0   33.333333333333336
-250.0   60.0   33.333333333333336
-200.0   60.0   33.333333333333336
-250.0   60.0   16.666666666666668
-250.0   30.0   33.333333333333336
-200.0   60.0   33.333333333333336
-200.0   30.0   33.333333333333336
-200.0   30.0   16.666666666666668
-250.0   30.0   33.333333333333336
-200.0   60.0   33.333333333333336
-200.0   30.0   16.666666666666668
-250.0   60.0   16.666666666666668
-250.0   30.0   33.333333333333336
-200.0   30.0   33.333333333333336
-250.0   60.0   33.333333333333336
-250.0   30.0   50.0
-200.0   30.0   33.333333333333336
-200.0   60.0   33.333333333333336
-250.0   60.0   33.333333333333336
-200.0   60.0   50.0
-250.0   30.0   50.0
-250.0   60.0   50.0
-200.0   60.0   50.0
-250.0   60.0   33.333333333333336
-250.0   30.0   50.0
-200.0   60.0   50.0
-200.0   30.0   50.0
-200.0   30.0   33.333333333333336
-250.0   30.0   50.0
-200.0   60.0   50.0
-200.0   30.0   33.333333333333336
-250.0   60.0   33.333333333333336
-250.0   60.0   0.0
-200.0   60.0   0.0
-250.0   90.0   0.0
-250.0   60.0   16.666666666666668
-200.0   60.0   0.0
-200.0   90.0   0.0
-250.0   90.0   0.0
-200.0   90.0   16.666666666666668
-250.0   60.0   16.666666666666668
-250.0   90.0   16.666666666666668
-200.0   90.0   16.666666666666668
-250.0   90.0   0.0
-250.0   60.0   16.666666666666668
-200.0   90.0   16.666666666666668
-200.0   60.0   16.666666666666668
-200.0   60.0   0.0
-250.0   60.0   16.666666666666668
-200.0   90.0   16.666666666666668
-200.0   60.0   0.0
-250.0   90.0   0.0
-250.0   60.0   16.666666666666668
-200.0   60.0   16.666666666666668
-250.0   90.0   16.666666666666668
-250.0   60.0   33.333333333333336
-200.0   60.0   16.666666666666668
-200.0   90.0   16.666666666666668
-250.0   90.0   16.666666666666668
-200.0   90.0   33.333333333333336
-250.0   60.0   33.333333333333336
-250.0   90.0   33.333333333333336
-200.0   90.0   33.333333333333336
-250.0   90.0   16.666666666666668
-250.0   60.0   33.333333333333336
-200.0   90.0   33.333333333333336
-200.0   60.0   33.333333333333336
-200.0   60.0   16.666666666666668
-250.0   60.0   33.333333333333336
-200.0   90.0   33.333333333333336
-200.0   60.0   16.666666666666668
-250.0   90.0   16.666666666666668
-250.0   60.0   33.333333333333336
-200.0   60.0   33.333333333333336
-250.0   90.0   33.333333333333336
-250.0   60.0   50.0
-200.0   60.0   33.333333333333336
-200.0   90.0   33.333333333333336
-250.0   90.0   33.333333333333336
-200.0   90.0   50.0
-250.0   60.0   50.0
-250.0   90.0   50.0
-200.0   90.0   50.0
-250.0   90.0   33.333333333333336
-250.0   60.0   50.0
-200.0   90.0   50.0
-200.0   60.0   50.0
-200.0   60.0   33.333333333333336
-250.0   60.0   50.0
-200.0   90.0   50.0
-200.0   60.0   33.333333333333336
-250.0   90.0   33.333333333333336
-250.0   90.0   0.0
-200.0   90.0   0.0
-250.0   120.0   0.0
-250.0   90.0   16.666666666666668
-200.0   90.0   0.0
-200.0   120.0   0.0
-250.0   120.0   0.0
-200.0   120.0   16.666666666666668
-250.0   90.0   16.666666666666668
-250.0   120.0   16.666666666666668
-200.0   120.0   16.666666666666668
-250.0   120.0   0.0
-250.0   90.0   16.666666666666668
-200.0   120.0   16.666666666666668
-200.0   90.0   16.666666666666668
-200.0   90.0   0.0
-250.0   90.0   16.666666666666668
-200.0   120.0   16.666666666666668
-200.0   90.0   0.0
-250.0   120.0   0.0
-250.0   90.0   16.666666666666668
-200.0   90.0   16.666666666666668
-250.0   120.0   16.666666666666668
-250.0   90.0   33.333333333333336
-200.0   90.0   16.666666666666668
-200.0   120.0   16.666666666666668
-250.0   120.0   16.666666666666668
-200.0   120.0   33.333333333333336
-250.0   90.0   33.333333333333336
-250.0   120.0   33.333333333333336
-200.0   120.0   33.333333333333336
-250.0   120.0   16.666666666666668
-250.0   90.0   33.333333333333336
-200.0   120.0   33.333333333333336
-200.0   90.0   33.333333333333336
-200.0   90.0   16.666666666666668
-250.0   90.0   33.333333333333336
-200.0   120.0   33.333333333333336
-200.0   90.0   16.666666666666668
-250.0   120.0   16.666666666666668
-250.0   90.0   33.333333333333336
-200.0   90.0   33.333333333333336
-250.0   120.0   33.333333333333336
-250.0   90.0   50.0
-200.0   90.0   33.333333333333336
-200.0   120.0   33.333333333333336
-250.0   120.0   33.333333333333336
-200.0   120.0   50.0
-250.0   90.0   50.0
-250.0   120.0   50.0
-200.0   120.0   50.0
-250.0   120.0   33.333333333333336
-250.0   90.0   50.0
-200.0   120.0   50.0
-200.0   90.0   50.0
-200.0   90.0   33.333333333333336
-250.0   90.0   50.0
-200.0   120.0   50.0
-200.0   90.0   33.333333333333336
-250.0   120.0   33.333333333333336
-250.0   120.0   0.0
-200.0   120.0   0.0
-250.0   150.0   0.0
-250.0   120.0   16.666666666666668
-200.0   120.0   0.0
-200.0   150.0   0.0
-250.0   150.0   0.0
-200.0   150.0   16.666666666666668
-250.0   120.0   16.666666666666668
-250.0   150.0   16.666666666666668
-200.0   150.0   16.666666666666668
-250.0   150.0   0.0
-250.0   120.0   16.666666666666668
-200.0   150.0   16.666666666666668
-200.0   120.0   16.666666666666668
-200.0   120.0   0.0
-250.0   120.0   16.666666666666668
-200.0   150.0   16.666666666666668
-200.0   120.0   0.0
-250.0   150.0   0.0
-250.0   120.0   16.666666666666668
-200.0   120.0   16.666666666666668
-250.0   150.0   16.666666666666668
-250.0   120.0   33.333333333333336
-200.0   120.0   16.666666666666668
-200.0   150.0   16.666666666666668
-250.0   150.0   16.666666666666668
-200.0   150.0   33.333333333333336
-250.0   120.0   33.333333333333336
-250.0   150.0   33.333333333333336
-200.0   150.0   33.333333333333336
-250.0   150.0   16.666666666666668
-250.0   120.0   33.333333333333336
-200.0   150.0   33.333333333333336
-200.0   120.0   33.333333333333336
-200.0   120.0   16.666666666666668
-250.0   120.0   33.333333333333336
-200.0   150.0   33.333333333333336
-200.0   120.0   16.666666666666668
-250.0   150.0   16.666666666666668
-250.0   120.0   33.333333333333336
-200.0   120.0   33.333333333333336
-250.0   150.0   33.333333333333336
-250.0   120.0   50.0
-200.0   120.0   33.333333333333336
-200.0   150.0   33.333333333333336
-250.0   150.0   33.333333333333336
-200.0   150.0   50.0
-250.0   120.0   50.0
-250.0   150.0   50.0
-200.0   150.0   50.0
-250.0   150.0   33.333333333333336
-250.0   120.0   50.0
-200.0   150.0   50.0
-200.0   120.0   50.0
-200.0   120.0   33.333333333333336
-250.0   120.0   50.0
-200.0   150.0   50.0
-200.0   120.0   33.333333333333336
-250.0   150.0   33.333333333333336
-200.0   0.0   0.0
-150.0   0.0   0.0
-200.0   30.0   0.0
-200.0   0.0   16.666666666666668
-150.0   0.0   0.0
-150.0   30.0   0.0
-200.0   30.0   0.0
-150.0   30.0   16.666666666666668
-200.0   0.0   16.666666666666668
-200.0   30.0   16.666666666666668
-150.0   30.0   16.666666666666668
-200.0   30.0   0.0
-200.0   0.0   16.666666666666668
-150.0   30.0   16.666666666666668
-150.0   0.0   16.666666666666668
-150.0   0.0   0.0
-200.0   0.0   16.666666666666668
-150.0   30.0   16.666666666666668
-150.0   0.0   0.0
-200.0   30.0   0.0
-200.0   0.0   16.666666666666668
-150.0   0.0   16.666666666666668
-200.0   30.0   16.666666666666668
-200.0   0.0   33.333333333333336
-150.0   0.0   16.666666666666668
-150.0   30.0   16.666666666666668
-200.0   30.0   16.666666666666668
-150.0   30.0   33.333333333333336
-200.0   0.0   33.333333333333336
-200.0   30.0   33.333333333333336
-150.0   30.0   33.333333333333336
-200.0   30.0   16.666666666666668
-200.0   0.0   33.333333333333336
-150.0   30.0   33.333333333333336
-150.0   0.0   33.333333333333336
-150.0   0.0   16.666666666666668
-200.0   0.0   33.333333333333336
-150.0   30.0   33.333333333333336
-150.0   0.0   16.666666666666668
-200.0   30.0   16.666666666666668
-200.0   0.0   33.333333333333336
-150.0   0.0   33.333333333333336
-200.0   30.0   33.333333333333336
-200.0   0.0   50.0
-150.0   0.0   33.333333333333336
-150.0   30.0   33.333333333333336
-200.0   30.0   33.333333333333336
-150.0   30.0   50.0
-200.0   0.0   50.0
-200.0   30.0   50.0
-150.0   30.0   50.0
-200.0   30.0   33.333333333333336
-200.0   0.0   50.0
-150.0   30.0   50.0
-150.0   0.0   50.0
-150.0   0.0   33.333333333333336
-200.0   0.0   50.0
-150.0   30.0   50.0
-150.0   0.0   33.333333333333336
-200.0   30.0   33.333333333333336
-200.0   30.0   0.0
-150.0   30.0   0.0
-200.0   60.0   0.0
-200.0   30.0   16.666666666666668
-150.0   30.0   0.0
-150.0   60.0   0.0
-200.0   60.0   0.0
-150.0   60.0   16.666666666666668
-200.0   30.0   16.666666666666668
-200.0   60.0   16.666666666666668
-150.0   60.0   16.666666666666668
-200.0   60.0   0.0
-200.0   30.0   16.666666666666668
-150.0   60.0   16.666666666666668
-150.0   30.0   16.666666666666668
-150.0   30.0   0.0
-200.0   30.0   16.666666666666668
-150.0   60.0   16.666666666666668
-150.0   30.0   0.0
-200.0   60.0   0.0
-200.0   30.0   16.666666666666668
-150.0   30.0   16.666666666666668
-200.0   60.0   16.666666666666668
-200.0   30.0   33.333333333333336
-150.0   30.0   16.666666666666668
-150.0   60.0   16.666666666666668
-200.0   60.0   16.666666666666668
-150.0   60.0   33.333333333333336
-200.0   30.0   33.333333333333336
-200.0   60.0   33.333333333333336
-150.0   60.0   33.333333333333336
-200.0   60.0   16.666666666666668
-200.0   30.0   33.333333333333336
-150.0   60.0   33.333333333333336
-150.0   30.0   33.333333333333336
-150.0   30.0   16.666666666666668
-200.0   30.0   33.333333333333336
-150.0   60.0   33.333333333333336
-150.0   30.0   16.666666666666668
-200.0   60.0   16.666666666666668
-200.0   30.0   33.333333333333336
-150.0   30.0   33.333333333333336
-200.0   60.0   33.333333333333336
-200.0   30.0   50.0
-150.0   30.0   33.333333333333336
-150.0   60.0   33.333333333333336
-200.0   60.0   33.333333333333336
-150.0   60.0   50.0
-200.0   30.0   50.0
-200.0   60.0   50.0
-150.0   60.0   50.0
-200.0   60.0   33.333333333333336
-200.0   30.0   50.0
-150.0   60.0   50.0
-150.0   30.0   50.0
-150.0   30.0   33.333333333333336
-200.0   30.0   50.0
-150.0   60.0   50.0
-150.0   30.0   33.333333333333336
-200.0   60.0   33.333333333333336
-200.0   60.0   0.0
-150.0   60.0   0.0
-200.0   90.0   0.0
-200.0   60.0   16.666666666666668
-150.0   60.0   0.0
-150.0   90.0   0.0
-200.0   90.0   0.0
-150.0   90.0   16.666666666666668
-200.0   60.0   16.666666666666668
-200.0   90.0   16.666666666666668
-150.0   90.0   16.666666666666668
-200.0   90.0   0.0
-200.0   60.0   16.666666666666668
-150.0   90.0   16.666666666666668
-150.0   60.0   16.666666666666668
-150.0   60.0   0.0
-200.0   60.0   16.666666666666668
-150.0   90.0   16.666666666666668
-150.0   60.0   0.0
-200.0   90.0   0.0
-200.0   60.0   16.666666666666668
-150.0   60.0   16.666666666666668
-200.0   90.0   16.666666666666668
-200.0   60.0   33.333333333333336
-150.0   60.0   16.666666666666668
-150.0   90.0   16.666666666666668
-200.0   90.0   16.666666666666668
-150.0   90.0   33.333333333333336
-200.0   60.0   33.333333333333336
-200.0   90.0   33.333333333333336
-150.0   90.0   33.333333333333336
-200.0   90.0   16.666666666666668
-200.0   60.0   33.333333333333336
-150.0   90.0   33.333333333333336
-150.0   60.0   33.333333333333336
-150.0   60.0   16.666666666666668
-200.0   60.0   33.333333333333336
-150.0   90.0   33.333333333333336
-150.0   60.0   16.666666666666668
-200.0   90.0   16.666666666666668
-200.0   60.0   33.333333333333336
-150.0   60.0   33.333333333333336
-200.0   90.0   33.333333333333336
-200.0   60.0   50.0
-150.0   60.0   33.333333333333336
-150.0   90.0   33.333333333333336
-200.0   90.0   33.333333333333336
-150.0   90.0   50.0
-200.0   60.0   50.0
-200.0   90.0   50.0
-150.0   90.0   50.0
-200.0   90.0   33.333333333333336
-200.0   60.0   50.0
-150.0   90.0   50.0
-150.0   60.0   50.0
-150.0   60.0   33.333333333333336
-200.0   60.0   50.0
-150.0   90.0   50.0
-150.0   60.0   33.333333333333336
-200.0   90.0   33.333333333333336
-200.0   90.0   0.0
-150.0   90.0   0.0
-200.0   120.0   0.0
-200.0   90.0   16.666666666666668
-150.0   90.0   0.0
-150.0   120.0   0.0
-200.0   120.0   0.0
-150.0   120.0   16.666666666666668
-200.0   90.0   16.666666666666668
-200.0   120.0   16.666666666666668
-150.0   120.0   16.666666666666668
-200.0   120.0   0.0
-200.0   90.0   16.666666666666668
-150.0   120.0   16.666666666666668
-150.0   90.0   16.666666666666668
-150.0   90.0   0.0
-200.0   90.0   16.666666666666668
-150.0   120.0   16.666666666666668
-150.0   90.0   0.0
-200.0   120.0   0.0
-200.0   90.0   16.666666666666668
-150.0   90.0   16.666666666666668
-200.0   120.0   16.666666666666668
-200.0   90.0   33.333333333333336
-150.0   90.0   16.666666666666668
-150.0   120.0   16.666666666666668
-200.0   120.0   16.666666666666668
-150.0   120.0   33.333333333333336
-200.0   90.0   33.333333333333336
-200.0   120.0   33.333333333333336
-150.0   120.0   33.333333333333336
-200.0   120.0   16.666666666666668
-200.0   90.0   33.333333333333336
-150.0   120.0   33.333333333333336
-150.0   90.0   33.333333333333336
-150.0   90.0   16.666666666666668
-200.0   90.0   33.333333333333336
-150.0   120.0   33.333333333333336
-150.0   90.0   16.666666666666668
-200.0   120.0   16.666666666666668
-200.0   90.0   33.333333333333336
-150.0   90.0   33.333333333333336
-200.0   120.0   33.333333333333336
-200.0   90.0   50.0
-150.0   90.0   33.333333333333336
-150.0   120.0   33.333333333333336
-200.0   120.0   33.333333333333336
-150.0   120.0   50.0
-200.0   90.0   50.0
-200.0   120.0   50.0
-150.0   120.0   50.0
-200.0   120.0   33.333333333333336
-200.0   90.0   50.0
-150.0   120.0   50.0
-150.0   90.0   50.0
-150.0   90.0   33.333333333333336
-200.0   90.0   50.0
-150.0   120.0   50.0
-150.0   90.0   33.333333333333336
-200.0   120.0   33.333333333333336
-200.0   120.0   0.0
-150.0   120.0   0.0
-200.0   150.0   0.0
-200.0   120.0   16.666666666666668
-150.0   120.0   0.0
-150.0   150.0   0.0
-200.0   150.0   0.0
-150.0   150.0   16.666666666666668
-200.0   120.0   16.666666666666668
-200.0   150.0   16.666666666666668
-150.0   150.0   16.666666666666668
-200.0   150.0   0.0
-200.0   120.0   16.666666666666668
-150.0   150.0   16.666666666666668
-150.0   120.0   16.666666666666668
-150.0   120.0   0.0
-200.0   120.0   16.666666666666668
-150.0   150.0   16.666666666666668
-150.0   120.0   0.0
-200.0   150.0   0.0
-200.0   120.0   16.666666666666668
-150.0   120.0   16.666666666666668
-200.0   150.0   16.666666666666668
-200.0   120.0   33.333333333333336
-150.0   120.0   16.666666666666668
-150.0   150.0   16.666666666666668
-200.0   150.0   16.666666666666668
-150.0   150.0   33.333333333333336
-200.0   120.0   33.333333333333336
-200.0   150.0   33.333333333333336
-150.0   150.0   33.333333333333336
-200.0   150.0   16.666666666666668
-200.0   120.0   33.333333333333336
-150.0   150.0   33.333333333333336
-150.0   120.0   33.333333333333336
-150.0   120.0   16.666666666666668
-200.0   120.0   33.333333333333336
-150.0   150.0   33.333333333333336
-150.0   120.0   16.666666666666668
-200.0   150.0   16.666666666666668
-200.0   120.0   33.333333333333336
-150.0   120.0   33.333333333333336
-200.0   150.0   33.333333333333336
-200.0   120.0   50.0
-150.0   120.0   33.333333333333336
-150.0   150.0   33.333333333333336
-200.0   150.0   33.333333333333336
-150.0   150.0   50.0
-200.0   120.0   50.0
-200.0   150.0   50.0
-150.0   150.0   50.0
-200.0   150.0   33.333333333333336
-200.0   120.0   50.0
-150.0   150.0   50.0
-150.0   120.0   50.0
-150.0   120.0   33.333333333333336
-200.0   120.0   50.0
-150.0   150.0   50.0
-150.0   120.0   33.333333333333336
-200.0   150.0   33.333333333333336
-150.0   0.0   0.0
-100.0   0.0   0.0
-150.0   30.0   0.0
-150.0   0.0   16.666666666666668
-100.0   0.0   0.0
-100.0   30.0   0.0
-150.0   30.0   0.0
-100.0   30.0   16.666666666666668
-150.0   0.0   16.666666666666668
-150.0   30.0   16.666666666666668
-100.0   30.0   16.666666666666668
-150.0   30.0   0.0
-150.0   0.0   16.666666666666668
-100.0   30.0   16.666666666666668
-100.0   0.0   16.666666666666668
-100.0   0.0   0.0
-150.0   0.0   16.666666666666668
-100.0   30.0   16.666666666666668
-100.0   0.0   0.0
-150.0   30.0   0.0
-150.0   0.0   16.666666666666668
-100.0   0.0   16.666666666666668
-150.0   30.0   16.666666666666668
-150.0   0.0   33.333333333333336
-100.0   0.0   16.666666666666668
-100.0   30.0   16.666666666666668
-150.0   30.0   16.666666666666668
-100.0   30.0   33.333333333333336
-150.0   0.0   33.333333333333336
-150.0   30.0   33.333333333333336
-100.0   30.0   33.333333333333336
-150.0   30.0   16.666666666666668
-150.0   0.0   33.333333333333336
-100.0   30.0   33.333333333333336
-100.0   0.0   33.333333333333336
-100.0   0.0   16.666666666666668
-150.0   0.0   33.333333333333336
-100.0   30.0   33.333333333333336
-100.0   0.0   16.666666666666668
-150.0   30.0   16.666666666666668
-150.0   0.0   33.333333333333336
-100.0   0.0   33.333333333333336
-150.0   30.0   33.333333333333336
-150.0   0.0   50.0
-100.0   0.0   33.333333333333336
-100.0   30.0   33.333333333333336
-150.0   30.0   33.333333333333336
-100.0   30.0   50.0
-150.0   0.0   50.0
-150.0   30.0   50.0
-100.0   30.0   50.0
-150.0   30.0   33.333333333333336
-150.0   0.0   50.0
-100.0   30.0   50.0
-100.0   0.0   50.0
-100.0   0.0   33.333333333333336
-150.0   0.0   50.0
-100.0   30.0   50.0
-100.0   0.0   33.333333333333336
-150.0   30.0   33.333333333333336
-150.0   30.0   0.0
-100.0   30.0   0.0
-150.0   60.0   0.0
-150.0   30.0   16.666666666666668
-100.0   30.0   0.0
-100.0   60.0   0.0
-150.0   60.0   0.0
-100.0   60.0   16.666666666666668
-150.0   30.0   16.666666666666668
-150.0   60.0   16.666666666666668
-100.0   60.0   16.666666666666668
-150.0   60.0   0.0
-150.0   30.0   16.666666666666668
-100.0   60.0   16.666666666666668
-100.0   30.0   16.666666666666668
-100.0   30.0   0.0
-150.0   30.0   16.666666666666668
-100.0   60.0   16.666666666666668
-100.0   30.0   0.0
-150.0   60.0   0.0
-150.0   30.0   16.666666666666668
-100.0   30.0   16.666666666666668
-150.0   60.0   16.666666666666668
-150.0   30.0   33.333333333333336
-100.0   30.0   16.666666666666668
-100.0   60.0   16.666666666666668
-150.0   60.0   16.666666666666668
-100.0   60.0   33.333333333333336
-150.0   30.0   33.333333333333336
-150.0   60.0   33.333333333333336
-100.0   60.0   33.333333333333336
-150.0   60.0   16.666666666666668
-150.0   30.0   33.333333333333336
-100.0   60.0   33.333333333333336
-100.0   30.0   33.333333333333336
-100.0   30.0   16.666666666666668
-150.0   30.0   33.333333333333336
-100.0   60.0   33.333333333333336
-100.0   30.0   16.666666666666668
-150.0   60.0   16.666666666666668
-150.0   30.0   33.333333333333336
-100.0   30.0   33.333333333333336
-150.0   60.0   33.333333333333336
-150.0   30.0   50.0
-100.0   30.0   33.333333333333336
-100.0   60.0   33.333333333333336
-150.0   60.0   33.333333333333336
-100.0   60.0   50.0
-150.0   30.0   50.0
-150.0   60.0   50.0
-100.0   60.0   50.0
-150.0   60.0   33.333333333333336
-150.0   30.0   50.0
-100.0   60.0   50.0
-100.0   30.0   50.0
-100.0   30.0   33.333333333333336
-150.0   30.0   50.0
-100.0   60.0   50.0
-100.0   30.0   33.333333333333336
-150.0   60.0   33.333333333333336
-150.0   60.0   0.0
-100.0   60.0   0.0
-150.0   90.0   0.0
-150.0   60.0   16.666666666666668
-100.0   60.0   0.0
-100.0   90.0   0.0
-150.0   90.0   0.0
-100.0   90.0   16.666666666666668
-150.0   60.0   16.666666666666668
-150.0   90.0   16.666666666666668
-100.0   90.0   16.666666666666668
-150.0   90.0   0.0
-150.0   60.0   16.666666666666668
-100.0   90.0   16.666666666666668
-100.0   60.0   16.666666666666668
-100.0   60.0   0.0
-150.0   60.0   16.666666666666668
-100.0   90.0   16.666666666666668
-100.0   60.0   0.0
-150.0   90.0   0.0
-150.0   60.0   16.666666666666668
-100.0   60.0   16.666666666666668
-150.0   90.0   16.666666666666668
-150.0   60.0   33.333333333333336
-100.0   60.0   16.666666666666668
-100.0   90.0   16.666666666666668
-150.0   90.0   16.666666666666668
-100.0   90.0   33.333333333333336
-150.0   60.0   33.333333333333336
-150.0   90.0   33.333333333333336
-100.0   90.0   33.333333333333336
-150.0   90.0   16.666666666666668
-150.0   60.0   33.333333333333336
-100.0   90.0   33.333333333333336
-100.0   60.0   33.333333333333336
-100.0   60.0   16.666666666666668
-150.0   60.0   33.333333333333336
-100.0   90.0   33.333333333333336
-100.0   60.0   16.666666666666668
-150.0   90.0   16.666666666666668
-150.0   60.0   33.333333333333336
-100.0   60.0   33.333333333333336
-150.0   90.0   33.333333333333336
-150.0   60.0   50.0
-100.0   60.0   33.333333333333336
-100.0   90.0   33.333333333333336
-150.0   90.0   33.333333333333336
-100.0   90.0   50.0
-150.0   60.0   50.0
-150.0   90.0   50.0
-100.0   90.0   50.0
-150.0   90.0   33.333333333333336
-150.0   60.0   50.0
-100.0   90.0   50.0
-100.0   60.0   50.0
-100.0   60.0   33.333333333333336
-150.0   60.0   50.0
-100.0   90.0   50.0
-100.0   60.0   33.333333333333336
-150.0   90.0   33.333333333333336
-150.0   90.0   0.0
-100.0   90.0   0.0
-150.0   120.0   0.0
-150.0   90.0   16.666666666666668
-100.0   90.0   0.0
-100.0   120.0   0.0
-150.0   120.0   0.0
-100.0   120.0   16.666666666666668
-150.0   90.0   16.666666666666668
-150.0   120.0   16.666666666666668
-100.0   120.0   16.666666666666668
-150.0   120.0   0.0
-150.0   90.0   16.666666666666668
-100.0   120.0   16.666666666666668
-100.0   90.0   16.666666666666668
-100.0   90.0   0.0
-150.0   90.0   16.666666666666668
-100.0   120.0   16.666666666666668
-100.0   90.0   0.0
-150.0   120.0   0.0
-150.0   90.0   16.666666666666668
-100.0   90.0   16.666666666666668
-150.0   120.0   16.666666666666668
-150.0   90.0   33.333333333333336
-100.0   90.0   16.666666666666668
-100.0   120.0   16.666666666666668
-150.0   120.0   16.666666666666668
-100.0   120.0   33.333333333333336
-150.0   90.0   33.333333333333336
-150.0   120.0   33.333333333333336
-100.0   120.0   33.333333333333336
-150.0   120.0   16.666666666666668
-150.0   90.0   33.333333333333336
-100.0   120.0   33.333333333333336
-100.0   90.0   33.333333333333336
-100.0   90.0   16.666666666666668
-150.0   90.0   33.333333333333336
-100.0   120.0   33.333333333333336
-100.0   90.0   16.666666666666668
-150.0   120.0   16.666666666666668
-150.0   90.0   33.333333333333336
-100.0   90.0   33.333333333333336
-150.0   120.0   33.333333333333336
-150.0   90.0   50.0
-100.0   90.0   33.333333333333336
-100.0   120.0   33.333333333333336
-150.0   120.0   33.333333333333336
-100.0   120.0   50.0
-150.0   90.0   50.0
-150.0   120.0   50.0
-100.0   120.0   50.0
-150.0   120.0   33.333333333333336
-150.0   90.0   50.0
-100.0   120.0   50.0
-100.0   90.0   50.0
-100.0   90.0   33.333333333333336
-150.0   90.0   50.0
-100.0   120.0   50.0
-100.0   90.0   33.333333333333336
-150.0   120.0   33.333333333333336
-150.0   120.0   0.0
-100.0   120.0   0.0
-150.0   150.0   0.0
-150.0   120.0   16.666666666666668
-100.0   120.0   0.0
-100.0   150.0   0.0
-150.0   150.0   0.0
-100.0   150.0   16.666666666666668
-150.0   120.0   16.666666666666668
-150.0   150.0   16.666666666666668
-100.0   150.0   16.666666666666668
-150.0   150.0   0.0
-150.0   120.0   16.666666666666668
-100.0   150.0   16.666666666666668
-100.0   120.0   16.666666666666668
-100.0   120.0   0.0
-150.0   120.0   16.666666666666668
-100.0   150.0   16.666666666666668
-100.0   120.0   0.0
-150.0   150.0   0.0
-150.0   120.0   16.666666666666668
-100.0   120.0   16.666666666666668
-150.0   150.0   16.666666666666668
-150.0   120.0   33.333333333333336
-100.0   120.0   16.666666666666668
-100.0   150.0   16.666666666666668
-150.0   150.0   16.666666666666668
-100.0   150.0   33.333333333333336
-150.0   120.0   33.333333333333336
-150.0   150.0   33.333333333333336
-100.0   150.0   33.333333333333336
-150.0   150.0   16.666666666666668
-150.0   120.0   33.333333333333336
-100.0   150.0   33.333333333333336
-100.0   120.0   33.333333333333336
-100.0   120.0   16.666666666666668
-150.0   120.0   33.333333333333336
-100.0   150.0   33.333333333333336
-100.0   120.0   16.666666666666668
-150.0   150.0   16.666666666666668
-150.0   120.0   33.333333333333336
-100.0   120.0   33.333333333333336
-150.0   150.0   33.333333333333336
-150.0   120.0   50.0
-100.0   120.0   33.333333333333336
-100.0   150.0   33.333333333333336
-150.0   150.0   33.333333333333336
-100.0   150.0   50.0
-150.0   120.0   50.0
-150.0   150.0   50.0
-100.0   150.0   50.0
-150.0   150.0   33.333333333333336
-150.0   120.0   50.0
-100.0   150.0   50.0
-100.0   120.0   50.0
-100.0   120.0   33.333333333333336
-150.0   120.0   50.0
-100.0   150.0   50.0
-100.0   120.0   33.333333333333336
-150.0   150.0   33.333333333333336
-100.0   0.0   0.0
-50.0   0.0   0.0
-100.0   30.0   0.0
-100.0   0.0   16.666666666666668
-50.0   0.0   0.0
-50.0   30.0   0.0
-100.0   30.0   0.0
-50.0   30.0   16.666666666666668
-100.0   0.0   16.666666666666668
-100.0   30.0   16.666666666666668
-50.0   30.0   16.666666666666668
-100.0   30.0   0.0
-100.0   0.0   16.666666666666668
-50.0   30.0   16.666666666666668
-50.0   0.0   16.666666666666668
-50.0   0.0   0.0
-100.0   0.0   16.666666666666668
-50.0   30.0   16.666666666666668
-50.0   0.0   0.0
-100.0   30.0   0.0
-100.0   0.0   16.666666666666668
-50.0   0.0   16.666666666666668
-100.0   30.0   16.666666666666668
-100.0   0.0   33.333333333333336
-50.0   0.0   16.666666666666668
-50.0   30.0   16.666666666666668
-100.0   30.0   16.666666666666668
-50.0   30.0   33.333333333333336
-100.0   0.0   33.333333333333336
-100.0   30.0   33.333333333333336
-50.0   30.0   33.333333333333336
-100.0   30.0   16.666666666666668
-100.0   0.0   33.333333333333336
-50.0   30.0   33.333333333333336
-50.0   0.0   33.333333333333336
-50.0   0.0   16.666666666666668
-100.0   0.0   33.333333333333336
-50.0   30.0   33.333333333333336
-50.0   0.0   16.666666666666668
-100.0   30.0   16.666666666666668
-100.0   0.0   33.333333333333336
-50.0   0.0   33.333333333333336
-100.0   30.0   33.333333333333336
-100.0   0.0   50.0
-50.0   0.0   33.333333333333336
-50.0   30.0   33.333333333333336
-100.0   30.0   33.333333333333336
-50.0   30.0   50.0
-100.0   0.0   50.0
-100.0   30.0   50.0
-50.0   30.0   50.0
-100.0   30.0   33.333333333333336
-100.0   0.0   50.0
-50.0   30.0   50.0
-50.0   0.0   50.0
-50.0   0.0   33.333333333333336
-100.0   0.0   50.0
-50.0   30.0   50.0
-50.0   0.0   33.333333333333336
-100.0   30.0   33.333333333333336
-100.0   30.0   0.0
-50.0   30.0   0.0
-100.0   60.0   0.0
-100.0   30.0   16.666666666666668
-50.0   30.0   0.0
-50.0   60.0   0.0
-100.0   60.0   0.0
-50.0   60.0   16.666666666666668
-100.0   30.0   16.666666666666668
-100.0   60.0   16.666666666666668
-50.0   60.0   16.666666666666668
-100.0   60.0   0.0
-100.0   30.0   16.666666666666668
-50.0   60.0   16.666666666666668
-50.0   30.0   16.666666666666668
-50.0   30.0   0.0
-100.0   30.0   16.666666666666668
-50.0   60.0   16.666666666666668
-50.0   30.0   0.0
-100.0   60.0   0.0
-100.0   30.0   16.666666666666668
-50.0   30.0   16.666666666666668
-100.0   60.0   16.666666666666668
-100.0   30.0   33.333333333333336
-50.0   30.0   16.666666666666668
-50.0   60.0   16.666666666666668
-100.0   60.0   16.666666666666668
-50.0   60.0   33.333333333333336
-100.0   30.0   33.333333333333336
-100.0   60.0   33.333333333333336
-50.0   60.0   33.333333333333336
-100.0   60.0   16.666666666666668
-100.0   30.0   33.333333333333336
-50.0   60.0   33.333333333333336
-50.0   30.0   33.333333333333336
-50.0   30.0   16.666666666666668
-100.0   30.0   33.333333333333336
-50.0   60.0   33.333333333333336
-50.0   30.0   16.666666666666668
-100.0   60.0   16.666666666666668
-100.0   30.0   33.333333333333336
-50.0   30.0   33.333333333333336
-100.0   60.0   33.333333333333336
-100.0   30.0   50.0
-50.0   30.0   33.333333333333336
-50.0   60.0   33.333333333333336
-100.0   60.0   33.333333333333336
-50.0   60.0   50.0
-100.0   30.0   50.0
-100.0   60.0   50.0
-50.0   60.0   50.0
-100.0   60.0   33.333333333333336
-100.0   30.0   50.0
-50.0   60.0   50.0
-50.0   30.0   50.0
-50.0   30.0   33.333333333333336
-100.0   30.0   50.0
-50.0   60.0   50.0
-50.0   30.0   33.333333333333336
-100.0   60.0   33.333333333333336
-100.0   60.0   0.0
-50.0   60.0   0.0
-100.0   90.0   0.0
-100.0   60.0   16.666666666666668
-50.0   60.0   0.0
-50.0   90.0   0.0
-100.0   90.0   0.0
-50.0   90.0   16.666666666666668
-100.0   60.0   16.666666666666668
-100.0   90.0   16.666666666666668
-50.0   90.0   16.666666666666668
-100.0   90.0   0.0
-100.0   60.0   16.666666666666668
-50.0   90.0   16.666666666666668
-50.0   60.0   16.666666666666668
-50.0   60.0   0.0
-100.0   60.0   16.666666666666668
-50.0   90.0   16.666666666666668
-50.0   60.0   0.0
-100.0   90.0   0.0
-100.0   60.0   16.666666666666668
-50.0   60.0   16.666666666666668
-100.0   90.0   16.666666666666668
-100.0   60.0   33.333333333333336
-50.0   60.0   16.666666666666668
-50.0   90.0   16.666666666666668
-100.0   90.0   16.666666666666668
-50.0   90.0   33.333333333333336
-100.0   60.0   33.333333333333336
-100.0   90.0   33.333333333333336
-50.0   90.0   33.333333333333336
-100.0   90.0   16.666666666666668
-100.0   60.0   33.333333333333336
-50.0   90.0   33.333333333333336
-50.0   60.0   33.333333333333336
-50.0   60.0   16.666666666666668
-100.0   60.0   33.333333333333336
-50.0   90.0   33.333333333333336
-50.0   60.0   16.666666666666668
-100.0   90.0   16.666666666666668
-100.0   60.0   33.333333333333336
-50.0   60.0   33.333333333333336
-100.0   90.0   33.333333333333336
-100.0   60.0   50.0
-50.0   60.0   33.333333333333336
-50.0   90.0   33.333333333333336
-100.0   90.0   33.333333333333336
-50.0   90.0   50.0
-100.0   60.0   50.0
-100.0   90.0   50.0
-50.0   90.0   50.0
-100.0   90.0   33.333333333333336
-100.0   60.0   50.0
-50.0   90.0   50.0
-50.0   60.0   50.0
-50.0   60.0   33.333333333333336
-100.0   60.0   50.0
-50.0   90.0   50.0
-50.0   60.0   33.333333333333336
-100.0   90.0   33.333333333333336
-100.0   90.0   0.0
-50.0   90.0   0.0
-100.0   120.0   0.0
-100.0   90.0   16.666666666666668
-50.0   90.0   0.0
-50.0   120.0   0.0
-100.0   120.0   0.0
-50.0   120.0   16.666666666666668
-100.0   90.0   16.666666666666668
-100.0   120.0   16.666666666666668
-50.0   120.0   16.666666666666668
-100.0   120.0   0.0
-100.0   90.0   16.666666666666668
-50.0   120.0   16.666666666666668
-50.0   90.0   16.666666666666668
-50.0   90.0   0.0
-100.0   90.0   16.666666666666668
-50.0   120.0   16.666666666666668
-50.0   90.0   0.0
-100.0   120.0   0.0
-100.0   90.0   16.666666666666668
-50.0   90.0   16.666666666666668
-100.0   120.0   16.666666666666668
-100.0   90.0   33.333333333333336
-50.0   90.0   16.666666666666668
-50.0   120.0   16.666666666666668
-100.0   120.0   16.666666666666668
-50.0   120.0   33.333333333333336
-100.0   90.0   33.333333333333336
-100.0   120.0   33.333333333333336
-50.0   120.0   33.333333333333336
-100.0   120.0   16.666666666666668
-100.0   90.0   33.333333333333336
-50.0   120.0   33.333333333333336
-50.0   90.0   33.333333333333336
-50.0   90.0   16.666666666666668
-100.0   90.0   33.333333333333336
-50.0   120.0   33.333333333333336
-50.0   90.0   16.666666666666668
-100.0   120.0   16.666666666666668
-100.0   90.0   33.333333333333336
-50.0   90.0   33.333333333333336
-100.0   120.0   33.333333333333336
-100.0   90.0   50.0
-50.0   90.0   33.333333333333336
-50.0   120.0   33.333333333333336
-100.0   120.0   33.333333333333336
-50.0   120.0   50.0
-100.0   90.0   50.0
-100.0   120.0   50.0
-50.0   120.0   50.0
-100.0   120.0   33.333333333333336
-100.0   90.0   50.0
-50.0   120.0   50.0
-50.0   90.0   50.0
-50.0   90.0   33.333333333333336
-100.0   90.0   50.0
-50.0   120.0   50.0
-50.0   90.0   33.333333333333336
-100.0   120.0   33.333333333333336
-100.0   120.0   0.0
-50.0   120.0   0.0
-100.0   150.0   0.0
-100.0   120.0   16.666666666666668
-50.0   120.0   0.0
-50.0   150.0   0.0
-100.0   150.0   0.0
-50.0   150.0   16.666666666666668
-100.0   120.0   16.666666666666668
-100.0   150.0   16.666666666666668
-50.0   150.0   16.666666666666668
-100.0   150.0   0.0
-100.0   120.0   16.666666666666668
-50.0   150.0   16.666666666666668
-50.0   120.0   16.666666666666668
-50.0   120.0   0.0
-100.0   120.0   16.666666666666668
-50.0   150.0   16.666666666666668
-50.0   120.0   0.0
-100.0   150.0   0.0
-100.0   120.0   16.666666666666668
-50.0   120.0   16.666666666666668
-100.0   150.0   16.666666666666668
-100.0   120.0   33.333333333333336
-50.0   120.0   16.666666666666668
-50.0   150.0   16.666666666666668
-100.0   150.0   16.666666666666668
-50.0   150.0   33.333333333333336
-100.0   120.0   33.333333333333336
-100.0   150.0   33.333333333333336
-50.0   150.0   33.333333333333336
-100.0   150.0   16.666666666666668
-100.0   120.0   33.333333333333336
-50.0   150.0   33.333333333333336
-50.0   120.0   33.333333333333336
-50.0   120.0   16.666666666666668
-100.0   120.0   33.333333333333336
-50.0   150.0   33.333333333333336
-50.0   120.0   16.666666666666668
-100.0   150.0   16.666666666666668
-100.0   120.0   33.333333333333336
-50.0   120.0   33.333333333333336
-100.0   150.0   33.333333333333336
-100.0   120.0   50.0
-50.0   120.0   33.333333333333336
-50.0   150.0   33.333333333333336
-100.0   150.0   33.333333333333336
-50.0   150.0   50.0
-100.0   120.0   50.0
-100.0   150.0   50.0
-50.0   150.0   50.0
-100.0   150.0   33.333333333333336
-100.0   120.0   50.0
-50.0   150.0   50.0
-50.0   120.0   50.0
-50.0   120.0   33.333333333333336
-100.0   120.0   50.0
-50.0   150.0   50.0
-50.0   120.0   33.333333333333336
-100.0   150.0   33.333333333333336
-50.0   0.0   0.0
0.0   0.0   0.0
-50.0   30.0   0.0
-50.0   0.0   16.666666666666668
0.0   0.0   0.0
0.0   30.0   0.0
-50.0   30.0   0.0
0.0   30.0   16.666666666666668
-50.0   0.0   16.666666666666668
-50.0   30.0   16.666666666666668
0.0   30.0   16.666666666666668
-50.0   30.0   0.0
-50.0   0.0   16.666666666666668
0.0   30.0   16.666666666666668
0.0   0.0   16.666666666666668
0.0   0.0   0.0
-50.0   0.0   16.666666666666668
0.0   30.0   16.666666666666668
0.0   0.0   0.0
-50.0   30.0   0.0
-50.0   0.0   16.666666666666668
0.0   0.0   16.666666666666668
-50.0   30.0   16.666666666666668
-50.0   0.0   33.333333333333336
0.0   0.0   16.666666666666668
0.0   30.0   16.666666666666668
-50.0   30.0   16.666666666666668
0.0   30.0   33.333333333333336
-50.0   0.0   33.333333333333336
-50.0   30.0   33.333333333333336
0.0   30.0   33.333333333333336
-50.0   30.0   16.666666666666668
-50.0   0.0   33.333333333333336
0.0   30.0   33.333333333333336
0.0   0.0   33.333333333333336
0.0   0.0   16.666666666666668
-50.0   0.0   33.333333333333336
0.0   30.0   33.333333333333336
0.0   0.0   16.666666666666668
-50.0   30.0   16.666666666666668
-50.0   0.0   33.333333333333336
0.0   0.0   33.333333333333336
-50.0   30.0   33.333333333333336
-50.0   0.0   50.0
0.0   0.0   33.333333333333336
0.0   30.0   33.333333333333336
-50.0   30.0   33.333333333333336
0.0   30.0   50.0
-50.0   0.0   50.0
-50.0   30.0   50.0
0.0   30.0   50.0
-50.0   30.0   33.333333333333336
-50.0   0.0   50.0
0.0   30.0   50.0
0.0   0.0   50.0
0.0   0.0   33.333333333333336
-50.0   0.0   50.0
0.0   30.0   50.0
0.0   0.0   33.333333333333336
-50.0   30.0   33.333333333333336
-50.0   30.0   0.0
0.0   30.0   0.0
-50.0   60.0   0.0
-50.0   30.0   16.666666666666668
0.0   30.0   0.0
0.0   60.0   0.0
-50.0   60.0   0.0
0.0   60.0   16.666666666666668
-50.0   30.0   16.666666666666668
-50.0   60.0   16.666666666666668
0.0   60.0   16.666666666666668
-50.0   60.0   0.0
-50.0   30.0   16.666666666666668
0.0   60.0   16.666666666666668
0.0   30.0   16.666666666666668
0.0   30.0   0.0
-50.0   30.0   16.666666666666668
0.0   60.0   16.666666666666668
0.0   30.0   0.0
-50.0   60.0   0.0
-50.0   30.0   16.666666666666668
0.0   30.0   16.666666666666668
-50.0   60.0   16.666666666666668
-50.0   30.0   33.333333333333336
0.0   30.0   16.666666666666668
0.0   60.0   16.666666666666668
-50.0   60.0   16.666666666666668
0.0   60.0   33.333333333333336
-50.0   30.0   33.333333333333336
-50.0   60.0   33.333333333333336
0.0   60.0   33.333333333333336
-50.0   60.0   16.666666666666668
-50.0   30.0   33.333333333333336
0.0   60.0   33.333333333333336
0.0   30.0   33.333333333333336
0.0   30.0   16.666666666666668
-50.0   30.0   33.333333333333336
0.0   60.0   33.333333333333336
0.0   30.0   16.666666666666668
-50.0   60.0   16.666666666666668
-50.0   30.0   33.333333333333336
0.0   30.0   33.333333333333336
-50.0   60.0   33.333333333333336
-50.0   30.0   50.0
0.0   30.0   33.333333333333336
0.0   60.0   33.333333333333336
-50.0   60.0   33.333333333333336
0.0   60.0   50.0
-50.0   30.0   50.0
-50.0   60.0   50.0
0.0   60.0   50.0
-50.0   60.0   33.333333333333336
-50.0   30.0   50.0
0.0   60.0   50.0
0.0   30.0   50.0
0.0   30.0   33.333333333333336
-50.0   30.0   50.0
0.0   60.0   50.0
0.0   30.0   33.333333333333336
-50.0   60.0   33.333333333333336
-50.0   60.0   0.0
0.0   60.0   0.0
-50.0   90.0   0.0
-50.0   60.0   16.666666666666668
0.0   60.0   0.0
0.0   90.0   0.0
-50.0   90.0   0.0
0.0   90.0   16.666666666666668
-50.0   60.0   16.666666666666668
-50.0   90.0   16.666666666666668
0.0   90.0   16.666666666666668
-50.0   90.0   0.0
-50.0   60.0   16.666666666666668
0.0   90.0   16.666666666666668
0.0   60.0   16.666666666666668
0.0   60.0   0.0
-50.0   60.0   16.666666666666668
0.0   90.0   16.666666666666668
0.0   60.0   0.0
-50.0   90.0   0.0
-50.0   60.0   16.666666666666668
0.0   60.0   16.666666666666668
-50.0   90.0   16.666666666666668
-50.0   60.0   33.333333333333336
0.0   60.0   16.666666666666668
0.0   90.0   16.666666666666668
-50.0   90.0   16.666666666666668
0.0   90.0   33.333333333333336
-50.0   60.0   33.333333333333336
-50.0   90.0   33.333333333333336
0.0   90.0   33.333333333333336
-50.0   90.0   16.666666666666668
-50.0   60.0   33.333333333333336
0.0   90.0   33.333333333333336
0.0   60.0   33.333333333333336
0.0   60.0   16.666666666666668
-50.0   60.0   33.333333333333336
0.0   90.0   33.333333333333336
0.0   60.0   16.666666666666668
-50.0   90.0   16.666666666666668
-50.0   60.0   33.333333333333336
0.0   60.0   33.333333333333336
-50.0   90.0   33.333333333333336
-50.0   60.0   50.0
0.0   60.0   33.333333333333336
0.0   90.0   33.333333333333336
-50.0   90.0   33.333333333333336
0.0   90.0   50.0
-50.0   60.0   50.0
-50.0   90.0   50.0
0.0   90.0   50.0
-50.0   90.0   33.333333333333336
-50.0   60.0   50.0
0.0   90.0   50.0
0.0   60.0   50.0
0.0   60.0   33.333333333333336
-50.0   60.0   50.0
0.0   90.0   50.0
0.0   60.0   33.333333333333336
-50.0   90.0   33.333333333333336
-50.0   90.0   0.0
0.0   90.0   0.0
-50.0   120.0   0.0
-50.0   90.0   16.666666666666668
0.0   90.0   0.0
0.0   120.0   0.0
-50.0   120.0   0.0
0.0   120.0   16.666666666666668
-50.0   90.0   16.666666666666668
-50.0   120.0   16.666666666666668
0.0   120.0   16.666666666666668
-50.0   120.0   0.0
-50.0   90.0   16.666666666666668
0.0   120.0   16.666666666666668
0.0   90.0   16.666666666666668
0.0   90.0   0.0
-50.0   90.0   16.666666666666668
0.0   120.0   16.666666666666668
0.0   90.0   0.0
-50.0   120.0   0.0
-50.0   90.0   16.666666666666668
0.0   90.0   16.666666666666668
-50.0   120.0   16.666666666666668
-50.0   90.0   33.333333333333336
0.0   90.0   16.666666666666668
0.0   120.0   16.666666666666668
-50.0   120.0   16.666666666666668
0.0   120.0   33.333333333333336
-50.0   90.0   33.333333333333336
-50.0   120.0   33.333333333333336
0.0   120.0   33.333333333333336
-50.0   120.0   16.666666666666668
-50.0   90.0   33.333333333333336
0.0   120.0   33.333333333333336
0.0   90.0   33.333333333333336
0.0   90.0   16.666666666666668
-50.0   90.0   33.333333333333336
0.0   120.0   33.333333333333336
0.0   90.0   16.666666666666668
-50.0   120.0   16.666666666666668
-50.0   90.0   33.333333333333336
0.0   90.0   33.333333333333336
-50.0   120.0   33.333333333333336
-50.0   90.0   50.0
0.0   90.0   33.333333333333336
0.0   120.0   33.333333333333336
-50.0   120.0   33.333333333333336
0.0   120.0   50.0
-50.0   90.0   50.0
-50.0   120.0   50.0
0.0   120.0   50.0
-50.0   120.0   33.333333333333336
-50.0   90.0   50.0
0.0   120.0   50.0
0.0   90.0   50.0
0.0   90.0   33.333333333333336
-50.0   90.0   50.0
0.0   120.0   50.0
0.0   90.0   33.333333333333336
-50.0   120.0   33.333333333333336
-50.0   120.0   0.0
0.0   120.0   0.0
-50.0   150.0   0.0
-50.0   120.0   16.666666666666668
0.0   120.0   0.0
0.0   150.0   0.0
-50.0   150.0   0.0
0.0   150.0   16.666666666666668
-50.0   120.0   16.666666666666668
-50.0   150.0   16.666666666666668
0.0   150.0   16.666666666666668
-50.0   150.0   0.0
-50.0   120.0   16.666666666666668
0.0   150.0   16.666666666666668
0.0   120.0   16.666666666666668
0.0   120.0   0.0
-50.0   120.0   16.666666666666668
0.0   150.0   16.666666666666668
0.0   120.0   0.0
-50.0   150.0   0.0
-50.0   120.0   16.666666666666668
0.0   120.0   16.666666666666668
-50.0   150.0   16.666666666666668
-50.0   120.0   33.333333333333336
0.0   120.0   16.666666666666668
0.0   150.0   16.666666666666668
-50.0   150.0   16.666666666666668
0.0   150.0   33.333333333333336
-50.0   120.0   33.333333333333336
-50.0   150.0   33.333333333333336
0.0   150.0   33.333333333333336
-50.0   150.0   16.666666666666668
-50.0   120.0   33.333333333333336
0.0   150.0   33.333333333333336
0.0   120.0   33.333333333333336
0.0   120.0   16.666666666666668
-50.0   120.0   33.333333333333336
0.0   150.0   33.333333333333336
0.0   120.0   16.666666666666668
-50.0   150.0   16.666666666666668
-50.0   120.0   33.333333333333336
0.0   120.0   33.333333333333336
-50.0   150.0   33.333333333333336
-50.0   120.0   50.0
0.0   120.0   33.333333333333336
0.0   150.0   33.333333333333336
-50.0   150.0   33.333333333333336
0.0   150.0   50.0
-50.0   120.0   50.0
-50.0   150.0   50.0
0.0   150.0   50.0
-50.0   150.0   33.333333333333336
-50.0   120.0   50.0
0.0   150.0   50.0
0.0   120.0   50.0
0.0   120.0   33.333333333333336
-50.0   120.0   50.0
0.0   150.0   50.0
0.0   120.0   33.333333333333336
-50.0   150.0   33.333333333333336
0.0   0.0   0.0
50.0   0.0   0.0
0.0   30.0   0.0
0.0   0.0   16.666666666666668
50.0   0.0   0.0
50.0   30.0   0.0
0.0   30.0   0.0
50.0   30.0   16.666666666666668
0.0   0.0   16.666666666666668
0.0   30.0   16.666666666666668
50.0   30.0   16.666666666666668
0.0   30.0   0.0
0.0   0.0   16.666666666666668
50.0   30.0   16.666666666666668
50.0   0.0   16.666666666666668
50.0   0.0   0.0
0.0   0.0   16.666666666666668
50.0   30.0   16.666666666666668
50.0   0.0   0.0
0.0   30.0   0.0
0.0   0.0   16.666666666666668
50.0   0.0   16.666666666666668
0.0   30.0   16.666666666666668
0.0   0.0   33.333333333333336
50.0   0.0   16.666666666666668
50.0   30.0   16.666666666666668
0.0   30.0   16.666666666666668
50.0   30.0   33.333333333333336
0.0   0.0   33.333333333333336
0.0   30.0   33.333333333333336
50.0   30.0   33.333333333333336
0.0   30.0   16.666666666666668
0.0   0.0   33.333333333333336
50.0   30.0   33.333333333333336
50.0   0.0   33.333333333333336
50.0   0.0   16.666666666666668
0.0   0.0   33.333333333333336
50.0   30.0   33.333333333333336
50.0   0.0   16.666666666666668
0.0   30.0   16.666666666666668
0.0   0.0   33.333333333333336
50.0   0.0   33.333333333333336
0.0   30.0   33.333333333333336
0.0   0.0   50.0
50.0   0.0   33.333333333333336
50.0   30.0   33.333333333333336
0.0   30.0   33.333333333333336
50.0   30.0   50.0
0.0   0.0   50.0
0.0   30.0   50.0
50.0   30.0   50.0
0.0   30.0   33.333333333333336
0.0   0.0   50.0
50.0   30.0   50.0
50.0   0.0   50.0
50.0   0.0   33.333333333333336
0.0   0.0   50.0
50.0   30.0   50.0
50.0   0.0   33.333333333333336
0.0   30.0   33.333333333333336
0.0   30.0   0.0
50.0   30.0   0.0
0.0   60.0   0.0
0.0   30.0   16.666666666666668
50.0   30.0   0.0
50.0   60.0   0.0
0.0   60.0   0.0
50.0   60.0   16.666666666666668
0.0   30.0   16.666666666666668
0.0   60.0   16.666666666666668
50.0   60.0   16.666666666666668
0.0   60.0   0.0
0.0   30.0   16.666666666666668
50.0   60.0   16.666666666666668
50.0   30.0   16.666666666666668
50.0   30.0   0.0
0.0   30.0   16.666666666666668
50.0   60.0   16.666666666666668
50.0   30.0   0.0
0.0   60.0   0.0
0.0   30.0   16.666666666666668
50.0   30.0   16.666666666666668
0.0   60.0   16.666666666666668
0.0   30.0   33.333333333333336
50.0   30.0   16.666666666666668
50.0   60.0   16.666666666666668
0.0   60.0   16.666666666666668
50.0   60.0   33.333333333333336
0.0   30.0   33.333333333333336
0.0   60.0   33.333333333333336
50.0   60.0   33.333333333333336
0.0   60.0   16.666666666666668
0.0   30.0   33.333333333333336
50.0   60.0   33.333333333333336
50.0   30.0   33.333333333333336
50.0   30.0   16.666666666666668
0.0   30.0   33.333333333333336
50.0   60.0   33.333333333333336
50.0   30.0   16.666666666666668
0.0   60.0   16.666666666666668
0.0   30.0   33.333333333333336
50.0   30.0   33.333333333333336
0.0   60.0   33.333333333333336
0.0   30.0   50.0
50.0   30.0   33.333333333333336
50.0   60.0   33.333333333333336
0.0   60.0   33.333333333333336
50.0   60.0   50.0
0.0   30.0   50.0
0.0   60.0   50.0
50.0   60.0   50.0
0.0   60.0   33.333333333333336
0.0   30.0   50.0
50.0   60.0   50.0
50.0   30.0   50.0
50.0   30.0   33.333333333333336
0.0   30.0   50.0
50.0   60.0   50.0
50.0   30.0   33.333333333333336
0.0   60.0   33.333333333333336
0.0   60.0   0.0
50.0   60.0   0.0
0.0   90.0   0.0
0.0   60.0   16.666666666666668
50.0   60.0   0.0
50.0   90.0   0.0
0.0   90.0   0.0
50.0   90.0   16.666666666666668
0.0   60.0   16.666666666666668
0.0   90.0   16.666666666666668
50.0   90.0   16.666666666666668
0.0   90.0   0.0
0.0   60.0   16.666666666666668
50.0   90.0   16.666666666666668
50.0   60.0   16.666666666666668
50.0   60.0   0.0
0.0   60.0   16.666666666666668
50.0   90.0   16.666666666666668
50.0   60.0   0.0
0.0   90.0   0.0
0.0   60.0   16.666666666666668
50.0   60.0   16.666666666666668
0.0   90.0   16.666666666666668
0.0   60.0   33.333333333333336
50.0   60.0   16.666666666666668
50.0   90.0   16.666666666666668
0.0   90.0   16.666666666666668
50.0   90.0   33.333333333333336
0.0   60.0   33.333333333333336
0.0   90.0   33.333333333333336
50.0   90.0   33.333333333333336
0.0   90.0   16.666666666666668
0.0   60.0   33.333333333333336
50.0   90.0   33.333333333333336
50.0   60.0   33.333333333333336
50.0   60.0   16.666666666666668
0.0   60.0   33.333333333333336
50.0   90.0   33.333333333333336
50.0   60.0   16.666666666666668
0.0   90.0   16.666666666666668
0.0   60.0   33.333333333333336
50.0   60.0   33.333333333333336
0.0   90.0   33.333333333333336
0.0   60.0   50.0
50.0   60.0   33.333333333333336
50.0   90.0   33.333333333333336
0.0   90.0   33.333333333333336
50.0   90.0   50.0
0.0   60.0   50.0
0.0   90.0   50.0
50.0   90.0   50.0
0.0   90.0   33.333333333333336
0.0   60.0   50.0
50.0   90.0   50.0
50.0   60.0   50.0
50.0   60.0   33.333333333333336
0.0   60.0   50.0
50.0   90.0   50.0
50.0   60.0   33.333333333333336
0.0   90.0   33.333333333333336
0.0   90.0   0.0
50.0   90.0   0.0
0.0   120.0   0.0
0.0   90.0   16.666666666666668
50.0   90.0   0.0
50.0   120.0   0.0
0.0   120.0   0.0
50.0   120.0   16.666666666666668
0.0   90.0   16.666666666666668
0.0   120.0   16.666666666666668
50.0   120.0   16.666666666666668
0.0   120.0   0.0
0.0   90.0   16.666666666666668
50.0   120.0   16.666666666666668
50.0   90.0   16.666666666666668
50.0   90.0   0.0
0.0   90.0   16.666666666666668
50.0   120.0   16.666666666666668
50.0   90.0   0.0
0.0   120.0   0.0
0.0   90.0   16.666666666666668
50.0   90.0   16.666666666666668
0.0   120.0   16.666666666666668
0.0   90.0   33.333333333333336
50.0   90.0   16.666666666666668
50.0   120.0   16.666666666666668
0.0   120.0   16.666666666666668
50.0   120.0   33.333333333333336
0.0   90.0   33.333333333333336
0.0   120.0   33.333333333333336
50.0   120.0   33.333333333333336
0.0   120.0   16.666666666666668
0.0   90.0   33.333333333333336
50.0   120.0   33.333333333333336
50.0   90.0   33.333333333333336
50.0   90.0   16.666666666666668
0.0   90.0   33.333333333333336
50.0   120.0   33.333333333333336
50.0   90.0   16.666666666666668
0.0   120.0   16.666666666666668
0.0   90.0   33.333333333333336
50.0   90.0   33.333333333333336
0.0   120.0   33.333333333333336
0.0   90.0   50.0
50.0   90.0   33.333333333333336
50.0   120.0   33.333333333333336
0.0   120.0   33.333333333333336
50.0   120.0   50.0
0.0   90.0   50.0
0.0   120.0   50.0
50.0   120.0   50.0
0.0   120.0   33.333333333333336
0.0   90.0   50.0
50.0   120.0   50.0
50.0   90.0   50.0
50.0   90.0   33.333333333333336
0.0   90.0   50.0
50.0   120.0   50.0
50.0   90.0   33.333333333333336
0.0   120.0   33.333333333333336
0.0   120.0   0.0
50.0   120.0   0.0
0.0   150.0   0.0
0.0   120.0   16.666666666666668
50.0   120.0   0.0
50.0   150.0   0.0
0.0   150.0   0.0
50.0   150.0   16.666666666666668
0.0   120.0   16.666666666666668
0.0   150.0   16.666666666666668
50.0   150.0   16.666666666666668
0.0   150.0   0.0
0.0   120.0   16.666666666666668
50.0   150.0   16.666666666666668
50.0   120.0   16.666666666666668
50.0   120.0   0.0
0.0   120.0   16.666666666666668
50.0   150.0   16.666666666666668
50.0   120.0   0.0
0.0   150.0   0.0
0.0   120.0   16.666666666666668
50.0   120.0   16.666666666666668
0.0   150.0   16.666666666666668
0.0   120.0   33.333333333333336
50.0   120.0   16.666666666666668
50.0   150.0   16.666666666666668
0.0   150.0   16.666666666666668
50.0   150.0   33.333333333333336
0.0   120.0   33.333333333333336
0.0   150.0   33.333333333333336
50.0   150.0   33.333333333333336
0.0   150.0   16.666666666666668
0.0   120.0   33.333333333333336
50.0   150.0   33.333333333333336
50.0   120.0   33.333333333333336
50.0   120.0   16.666666666666668
0.0   120.0   33.333333333333336
50.0   150.0   33.333333333333336
50.0   120.0   16.666666666666668
0.0   150.0   16.666666666666668
0.0   120.0   33.333333333333336
50.0   120.0   33.333333333333336
0.0   150.0   33.333333333333336
0.0   120.0   50.0
50.0   120.0   33.333333333333336
50.0   150.0   33.333333333333336
0.0   150.0   33.333333333333336
50.0   150.0   50.0
0.0   120.0   50.0
0.0   150.0   50.0
50.0   150.0   50.0
0.0   150.0   33.333333333333336
0.0   120.0   50.0
50.0   150.0   50.0
50.0   120.0   50.0
50.0   120.0   33.333333333333336
0.0   120.0   50.0
50.0   150.0   50.0
50.0   120.0   33.333333333333336
0.0   150.0   33.333333333333336
50.0   0.0   0.0
100.0   0.0   0.0
50.0   30.0   0.0
50.0   0.0   16.666666666666668
100.0   0.0   0.0
100.0   30.0   0.0
50.0   30.0   0.0
100.0   30.0   16.666666666666668
50.0   0.0   16.666666666666668
50.0   30.0   16.666666666666668
100.0   30.0   16.666666666666668
50.0   30.0   0.0
50.0   0.0   16.666666666666668
100.0   30.0   16.666666666666668
100.0   0.0   16.666666666666668
100.0   0.0   0.0
50.0   0.0   16.666666666666668
100.0   30.0   16.666666666666668
100.0   0.0   0.0
50.0   30.0   0.0
50.0   0.0   16.666666666666668
100.0   0.0   16.666666666666668
50.0   30.0   16.666666666666668
50.0   0.0   33.333333333333336
100.0   0.0   16.666666666666668
100.0   30.0   16.666666666666668
50.0   30.0   16.666666666666668
100.0   30.0   33.333333333333336
50.0   0.0   33.333333333333336
50.0   30.0   33.333333333333336
100.0   30.0   33.333333333333336
50.0   30.0   16.666666666666668
50.0   0.0   33.333333333333336
100.0   30.0   33.333333333333336
100.0   0.0   33.333333333333336
100.0   0.0   16.666666666666668
50.0   0.0   33.333333333333336
100.0   30.0   33.333333333333336
100.0   0.0   16.666666666666668
50.0   30.0   16.666666666666668
50.0   0.0   33.333333333333336
100.0   0.0   33.333333333333336
50.0   30.0   33.333333333333336
50.0   0.0   50.0
100.0   0.0   33.333333333333336
100.0   30.0   33.333333333333336
50.0   30.0   33.333333333333336
100.0   30.0   50.0
50.0   0.0   50.0
50.0   30.0   50.0
100.0   30.0   50.0
50.0   30.0   33.333333333333336
50.0   0.0   50.0
100.0   30.0   50.0
100.0   0.0   50.0
100.0   0.0   33.333333333333336
50.0   0.0   50.0
100.0   30.0   50.0
100.0   0.0   33.333333333333336
50.0   30.0   33.333333333333336
50.0   30.0   0.0
100.0   30.0   0.0
50.0   60.0   0.0
50.0   30.0   16.666666666666668
100.0   30.0   0.0
100.0   60.0   0.0
50.0   60.0   0.0
100.0   60.0   16.666666666666668
50.0   30.0   16.666666666666668
50.0   60.0   16.666666666666668
100.0   60.0   16.666666666666668
50.0   60.0   0.0
50.0   30.0   16.666666666666668
100.0   60.0   16.666666666666668
100.0   30.0   16.666666666666668
100.0   30.0   0.0
50.0   30.0   16.666666666666668
100.0   60.0   16.666666666666668
100.0   30.0   0.0
50.0   60.0   0.0
50.0   30.0   16.666666666666668
100.0   30.0   16.666666666666668
50.0   60.0   16.666666666666668
50.0   30.0   33.333333333333336
100.0   30.0   16.666666666666668
100.0   60.0   16.666666666666668
50.0   60.0   16.666666666666668
100.0   60.0   33.333333333333336
50.0   30.0   33.333333333333336
50.0   60.0   33.333333333333336
100.0   60.0   33.333333333333336
50.0   60.0   16.666666666666668
50.0   30.0   33.333333333333336
100.0   60.0   33.333333333333336
100.0   30.0   33.333333333333336
100.0   30.0   16.666666666666668
50.0   30.0   33.333333333333336
100.0   60.0   33.333333333333336
100.0   30.0   16.666666666666668
50.0   60.0   16.666666666666668
50.0   30.0   33.333333333333336
100.0   30.0   33.333333333333336
50.0   60.0   33.333333333333336
50.0   30.0   50.0
100.0   30.0   33.333333333333336
100.0   60.0   33.333333333333336
50.0   60.0   33.333333333333336
100.0   60.0   50.0
50.0   30.0   50.0
50.0   60.0   50.0
100.0   60.0   50.0
50.0   60.0   33.333333333333336
50.0   30.0   50.0
100.0   60.0   50.0
100.0   30.0   50.0
100.0   30.0   33.333333333333336
50.0   30.0   50.0
100.0   60.0   50.0
100.0   30.0   33.333333333333336
50.0   60.0   33.333333333333336
50.0   60.0   0.0
100.0   60.0   0.0
50.0   90.0   0.0
50.0   60.0   16.666666666666668
100.0   60.0   0.0
100.0   90.0   0.0
50.0   90.0   0.0
100.0   90.0   16.666666666666668
50.0   60.0   16.666666666666668
50.0   90.0   16.666666666666668
100.0   90.0   16.666666666666668
50.0   90.0   0.0
50.0   60.0   16.666666666666668
100.0   90.0   16.666666666666668
100.0   60.0   16.666666666666668
100.0   60.0   0.0
50.0   60.0   16.666666666666668
100.0   90.0   16.666666666666668
100.0   60.0   0.0
50.0   90.0   0.0
50.0   60.0   16.666666666666668
100.0   60.0   16.666666666666668
50.0   90.0   16.666666666666668
50.0   60.0   33.333333333333336
100.0   60.0   16.666666666666668
100.0   90.0   16.666666666666668
50.0   90.0   16.666666666666668
100.0   90.0   33.333333333333336
50.0   60.0   33.333333333333336
50.0   90.0   33.333333333333336
100.0   90.0   33.333333333333336
50.0   90.0   16.666666666666668
50.0   60.0   33.333333333333336
100.0   90.0   33.333333333333336
100.0   60.0   33.333333333333336
100.0   60.0   16.666666666666668
50.0   60.0   33.333333333333336
100.0   90.0   33.333333333333336
100.0   60.0   16.666666666666668
50.0   90.0   16.666666666666668
50.0   60.0   33.333333333333336
100.0   60.0   33.333333333333336
50.0   90.0   33.333333333333336
50.0   60.0   50.0
100.0   60.0   33.333333333333336
100.0   90.0   33.333333333333336
50.0   90.0   33.333333333333336
100.0   90.0   50.0
50.0   60.0   50.0
50.0   90.0   50.0
100.0   90.0   50.0
50.0   90.0   33.333333333333336
50.0   60.0   50.0
100.0   90.0   50.0
100.0   60.0   50.0
100.0   60.0   33.333333333333336
50.0   60.0   50.0
100.0   90.0   50.0
100.0   60.0   33.333333333333336
50.0   90.0   33.333333333333336
50.0   90.0   0.0
100.0   90.0   0.0
50.0   120.0   0.0
50.0   90.0   16.666666666666668
100.0   90.0   0.0
100.0   120.0   0.0
50.0   120.0   0.0
100.0   120.0   16.666666666666668
50.0   90.0   16.666666666666668
50.0   120.0   16.666666666666668
100.0   120.0   16.666666666666668
50.0   120.0   0.0
50.0   90.0   16.666666666666668
100.0   120.0   16.666666666666668
100.0   90.0   16.666666666666668
100.0   90.0   0.0
50.0   90.0   16.666666666666668
100.0   120.0   16.666666666666668
100.0   90.0   0.0
50.0   120.0   0.0
50.0   90.0   16.666666666666668
100.0   90.0   16.666666666666668
50.0   120.0   16.666666666666668
50.0   90.0   33.333333333333336
100.0   90.0   16.666666666666668
100.0   120.0   16.666666666666668
50.0   120.0   16.666666666666668
100.0   120.0   33.333333333333336
50.0   90.0   33.333333333333336
50.0   120.0   33.333333333333336
100.0   120.0   33.333333333333336
50.0   120.0   16.666666666666668
50.0   90.0   33.333333333333336
100.0   120.0   33.333333333333336
100.0   90.0   33.333333333333336
100.0   90.0   16.666666666666668
50.0   90.0   33.333333333333336
100.0   120.0   33.333333333333336
100.0   90.0   16.666666666666668
50.0   120.0   16.666666666666668
50.0   90.0   33.333333333333336
100.0   90.0   33.333333333333336
50.0   120.0   33.333333333333336
50.0   90.0   50.0
100.0   90.0   33.333333333333336
100.0   120.0   33.333333333333336
50.0   120.0   33.333333333333336
100.0   120.0   50.0
50.0   90.0   50.0
50.0   120.0   50.0
100.0   120.0   50.0
50.0   120.0   33.333333333333336
50.0   90.0   50.0
100.0   120.0   50.0
100.0   90.0   50.0
100.0   90.0   33.333333333333336
50.0   90.0   50.0
100.0   120.0   50.0
100.0   90.0   33.333333333333336
50.0   120.0   33.333333333333336
50.0   120.0   0.0
100.0   120.0   0.0
50.0   150.0   0.0
50.0   120.0   16.666666666666668
100.0   120.0   0.0
100.0   150.0   0.0
50.0   150.0   0.0
100.0   150.0   16.666666666666668
50.0   120.0   16.666666666666668
50.0   150.0   16.666666666666668
100.0   150.0   16.666666666666668
50.0   150.0   0.0
50.0   120.0   16.666666666666668
100.0   150.0   16.666666666666668
100.0   120.0   16.666666666666668
100.0   120.0   0.0
50.0   120.0   16.666666666666668
100.0   150.0   16.666666666666668
100.0   120.0   0.0
50.0   150.0   0.0
50.0   120.0   16.666666666666668
100.0   120.0   16.666666666666668
50.0   150.0   16.666666666666668
50.0   120.0   33.333333333333336
100.0   120.0   16.666666666666668
100.0   150.0   16.666666666666668
50.0   150.0   16.666666666666668
100.0   150.0   33.333333333333336
50.0   120.0   33.333333333333336
50.0   150.0   33.333333333333336
100.0   150.0   33.333333333333336
50.0   150.0   16.666666666666668
50.0   120.0   33.333333333333336
100.0   150.0   33.333333333333336
100.0   120.0   33.333333333333336
100.0   120.0   16.666666666666668
50.0   120.0   33.333333333333336
100.0   150.0   33.333333333333336
100.0   120.0   16.666666666666668
50.0   150.0   16.666666666666668
50.0   120.0   33.333333333333336
100.0   120.0   33.333333333333336
50.0   150.0   33.333333333333336
50.0   120.0   50.0
100.0   120.0   33.333333333333336
100.0   150.0   33.333333333333336
50.0   150.0   33.333333333333336
100.0   150.0   50.0
50.0   120.0   50.0
50.0   150.0   50.0
100.0   150.0   50.0
50.0   150.0   33.333333333333336
50.0   120.0   50.0
100.0   150.0   50.0
100.0   120.0   50.0
100.0   120.0   33.333333333333336
50.0   120.0   50.0
100.0   150.0   50.0
100.0   120.0   33.333333333333336
50.0   150.0   33.333333333333336
100.0   0.0   0.0
150.0   0.0   0.0
100.0   30.0   0.0
100.0   0.0   16.666666666666668
150.0   0.0   0.0
150.0   30.0   0.0
100.0   30.0   0.0
150.0   30.0   16.666666666666668
100.0   0.0   16.666666666666668
100.0   30.0   16.666666666666668
150.0   30.0   16.666666666666668
100.0   30.0   0.0
100.0   0.0   16.666666666666668
150.0   30.0   16.666666666666668
150.0   0.0   16.666666666666668
150.0   0.0   0.0
100.0   0.0   16.666666666666668
150.0   30.0   16.666666666666668
150.0   0.0   0.0
100.0   30.0   0.0
100.0   0.0   16.666666666666668
150.0   0.0   16.666666666666668
100.0   30.0   16.666666666666668
100.0   0.0   33.333333333333336
150.0   0.0   16.666666666666668
150.0   30.0   16.666666666666668
100.0   30.0   16.666666666666668
150.0   30.0   33.333333333333336
100.0   0.0   33.333333333333336
100.0   30.0   33.333333333333336
150.0   30.0   33.333333333333336
100.0   30.0   16.666666666666668
100.0   0.0   33.333333333333336
150.0   30.0   33.333333333333336
150.0   0.0   33.333333333333336
150.0   0.0   16.666666666666668
100.0   0.0   33.333333333333336
150.0   30.0   33.333333333333336
150.0   0.0   16.666666666666668
100.0   30.0   16.666666666666668
100.0   0.0   33.333333333333336
150.0   0.0   33.333333333333336
100.0   30.0   33.333333333333336
100.0   0.0   50.0
150.0   0.0   33.333333333333336
150.0   30.0   33.333333333333336
100.0   30.0   33.333333333333336
150.0   30.0   50.0
100.0   0.0   50.0
100.0   30.0   50.0
150.0   30.0   50.0
100.0   30.0   33.333333333333336
100.0   0.0   50.0
150.0   30.0   50.0
150.0   0.0   50.0
150.0   0.0   33.333333333333336
100.0   0.0   50.0
150.0   30.0   50.0
150.0   0.0   33.333333333333336
100.0   30.0   33.333333333333336
100.0   30.0   0.0
150.0   30.0   0.0
100.0   60.0   0.0
100.0   30.0   16.666666666666668
150.0   30.0   0.0
150.0   60.0   0.0
100.0   60.0   0.0
150.0   60.0   16.666666666666668
100.0   30.0   16.666666666666668
100.0   60.0   16.666666666666668
150.0   60.0   16.666666666666668
100.0   60.0   0.0
100.0   30.0   16.666666666666668
150.0   60.0   16.666666666666668
150.0   30.0   16.666666666666668
150.0   30.0   0.0
100.0   30.0   16.666666666666668
150.0   60.0   16.666666666666668
150.0   30.0   0.0
100.0   60.0   0.0
100.0   30.0   16.666666666666668
150.0   30.0   16.666666666666668
100.0   60.0   16.666666666666668
100.0   30.0   33.333333333333336
150.0   30.0   16.666666666666668
150.0   60.0   16.666666666666668
100.0   60.0   16.666666666666668
150.0   60.0   33.333333333333336
100.0   30.0   33.333333333333336
100.0   60.0   33.333333333333336
150.0   60.0   33.333333333333336
100.0   60.0   16.666666666666668
100.0   30.0   33.333333333333336
150.0   60.0   33.333333333333336
150.0   30.0   33.333333333333336
150.0   30.0   16.666666666666668
100.0   30.0   33.333333333333336
150.0   60.0   33.333333333333336
150.0   30.0   16.666666666666668
100.0   60.0   16.666666666666668
100.0   30.0   33.333333333333336
150.0   30.0   33.333333333333336
100.0   60.0   33.333333333333336
100.0   30.0   50.0
150.0   30.0   33.333333333333336
150.0   60.0   33.333333333333336
100.0   60.0   33.333333333333336
150.0   60.0   50.0
100.0   30.0   50.0
100.0   60.0   50.0
150.0   60.0   50.0
100.0   60.0   33.333333333333336
100.0   30.0   50.0
150.0   60.0   50.0
150.0   30.0   50.0
150.0   30.0   33.333333333333336
100.0   30.0   50.0
150.0   60.0   50.0
150.0   30.0   33.333333333333336
100.0   60.0   33.333333333333336
100.0   60.0   0.0
150.0   60.0   0.0
100.0   90.0   0.0
100.0   60.0   16.666666666666668
150.0   60.0   0.0
150.0   90.0   0.0
100.0   90.0   0.0
150.0   90.0   16.666666666666668
100.0   60.0   16.666666666666668
100.0   90.0   16.666666666666668
150.0   90.0   16.666666666666668
100.0   90.0   0.0
100.0   60.0   16.666666666666668
150.0   90.0   16.666666666666668
150.0   60.0   16.666666666666668
150.0   60.0   0.0
100.0   60.0   16.666666666666668
150.0   90.0   16.666666666666668
150.0   60.0   0.0
100.0   90.0   0.0
100.0   60.0   16.666666666666668
150.0   60.0   16.666666666666668
100.0   90.0   16.666666666666668
100.0   60.0   33.333333333333336
150.0   60.0   16.666666666666668
150.0   90.0   16.666666666666668
100.0   90.0   16.666666666666668
150.0   90.0   33.333333333333336
100.0   60.0   33.333333333333336
100.0   90.0   33.333333333333336
150.0   90.0   33.333333333333336
100.0   90.0   16.666666666666668
100.0   60.0   33.333333333333336
150.0   90.0   33.333333333333336
150.0   60.0   33.333333333333336
150.0   60.0   16.666666666666668
100.0   60.0   33.333333333333336
150.0   90.0   33.333333333333336
150.0   60.0   16.666666666666668
100.0   90.0   16.666666666666668
100.0   60.0   33.333333333333336
150.0   60.0   33.333333333333336
100.0   90.0   33.333333333333336
100.0   60.0   50.0
150.0   60.0   33.333333333333336
150.0   90.0   33.333333333333336
100.0   90.0   33.333333333333336
150.0   90.0   50.0
100.0   60.0   50.0
100.0   90.0   50.0
150.0   90.0   50.0
100.0   90.0   33.333333333333336
100.0   60.0   50.0
150.0   90.0   50.0
150.0   60.0   50.0
150.0   60.0   33.333333333333336
100.0   60.0   50.0
150.0   90.0   50.0
150.0   60.0   33.333333333333336
100.0   90.0   33.333333333333336
100.0   90.0   0.0
150.0   90.0   0.0
100.0   120.0   0.0
100.0   90.0   16.666666666666668
150.0   90.0   0.0
150.0   120.0   0.0
100.0   120.0   0.0
150.0   120.0   16.666666666666668
100.0   90.0   16.666666666666668
100.0   120.0   16.666666666666668
150.0   120.0   16.666666666666668
100.0   120.0   0.0
100.0   90.0   16.666666666666668
150.0   120.0   16.666666666666668
150.0   90.0   16.666666666666668
150.0   90.0   0.0
100.0   90.0   16.666666666666668
150.0   120.0   16.666666666666668
150.0   90.0   0.0
100.0   120.0   0.0
100.0   90.0   16.666666666666668
150.0   90.0   16.666666666666668
100.0   120.0   16.666666666666668
100.0   90.0   33.333333333333336
150.0   90.0   16.666666666666668
150.0   120.0   16.666666666666668
100.0   120.0   16.666666666666668
150.0   120.0   33.333333333333336
100.0   90.0   33.333333333333336
100.0   120.0   33.333333333333336
150.0   120.0   33.333333333333336
100.0   120.0   16.666666666666668
100.0   90.0   33.333333333333336
150.0   120.0   33.333333333333336
150.0   90.0   33.333333333333336
150.0   90.0   16.666666666666668
100.0   90.0   33.333333333333336
150.0   120.0   33.333333333333336
150.0   90.0   16.666666666666668
100.0   120.0   16.666666666666668
100.0   90.0   33.333333333333336
150.0   90.0   33.333333333333336
100.0   120.0   33.333333333333336
100.0   90.0   50.0
150.0   90.0   33.333333333333336
150.0   120.0   33.333333333333336
100.0   120.0   33.333333333333336
150.0   120.0   50.0
100.0   90.0   50.0
100.0   120.0   50.0
150.0   120.0   50.0
100.0   120.0   33.333333333333336
100.0   90.0   50.0
150.0   120.0   50.0
150.0   90.0   50.0
150.0   90.0   33.333333333333336
100.0   90.0   50.0
150.0   120.0   50.0
150.0   90.0   33.333333333333336
100.0   120.0   33.333333333333336
100.0   120.0   0.0
150.0   120.0   0.0
100.0   150.0   0.0
100.0   120.0   16.666666666666668
150.0   120.0   0.0
150.0   150.0   0.0
100.0   150.0   0.0
150.0   150.0   16.666666666666668
100.0   120.0   16.666666666666668
100.0   150.0   16.666666666666668
150.0   150.0   16.666666666666668
100.0   150.0   0.0
100.0   120.0   16.666666666666668
150.0   150.0   16.666666666666668
150.0   120.0   16.666666666666668
150.0   120.0   0.0
100.0   120.0   16.666666666666668
150.0   150.0   16.666666666666668
150.0   120.0   0.0
100.0   150.0   0.0
100.0   120.0   16.666666666666668
150.0   120.0   16.666666666666668
100.0   150.0   16.666666666666668
100.0   120.0   33.333333333333336
150.0   120.0   16.666666666666668
150.0   150.0   16.666666666666668
100.0   150.0   16.666666666666668
150.0   150.0   33.333333333333336
100.0   120.0   33.333333333333336
100.0   150.0   33.333333333333336
150.0   150.0   33.333333333333336
100.0   150.0   16.666666666666668
100.0   120.0   33.333333333333336
150.0   150.0   33.333333333333336
150.0   120.0   33.333333333333336
150.0   120.0   16.666666666666668
100.0   120.0   33.333333333333336
150.0   150.0   33.333333333333336
150.0   120.0   16.666666666666668
100.0   150.0   16.666666666666668
100.0   120.0   33.333333333333336
150.0   120.0   33.333333333333336
100.0   150.0   33.333333333333336
100.0   120.0   50.0
150.0   120.0   33.333333333333336
150.0   150.0   33.333333333333336
100.0   150.0   33.333333333333336
150.0   150.0   50.0
100.0   120.0   50.0
100.0   150.0   50.0
150.0   150.0   50.0
100.0   150.0   33.333333333333336
100.0   120.0   50.0
150.0   150.0   50.0
150.0   120.0   50.0
150.0   120.0   33.333333333333336
100.0   120.0   50.0
150.0   150.0   50.0
150.0   120.0   33.333333333333336
100.0   150.0   33.333333333333336
150.0   0.0   0.0
200.0   0.0   0.0
150.0   30.0   0.0
150.0   0.0   16.666666666666668
200.0   0.0   0.0
200.0   30.0   0.0
150.0   30.0   0.0
200.0   30.0   16.666666666666668
150.0   0.0   16.666666666666668
150.0   30.0   16.666666666666668
200.0   30.0   16.666666666666668
150.0   30.0   0.0
150.0   0.0   16.666666666666668
200.0   30.0   16.666666666666668
200.0   0.0   16.666666666666668
200.0   0.0   0.0
150.0   0.0   16.666666666666668
200.0   30.0   16.666666666666668
200.0   0.0   0.0
150.0   30.0   0.0
150.0   0.0   16.666666666666668
200.0   0.0   16.666666666666668
150.0   30.0   16.666666666666668
150.0   0.0   33.333333333333336
200.0   0.0   16.666666666666668
200.0   30.0   16.666666666666668
150.0   30.0   16.666666666666668
200.0   30.0   33.333333333333336
150.0   0.0   33.333333333333336
150.0   30.0   33.333333333333336
200.0   30.0   33.333333333333336
150.0   30.0   16.666666666666668
150.0   0.0   33.333333333333336
200.0   30.0   33.333333333333336
200.0   0.0   33.333333333333336
200.0   0.0   16.666666666666668
150.0   0.0   33.333333333333336
200.0   30.0   33.333333333333336
200.0   0.0   16.666666666666668
150.0   30.0   16.666666666666668
150.0   0.0   33.333333333333336
200.0   0.0   33.333333333333336
150.0   30.0   33.333333333333336
150.0   0.0   50.0
200.0   0.0   33.333333333333336
200.0   30.0   33.333333333333336
150.0   30.0   33.333333333333336
200.0   30.0   50.0
150.0   0.0   50.0
150.0   30.0   50.0
200.0   30.0   50.0
150.0   30.0   33.333333333333336
150.0   0.0   50.0
200.0   30.0   50.0
200.0   0.0   50.0
200.0   0.0   33.333333333333336
150.0   0.0   50.0
200.0   30.0   50.0
200.0   0.0   33.333333333333336
150.0   30.0   33.333333333333336
150.0   30.0   0.0
200.0   30.0   0.0
150.0   60.0   0.0
150.0   30.0   16.666666666666668
200.0   30.0   0.0
200.0   60.0   0.0
150.0   60.0   0.0
200.0   60.0   16.666666666666668
150.0   30.0   16.666666666666668
150.0   60.0   16.666666666666668
200.0   60.0   16.666666666666668
150.0   60.0   0.0
150.0   30.0   16.666666666666668
200.0   60.0   16.666666666666668
200.0   30.0   16.666666666666668
200.0   30.0   0.0
150.0   30.0   16.666666666666668
200.0   60.0   16.666666666666668
200.0   30.0   0.0
150.0   60.0   0.0
150.0   30.0   16.666666666666668
200.0   30.0   16.666666666666668
150.0   60.0   16.666666666666668
150.0   30.0   33.333333333333336
200.0   30.0   16.666666666666668
200.0   60.0   16.666666666666668
150.0   60.0   16.666666666666668
200.0   60.0   33.333333333333336
150.0   30.0   33.333333333333336
150.0   60.0   33.333333333333336
200.0   60.0   33.333333333333336
150.0   60.0   16.666666666666668
150.0   30.0   33.333333333333336
200.0   60.0   33.333333333333336
200.0   30.0   33.333333333333336
200.0   30.0   16.666666666666668
150.0   30.0   33.333333333333336
200.0   60.0   33.333333333333336
200.0   30.0   16.666666666666668
150.0   60.0   16.666666666666668
150.0   30.0   33.333333333333336
200.0   30.0   33.333333333333336
150.0   60.0   33.333333333333336
150.0   30.0   50.0
200.0   30.0   33.333333333333336
200.0   60.0   33.333333333333336
150.0   60.0   33.333333333333336
200.0   60.0   50.0
150.0   30.0   50.0
150.0   60.0   50.0
200.0   60.0   50.0
150.0   60.0   33.333333333333336
150.0   30.0   50.0
200.0   60.0   50.0
200.0   30.0   50.0
200.0   30.0   33.333333333333336
150.0   30.0   50.0
200.0   60.0   50.0
200.0   30.0   33.333333333333336
150.0   60.0   33.333333333333336
150.0   60.0   0.0
200.0   60.0   0.0
150.0   90.0   0.0
150.0   60.0   16.666666666666668
200.0   60.0   0.0
200.0   90.0   0.0
150.0   90.0   0.0
200.0   90.0   16.666666666666668
150.0   60.0   16.666666666666668
150.0   90.0   16.666666666666668
200.0   90.0   16.666666666666668
150.0   90.0   0.0
150.0   60.0   16.666666666666668
200.0   90.0   16.666666666666668
200.0   60.0   16.666666666666668
200.0   60.0   0.0
150.0   60.0   16.666666666666668
200.0   90.0   16.666666666666668
200.0   60.0   0.0
150.0   90.0   0.0
150.0   60.0   16.666666666666668
200.0   60.0   16.666666666666668
150.0   90.0   16.666666666666668
150.0   60.0   33.333333333333336
200.0   60.0   16.666666666666668
200.0   90.0   16.666666666666668
150.0   90.0   16.666666666666668
200.0   90.0   33.333333333333336
150.0   60.0   33.333333333333336
150.0   90.0   33.333333333333336
200.0   90.0   33.333333333333336
150.0   90.0   16.666666666666668
150.0   60.0   33.333333333333336
200.0   90.0   33.333333333333336
200.0   60.0   33.333333333333336
200.0   60.0   16.666666666666668
150.0   60.0   33.333333333333336
200.0   90.0   33.333333333333336
200.0   60.0   16.666666666666668
150.0   90.0   16.666666666666668
150.0   60.0   33.333333333333336
200.0   60.0   33.333333333333336
150.0   90.0   33.333333333333336
150.0   60.0   50.0
200.0   60.0   33.333333333333336
200.0   90.0   33.333333333333336
150.0   90.0   33.333333333333336
200.0   90.0   50.0
150.0   60.0   50.0
150.0   90.0   50.0
200.0   90.0   50.0
150.0   90.0   33.333333333333336
150.0   60.0   50.0
200.0   90.0   50.0
200.0   60.0   50.0
200.0   60.0   33.333333333333336
150.0   60.0   50.0
200.0   90.0   50.0
200.0   60.0   33.333333333333336
150.0   90.0   33.333333333333336
150.0   90.0   0.0
200.0   90.0   0.0
150.0   120.0   0.0
150.0   90.0   16.666666666666668
200.0   90.0   0.0
200.0   120.0   0.0
150.0   120.0   0.0
200.0   120.0   16.666666666666668
150.0   90.0   16.666666666666668
150.0   120.0   16.666666666666668
200.0   120.0   16.666666666666668
150.0   120.0   0.0
150.0   90.0   16.666666666666668
200.0   120.0   16.666666666666668
200.0   90.0   16.666666666666668
200.0   90.0   0.0
150.0   90.0   16.666666666666668
200.0   120.0   16.666666666666668
200.0   90.0   0.0
150.0   120.0   0.0
150.0   90.0   16.666666666666668
200.0   90.0   16.666666666666668
150.0   120.0   16.666666666666668
150.0   90.0   33.333333333333336
200.0   90.0   16.666666666666668
200.0   120.0   16.666666666666668
150.0   120.0   16.666666666666668
200.0   120.0   33.333333333333336
150.0   90.0   33.333333333333336
150.0   120.0   33.333333333333336
200.0   120.0   33.333333333333336
150.0   120.0   16.666666666666668
150.0   90.0   33.333333333333336
200.0   120.0   33.333333333333336
200.0   90.0   33.333333333333336
200.0   90.0   16.666666666666668
150.0   90.0   33.333333333333336
200.0   120.0   33.333333333333336
200.0   90.0   16.666666666666668
150.0   120.0   16.666666666666668
150.0   90.0   33.333333333333336
200.0   90.0   33.333333333333336
150.0   120.0   33.333333333333336
150.0   90.0   50.0
200.0   90.0   33.333333333333336
200.0   120.0   33.333333333333336
150.0   120.0   33.333333333333336
200.0   120.0   50.0
150.0   90.0   50.0
150.0   120.0   50.0
200.0   120.0   50.0
150.0   120.0   33.333333333333336
150.0   90.0   50.0
200.0   120.0   50.0
200.0   90.0   50.0
200.0   90.0   33.333333333333336
150.0   90.0   50.0
200.0   120.0   50.0
200.0   90.0   33.333333333333336
150.0   120.0   33.333333333333336
150.0   120.0   0.0
200.0   120.0   0.0
150.0   150.0   0.0
150.0   120.0   16.666666666666668
200.0   120.0   0.0
200.0   150.0   0.0
150.0   150.0   0.0
200.0   150.0   16.666666666666668
150.0   120.0   16.666666666666668
150.0   150.0   16.666666666666668
200.0   150.0   16.666666666666668
150.0   150.0   0.0
150.0   120.0   16.666666666666668
200.0   150.0   16.666666666666668
200.0   120.0   16.666666666666668
200.0   120.0   0.0
150.0   120.0   16.666666666666668
200.0   150.0   16.666666666666668
200.0   120.0   0.0
150.0   150.0   0.0
150.0   120.0   16.666666666666668
200.0   120.0   16.666666666666668
150.0   150.0   16.666666666666668
150.0   120.0   33.333333333333336
200.0   120.0   16.666666666666668
200.0   150.0   16.666666666666668
150.0   150.0   16.666666666666668
200.0   150.0   33.333333333333336
150.0   120.0   33.333333333333336
150.0   150.0   33.333333333333336
200.0   150.0   33.333333333333336
150.0   150.0   16.666666666666668
150.0   120.0   33.333333333333336
200.0   150.0   33.333333333333336
200.0   120.0   33.333333333333336
200.0   120.0   16.666666666666668
150.0   120.0   33.333333333333336
200.0   150.0   33.333333333333336
200.0   120.0   16.666666666666668
150.0   150.0   16.666666666666668
150.0   120.0   33.333333333333336
200.0   120.0   33.333333333333336
150.0   150.0   33.333333333333336
150.0   120.0   50.0
200.0   120.0   33.333333333333336
200.0   150.0   33.333333333333336
150.0   150.0   33.333333333333336
200.0   150.0   50.0
150.0   120.0   50.0
150.0   150.0   50.0
200.0   150.0   50.0
150.0   150.0   33.333333333333336
150.0   120.0   50.0
200.0   150.0   50.0
200.0   120.0   50.0
200.0   120.0   33.333333333333336
150.0   120.0   50.0
200.0   150.0   50.0
200.0   120.0   33.333333333333336
150.0   150.0   33.333333333333336
200.0   0.0   0.0
250.0   0.0   0.0
200.0   30.0   0.0
200.0   0.0   16.666666666666668
250.0   0.0   0.0
250.0   30.0   0.0
200.0   30.0   0.0
250.0   30.0   16.666666666666668
200.0   0.0   16.666666666666668
200.0   30.0   16.666666666666668
250.0   30.0   16.666666666666668
200.0   30.0   0.0
200.0   0.0   16.666666666666668
250.0   30.0   16.666666666666668
250.0   0.0   16.666666666666668
250.0   0.0   0.0
200.0   0.0   16.666666666666668
250.0   30.0   16.666666666666668
250.0   0.0   0.0
200.0   30.0   0.0
200.0   0.0   16.666666666666668
250.0   0.0   16.666666666666668
200.0   30.0   16.666666666666668
200.0   0.0   33.333333333333336
250.0   0.0   16.666666666666668
250.0   30.0   16.666666666666668
200.0   30.0   16.666666666666668
250.0   30.0   33.333333333333336
200.0   0.0   33.333333333333336
200.0   30.0   33.333333333333336
250.0   30.0   33.333333333333336
200.0   30.0   16.666666666666668
200.0   0.0   33.333333333333336
250.0   30.0   33.333333333333336
250.0   0.0   33.333333333333336
250.0   0.0   16.666666666666668
200.0   0.0   33.333333333333336
250.0   30.0   33.333333333333336
250.0   0.0   16.666666666666668
200.0   30.0   16.666666666666668
200.0   0.0   33.333333333333336
250.0   0.0   33.333333333333336
200.0   30.0   33.333333333333336
200.0   0.0   50.0
250.0   0.0   33.333333333333336
250.0   30.0   33.333333333333336
200.0   30.0   33.333333333333336
250.0   30.0   50.0
200.0   0.0   50.0
200.0   30.0   50.0
250.0   30.0   50.0
200.0   30.0   33.333333333333336
200.0   0.0   50.0
250.0   30.0   50.0
250.0   0.0   50.0
250.0   0.0   33.333333333333336
200.0   0.0   50.0
250.0   30.0   50.0
250.0   0.0   33.333333333333336
200.0   30.0   33.333333333333336
200.0   30.0   0.0
250.0   30.0   0.0
200.0   60.0   0.0
200.0   30.0   16.666666666666668
250.0   30.0   0.0
250.0   60.0   0.0
200.0   60.0   0.0
250.0   60.0   16.666666666666668
200.0   30.0   16.666666666666668
200.0   60.0   16.666666666666668
250.0   60.0   16.666666666666668
200.0   60.0   0.0
200.0   30.0   16.666666666666668
250.0   60.0   16.666666666666668
250.0   30.0   16.666666666666668
250.0   30.0   0.0
200.0   30.0   16.666666666666668
250.0   60.0   16.666666666666668
250.0   30.0   0.0
200.0   60.0   0.0
200.0   30.0   16.666666666666668
250.0   30.0   16.666666666666668
200.0   60.0   16.666666666666668
200.0   30.0   33.333333333333336
250.0   30.0   16.666666666666668
250.0   60.0   16.666666666666668
200.0   60.0   16.666666666666668
250.0   60.0   33.333333333333336
200.0   30.0   33.333333333333336
200.0   60.0   33.333333333333336
250.0   60.0   33.333333333333336
200.0   60.0   16.666666666666668
200.0   30.0   33.333333333333336
250.0   60.0   33.333333333333336
250.0   30.0   33.333333333333336
250.0   30.0   16.666666666666668
200.0   30.0   33.333333333333336
250.0   60.0   33.333333333333336
250.0   30.0   16.666666666666668
200.0   60.0   16.666666666666668
200.0   30.0   33.333333333333336
250.0   30.0   33.333333333333336
200.0   60.0   33.333333333333336
200.0   30.0   50.0
250.0   30.0   33.333333333333336
250.0   60.0   33.333333333333336
200.0   60.0   33.333333333333336
250.0   60.0   50.0
200.0   30.0   50.0
200.0   60.0   50.0
250.0   60.0   50.0
200.0   60.0   33.333333333333336
200.0   30.0   50.0
250.0   60.0   50.0
250.0   30.0   50.0
250.0   30.0   33.333333333333336
200.0   30.0   50.0
250.0   60.0   50.0
250.0   30.0   33.333333333333336
200.0   60.0   33.333333333333336
200.0   60.0   0.0
250.0   60.0   0.0
200.0   90.0   0.0
200.0   60.0   16.666666666666668
250.0   60.0   0.0
250.0   90.0   0.0
200.0   90.0   0.0
250.0   90.0   16.666666666666668
200.0   60.0   16.666666666666668
200.0   90.0   16.666666666666668
250.0   90.0   16.666666666666668
200.0   90.0   0.0
200.0   60.0   16.666666666666668
250.0   90.0   16.666666666666668
250.0   60.0   16.666666666666668
250.0   60.0   0.0
200.0   60.0   16.666666666666668
250.0   90.0   16.666666666666668
250.0   60.0   0.0
200.0   90.0   0.0
200.0   60.0   16.666666666666668
250.0   60.0   16.666666666666668
200.0   90.0   16.666666666666668
200.0   60.0   33.333333333333336
250.0   60.0   16.666666666666668
250.0   90.0   16.666666666666668
200.0   90.0   16.666666666666668
250.0   90.0   33.333333333333336
200.0   60.0   33.333333333333336
200.0   90.0   33.333333333333336
250.0   90.0   33.333333333333336
200.0   90.0   16.666666666666668
200.0   60.0   33.333333333333336
250.0   90.0   33.333333333333336
250.0   60.0   33.333333333333336
250.0   60.0   16.666666666666668
200.0   60.0   33.333333333333336
250.0   90.0   33.333333333333336
250.0   60.0   16.666666666666668
200.0   90.0   16.666666666666668
200.0   60.0   33.333333333333336
250.0   60.0   33.333333333333336
200.0   90.0   33.333333333333336
200.0   60.0   50.0
250.0   60.0   33.333333333333336
250.0   90.0   33.333333333333336
200.0   90.0   33.333333333333336
250.0   90.0   50.0
200.0   60.0   50.0
200.0   90.0   50.0
250.0   90.0   50.0
200.0   90.0   33.333333333333336
200.0   60.0   50.0
250.0   90.0   50.0
250.0   60.0   50.0
250.0   60.0   33.333333333333336
200.0   60.0   50.0
250.0   90.0   50.0
250.0   60.0   33.333333333333336
200.0   90.0   33.333333333333336
200.0   90.0   0.0
250.0   90.0   0.0
200.0   120.0   0.0
200.0   90.0   16.666666666666668
250.0   90.0   0.0
250.0   120.0   0.0
200.0   120.0   0.0
250.0   120.0   16.666666666666668
200.0   90.0   16.666666666666668
200.0   120.0   16.666666666666668
250.0   120.0   16.666666666666668
200.0   120.0   0.0
200.0   90.0   16.666666666666668
250.0   120.0   16.666666666666668
250.0   90.0   16.666666666666668
250.0   90.0   0.0
200.0   90.0   16.666666666666668
250.0   120.0   16.666666666666668
250.0   90.0   0.0
200.0   120.0   0.0
200.0   90.0   16.666666666666668
250.0   90.0   16.666666666666668
200.0   120.0   16.666666666666668
200.0   90.0   33.333333333333336
250.0   90.0   16.666666666666668
250.0   120.0   16.666666666666668
200.0   120.0   16.666666666666668
250.0   120.0   33.333333333333336
200.0   90.0   33.333333333333336
200.0   120.0   33.333333333333336
250.0   120.0   33.333333333333336
200.0   120.0   16.666666666666668
200.0   90.0   33.333333333333336
250.0   120.0   33.333333333333336
250.0   90.0   33.333333333333336
250.0   90.0   16.666666666666668
200.0   90.0   33.333333333333336
250.0   120.0   33.333333333333336
250.0   90.0   16.666666666666668
200.0   120.0   16.666666666666668
200.0   90.0   33.333333333333336
250.0   90.0   33.333333333333336
200.0   120.0   33.333333333333336
200.0   90.0   50.0
250.0   90.0   33.333333333333336
250.0   120.0   33.333333333333336
200.0   120.0   33.333333333333336
250.0   120.0   50.0
200.0   90.0   50.0
200.0   120.0   50.0
250.0   120.0   50.0
200.0   120.0   33.333333333333336
200.0   90.0   50.0
250.0   120.0   50.0
250.0   90.0   50.0
250.0   90.0   33.333333333333336
200.0   90.0   50.0
250.0   120.0   50.0
250.0   90.0   33.333333333333336
200.0   120.0   33.333333333333336
200.0   120.0   0.0
250.0   120.0   0.0
200.0   150.0   0.0
200.0   120.0   16.666666666666668
250.0   120.0   0.0
250.0   150.0   0.0
200.0   150.0   0.0
250.0   150.0   16.666666666666668
200.0   120.0   16.666666666666668
200.0   150.0   16.666666666666668
250.0   150.0   16.666666666666668
200.0   150.0   0.0
200.0   120.0   16.666666666666668
250.0   150.0   16.666666666666668
250.0   120.0   16.666666666666668
250.0   120.0   0.0
200.0   120.0   16.666666666666668
250.0   150.0   16.666666666666668
250.0   120.0   0.0
200.0   150.0   0.0
200.0   120.0   16.666666666666668
250.0   120.0   16.666666666666668
200.0   150.0   16.666666666666668
200.0   120.0   33.333333333333336
250.0   120.0   16.666666666666668
250.0   150.0   16.666666666666668
200.0   150.0   16.666666666666668
250.0   150.0   33.333333333333336
200.0   120.0   33.333333333333336
200.0   150.0   33.333333333333336
250.0   150.0   33.333333333333336
200.0   150.0   16.666666666666668
200.0   120.0   33.333333333333336
250.0   150.0   33.333333333333336
250.0   120.0   33.333333333333336
250.0   120.0   16.666666666666668
200.0   120.0   33.333333333333336
250.0   150.0   33.333333333333336
250.0   120.0   16.666666666666668
200.0   150.0   16.666666666666668
200.0   120.0   33.333333333333336
250.0   120.0   33.333333333333336
200.0   150.0   33.333333333333336
200.0   120.0   50.0
250.0   120.0   33.333333333333336
250.0   150.0   33.333333333333336
200.0   150.0   33.333333333333336
250.0   150.0   50.0
200.0   120.0   50.0
200.0   150.0   50.0
250.0   150.0   50.0
200.0   150.0   33.333333333333336
200.0   120.0   50.0
250.0   150.0   50.0
250.0   120.0   50.0
250.0   120.0   33.333333333333336
200.0   120.0   50.0
250.0   150.0   50.0
250.0   120.0   33.333333333333336
200.0   150.0   33.333333333333336
250.0   0.0   0.0
300.0   0.0   0.0
250.0   30.0   0.0
250.0   0.0   16.666666666666668
300.0   0.0   0.0
300.0   30.0   0.0
250.0   30.0   0.0
300.0   30.0   16.666666666666668
250.0   0.0   16.666666666666668
250.0   30.0   16.666666666666668
300.0   30.0   16.666666666666668
250.0   30.0   0.0
250.0   0.0   16.666666666666668
300.0   30.0   16.666666666666668
300.0   0.0   16.666666666666668
300.0   0.0   0.0
250.0   0.0   16.666666666666668
300.0   30.0   16.666666666666668
300.0   0.0   0.0
250.0   30.0   0.0
250.0   0.0   16.666666666666668
300.0   0.0   16.666666666666668
250.0   30.0   16.666666666666668
250.0   0.0   33.333333333333336
300.0   0.0   16.666666666666668
300.0   30.0   16.666666666666668
250.0   30.0   16.666666666666668
300.0   30.0   33.333333333333336
250.0   0.0   33.333333333333336
250.0   30.0   33.333333333333336
300.0   30.0   33.333333333333336
250.0   30.0   16.666666666666668
250.0   0.0   33.333333333333336
300.0   30.0   33.333333333333336
300.0   0.0   33.333333333333336
300.0   0.0   16.666666666666668
250.0   0.0   33.333333333333336
300.0   30.0   33.333333333333336
300.0   0.0   16.666666666666668
250.0   30.0   16.666666666666668
250.0   0.0   33.333333333333336
300.0   0.0   33.333333333333336
250.0   30.0   33.333333333333336
250.0   0.0   50.0
300.0   0.0   33.333333333333336
300.0   30.0   33.333333333333336
250.0   30.0   33.333333333333336
300.0   30.0   50.0
250.0   0.0   50.0
250.0   30.0   50.0
300.0   30.0   50.0
250.0   30.0   33.333333333333336
250.0   0.0   50.0
300.0   30.0   50.0
300.0   0.0   50.0
300.0   0.0   33.333333333333336
250.0   0.0   50.0
300.0   30.0   50.0
300.0   0.0   33.333333333333336
250.0   30.0   33.333333333333336
250.0   30.0   0.0
300.0   30.0   0.0
250.0   60.0   0.0
250.0   30.0   16.666666666666668
300.0   30.0   0.0
300.0   60.0   0.0
250.0   60.0   0.0
300.0   60.0   16.666666666666668
250.0   30.0   16.666666666666668
250.0   60.0   16.666666666666668
300.0   60.0   16.666666666666668
250.0   60.0   0.0
250.0   30.0   16.666666666666668
300.0   60.0   16.666666666666668
300.0   30.0   16.666666666666668
300.0   30.0   0.0
250.0   30.0   16.666666666666668
300.0   60.0   16.666666666666668
300.0   30.0   0.0
250.0   60.0   0.0
250.0   30.0   16.666666666666668
300.0   30.0   16.666666666666668
250.0   60.0   16.666666666666668
250.0   30.0   33.333333333333336
300.0   30.0   16.666666666666668
300.0   60.0   16.666666666666668
250.0   60.0   16.666666666666668
300.0   60.0   33.333333333333336
250.0   30.0   33.333333333333336
250.0   60.0   33.333333333333336
300.0   60.0   33.333333333333336
250.0   60.0   16.666666666666668
250.0   30.0   33.333333333333336
300.0   60.0   33.333333333333336
300.0   30.0   33.333333333333336
300.0   30.0   16.666666666666668
250.0   30.0   33.333333333333336
300.0   60.0   33.333333333333336
300.0   30.0   16.666666666666668
250.0   60.0   16.666666666666668
250.0   30.0   33.333333333333336
300.0   30.0   33.333333333333336
250.0   60.0   33.333333333333336
250.0   30.0   50.0
300.0   30.0   33.333333333333336
300.0   60.0   33.333333333333336
250.0   60.0   33.333333333333336
300.0   60.0   50.0
250.0   30.0   50.0
250.0   60.0   50.0
300.0   60.0   50.0
250.0   60.0   33.333333333333336
250.0   30.0   50.0
300.0   60.0   50.0
300.0   30.0   50.0
300.0   30.0   33.333333333333336
250.0   30.0   50.0
300.0   60.0   50.0
300.0   30.0   33.333333333333336
250.0   60.0   33.333333333333336
250.0   60.0   0.0
300.0   60.0   0.0
250.0   90.0   0.0
250.0   60.0   16.666666666666668
300.0   60.0   0.0
300.0   90.0   0.0
250.0   90.0   0.0
300.0   90.0   16.666666666666668
250.0   60.0   16.666666666666668
250.0   90.0   16.666666666666668
300.0   90.0   16.666666666666668
250.0   90.0   0.0
250.0   60.0   16.666666666666668
300.0   90.0   16.666666666666668
300.0   60.0   16.666666666666668
300.0   60.0   0.0
250.0   60.0   16.666666666666668
300.0   90.0   16.666666666666668
300.0   60.0   0.0
250.0   90.0   0.0
250.0   60.0   16.666666666666668
300.0   60.0   16.666666666666668
250.0   90.0   16.666666666666668
250.0   60.0   33.333333333333336
300.0   60.0   16.666666666666668
300.0   90.0   16.666666666666668
250.0   90.0   16.666666666666668
300.0   90.0   33.333333333333336
250.0   60.0   33.333333333333336
250.0   90.0   33.333333333333336
300.0   90.0   33.333333333333336
250.0   90.0   16.666666666666668
250.0   60.0   33.333333333333336
300.0   90.0   33.333333333333336
300.0   60.0   33.333333333333336
300.0   60.0   16.666666666666668
250.0   60.0   33.333333333333336
300.0   90.0   33.333333333333336
300.0   60.0   16.666666666666668
250.0   90.0   16.666666666666668
250.0   60.0   33.333333333333336
300.0   60.0   33.333333333333336
250.0   90.0   33.333333333333336
250.0   60.0   50.0
300.0   60.0   33.333333333333336
300.0   90.0   33.333333333333336
250.0   90.0   33.333333333333336
300.0   90.0   50.0
250.0   60.0   50.0
250.0   90.0   50.0
300.0   90.0   50.0
250.0   90.0   33.333333333333336
250.0   60.0   50.0
300.0   90.0   50.0
300.0   60.0   50.0
300.0   60.0   33.333333333333336
250.0   60.0   50.0
300.0   90.0   50.0
300.0   60.0   33.333333333333336
250.0   90.0   33.333333333333336
250.0   90.0   0.0
300.0   90.0   0.0
250.0   120.0   0.0
250.0   90.0   16.666666666666668
300.0   90.0   0.0
300.0   120.0   0.0
250.0   120.0   0.0
300.0   120.0   16.666666666666668
250.0   90.0   16.666666666666668
250.0   120.0   16.666666666666668
300.0   120.0   16.666666666666668
250.0   120.0   0.0
250.0   90.0   16.666666666666668
300.0   120.0   16.666666666666668
300.0   90.0   16.666666666666668
300.0   90.0   0.0
250.0   90.0   16.666666666666668
300.0   120.0   16.666666666666668
300.0   90.0   0.0
250.0   120.0   0.0
250.0   90.0   16.666666666666668
300.0   90.0   16.666666666666668
250.0   120.0   16.666666666666668
250.0   90.0   33.333333333333336
300.0   90.0   16.666666666666668
300.0   120.0   16.666666666666668
250.0   120.0   16.666666666666668
300.0   120.0   33.333333333333336
250.0   90.0   33.333333333333336
250.0   120.0   33.333333333333336
300.0   120.0   33.333333333333336
250.0   120.0   16.666666666666668
250.0   90.0   33.333333333333336
300.0   120.0   33.333333333333336
300.0   90.0   33.333333333333336
300.0   90.0   16.666666666666668
250.0   90.0   33.333333333333336
300.0   120.0   33.333333333333336
300.0   90.0   16.666666666666668
250.0   120.0   16.666666666666668
250.0   90.0   33.333333333333336
300.0   90.0   33.333333333333336
250.0   120.0   33.333333333333336
250.0   90.0   50.0
300.0   90.0   33.333333333333336
300.0   120.0   33.333333333333336
250.0   120.0   33.333333333333336
300.0   120.0   50.0
250.0   90.0   50.0
250.0   120.0   50.0
300.0   120.0   50.0
250.0   120.0   33.333333333333336
250.0   90.0   50.0
300.0   120.0   50.0
300.0   90.0   50.0
300.0   90.0   33.333333333333336
250.0   90.0   50.0
300.0   120.0   50.0
300.0   90.0   33.333333333333336
250.0   120.0   33.333333333333336
250.0   120.0   0.0
300.0   120.0   0.0
250.0   150.0   0.0
250.0   120.0   16.666666666666668
300.0   120.0   0.0
300.0   150.0   0.0
250.0   150.0   0.0
300.0   150.0   16.666666666666668
250.0   120.0   16.666666666666668
250.0   150.0   16.666666666666668
300.0   150.0   16.666666666666668
250.0   150.0   0.0
250.0   120.0   16.666666666666668
300.0   150.0   16.666666666666668
300.0   120.0   16.666666666666668
300.0   120.0   0.0
250.0   120.0   16.666666666666668
300.0   150.0   16.666666666666668
300.0   120.0   0.0
250.0   150.0   0.0
250.0   120.0   16.666666666666668
300.0   120.0   16.666666666666668
250.0   150.0   16.666666666666668
250.0   120.0   33.333333333333336
300.0   120.0   16.666666666666668
300.0   150.0   16.666666666666668
250.0   150.0   16.666666666666668
300.0   150.0   33.333333333333336
250.0   120.0   33.333333333333336
250.0   150.0   33.333333333333336
300.0   150.0   33.333333333333336
250.0   150.0   16.666666666666668
250.0   120.0   33.333333333333336
300.0   150.0   33.333333333333336
300.0   120.0   33.333333333333336
300.0   120.0   16.666666666666668
250.0   120.0   33.333333333333336
300.0   150.0   33.333333333333336
300.0   120.0   16.666666666666668
250.0   150.0   16.666666666666668
250.0   120.0   33.333333333333336
300.0   120.0   33.333333333333336
250.0   150.0   33.333333333333336
250.0   120.0   50.0
300.0   120.0   33.333333333333336
300.0   150.0   33.333333333333336
250.0   150.0   33.333333333333336
300.0   150.0   50.0
250.0   120.0   50.0
250.0   150.0   50.0
300.0   150.0   50.0
250.0   150.0   33.333333333333336
250.0   120.0   50.0
300.0   150.0   50.0
300.0   120.0   50.0
300.0   120.0   33.333333333333336
250.0   120.0   50.0
300.0   150.0   50.0
300.0   120.0   33.333333333333336
250.0   150.0   33.333333333333336
300.0   0.0   0.0
350.0   0.0   0.0
300.0   30.0   0.0
300.0   0.0   16.666666666666668
350.0   0.0   0.0
350.0   30.0   0.0
300.0   30.0   0.0
350.0   30.0   16.666666666666668
300.0   0.0   16.666666666666668
300.0   30.0   16.666666666666668
350.0   30.0   16.666666666666668
300.0   30.0   0.0
300.0   0.0   16.666666666666668
350.0   30.0   16.666666666666668
350.0   0.0   16.666666666666668
350.0   0.0   0.0
300.0   0.0   16.666666666666668
350.0   30.0   16.666666666666668
350.0   0.0   0.0
300.0   30.0   0.0
300.0   0.0   16.666666666666668
350.0   0.0   16.666666666666668
300.0   30.0   16.666666666666668
300.0   0.0   33.333333333333336
350.0   0.0   16.666666666666668
350.0   30.0   16.666666666666668
300.0   30.0   16.666666666666668
350.0   30.0   33.333333333333336
300.0   0.0   33.333333333333336
300.0   30.0   33.333333333333336
350.0   30.0   33.333333333333336
300.0   30.0   16.666666666666668
300.0   0.0   33.333333333333336
350.0   30.0   33.333333333333336
350.0   0.0   33.333333333333336
350.0   0.0   16.666666666666668
300.0   0.0   33.333333333333336
350.0   30.0   33.333333333333336
350.0   0.0   16.666666666666668
300.0   30.0   16.666666666666668
300.0   0.0   33.333333333333336
350.0   0.0   33.333333333333336
300.0   30.0   33.333333333333336
300.0   0.0   50.0
350.0   0.0   33.333333333333336
350.0   30.0   33.333333333333336
300.0   30.0   33.333333333333336
350.0   30.0   50.0
300.0   0.0   50.0
300.0   30.0   50.0
350.0   30.0   50.0
300.0   30.0   33.333333333333336
300.0   0.0   50.0
350.0   30.0   50.0
350.0   0.0   50.0
350.0   0.0   33.333333333333336
300.0   0.0   50.0
350.0   30.0   50.0
350.0   0.0   33.333333333333336
300.0   30.0   33.333333333333336
300.0   30.0   0.0
350.0   30.0   0.0
300.0   60.0   0.0
300.0   30.0   16.666666666666668
350.0   30.0   0.0
350.0   60.0   0.0
300.0   60.0   0.0
350.0   60.0   16.666666666666668
300.0   30.0   16.666666666666668
300.0   60.0   16.666666666666668
350.0   60.0   16.666666666666668
300.0   60.0   0.0
300.0   30.0   16.666666666666668
350.0   60.0   16.666666666666668
350.0   30.0   16.666666666666668
350.0   30.0   0.0
300.0   30.0   16.666666666666668
350.0   60.0   16.666666666666668
350.0   30.0   0.0
300.0   60.0   0.0
300.0   30.0   16.666666666666668
350.0   30.0   16.666666666666668
300.0   60.0   16.666666666666668
300.0   30.0   33.333333333333336
350.0   30.0   16.666666666666668
350.0   60.0   16.666666666666668
300.0   60.0   16.666666666666668
350.0   60.0   33.333333333333336
300.0   30.0   33.333333333333336
300.0   60.0   33.333333333333336
350.0   60.0   33.333333333333336
300.0   60.0   16.666666666666668
300.0   30.0   33.333333333333336
350.0   60.0   33.333333333333336
350.0   30.0   33.333333333333336
350.0   30.0   16.666666666666668
300.0   30.0   33.333333333333336
350.0   60.0   33.333333333333336
350.0   30.0   16.666666666666668
300.0   60.0   16.666666666666668
300.0   30.0   33.333333333333336
350.0   30.0   33.333333333333336
300.0   60.0   33.333333333333336
300.0   30.0   50.0
350.0   30.0   33.333333333333336
350.0   60.0   33.333333333333336
300.0   60.0   33.333333333333336
350.0   60.0   50.0
300.0   30.0   50.0
300.0   60.0   50.0
350.0   60.0   50.0
300.0   60.0   33.333333333333336
300.0   30.0   50.0
350.0   60.0   50.0
350.0   30.0   50.0
350.0   30.0   33.333333333333336
300.0   30.0   50.0
350.0   60.0   50.0
350.0   30.0   33.333333333333336
300.0   60.0   33.333333333333336
300.0   60.0   0.0
350.0   60.0   0.0
300.0   90.0   0.0
300.0   60.0   16.666666666666668
350.0   60.0   0.0
350.0   90.0   0.0
300.0   90.0   0.0
350.0   90.0   16.666666666666668
300.0   60.0   16.666666666666668
300.0   90.0   16.666666666666668
350.0   90.0   16.666666666666668
300.0   90.0   0.0
300.0   60.0   16.666666666666668
350.0   90.0   16.666666666666668
350.0   60.0   16.666666666666668
350.0   60.0   0.0
300.0   60.0   16.666666666666668
350.0   90.0   16.666666666666668
350.0   60.0   0.0
300.0   90.0   0.0
300.0   60.0   16.666666666666668
350.0   60.0   16.666666666666668
300.0   90.0   16.666666666666668
300.0   60.0   33.333333333333336
350.0   60.0   16.666666666666668
350.0   90.0   16.666666666666668
300.0   90.0   16.666666666666668
350.0   90.0   33.333333333333336
300.0   60.0   33.333333333333336
300.0   90.0   33.333333333333336
350.0   90.0   33.333333333333336
300.0   90.0   16.666666666666668
300.0   60.0   33.333333333333336
350.0   90.0   33.333333333333336
350.0   60.0   33.333333333333336
350.0   60.0   16.666666666666668
300.0   60.0   33.333333333333336
350.0   90.0   33.333333333333336
350.0   60.0   16.666666666666668
300.0   90.0   16.666666666666668
300.0   60.0   33.333333333333336
350.0   60.0   33.333333333333336
300.0   90.0   33.333333333333336
300.0   60.0   50.0
350.0   60.0   33.333333333333336
350.0   90.0   33.333333333333336
300.0   90.0   33.333333333333336
350.0   90.0   50.0
300.0   60.0   50.0
300.0   90.0   50.0
350.0   90.0   50.0
300.0   90.0   33.333333333333336
300.0   60.0   50.0
350.0   90.0   50.0
350.0   60.0   50.0
350.0   60.0   33.333333333333336
300.0   60.0   50.0
350.0   90.0   50.0
350.0   60.0   33.333333333333336
300.0   90.0   33.333333333333336
300.0   90.0   0.0
350.0   90.0   0.0
300.0   120.0   0.0
300.0   90.0   16.666666666666668
350.0   90.0   0.0
350.0   120.0   0.0
300.0   120.0   0.0
350.0   120.0   16.666666666666668
300.0   90.0   16.666666666666668
300.0   120.0   16.666666666666668
350.0   120.0   16.666666666666668
300.0   120.0   0.0
300.0   90.0   16.666666666666668
350.0   120.0   16.666666666666668
350.0   90.0   16.666666666666668
350.0   90.0   0.0
300.0   90.0   16.666666666666668
350.0   120.0   16.666666666666668
350.0   90.0   0.0
300.0   120.0   0.0
300.0   90.0   16.666666666666668
350.0   90.0   16.666666666666668
300.0   120.0   16.666666666666668
300.0   90.0   33.333333333333336
350.0   90.0   16.666666666666668
350.0   120.0   16.666666666666668
300.0   120.0   16.666666666666668
350.0   120.0   33.333333333333336
300.0   90.0   33.333333333333336
300.0   120.0   33.333333333333336
350.0   120.0   33.333333333333336
300.0   120.0   16.666666666666668
300.0   90.0   33.333333333333336
350.0   120.0   33.333333333333336
350.0   90.0   33.333333333333336
350.0   90.0   16.666666666666668
300.0   90.0   33.333333333333336
350.0   120.0   33.333333333333336
350.0   90.0   16.666666666666668
300.0   120.0   16.666666666666668
300.0   90.0   33.333333333333336
350.0   90.0   33.333333333333336
300.0   120.0   33.333333333333336
300.0   90.0   50.0
350.0   90.0   33.333333333333336
350.0   120.0   33.333333333333336
300.0   120.0   33.333333333333336
350.0   120.0   50.0
300.0   90.0   50.0
300.0   120.0   50.0
350.0   120.0   50.0
300.0   120.0   33.333333333333336
300.0   90.0   50.0
350.0   120.0   50.0
350.0   90.0   50.0
350.0   90.0   33.333333333333336
300.0   90.0   50.0
350.0   120.0   50.0
350.0   90.0   33.333333333333336
300.0   120.0   33.333333333333336
300.0   120.0   0.0
350.0   120.0   0.0
300.0   150.0   0.0
300.0   120.0   16.666666666666668
350.0   120.0   0.0
350.0   150.0   0.0
300.0   150.0   0.0
350.0   150.0   16.666666666666668
300.0   120.0   16.666666666666668
300.0   150.0   16.666666666666668
350.0   150.0   16.666666666666668
300.0   150.0   0.0
300.0   120.0   16.666666666666668
350.0   150.0   16.666666666666668
350.0   120.0   16.666666666666668
350.0   120.0   0.0
300.0   120.0   16.666666666666668
350.0   150.0   16.666666666666668
350.0   120.0   0.0
300.0   150.0   0.0
300.0   120.0   16.666666666666668
350.0   120.0   16.666666666666668
300.0   150.0   16.666666666666668
300.0   120.0   33.333333333333336
350.0   120.0   16.666666666666668
350.0   150.0   16.666666666666668
300.0   150.0   16.666666666666668
350.0   150.0   33.333333333333336
300.0   120.0   33.333333333333336
300.0   150.0   33.333333333333336
350.0   150.0   33.333333333333336
300.0   150.0   16.666666666666668
300.0   120.0   33.333333333333336
350.0   150.0   33.333333333333336
350.0   120.0   33.333333333333336
350.0   120.0   16.666666666666668
300.0   120.0   33.333333333333336
350.0   150.0   33.333333333333336
350.0   120.0   16.666666666666668
300.0   150.0   16.666666666666668
300.0   120.0   33.333333333333336
350.0   120.0   33.333333333333336
300.0   150.0   33.333333333333336
300.0   120.0   50.0
350.0   120.0   33.333333333333336
350.0   150.0   33.333333333333336
300.0   150.0   33.333333333333336
350.0   150.0   50.0
300.0   120.0   50.0
300.0   150.0   50.0
350.0   150.0   50.0
300.0   150.0   33.333333333333336
300.0   120.0   50.0
350.0   150.0   50.0
350.0   120.0   50.0
350.0   120.0   33.333333333333336
300.0   120.0   50.0
350.0   150.0   50.0
350.0   120.0   33.333333333333336
300.0   150.0   33.333333333333336
350.0   0.0   0.0
400.0   0.0   0.0
350.0   30.0   0.0
350.0   0.0   16.666666666666668
400.0   0.0   0.0
400.0   30.0   0.0
350.0   30.0   0.0
400.0   30.0   16.666666666666668
350.0   0.0   16.666666666666668
350.0   30.0   16.666666666666668
400.0   30.0   16.666666666666668
350.0   30.0   0.0
350.0   0.0   16.666666666666668
400.0   30.0   16.666666666666668
400.0   0.0   16.666666666666668
400.0   0.0   0.0
350.0   0.0   16.666666666666668
400.0   30.0   16.666666666666668
400.0   0.0   0.0
350.0   30.0   0.0
350.0   0.0   16.666666666666668
400.0   0.0   16.666666666666668
350.0   30.0   16.666666666666668
350.0   0.0   33.333333333333336
400.0   0.0   16.666666666666668
400.0   30.0   16.666666666666668
350.0   30.0   16.666666666666668
400.0   30.0   33.333333333333336
350.0   0.0   33.333333333333336
350.0   30.0   33.333333333333336
400.0   30.0   33.333333333333336
350.0   30.0   16.666666666666668
350.0   0.0   33.333333333333336
400.0   30.0   33.333333333333336
400.0   0.0   33.333333333333336
400.0   0.0   16.666666666666668
350.0   0.0   33.333333333333336
400.0   30.0   33.333333333333336
400.0   0.0   16.666666666666668
350.0   30.0   16.666666666666668
350.0   0.0   33.333333333333336
400.0   0.0   33.333333333333336
350.0   30.0   33.333333333333336
350.0   0.0   50.0
400.0   0.0   33.333333333333336
400.0   30.0   33.333333333333336
350.0   30.0   33.333333333333336
400.0   30.0   50.0
350.0   0.0   50.0
350.0   30.0   50.0
400.0   30.0   50.0
350.0   30.0   33.333333333333336
350.0   0.0   50.0
400.0   30.0   50.0
400.0   0.0   50.0
400.0   0.0   33.333333333333336
350.0   0.0   50.0
400.0   30.0   50.0
400.0   0.0   33.333333333333336
350.0   30.0   33.333333333333336
350.0   30.0   0.0
400.0   30.0   0.0
350.0   60.0   0.0
350.0   30.0   16.666666666666668
400.0   30.0   0.0
400.0   60.0   0.0
350.0   60.0   0.0
400.0   60.0   16.666666666666668
350.0   30.0   16.666666666666668
350.0   60.0   16.666666666666668
400.0   60.0   16.666666666666668
350.0   60.0   0.0
350.0   30.0   16.666666666666668
400.0   60.0   16.666666666666668
400.0   30.0   16.666666666666668
400.0   30.0   0.0
350.0   30.0   16.666666666666668
400.0   60.0   16.666666666666668
400.0   30.0   0.0
350.0   60.0   0.0
350.0   30.0   16.666666666666668
400.0   30.0   16.666666666666668
350.0   60.0   16.666666666666668
350.0   30.0   33.333333333333336
400.0   30.0   16.666666666666668
400.0   60.0   16.666666666666668
350.0   60.0   16.666666666666668
400.0   60.0   33.333333333333336
350.0   30.0   33.333333333333336
350.0   60.0   33.333333333333336
400.0   60.0   33.333333333333336
350.0   60.0   16.666666666666668
350.0   30.0   33.333333333333336
400.0   60.0   33.333333333333336
400.0   30.0   33.333333333333336
400.0   30.0   16.666666666666668
350.0   30.0   33.333333333333336
400.0   60.0   33.333333333333336
400.0   30.0   16.666666666666668
350.0   60.0   16.666666666666668
350.0   30.0   33.333333333333336
400.0   30.0   33.333333333333336
350.0   60.0   33.333333333333336
350.0   30.0   50.0
400.0   30.0   33.333333333333336
400.0   60.0   33.333333333333336
350.0   60.0   33.333333333333336
400.0   60.0   50.0
350.0   30.0   50.0
350.0   60.0   50.0
400.0   60.0   50.0
350.0   60.0   33.333333333333336
350.0   30.0   50.0
400.0   60.0   50.0
400.0   30.0   50.0
400.0   30.0   33.333333333333336
350.0   30.0   50.0
400.0   60.0   50.0
400.0   30.0   33.333333333333336
350.0   60.0   33.333333333333336
350.0   60.0   0.0
400.0   60.0   0.0
350.0   90.0   0.0
350.0   60.0   16.666666666666668
400.0   60.0   0.0
400.0   90.0   0.0
350.0   90.0   0.0
400.0   90.0   16.666666666666668
350.0   60.0   16.666666666666668
350.0   90.0   16.666666666666668
400.0   90.0   16.666666666666668
350.0   90.0   0.0
350.0   60.0   16.666666666666668
400.0   90.0   16.666666666666668
400.0   60.0   16.666666666666668
400.0   60.0   0.0
350.0   60.0   16.666666666666668
400.0   90.0   16.666666666666668
400.0   60.0   0.0
350.0   90.0   0.0
350.0   60.0   16.666666666666668
400.0   60.0   16.666666666666668
350.0   90.0   16.666666666666668
350.0   60.0   33.333333333333336
400.0   60.0   16.666666666666668
400.0   90.0   16.666666666666668
350.0   90.0   16.666666666666668
400.0   90.0   33.333333333333336
350.0   60.0   33.333333333333336
350.0   90.0   33.333333333333336
400.0   90.0   33.333333333333336
350.0   90.0   16.666666666666668
350.0   60.0   33.333333333333336
400.0   90.0   33.333333333333336
400.0   60.0   33.333333333333336
400.0   60.0   16.666666666666668
350.0   60.0   33.333333333333336
400.0   90.0   33.333333333333336
400.0   60.0   16.666666666666668
350.0   90.0   16.666666666666668
350.0   60.0   33.333333333333336
400.0   60.0   33.333333333333336
350.0   90.0   33.333333333333336
350.0   60.0   50.0
400.0   60.0   33.333333333333336
400.0   90.0   33.333333333333336
350.0   90.0   33.333333333333336
400.0   90.0   50.0
350.0   60.0   50.0
350.0   90.0   50.0
400.0   90.0   50.0
350.0   90.0   33.333333333333336
350.0   60.0   50.0
400.0   90.0   50.0
400.0   60.0   50.0
400.0   60.0   33.333333333333336
350.0   60.0   50.0
400.0   90.0   50.0
400.0   60.0   33.333333333333336
350.0   90.0   33.333333333333336
350.0   90.0   0.0
400.0   90.0   0.0
350.0   120.0   0.0
350.0   90.0   16.666666666666668
400.0   90.0   0.0
400.0   120.0   0.0
350.0   120.0   0.0
400.0   120.0   16.666666666666668
350.0   90.0   16.666666666666668
350.0   120.0   16.666666666666668
400.0   120.0   16.666666666666668
350.0   120.0   0.0
350.0   90.0   16.666666666666668
400.0   120.0   16.666666666666668
400.0   90.0   16.666666666666668
400.0   90.0   0.0
350.0   90.0   16.666666666666668
400.0   120.0   16.666666666666668
400.0   90.0   0.0
350.0   120.0   0.0
350.0   90.0   16.666666666666668
400.0   90.0   16.666666666666668
350.0   120.0   16.666666666666668
350.0   90.0   33.333333333333336
400.0   90.0   16.666666666666668
400.0   120.0   16.666666666666668
350.0   120.0   16.666666666666668
400.0   120.0   33.333333333333336
350.0   90.0   33.333333333333336
350.0   120.0   33.333333333333336
400.0   120.0   33.333333333333336
350.0   120.0   16.666666666666668
350.0   90.0   33.333333333333336
400.0   120.0   33.333333333333336
400.0   90.0   33.333333333333336
400.0   90.0   16.666666666666668
350.0   90.0   33.333333333333336
400.0   120.0   33.333333333333336
400.0   90.0   16.666666666666668
350.0   120.0   16.666666666666668
350.0   90.0   33.333333333333336
400.0   90.0   33.333333333333336
350.0   120.0   33.333333333333336
350.0   90.0   50.0
400.0   90.0   33.333333333333336
400.0   120.0   33.333333333333336
350.0   120.0   33.333333333333336
400.0   120.0   50.0
350.0   90.0   50.0
350.0   120.0   50.0
400.0   120.0   50.0
350.0   120.0   33.333333333333336
350.0   90.0   50.0
400.0   120.0   50.0
400.0   90.0   50.0
400.0   90.0   33.333333333333336
350.0   90.0   50.0
400.0   120.0   50.0
400.0   90.0   33.333333333333336
350.0   120.0   33.333333333333336
350.0   120.0   0.0
400.0   120.0   0.0
350.0   150.0   0.0
350.0   120.0   16.666666666666668
400.0   120.0   0.0
400.0   150.0   0.0
350.0   150.0   0.0
400.0   150.0   16.666666666666668
350.0   120.0   16.666666666666668
350.0   150.0   16.666666666666668
400.0   150.0   16.666666666666668
350.0   150.0   0.0
350.0   120.0   16.666666666666668
400.0   150.0   16.666666666666668
400.0   120.0   16.666666666666668
400.0   120.0   0.0
350.0   120.0   16.666666666666668
400.0   150.0   16.666666666666668
400.0   120.0   0.0
350.0   150.0   0.0
350.0   120.0   16.666666666666668
400.0   120.0   16.666666666666668
350.0   150.0   16.666666666666668
350.0   120.0   33.333333333333336
400.0   120.0   16.666666666666668
400.0   150.0   16.666666666666668
350.0   150.0   16.666666666666668
400.0   150.0   33.333333333333336
350.0   120.0   33.333333333333336
350.0   150.0   33.333333333333336
400.0   150.0   33.333333333333336
350.0   150.0   16.666666666666668
350.0   120.0   33.333333333333336
400.0   150.0   33.333333333333336
400.0   120.0   33.333333333333336
400.0   120.0   16.666666666666668
350.0   120.0   33.333333333333336
400.0   150.0   33.333333333333336
400.0   120.0   16.666666666666668
350.0   150.0   16.666666666666668
350.0   120.0   33.333333333333336
400.0   120.0   33.333333333333336
350.0   150.0   33.333333333333336
350.0   120.0   50.0
400.0   120.0   33.333333333333336
400.0   150.0   33.333333333333336
350.0   150.0   33.333333333333336
400.0   150.0   50.0
350.0   120.0   50.0
350.0   150.0   50.0
400.0   150.0   50.0
350.0   150.0   33.333333333333336
350.0   120.0   50.0
400.0   150.0   50.0
400.0   120.0   50.0
400.0   120.0   33.333333333333336
350.0   120.0   50.0
400.0   150.0   50.0
400.0   120.0   33.333333333333336
350.0   150.0   33.333333333333336
400.0   0.0   0.0
450.0   0.0   0.0
400.0   30.0   0.0
400.0   0.0   16.666666666666668
450.0   0.0   0.0
450.0   30.0   0.0
400.0   30.0   0.0
450.0   30.0   16.666666666666668
400.0   0.0   16.666666666666668
400.0   30.0   16.666666666666668
450.0   30.0   16.666666666666668
400.0   30.0   0.0
400.0   0.0   16.666666666666668
450.0   30.0   16.666666666666668
450.0   0.0   16.666666666666668
450.0   0.0   0.0
400.0   0.0   16.666666666666668
450.0   30.0   16.666666666666668
450.0   0.0   0.0
400.0   30.0   0.0
400.0   0.0   16.666666666666668
450.0   0.0   16.666666666666668
400.0   30.0   16.666666666666668
400.0   0.0   33.333333333333336
450.0   0.0   16.666666666666668
450.0   30.0   16.666666666666668
400.0   30.0   16.666666666666668
450.0   30.0   33.333333333333336
400.0   0.0   33.333333333333336
400.0   30.0   33.333333333333336
450.0   30.0   33.333333333333336
400.0   30.0   16.666666666666668
400.0   0.0   33.333333333333336
450.0   30.0   33.333333333333336
450.0   0.0   33.333333333333336
450.0   0.0   16.666666666666668
400.0   0.0   33.333333333333336
450.0   30.0   33.333333333333336
450.0   0.0   16.666666666666668
400.0   30.0   16.666666666666668
400.0   0.0   33.333333333333336
450.0   0.0   33.333333333333336
400.0   30.0   33.333333333333336
400.0   0.0   50.0
450.0   0.0   33.333333333333336
450.0   30.0   33.333333333333336
400.0   30.0   33.333333333333336
450.0   30.0   50.0
400.0   0.0   50.0
400.0   30.0   50.0
450.0   30.0   50.0
400.0   30.0   33.333333333333336
400.0   0.0   50.0
450.0   30.0   50.0
450.0   0.0   50.0
450.0   0.0   33.333333333333336
400.0   0.0   50.0
450.0   30.0   50.0
450.0   0.0   33.333333333333336
400.0   30.0   33.333333333333336
400.0   30.0   0.0
450.0   30.0   0.0
400.0   60.0   0.0
400.0   30.0   16.666666666666668
450.0   30.0   0.0
450.0   60.0   0.0
400.0   60.0   0.0
450.0   60.0   16.666666666666668
400.0   30.0   16.666666666666668
400.0   60.0   16.666666666666668
450.0   60.0   16.666666666666668
400.0   60.0   0.0
400.0   30.0   16.666666666666668
450.0   60.0   16.666666666666668
450.0   30.0   16.666666666666668
450.0   30.0   0.0
400.0   30.0   16.666666666666668
450.0   60.0   16.666666666666668
450.0   30.0   0.0
400.0   60.0   0.0
400.0   30.0   16.666666666666668
450.0   30.0   16.666666666666668
400.0   60.0   16.666666666666668
400.0   30.0   33.333333333333336
450.0   30.0   16.666666666666668
450.0   60.0   16.666666666666668
400.0   60.0   16.666666666666668
450.0   60.0   33.333333333333336
400.0   30.0   33.333333333333336
400.0   60.0   33.333333333333336
450.0   60.0   33.333333333333336
400.0   60.0   16.666666666666668
400.0   30.0   33.333333333333336
450.0   60.0   33.333333333333336
450.0   30.0   33.333333333333336
450.0   30.0   16.666666666666668
400.0   30.0   33.333333333333336
450.0   60.0   33.333333333333336
450.0   30.0   16.666666666666668
400.0   60.0   16.666666666666668
400.0   30.0   33.333333333333336
450.0   30.0   33.333333333333336
400.0   60.0   33.333333333333336
400.0   30.0   50.0
450.0   30.0   33.333333333333336
450.0   60.0   33.333333333333336
400.0   60.0   33.333333333333336
450.0   60.0   50.0
400.0   30.0   50.0
400.0   60.0   50.0
450.0   60.0   50.0
400.0   60.0   33.333333333333336
400.0   30.0   50.0
450.0   60.0   50.0
450.0   30.0   50.0
450.0   30.0   33.333333333333336
400.0   30.0   50.0
450.0   60.0   50.0
450.0   30.0   33.333333333333336
400.0   60.0   33.333333333333336
400.0   60.0   0.0
450.0   60.0   0.0
400.0   90.0   0.0
400.0   60.0   16.666666666666668
450.0   60.0   0.0
450.0   90.0   0.0
400.0   90.0   0.0
450.0   90.0   16.666666666666668
400.0   60.0   16.666666666666668
400.0   90.0   16.666666666666668
450.0   90.0   16.666666666666668
400.0   90.0   0.0
400.0   60.0   16.666666666666668
450.0   90.0   16.666666666666668
450.0   60.0   16.666666666666668
450.0   60.0   0.0
400.0   60.0   16.666666666666668
450.0   90.0   16.666666666666668
450.0   60.0   0.0
400.0   90.0   0.0
400.0   60.0   16.666666666666668
450.0   60.0   16.666666666666668
400.0   90.0   16.666666666666668
400.0   60.0   33.333333333333336
450.0   60.0   16.666666666666668
450.0   90.0   16.666666666666668
400.0   90.0   16.666666666666668
450.0   90.0   33.333333333333336
400.0   60.0   33.333333333333336
400.0   90.0   33.333333333333336
450.0   90.0   33.333333333333336
400.0   90.0   16.666666666666668
400.0   60.0   33.333333333333336
450.0   90.0   33.333333333333336
450.0   60.0   33.333333333333336
450.0   60.0   16.666666666666668
400.0   60.0   33.333333333333336
450.0   90.0   33.333333333333336
450.0   60.0   16.666666666666668
400.0   90.0   16.666666666666668
400.0   60.0   33.333333333333336
450.0   60.0   33.333333333333336
400.0   90.0   33.333333333333336
400.0   60.0   50.0
450.0   60.0   33.333333333333336
450.0   90.0   33.333333333333336
400.0   90.0   33.333333333333336
450.0   90.0   50.0
400.0   60.0   50.0
400.0   90.0   50.0
450.0   90.0   50.0
400.0   90.0   33.333333333333336
400.0   60.0   50.0
450.0   90.0   50.0
450.0   60.0   50.0
450.0   60.0   33.333333333333336
400.0   60.0   50.0
450.0   90.0   50.0
450.0   60.0   33.333333333333336
400.0   90.0   33.333333333333336
400.0   90.0   0.0
450.0   90.0   0.0
400.0   120.0   0.0
400.0   90.0   16.666666666666668
450.0   90.0   0.0
450.0   120.0   0.0
400.0   120.0   0.0
450.0   120.0   16.666666666666668
400.0   90.0   16.666666666666668
400.0   120.0   16.666666666666668
450.0   120.0   16.666666666666668
400.0   120.0   0.0
400.0   90.0   16.666666666666668
450.0   120.0   16.666666666666668
450.0   90.0   16.666666666666668
450.0   90.0   0.0
400.0   90.0   16.666666666666668
450.0   120.0   16.666666666666668
450.0   90.0   0.0
400.0   120.0   0.0
400.0   90.0   16.666666666666668
450.0   90.0   16.666666666666668
400.0   120.0   16.666666666666668
400.0   90.0   33.333333333333336
450.0   90.0   16.666666666666668
450.0   120.0   16.666666666666668
400.0   120.0   16.666666666666668
450.0   120.0   33.333333333333336
400.0   90.0   33.333333333333336
400.0   120.0   33.333333333333336
450.0   120.0   33.333333333333336
400.0   120.0   16.666666666666668
400.0   90.0   33.333333333333336
450.0   120.0   33.333333333333336
450.0   90.0   33.333333333333336
450.0   90.0   16.666666666666668
400.0   90.0   33.333333333333336
450.0   120.0   33.333333333333336
450.0   90.0   16.666666666666668
400.0   120.0   16.666666666666668
400.0   90.0   33.333333333333336
450.0   90.0   33.333333333333336
400.0   120.0   33.333333333333336
400.0   90.0   50.0
450.0   90.0   33.333333333333336
450.0   120.0   33.333333333333336
400.0   120.0   33.333333333333336
450.0   120.0   50.0
400.0   90.0   50.0
400.0   120.0   50.0
450.0   120.0   50.0
400.0   120.0   33.333333333333336
400.0   90.0   50.0
450.0   120.0   50.0
450.0   90.0   50.0
450.0   90.0   33.333333333333336
400.0   90.0   50.0
450.0   120.0   50.0
450.0   90.0   33.333333333333336
400.0   120.0   33.333333333333336
400.0   120.0   0.0
450.0   120.0   0.0
400.0   150.0   0.0
400.0   120.0   16.666666666666668
450.0   120.0   0.0
450.0   150.0   0.0
400.0   150.0   0.0
450.0   150.0   16.666666666666668
400.0   120.0   16.666666666666668
400.0   150.0   16.666666666666668
450.0   150.0   16.666666666666668
400.0   150.0   0.0
400.0   120.0   16.666666666666668
450.0   150.0   16.666666666666668
450.0   120.0   16.666666666666668
450.0   120.0   0.0
400.0   120.0   16.666666666666668
450.0   150.0   16.666666666666668
450.0   120.0   0.0
400.0   150.0   0.0
400.0   120.0   16.666666666666668
450.0   120.0   16.666666666666668
400.0   150.0   16.666666666666668
400.0   120.0   33.333333333333336
450.0   120.0   16.666666666666668
450.0   150.0   16.666666666666668
400.0   150.0   16.666666666666668
450.0   150.0   33.333333333333336
400.0   120.0   33.333333333333336
400.0   150.0   33.333333333333336
450.0   150.0   33.333333333333336
400.0   150.0   16.666666666666668
400.0   120.0   33.333333333333336
450.0   150.0   33.333333333333336
450.0   120.0   33.333333333333336
450.0   120.0   16.666666666666668
400.0   120.0   33.333333333333336
450.0   150.0   33.333333333333336
450.0   120.0   16.666666666666668
400.0   150.0   16.666666666666668
400.0   120.0   33.333333333333336
450.0   120.0   33.333333333333336
400.0   150.0   33.333333333333336
400.0   120.0   50.0
450.0   120.0   33.333333333333336
450.0   150.0   33.333333333333336
400.0   150.0   33.333333333333336
450.0   150.0   50.0
400.0   120.0   50.0
400.0   150.0   50.0
450.0   150.0   50.0
400.0   150.0   33.333333333333336
400.0   120.0   50.0
450.0   150.0   50.0
450.0   120.0   50.0
450.0   120.0   33.333333333333336
400.0   120.0   50.0
450.0   150.0   50.0
450.0   120.0   33.333333333333336
400.0   150.0   33.333333333333336
450.0   0.0   0.0
500.0   0.0   0.0
450.0   30.0   0.0
450.0   0.0   16.666666666666668
500.0   0.0   0.0
500.0   30.0   0.0
450.0   30.0   0.0
500.0   30.0   16.666666666666668
450.0   0.0   16.666666666666668
450.0   30.0   16.666666666666668
500.0   30.0   16.666666666666668
450.0   30.0   0.0
450.0   0.0   16.666666666666668
500.0   30.0   16.666666666666668
500.0   0.0   16.666666666666668
500.0   0.0   0.0
450.0   0.0   16.666666666666668
500.0   30.0   16.666666666666668
500.0   0.0   0.0
450.0   30.0   0.0
450.0   0.0   16.666666666666668
500.0   0.0   16.666666666666668
450.0   30.0   16.666666666666668
450.0   0.0   33.333333333333336
500.0   0.0   16.666666666666668
500.0   30.0   16.666666666666668
450.0   30.0   16.666666666666668
500.0   30.0   33.333333333333336
450.0   0.0   33.333333333333336
450.0   30.0   33.333333333333336
500.0   30.0   33.333333333333336
450.0   30.0   16.666666666666668
450.0   0.0   33.333333333333336
500.0   30.0   33.333333333333336
500.0   0.0   33.333333333333336
500.0   0.0   16.666666666666668
450.0   0.0   33.333333333333336
500.0   30.0   33.333333333333336
500.0   0.0   16.666666666666668
450.0   30.0   16.666666666666668
450.0   0.0   33.333333333333336
500.0   0.0   33.333333333333336
450.0   30.0   33.333333333333336
450.0   0.0   50.0
500.0   0.0   33.333333333333336
500.0   30.0   33.333333333333336
450.0   30.0   33.333333333333336
500.0   30.0   50.0
450.0   0.0   50.0
450.0   30.0   50.0
500.0   30.0   50.0
450.0   30.0   33.333333333333336
450.0   0.0   50.0
500.0   30.0   50.0
500.0   0.0   50.0
500.0   0.0   33.333333333333336
450.0   0.0   50.0
500.0   30.0   50.0
500.0   0.0   33.333333333333336
450.0   30.0   33.333333333333336
450.0   30.0   0.0
500.0   30.0   0.0
450.0   60.0   0.0
450.0   30.0   16.666666666666668
500.0   30.0   0.0
500.0   60.0   0.0
450.0   60.0   0.0
500.0   60.0   16.666666666666668
450.0   30.0   16.666666666666668
450.0   60.0   16.666666666666668
500.0   60.0   16.666666666666668
450.0   60.0   0.0
450.0   30.0   16.666666666666668
500.0   60.0   16.666666666666668
500.0   30.0   16.666666666666668
500.0   30.0   0.0
450.0   30.0   16.666666666666668
500.0   60.0   16.666666666666668
500.0   30.0   0.0
450.0   60.0   0.0
450.0   30.0   16.666666666666668
500.0   30.0   16.666666666666668
450.0   60.0   16.666666666666668
450.0   30.0   33.333333333333336
500.0   30.0   16.666666666666668
500.0   60.0   16.666666666666668
450.0   60.0   16.666666666666668
500.0   60.0   33.333333333333336
450.0   30.0   33.333333333333336
450.0   60.0   33.333333333333336
500.0   60.0   33.333333333333336
450.0   60.0   16.666666666666668
450.0   30.0   33.333333333333336
500.0   60.0   33.333333333333336
500.0   30.0   33.333333333333336
500.0   30.0   16.666666666666668
450.0   30.0   33.333333333333336
500.0   60.0   33.333333333333336
500.0   30.0   16.666666666666668
450.0   60.0   16.666666666666668
450.0   30.0   33.333333333333336
500.0   30.0   33.333333333333336
450.0   60.0   33.333333333333336
450.0   30.0   50.0
500.0   30.0   33.333333333333336
500.0   60.0   33.333333333333336
450.0   60.0   33.333333333333336
500.0   60.0   50.0
450.0   30.0   50.0
450.0   60.0   50.0
500.0   60.0   50.0
450.0   60.0   33.333333333333336
450.0   30.0   50.0
500.0   60.0   50.0
500.0   30.0   50.0
500.0   30.0   33.333333333333336
450.0   30.0   50.0
500.0   60.0   50.0
500.0   30.0   33.333333333333336
450.0   60.0   33.333333333333336
450.0   60.0   0.0
500.0   60.0   0.0
450.0   90.0   0.0
450.0   60.0   16.666666666666668
500.0   60.0   0.0
500.0   90.0   0.0
450.0   90.0   0.0
500.0   90.0   16.666666666666668
450.0   60.0   16.666666666666668
450.0   90.0   16.666666666666668
500.0   90.0   16.666666666666668
450.0   90.0   0.0
450.0   60.0   16.666666666666668
500.0   90.0   16.666666666666668
500.0   60.0   16.666666666666668
500.0   60.0   0.0
450.0   60.0   16.666666666666668
500.0   90.0   16.666666666666668
500.0   60.0   0.0
450.0   90.0   0.0
450.0   60.0   16.666666666666668
500.0   60.0   16.666666666666668
450.0   90.0   16.666666666666668
450.0   60.0   33.333333333333336
500.0   60.0   16.666666666666668
500.0   90.0   16.666666666666668
450.0   90.0   16.666666666666668
500.0   90.0   33.333333333333336
450.0   60.0   33.333333333333336
450.0   90.0   33.333333333333336
500.0   90.0   33.333333333333336
450.0   90.0   16.666666666666668
450.0   60.0   33.333333333333336
500.0   90.0   33.333333333333336
500.0   60.0   33.333333333333336
500.0   60.0   16.666666666666668
450.0   60.0   33.333333333333336
500.0   90.0   33.333333333333336
500.0   60.0   16.666666666666668
450.0   90.0   16.666666666666668
450.0   60.0   33.333333333333336
500.0   60.0   33.333333333333336
450.0   90.0   33.333333333333336
450.0   60.0   50.0
500.0   60.0   33.333333333333336
500.0   90.0   33.333333333333336
450.0   90.0   33.333333333333336
500.0   90.0   50.0
450.0   60.0   50.0
450.0   90.0   50.0
500.0   90.0   50.0
450.0   90.0   33.333333333333336
450.0   60.0   50.0
500.0   90.0   50.0
500.0   60.0   50.0
500.0   60.0   33.333333333333336
450.0   60.0   50.0
500.0   90.0   50.0
500.0   60.0   33.333333333333336
450.0   90.0   33.333333333333336
450.0   90.0   0.0
500.0   90.0   0.0
450.0   120.0   0.0
450.0   90.0   16.666666666666668
500.0   90.0   0.0
500.0   120.0   0.0
450.0   120.0   0.0
500.0   120.0   16.666666666666668
450.0   90.0   16.666666666666668
450.0   120.0   16.666666666666668
500.0   120.0   16.666666666666668
450.0   120.0   0.0
450.0   90.0   16.666666666666668
500.0   120.0   16.666666666666668
500.0   90.0   16.666666666666668
500.0   90.0   0.0
450.0   90.0   16.666666666666668
500.0   120.0   16.666666666666668
500.0   90.0   0.0
450.0   120.0   0.0
450.0   90.0   16.666666666666668
500.0   90.0   16.666666666666668
450.0   120.0   16.666666666666668
450.0   90.0   33.333333333333336
500.0   90.0   16.666666666666668
500.0   120.0   16.666666666666668
450.0   120.0   16.666666666666668
500.0   120.0   33.333333333333336
450.0   90.0   33.333333333333336
450.0   120.0   33.333333333333336
500.0   120.0   33.333333333333336
450.0   120.0   16.666666666666668
450.0   90.0   33.333333333333336
500.0   120.0   33.333333333333336
500.0   90.0   33.333333333333336
500.0   90.0   16.666666666666668
450.0   90.0   33.333333333333336
500.0   120.0   33.333333333333336
500.0   90.0   16.666666666666668
450.0   120.0   16.666666666666668
450.0   90.0   33.333333333333336
500.0   90.0   33.333333333333336
450.0   120.0   33.333333333333336
450.0   90.0   50.0
500.0   90.0   33.333333333333336
500.0   120.0   33.333333333333336
450.0   120.0   33.333333333333336
500.0   120.0   50.0
450.0   90.0   50.0
450.0   120.0   50.0
500.0   120.0   50.0
450.0   120.0   33.333333333333336
450.0   90.0   50.0
500.0   120.0   50.0
500.0   90.0   50.0
500.0   90.0   33.333333333333336
450.0   90.0   50.0
500.0   120.0   50.0
500.0   90.0   33.333333333333336
450.0   120.0   33.333333333333336
450.0   120.0   0.0
500.0   120.0   0.0
450.0   150.0   0.0
450.0   120.0   16.666666666666668
500.0   120.0   0.0
500.0   150.0   0.0
450.0   150.0   0.0
500.0   150.0   16.666666666666668
450.0   120.0   16.666666666666668
450.0   150.0   16.666666666666668
500.0   150.0   16.666666666666668
450.0   150.0   0.0
450.0   120.0   16.666666666666668
500.0   150.0   16.666666666666668
500.0   120.0   16.666666666666668
500.0   120.0   0.0
450.0   120.0   16.666666666666668
500.0   150.0   16.666666666666668
500.0   120.0   0.0
450.0   150.0   0.0
450.0   120.0   16.666666666666668
500.0   120.0   16.666666666666668
450.0   150.0   16.666666666666668
450.0   120.0   33.333333333333336
500.0   120.0   16.666666666666668
500.0   150.0   16.666666666666668
450.0   150.0   16.666666666666668
500.0   150.0   33.333333333333336
450.0   120.0   33.333333333333336
450.0   150.0   33.333333333333336
500.0   150.0   33.333333333333336
450.0   150.0   16.666666666666668
450.0   120.0   33.333333333333336
500.0   150.0   33.333333333333336
500.0   120.0   33.333333333333336
500.0   120.0   16.666666666666668
450.0   120.0   33.333333333333336
500.0   150.0   33.333333333333336
500.0   120.0   16.666666666666668
450.0   150.0   16.666666666666668
450.0   120.0   33.333333333333336
500.0   120.0   33.333333333333336
450.0   150.0   33.333333333333336
450.0   120.0   50.0
500.0   120.0   33.333333333333336
500.0   150.0   33.333333333333336
450.0   150.0   33.333333333333336
500.0   150.0   50.0
450.0   120.0   50.0
450.0   150.0   50.0
500.0   150.0   50.0
450.0   150.0   33.333333333333336
450.0   120.0   50.0
500.0   150.0   50.0
500.0   120.0   50.0
500.0   120.0   33.333333333333336
450.0   120.0   50.0
500.0   150.0   50.0
500.0   120.0   33.333333333333336
450.0   150.0   33.333333333333336
             </DataArray>   
          </Points>  
          <Cells>  
             <DataArray type="Int32" Name="connectivity" format="ascii">   
0   1   2   3
4   5   6   7
8   9   10   11
12   13   14   15
16   17   18   19
20   21   22   23
24   25   26   27
28   29   30   31
32   33   34   35
36   37   38   39
40   41   42   43
44   45   46   47
48   49   50   51
52   53   54   55
56   57   58   59
60   61   62   63
64   65   66   67
68   69   70   71
72   73   74   75
76   77   78   79
80   81   82   83
84   85   86   87
88   89   90   91
92   93   94   95
96   97   98   99
100   101   102   103
104   105   106   107
108   109   110   111
112   113   114   115
116   117   118   119
120   121   122   123
124   125   126   127
128   129   130   131
132   133   134   135
136   137   138   139
140   141   142   143
144   145   146   147
148   149   150   151
152   153   154   155
156   157   158   159
160   161   162   163
164   165   166   167
168   169   170   171
172   173   174   175
176   177   178   179
180   181   182   183
184   185   186   187
188   189   190   191
192   193   194   195
196   197   198   199
200   201   202   203
204   205   206   207
208   209   210   211
212   213   214   215
216   217   218   219
220   221   222   223
224   225   226   227
228   229   230   231
232   233   234   235
236   237   238   239
240   241   242   243
244   245   246   247
248   249   250   251
252   253   254   255
256   257   258   259
260   261   262   263
264   265   266   267
268   269   270   271
272   273   274   275
276   277   278   279
280   281   282   283
284   285   286   287
288   289   290   291
292   293   294   295
296   297   298   299
300   301   302   303
304   305   306   307
308   309   310   311
312   313   314   315
316   317   318   319
320   321   322   323
324   325   326   327
328   329   330   331
332   333   334   335
336   337   338   339
340   341   342   343
344   345   346   347
348   349   350   351
352   353   354   355
356   357   358   359
360   361   362   363
364   365   366   367
368   369   370   371
372   373   374   375
376   377   378   379
380   381   382   383
384   385   386   387
388   389   390   391
392   393   394   395
396   397   398   399
400   401   402   403
404   405   406   407
408   409   410   411
412   413   414   415
416   417   418   419
420   421   422   423
424   425   426   427
428   429   430   431
432   433   434   435
436   437   438   439
440   441   442   443
444   445   446   447
448   449   450   451
452   453   454   455
456   457   458   459
460   461   462   463
464   465   466   467
468   469   470   471
472   473   474   475
476   477   478   479
480   481   482   483
484   485   486   487
488   489   490   491
492   493   494   495
496   497   498   499
500   501   502   503
504   505   506   507
508   509   510   511
512   513   514   515
516   517   518   519
520   521   522   523
524   525   526   527
528   529   530   531
532   533   534   535
536   537   538   539
540   541   542   543
544   545   546   547
548   549   550   551
552   553   554   555
556   557   558   559
560   561   562   563
564   565   566   567
568   569   570   571
572   573   574   575
576   577   578   579
580   581   582   583
584   585   586   587
588   589   590   591
592   593   594   595
596   597   598   599
600   601   602   603
604   605   606   607
608   609   610   611
612   613   614   615
616   617   618   619
620   621   622   623
624   625   626   627
628   629   630   631
632   633   634   635
636   637   638   639
640   641   642   643
644   645   646   647
648   649   650   651
652   653   654   655
656   657   658   659
660   661   662   663
664   665   666   667
668   669   670   671
672   673   674   675
676   677   678   679
680   681   682   683
684   685   686   687
688   689   690   691
692   693   694   695
696   697   698   699
700   701   702   703
704   705   706   707
708   709   710   711
712   713   714   715
716   717   718   719
720   721   722   723
724   725   726   727
728   729   730   731
732   733   734   735
736   737   738   739
740   741   742   743
744   745   746   747
748   749   750   751
752   753   754   755
756   757   758   759
760   761   762   763
764   765   766   767
768   769   770   771
772   773   774   775
776   777   778   779
780   781   782   783
784   785   786   787
788   789   790   791
792   793   794   795
796   797   798   799
800   801   802   803
804   805   806   807
808   809   810   811
812   813   814   815
816   817   818   819
820   821   822   823
824   825   826   827
828   829   830   831
832   833   834   835
836   837   838   839
840   841   842   843
844   845   846   847
848   849   850   851
852   853   854   855
856   857   858   859
860   861   862   863
864   865   866   867
868   869   870   871
872   873   874   875
876   877   878   879
880   881   882   883
884   885   886   887
888   889   890   891
892   893   894   895
896   897   898   899
900   901   902   903
904   905   906   907
908   909   910   911
912   913   914   915
916   917   918   919
920   921   922   923
924   925   926   927
928   929   930   931
932   933   934   935
936   937   938   939
940   941   942   943
944   945   946   947
948   949   950   951
952   953   954   955
956   957   958   959
960   961   962   963
964   965   966   967
968   969   970   971
972   973   974   975
976   977   978   979
980   981   982   983
984   985   986   987
988   989   990   991
992   993   994   995
996   997   998   999
1000   1001   1002   1003
1004   1005   1006   1007
1008   1009   1010   1011
1012   1013   1014   1015
1016   1017   1018   1019
1020   1021   1022   1023
1024   1025   1026   1027
1028   1029   1030   1031
1032   1033   1034   1035
1036   1037   1038   1039
1040   1041   1042   1043
1044   1045   1046   1047
1048   1049   1050   1051
1052   1053   1054   1055
1056   1057   1058   1059
1060   1061   1062   1063
1064   1065   1066   1067
1068   1069   1070   1071
1072   1073   1074   1075
1076   1077   1078   1079
1080   1081   1082   1083
1084   1085   1086   1087
1088   1089   1090   1091
1092   1093   1094   1095
1096   1097   1098   1099
1100   1101   1102   1103
1104   1105   1106   1107
1108   1109   1110   1111
1112   1113   1114   1115
1116   1117   1118   1119
1120   1121   1122   1123
1124   1125   1126   1127
1128   1129   1130   1131
1132   1133   1134   1135
1136   1137   1138   1139
1140   1141   1142   1143
1144   1145   1146   1147
1148   1149   1150   1151
1152   1153   1154   1155
1156   1157   1158   1159
1160   1161   1162   1163
1164   1165   1166   1167
1168   1169   1170   1171
1172   1173   1174   1175
1176   1177   1178   1179
1180   1181   1182   1183
1184   1185   1186   1187
1188   1189   1190   1191
1192   1193   1194   1195
1196   1197   1198   1199
1200   1201   1202   1203
1204   1205   1206   1207
1208   1209   1210   1211
1212   1213   1214   1215
1216   1217   1218   1219
1220   1221   1222   1223
1224   1225   1226   1227
1228   1229   1230   1231
1232   1233   1234   1235
1236   1237   1238   1239
1240   1241   1242   1243
1244   1245   1246   1247
1248   1249   1250   1251
1252   1253   1254   1255
1256   1257   1258   1259
1260   1261   1262   1263
1264   1265   1266   1267
1268   1269   1270   1271
1272   1273   1274   1275
1276   1277   1278   1279
1280   1281   1282   1283
1284   1285   1286   1287
1288   1289   1290   1291
1292   1293   1294   1295
1296   1297   1298   1299
1300   1301   1302   1303
1304   1305   1306   1307
1308   1309   1310   1311
1312   1313   1314   1315
1316   1317   1318   1319
1320   1321   1322   1323
1324   1325   1326   1327
1328   1329   1330   1331
1332   1333   1334   1335
1336   1337   1338   1339
1340   1341   1342   1343
1344   1345   1346   1347
1348   1349   1350   1351
1352   1353   1354   1355
1356   1357   1358   1359
1360   1361   1362   1363
1364   1365   1366   1367
1368   1369   1370   1371
1372   1373   1374   1375
1376   1377   1378   1379
1380   1381   1382   1383
1384   1385   1386   1387
1388   1389   1390   1391
1392   1393   1394   1395
1396   1397   1398   1399
1400   1401   1402   1403
1404   1405   1406   1407
1408   1409   1410   1411
1412   1413   1414   1415
1416   1417   1418   1419
1420   1421   1422   1423
1424   1425   1426   1427
1428   1429   1430   1431
1432   1433   1434   1435
1436   1437   1438   1439
1440   1441   1442   1443
1444   1445   1446   1447
1448   1449   1450   1451
1452   1453   1454   1455
1456   1457   1458   1459
1460   1461   1462   1463
1464   1465   1466   1467
1468   1469   1470   1471
1472   1473   1474   1475
1476   1477   1478   1479
1480   1481   1482   1483
1484   1485   1486   1487
1488   1489   1490   1491
1492   1493   1494   1495
1496   1497   1498   1499
1500   1501   1502   1503
1504   1505   1506   1507
1508   1509   1510   1511
1512   1513   1514   1515
1516   1517   1518   1519
1520   1521   1522   1523
1524   1525   1526   1527
1528   1529   1530   1531
1532   1533   1534   1535
1536   1537   1538   1539
1540   1541   1542   1543
1544   1545   1546   1547
1548   1549   1550   1551
1552   1553   1554   1555
1556   1557   1558   1559
1560   1561   1562   1563
1564   1565   1566   1567
1568   1569   1570   1571
1572   1573   1574   1575
1576   1577   1578   1579
1580   1581   1582   1583
1584   1585   1586   1587
1588   1589   1590   1591
1592   1593   1594   1595
1596   1597   1598   1599
1600   1601   1602   1603
1604   1605   1606   1607
1608   1609   1610   1611
1612   1613   1614   1615
1616   1617   1618   1619
1620   1621   1622   1623
1624   1625   1626   1627
1628   1629   1630   1631
1632   1633   1634   1635
1636   1637   1638   1639
1640   1641   1642   1643
1644   1645   1646   1647
1648   1649   1650   1651
1652   1653   1654   1655
1656   1657   1658   1659
1660   1661   1662   1663
1664   1665   1666   1667
1668   1669   1670   1671
1672   1673   1674   1675
1676   1677   1678   1679
1680   1681   1682   1683
1684   1685   1686   1687
1688   1689   1690   1691
1692   1693   1694   1695
1696   1697   1698   1699
1700   1701   1702   1703
1704   1705   1706   1707
1708   1709   1710   1711
1712   1713   1714   1715
1716   1717   1718   1719
1720   1721   1722   1723
1724   1725   1726   1727
1728   1729   1730   1731
1732   1733   1734   1735
1736   1737   1738   1739
1740   1741   1742   1743
1744   1745   1746   1747
1748   1749   1750   1751
1752   1753   1754   1755
1756   1757   1758   1759
1760   1761   1762   1763
1764   1765   1766   1767
1768   1769   1770   1771
1772   1773   1774   1775
1776   1777   1778   1779
1780   1781   1782   1783
1784   1785   1786   1787
1788   1789   1790   1791
1792   1793   1794   1795
1796   1797   1798   1799
1800   1801   1802   1803
1804   1805   1806   1807
1808   1809   1810   1811
1812   1813   1814   1815
1816   1817   1818   1819
1820   1821   1822   1823
1824   1825   1826   1827
1828   1829   1830   1831
1832   1833   1834   1835
1836   1837   1838   1839
1840   1841   1842   1843
1844   1845   1846   1847
1848   1849   1850   1851
1852   1853   1854   1855
1856   1857   1858   1859
1860   1861   1862   1863
1864   1865   1866   1867
1868   1869   1870   1871
1872   1873   1874   1875
1876   1877   1878   1879
1880   1881   1882   1883
1884   1885   1886   1887
1888   1889   1890   1891
1892   1893   1894   1895
1896   1897   1898   1899
1900   1901   1902   1903
1904   1905   1906   1907
1908   1909   1910   1911
1912   1913   1914   1915
1916   1917   1918   1919
1920   1921   1922   1923
1924   1925   1926   1927
1928   1929   1930   1931
1932   1933   1934   1935
1936   1937   1938   1939
1940   1941   1942   1943
1944   1945   1946   1947
1948   1949   1950   1951
1952   1953   1954   1955
1956   1957   1958   1959
1960   1961   1962   1963
1964   1965   1966   1967
1968   1969   1970   1971
1972   1973   1974   1975
1976   1977   1978   1979
1980   1981   1982   1983
1984   1985   1986   1987
1988   1989   1990   1991
1992   1993   1994   1995
1996   1997   1998   1999
2000   2001   2002   2003
2004   2005   2006   2007
2008   2009   2010   2011
2012   2013   2014   2015
2016   2017   2018   2019
2020   2021   2022   2023
2024   2025   2026   2027
2028   2029   2030   2031
2032   2033   2034   2035
2036   2037   2038   2039
2040   2041   2042   2043
2044   2045   2046   2047
2048   2049   2050   2051
2052   2053   2054   2055
2056   2057   2058   2059
2060   2061   2062   2063
2064   2065   2066   2067
2068   2069   2070   2071
2072   2073   2074   2075
2076   2077   2078   2079
2080   2081   2082   2083
2084   2085   2086   2087
2088   2089   2090   2091
2092   2093   2094   2095
2096   2097   2098   2099
2100   2101   2102   2103
2104   2105   2106   2107
2108   2109   2110   2111
2112   2113   2114   2115
2116   2117   2118   2119
2120   2121   2122   2123
2124   2125   2126   2127
2128   2129   2130   2131
2132   2133   2134   2135
2136   2137   2138   2139
2140   2141   2142   2143
2144   2145   2146   2147
2148   2149   2150   2151
2152   2153   2154   2155
2156   2157   2158   2159
2160   2161   2162   2163
2164   2165   2166   2167
2168   2169   2170   2171
2172   2173   2174   2175
2176   2177   2178   2179
2180   2181   2182   2183
2184   2185   2186   2187
2188   2189   2190   2191
2192   2193   2194   2195
2196   2197   2198   2199
2200   2201   2202   2203
2204   2205   2206   2207
2208   2209   2210   2211
2212   2213   2214   2215
2216   2217   2218   2219
2220   2221   2222   2223
2224   2225   2226   2227
2228   2229   2230   2231
2232   2233   2234   2235
2236   2237   2238   2239
2240   2241   2242   2243
2244   2245   2246   2247
2248   2249   2250   2251
2252   2253   2254   2255
2256   2257   2258   2259
2260   2261   2262   2263
2264   2265   2266   2267
2268   2269   2270   2271
2272   2273   2274   2275
2276   2277   2278   2279
2280   2281   2282   2283
2284   2285   2286   2287
2288   2289   2290   2291
2292   2293   2294   2295
2296   2297   2298   2299
2300   2301   2302   2303
2304   2305   2306   2307
2308   2309   2310   2311
2312   2313   2314   2315
2316   2317   2318   2319
2320   2321   2322   2323
2324   2325   2326   2327
2328   2329   2330   2331
2332   2333   2334   2335
2336   2337   2338   2339
2340   2341   2342   2343
2344   2345   2346   2347
2348   2349   2350   2351
2352   2353   2354   2355
2356   2357   2358   2359
2360   2361   2362   2363
2364   2365   2366   2367
2368   2369   2370   2371
2372   2373   2374   2375
2376   2377   2378   2379
2380   2381   2382   2383
2384   2385   2386   2387
2388   2389   2390   2391
2392   2393   2394   2395
2396   2397   2398   2399
2400   2401   2402   2403
2404   2405   2406   2407
2408   2409   2410   2411
2412   2413   2414   2415
2416   2417   2418   2419
2420   2421   2422   2423
2424   2425   2426   2427
2428   2429   2430   2431
2432   2433   2434   2435
2436   2437   2438   2439
2440   2441   2442   2443
2444   2445   2446   2447
2448   2449   2450   2451
2452   2453   2454   2455
2456   2457   2458   2459
2460   2461   2462   2463
2464   2465   2466   2467
2468   2469   2470   2471
2472   2473   2474   2475
2476   2477   2478   2479
2480   2481   2482   2483
2484   2485   2486   2487
2488   2489   2490   2491
2492   2493   2494   2495
2496   2497   2498   2499
2500   2501   2502   2503
2504   2505   2506   2507
2508   2509   2510   2511
2512   2513   2514   2515
2516   2517   2518   2519
2520   2521   2522   2523
2524   2525   2526   2527
2528   2529   2530   2531
2532   2533   2534   2535
2536   2537   2538   2539
2540   2541   2542   2543
2544   2545   2546   2547
2548   2549   2550   2551
2552   2553   2554   2555
2556   2557   2558   2559
2560   2561   2562   2563
2564   2565   2566   2567
2568   2569   2570   2571
2572   2573   2574   2575
2576   2577   2578   2579
2580   2581   2582   2583
2584   2585   2586   2587
2588   2589   2590   2591
2592   2593   2594   2595
2596   2597   2598   2599
2600   2601   2602   2603
2604   2605   2606   2607
2608   2609   2610   2611
2612   2613   2614   2615
2616   2617   2618   2619
2620   2621   2622   2623
2624   2625   2626   2627
2628   2629   2630   2631
2632   2633   2634   2635
2636   2637   2638   2639
2640   2641   2642   2643
2644   2645   2646   2647
2648   2649   2650   2651
2652   2653   2654   2655
2656   2657   2658   2659
2660   2661   2662   2663
2664   2665   2666   2667
2668   2669   2670   2671
2672   2673   2674   2675
2676   2677   2678   2679
2680   2681   2682   2683
2684   2685   2686   2687
2688   2689   2690   2691
2692   2693   2694   2695
2696   2697   2698   2699
2700   2701   2702   2703
2704   2705   2706   2707
2708   2709   2710   2711
2712   2713   2714   2715
2716   2717   2718   2719
2720   2721   2722   2723
2724   2725   2726   2727
2728   2729   2730   2731
2732   2733   2734   2735
2736   2737   2738   2739
2740   2741   2742   2743
2744   2745   2746   2747
2748   2749   2750   2751
2752   2753   2754   2755
2756   2757   2758   2759
2760   2761   2762   2763
2764   2765   2766   2767
2768   2769   2770   2771
2772   2773   2774   2775
2776   2777   2778   2779
2780   2781   2782   2783
2784   2785   2786   2787
2788   2789   2790   2791
2792   2793   2794   2795
2796   2797   2798   2799
2800   2801   2802   2803
2804   2805   2806   2807
2808   2809   2810   2811
2812   2813   2814   2815
2816   2817   2818   2819
2820   2821   2822   2823
2824   2825   2826   2827
2828   2829   2830   2831
2832   2833   2834   2835
2836   2837   2838   2839
2840   2841   2842   2843
2844   2845   2846   2847
2848   2849   2850   2851
2852   2853   2854   2855
2856   2857   2858   2859
2860   2861   2862   2863
2864   2865   2866   2867
2868   2869   2870   2871
2872   2873   2874   2875
2876   2877   2878   2879
2880   2881   2882   2883
2884   2885   2886   2887
2888   2889   2890   2891
2892   2893   2894   2895
2896   2897   2898   2899
2900   2901   2902   2903
2904   2905   2906   2907
2908   2909   2910   2911
2912   2913   2914   2915
2916   2917   2918   2919
2920   2921   2922   2923
2924   2925   2926   2927
2928   2929   2930   2931
2932   2933   2934   2935
2936   2937   2938   2939
2940   2941   2942   2943
2944   2945   2946   2947
2948   2949   2950   2951
2952   2953   2954   2955
2956   2957   2958   2959
2960   2961   2962   2963
2964   2965   2966   2967
2968   2969   2970   2971
2972   2973   2974   2975
2976   2977   2978   2979
2980   2981   2982   2983
2984   2985   2986   2987
2988   2989   2990   2991
2992   2993   2994   2995
2996   2997   2998   2999
3000   3001   3002   3003
3004   3005   3006   3007
3008   3009   3010   3011
3012   3013   3014   3015
3016   3017   3018   3019
3020   3021   3022   3023
3024   3025   3026   3027
3028   3029   3030   3031
3032   3033   3034   3035
3036   3037   3038   3039
3040   3041   3042   3043
3044   3045   3046   3047
3048   3049   3050   3051
3052   3053   3054   3055
3056   3057   3058   3059
3060   3061   3062   3063
3064   3065   3066   3067
3068   3069   3070   3071
3072   3073   3074   3075
3076   3077   3078   3079
3080   3081   3082   3083
3084   3085   3086   3087
3088   3089   3090   3091
3092   3093   3094   3095
3096   3097   3098   3099
3100   3101   3102   3103
3104   3105   3106   3107
3108   3109   3110   3111
3112   3113   3114   3115
3116   3117   3118   3119
3120   3121   3122   3123
3124   3125   3126   3127
3128   3129   3130   3131
3132   3133   3134   3135
3136   3137   3138   3139
3140   3141   3142   3143
3144   3145   3146   3147
3148   3149   3150   3151
3152   3153   3154   3155
3156   3157   3158   3159
3160   3161   3162   3163
3164   3165   3166   3167
3168   3169   3170   3171
3172   3173   3174   3175
3176   3177   3178   3179
3180   3181   3182   3183
3184   3185   3186   3187
3188   3189   3190   3191
3192   3193   3194   3195
3196   3197   3198   3199
3200   3201   3202   3203
3204   3205   3206   3207
3208   3209   3210   3211
3212   3213   3214   3215
3216   3217   3218   3219
3220   3221   3222   3223
3224   3225   3226   3227
3228   3229   3230   3231
3232   3233   3234   3235
3236   3237   3238   3239
3240   3241   3242   3243
3244   3245   3246   3247
3248   3249   3250   3251
3252   3253   3254   3255
3256   3257   3258   3259
3260   3261   3262   3263
3264   3265   3266   3267
3268   3269   3270   3271
3272   3273   3274   3275
3276   3277   3278   3279
3280   3281   3282   3283
3284   3285   3286   3287
3288   3289   3290   3291
3292   3293   3294   3295
3296   3297   3298   3299
3300   3301   3302   3303
3304   3305   3306   3307
3308   3309   3310   3311
3312   3313   3314   3315
3316   3317   3318   3319
3320   3321   3322   3323
3324   3325   3326   3327
3328   3329   3330   3331
3332   3333   3334   3335
3336   3337   3338   3339
3340   3341   3342   3343
3344   3345   3346   3347
3348   3349   3350   3351
3352   3353   3354   3355
3356   3357   3358   3359
3360   3361   3362   3363
3364   3365   3366   3367
3368   3369   3370   3371
3372   3373   3374   3375
3376   3377   3378   3379
3380   3381   3382   3383
3384   3385   3386   3387
3388   3389   3390   3391
3392   3393   3394   3395
3396   3397   3398   3399
3400   3401   3402   3403
3404   3405   3406   3407
3408   3409   3410   3411
3412   3413   3414   3415
3416   3417   3418   3419
3420   3421   3422   3423
3424   3425   3426   3427
3428   3429   3430   3431
3432   3433   3434   3435
3436   3437   3438   3439
3440   3441   3442   3443
3444   3445   3446   3447
3448   3449   3450   3451
3452   3453   3454   3455
3456   3457   3458   3459
3460   3461   3462   3463
3464   3465   3466   3467
3468   3469   3470   3471
3472   3473   3474   3475
3476   3477   3478   3479
3480   3481   3482   3483
3484   3485   3486   3487
3488   3489   3490   3491
3492   3493   3494   3495
3496   3497   3498   3499
3500   3501   3502   3503
3504   3505   3506   3507
3508   3509   3510   3511
3512   3513   3514   3515
3516   3517   3518   3519
3520   3521   3522   3523
3524   3525   3526   3527
3528   3529   3530   3531
3532   3533   3534   3535
3536   3537   3538   3539
3540   3541   3542   3543
3544   3545   3546   3547
3548   3549   3550   3551
3552   3553   3554   3555
3556   3557   3558   3559
3560   3561   3562   3563
3564   3565   3566   3567
3568   3569   3570   3571
3572   3573   3574   3575
3576   3577   3578   3579
3580   3581   3582   3583
3584   3585   3586   3587
3588   3589   3590   3591
3592   3593   3594   3595
3596   3597   3598   3599
3600   3601   3602   3603
3604   3605   3606   3607
3608   3609   3610   3611
3612   3613   3614   3615
3616   3617   3618   3619
3620   3621   3622   3623
3624   3625   3626   3627
3628   3629   3630   3631
3632   3633   3634   3635
3636   3637   3638   3639
3640   3641   3642   3643
3644   3645   3646   3647
3648   3649   3650   3651
3652   3653   3654   3655
3656   3657   3658   3659
3660   3661   3662   3663
3664   3665   3666   3667
3668   3669   3670   3671
3672   3673   3674   3675
3676   3677   3678   3679
3680   3681   3682   3683
3684   3685   3686   3687
3688   3689   3690   3691
3692   3693   3694   3695
3696   3697   3698   3699
3700   3701   3702   3703
3704   3705   3706   3707
3708   3709   3710   3711
3712   3713   3714   3715
3716   3717   3718   3719
3720   3721   3722   3723
3724   3725   3726   3727
3728   3729   3730   3731
3732   3733   3734   3735
3736   3737   3738   3739
3740   3741   3742   3743
3744   3745   3746   3747
3748   3749   3750   3751
3752   3753   3754   3755
3756   3757   3758   3759
3760   3761   3762   3763
3764   3765   3766   3767
3768   3769   3770   3771
3772   3773   3774   3775
3776   3777   3778   3779
3780   3781   3782   3783
3784   3785   3786   3787
3788   3789   3790   3791
3792   3793   3794   3795
3796   3797   3798   3799
3800   3801   3802   3803
3804   3805   3806   3807
3808   3809   3810   3811
3812   3813   3814   3815
3816   3817   3818   3819
3820   3821   3822   3823
3824   3825   3826   3827
3828   3829   3830   3831
3832   3833   3834   3835
3836   3837   3838   3839
3840   3841   3842   3843
3844   3845   3846   3847
3848   3849   3850   3851
3852   3853   3854   3855
3856   3857   3858   3859
3860   3861   3862   3863
3864   3865   3866   3867
3868   3869   3870   3871
3872   3873   3874   3875
3876   3877   3878   3879
3880   3881   3882   3883
3884   3885   3886   3887
3888   3889   3890   3891
3892   3893   3894   3895
3896   3897   3898   3899
3900   3901   3902   3903
3904   3905   3906   3907
3908   3909   3910   3911
3912   3913   3914   3915
3916   3917   3918   3919
3920   3921   3922   3923
3924   3925   3926   3927
3928   3929   3930   3931
3932   3933   3934   3935
3936   3937   3938   3939
3940   3941   3942   3943
3944   3945   3946   3947
3948   3949   3950   3951
3952   3953   3954   3955
3956   3957   3958   3959
3960   3961   3962   3963
3964   3965   3966   3967
3968   3969   3970   3971
3972   3973   3974   3975
3976   3977   3978   3979
3980   3981   3982   3983
3984   3985   3986   3987
3988   3989   3990   3991
3992   3993   3994   3995
3996   3997   3998   3999
4000   4001   4002   4003
4004   4005   4006   4007
4008   4009   4010   4011
4012   4013   4014   4015
4016   4017   4018   4019
4020   4021   4022   4023
4024   4025   4026   4027
4028   4029   4030   4031
4032   4033   4034   4035
4036   4037   4038   4039
4040   4041   4042   4043
4044   4045   4046   4047
4048   4049   4050   4051
4052   4053   4054   4055
4056   4057   4058   4059
4060   4061   4062   4063
4064   4065   4066   4067
4068   4069   4070   4071
4072   4073   4074   4075
4076   4077   4078   4079
4080   4081   4082   4083
4084   4085   4086   4087
4088   4089   4090   4091
4092   4093   4094   4095
4096   4097   4098   4099
4100   4101   4102   4103
4104   4105   4106   4107
4108   4109   4110   4111
4112   4113   4114   4115
4116   4117   4118   4119
4120   4121   4122   4123
4124   4125   4126   4127
4128   4129   4130   4131
4132   4133   4134   4135
4136   4137   4138   4139
4140   4141   4142   4143
4144   4145   4146   4147
4148   4149   4150   4151
4152   4153   4154   4155
4156   4157   4158   4159
4160   4161   4162   4163
4164   4165   4166   4167
4168   4169   4170   4171
4172   4173   4174   4175
4176   4177   4178   4179
4180   4181   4182   4183
4184   4185   4186   4187
4188   4189   4190   4191
4192   4193   4194   4195
4196   4197   4198   4199
4200   4201   4202   4203
4204   4205   4206   4207
4208   4209   4210   4211
4212   4213   4214   4215
4216   4217   4218   4219
4220   4221   4222   4223
4224   4225   4226   4227
4228   4229   4230   4231
4232   4233   4234   4235
4236   4237   4238   4239
4240   4241   4242   4243
4244   4245   4246   4247
4248   4249   4250   4251
4252   4253   4254   4255
4256   4257   4258   4259
4260   4261   4262   4263
4264   4265   4266   4267
4268   4269   4270   4271
4272   4273   4274   4275
4276   4277   4278   4279
4280   4281   4282   4283
4284   4285   4286   4287
4288   4289   4290   4291
4292   4293   4294   4295
4296   4297   4298   4299
4300   4301   4302   4303
4304   4305   4306   4307
4308   4309   4310   4311
4312   4313   4314   4315
4316   4317   4318   4319
4320   4321   4322   4323
4324   4325   4326   4327
4328   4329   4330   4331
4332   4333   4334   4335
4336   4337   4338   4339
4340   4341   4342   4343
4344   4345   4346   4347
4348   4349   4350   4351
4352   4353   4354   4355
4356   4357   4358   4359
4360   4361   4362   4363
4364   4365   4366   4367
4368   4369   4370   4371
4372   4373   4374   4375
4376   4377   4378   4379
4380   4381   4382   4383
4384   4385   4386   4387
4388   4389   4390   4391
4392   4393   4394   4395
4396   4397   4398   4399
4400   4401   4402   4403
4404   4405   4406   4407
4408   4409   4410   4411
4412   4413   4414   4415
4416   4417   4418   4419
4420   4421   4422   4423
4424   4425   4426   4427
4428   4429   4430   4431
4432   4433   4434   4435
4436   4437   4438   4439
4440   4441   4442   4443
4444   4445   4446   4447
4448   4449   4450   4451
4452   4453   4454   4455
4456   4457   4458   4459
4460   4461   4462   4463
4464   4465   4466   4467
4468   4469   4470   4471
4472   4473   4474   4475
4476   4477   4478   4479
4480   4481   4482   4483
4484   4485   4486   4487
4488   4489   4490   4491
4492   4493   4494   4495
4496   4497   4498   4499
4500   4501   4502   4503
4504   4505   4506   4507
4508   4509   4510   4511
4512   4513   4514   4515
4516   4517   4518   4519
4520   4521   4522   4523
4524   4525   4526   4527
4528   4529   4530   4531
4532   4533   4534   4535
4536   4537   4538   4539
4540   4541   4542   4543
4544   4545   4546   4547
4548   4549   4550   4551
4552   4553   4554   4555
4556   4557   4558   4559
4560   4561   4562   4563
4564   4565   4566   4567
4568   4569   4570   4571
4572   4573   4574   4575
4576   4577   4578   4579
4580   4581   4582   4583
4584   4585   4586   4587
4588   4589   4590   4591
4592   4593   4594   4595
4596   4597   4598   4599
4600   4601   4602   4603
4604   4605   4606   4607
4608   4609   4610   4611
4612   4613   4614   4615
4616   4617   4618   4619
4620   4621   4622   4623
4624   4625   4626   4627
4628   4629   4630   4631
4632   4633   4634   4635
4636   4637   4638   4639
4640   4641   4642   4643
4644   4645   4646   4647
4648   4649   4650   4651
4652   4653   4654   4655
4656   4657   4658   4659
4660   4661   4662   4663
4664   4665   4666   4667
4668   4669   4670   4671
4672   4673   4674   4675
4676   4677   4678   4679
4680   4681   4682   4683
4684   4685   4686   4687
4688   4689   4690   4691
4692   4693   4694   4695
4696   4697   4698   4699
4700   4701   4702   4703
4704   4705   4706   4707
4708   4709   4710   4711
4712   4713   4714   4715
4716   4717   4718   4719
4720   4721   4722   4723
4724   4725   4726   4727
4728   4729   4730   4731
4732   4733   4734   4735
4736   4737   4738   4739
4740   4741   4742   4743
4744   4745   4746   4747
4748   4749   4750   4751
4752   4753   4754   4755
4756   4757   4758   4759
4760   4761   4762   4763
4764   4765   4766   4767
4768   4769   4770   4771
4772   4773   4774   4775
4776   4777   4778   4779
4780   4781   4782   4783
4784   4785   4786   4787
4788   4789   4790   4791
4792   4793   4794   4795
4796   4797   4798   4799
4800   4801   4802   4803
4804   4805   4806   4807
4808   4809   4810   4811
4812   4813   4814   4815
4816   4817   4818   4819
4820   4821   4822   4823
4824   4825   4826   4827
4828   4829   4830   4831
4832   4833   4834   4835
4836   4837   4838   4839
4840   4841   4842   4843
4844   4845   4846   4847
4848   4849   4850   4851
4852   4853   4854   4855
4856   4857   4858   4859
4860   4861   4862   4863
4864   4865   4866   4867
4868   4869   4870   4871
4872   4873   4874   4875
4876   4877   4878   4879
4880   4881   4882   4883
4884   4885   4886   4887
4888   4889   4890   4891
4892   4893   4894   4895
4896   4897   4898   4899
4900   4901   4902   4903
4904   4905   4906   4907
4908   4909   4910   4911
4912   4913   4914   4915
4916   4917   4918   4919
4920   4921   4922   4923
4924   4925   4926   4927
4928   4929   4930   4931
4932   4933   4934   4935
4936   4937   4938   4939
4940   4941   4942   4943
4944   4945   4946   4947
4948   4949   4950   4951
4952   4953   4954   4955
4956   4957   4958   4959
4960   4961   4962   4963
4964   4965   4966   4967
4968   4969   4970   4971
4972   4973   4974   4975
4976   4977   4978   4979
4980   4981   4982   4983
4984   4985   4986   4987
4988   4989   4990   4991
4992   4993   4994   4995
4996   4997   4998   4999
5000   5001   5002   5003
5004   5005   5006   5007
5008   5009   5010   5011
5012   5013   5014   5015
5016   5017   5018   5019
5020   5021   5022   5023
5024   5025   5026   5027
5028   5029   5030   5031
5032   5033   5034   5035
5036   5037   5038   5039
5040   5041   5042   5043
5044   5045   5046   5047
5048   5049   5050   5051
5052   5053   5054   5055
5056   5057   5058   5059
5060   5061   5062   5063
5064   5065   5066   5067
5068   5069   5070   5071
5072   5073   5074   5075
5076   5077   5078   5079
5080   5081   5082   5083
5084   5085   5086   5087
5088   5089   5090   5091
5092   5093   5094   5095
5096   5097   5098   5099
5100   5101   5102   5103
5104   5105   5106   5107
5108   5109   5110   5111
5112   5113   5114   5115
5116   5117   5118   5119
5120   5121   5122   5123
5124   5125   5126   5127
5128   5129   5130   5131
5132   5133   5134   5135
5136   5137   5138   5139
5140   5141   5142   5143
5144   5145   5146   5147
5148   5149   5150   5151
5152   5153   5154   5155
5156   5157   5158   5159
5160   5161   5162   5163
5164   5165   5166   5167
5168   5169   5170   5171
5172   5173   5174   5175
5176   5177   5178   5179
5180   5181   5182   5183
5184   5185   5186   5187
5188   5189   5190   5191
5192   5193   5194   5195
5196   5197   5198   5199
5200   5201   5202   5203
5204   5205   5206   5207
5208   5209   5210   5211
5212   5213   5214   5215
5216   5217   5218   5219
5220   5221   5222   5223
5224   5225   5226   5227
5228   5229   5230   5231
5232   5233   5234   5235
5236   5237   5238   5239
5240   5241   5242   5243
5244   5245   5246   5247
5248   5249   5250   5251
5252   5253   5254   5255
5256   5257   5258   5259
5260   5261   5262   5263
5264   5265   5266   5267
5268   5269   5270   5271
5272   5273   5274   5275
5276   5277   5278   5279
5280   5281   5282   5283
5284   5285   5286   5287
5288   5289   5290   5291
5292   5293   5294   5295
5296   5297   5298   5299
5300   5301   5302   5303
5304   5305   5306   5307
5308   5309   5310   5311
5312   5313   5314   5315
5316   5317   5318   5319
5320   5321   5322   5323
5324   5325   5326   5327
5328   5329   5330   5331
5332   5333   5334   5335
5336   5337   5338   5339
5340   5341   5342   5343
5344   5345   5346   5347
5348   5349   5350   5351
5352   5353   5354   5355
5356   5357   5358   5359
5360   5361   5362   5363
5364   5365   5366   5367
5368   5369   5370   5371
5372   5373   5374   5375
5376   5377   5378   5379
5380   5381   5382   5383
5384   5385   5386   5387
5388   5389   5390   5391
5392   5393   5394   5395
5396   5397   5398   5399
5400   5401   5402   5403
5404   5405   5406   5407
5408   5409   5410   5411
5412   5413   5414   5415
5416   5417   5418   5419
5420   5421   5422   5423
5424   5425   5426   5427
5428   5429   5430   5431
5432   5433   5434   5435
5436   5437   5438   5439
5440   5441   5442   5443
5444   5445   5446   5447
5448   5449   5450   5451
5452   5453   5454   5455
5456   5457   5458   5459
5460   5461   5462   5463
5464   5465   5466   5467
5468   5469   5470   5471
5472   5473   5474   5475
5476   5477   5478   5479
5480   5481   5482   5483
5484   5485   5486   5487
5488   5489   5490   5491
5492   5493   5494   5495
5496   5497   5498   5499
5500   5501   5502   5503
5504   5505   5506   5507
5508   5509   5510   5511
5512   5513   5514   5515
5516   5517   5518   5519
5520   5521   5522   5523
5524   5525   5526   5527
5528   5529   5530   5531
5532   5533   5534   5535
5536   5537   5538   5539
5540   5541   5542   5543
5544   5545   5546   5547
5548   5549   5550   5551
5552   5553   5554   5555
5556   5557   5558   5559
5560   5561   5562   5563
5564   5565   5566   5567
5568   5569   5570   5571
5572   5573   5574   5575
5576   5577   5578   5579
5580   5581   5582   5583
5584   5585   5586   5587
5588   5589   5590   5591
5592   5593   5594   5595
5596   5597   5598   5599
5600   5601   5602   5603
5604   5605   5606   5607
5608   5609   5610   5611
5612   5613   5614   5615
5616   5617   5618   5619
5620   5621   5622   5623
5624   5625   5626   5627
5628   5629   5630   5631
5632   5633   5634   5635
5636   5637   5638   5639
5640   5641   5642   5643
5644   5645   5646   5647
5648   5649   5650   5651
5652   5653   5654   5655
5656   5657   5658   5659
5660   5661   5662   5663
5664   5665   5666   5667
5668   5669   5670   5671
5672   5673   5674   5675
5676   5677   5678   5679
5680   5681   5682   5683
5684   5685   5686   5687
5688   5689   5690   5691
5692   5693   5694   5695
5696   5697   5698   5699
5700   5701   5702   5703
5704   5705   5706   5707
5708   5709   5710   5711
5712   5713   5714   5715
5716   5717   5718   5719
5720   5721   5722   5723
5724   5725   5726   5727
5728   5729   5730   5731
5732   5733   5734   5735
5736   5737   5738   5739
5740   5741   5742   5743
5744   5745   5746   5747
5748   5749   5750   5751
5752   5753   5754   5755
5756   5757   5758   5759
5760   5761   5762   5763
5764   5765   5766   5767
5768   5769   5770   5771
5772   5773   5774   5775
5776   5777   5778   5779
5780   5781   5782   5783
5784   5785   5786   5787
5788   5789   5790   5791
5792   5793   5794   5795
5796   5797   5798   5799
5800   5801   5802   5803
5804   5805   5806   5807
5808   5809   5810   5811
5812   5813   5814   5815
5816   5817   5818   5819
5820   5821   5822   5823
5824   5825   5826   5827
5828   5829   5830   5831
5832   5833   5834   5835
5836   5837   5838   5839
5840   5841   5842   5843
5844   5845   5846   5847
5848   5849   5850   5851
5852   5853   5854   5855
5856   5857   5858   5859
5860   5861   5862   5863
5864   5865   5866   5867
5868   5869   5870   5871
5872   5873   5874   5875
5876   5877   5878   5879
5880   5881   5882   5883
5884   5885   5886   5887
5888   5889   5890   5891
5892   5893   5894   5895
5896   5897   5898   5899
5900   5901   5902   5903
5904   5905   5906   5907
5908   5909   5910   5911
5912   5913   5914   5915
5916   5917   5918   5919
5920   5921   5922   5923
5924   5925   5926   5927
5928   5929   5930   5931
5932   5933   5934   5935
5936   5937   5938   5939
5940   5941   5942   5943
5944   5945   5946   5947
5948   5949   5950   5951
5952   5953   5954   5955
5956   5957   5958   5959
5960   5961   5962   5963
5964   5965   5966   5967
5968   5969   5970   5971
5972   5973   5974   5975
5976   5977   5978   5979
5980   5981   5982   5983
5984   5985   5986   5987
5988   5989   5990   5991
5992   5993   5994   5995
5996   5997   5998   5999
              </DataArray>   
              <DataArray type="Int32" Name="offsets" format="ascii">   
4
8
12
16
20
24
28
32
36
40
44
48
52
56
60
64
68
72
76
80
84
88
92
96
100
104
108
112
116
120
124
128
132
136
140
144
148
152
156
160
164
168
172
176
180
184
188
192
196
200
204
208
212
216
220
224
228
232
236
240
244
248
252
256
260
264
268
272
276
280
284
288
292
296
300
304
308
312
316
320
324
328
332
336
340
344
348
352
356
360
364
368
372
376
380
384
388
392
396
400
404
408
412
416
420
424
428
432
436
440
444
448
452
456
460
464
468
472
476
480
484
488
492
496
500
504
508
512
516
520
524
528
532
536
540
544
548
552
556
560
564
568
572
576
580
584
588
592
596
600
604
608
612
616
620
624
628
632
636
640
644
648
652
656
660
664
668
672
676
680
684
688
692
696
700
704
708
712
716
720
724
728
732
736
740
744
748
752
756
760
764
768
772
776
780
784
788
792
796
800
804
808
812
816
820
824
828
832
836
840
844
848
852
856
860
864
868
872
876
880
884
888
892
896
900
904
908
912
916
920
924
928
932
936
940
944
948
952
956
960
964
968
972
976
980
984
988
992
996
1000
1004
1008
1012
1016
1020
1024
1028
1032
1036
1040
1044
1048
1052
1056
1060
1064
1068
1072
1076
1080
1084
1088
1092
1096
1100
1104
1108
1112
1116
1120
1124
1128
1132
1136
1140
1144
1148
1152
1156
1160
1164
1168
1172
1176
1180
1184
1188
1192
1196
1200
1204
1208
1212
1216
1220
1224
1228
1232
1236
1240
1244
1248
1252
1256
1260
1264
1268
1272
1276
1280
1284
1288
1292
1296
1300
1304
1308
1312
1316
1320
1324
1328
1332
1336
1340
1344
1348
1352
1356
1360
1364
1368
1372
1376
1380
1384
1388
1392
1396
1400
1404
1408
1412
1416
1420
1424
1428
1432
1436
1440
1444
1448
1452
1456
1460
1464
1468
1472
1476
1480
1484
1488
1492
1496
1500
1504
1508
1512
1516
1520
1524
1528
1532
1536
1540
1544
1548
1552
1556
1560
1564
1568
1572
1576
1580
1584
1588
1592
1596
1600
1604
1608
1612
1616
1620
1624
1628
1632
1636
1640
1644
1648
1652
1656
1660
1664
1668
1672
1676
1680
1684
1688
1692
1696
1700
1704
1708
1712
1716
1720
1724
1728
1732
1736
1740
1744
1748
1752
1756
1760
1764
1768
1772
1776
1780
1784
1788
1792
1796
1800
1804
1808
1812
1816
1820
1824
1828
1832
1836
1840
1844
1848
1852
1856
1860
1864
1868
1872
1876
1880
1884
1888
1892
1896
1900
1904
1908
1912
1916
1920
1924
1928
1932
1936
1940
1944
1948
1952
1956
1960
1964
1968
1972
1976
1980
1984
1988
1992
1996
2000
2004
2008
2012
2016
2020
2024
2028
2032
2036
2040
2044
2048
2052
2056
2060
2064
2068
2072
2076
2080
2084
2088
2092
2096
2100
2104
2108
2112
2116
2120
2124
2128
2132
2136
2140
2144
2148
2152
2156
2160
2164
2168
2172
2176
2180
2184
2188
2192
2196
2200
2204
2208
2212
2216
2220
2224
2228
2232
2236
2240
2244
2248
2252
2256
2260
2264
2268
2272
2276
2280
2284
2288
2292
2296
2300
2304
2308
2312
2316
2320
2324
2328
2332
2336
2340
2344
2348
2352
2356
2360
2364
2368
2372
2376
2380
2384
2388
2392
2396
2400
2404
2408
2412
2416
2420
2424
2428
2432
2436
2440
2444
2448
2452
2456
2460
2464
2468
2472
2476
2480
2484
2488
2492
2496
2500
2504
2508
2512
2516
2520
2524
2528
2532
2536
2540
2544
2548
2552
2556
2560
2564
2568
2572
2576
2580
2584
2588
2592
2596
2600
2604
2608
2612
2616
2620
2624
2628
2632
2636
2640
2644
2648
2652
2656
2660
2664
2668
2672
2676
2680
2684
2688
2692
2696
2700
2704
2708
2712
2716
2720
2724
2728
2732
2736
2740
2744
2748
2752
2756
2760
2764
2768
2772
2776
2780
2784
2788
2792
2796
2800
2804
2808
2812
2816
2820
2824
2828
2832
2836
2840
2844
2848
2852
2856
2860
2864
2868
2872
2876
2880
2884
2888
2892
2896
2900
2904
2908
2912
2916
2920
2924
2928
2932
2936
2940
2944
2948
2952
2956
2960
2964
2968
2972
2976
2980
2984
2988
2992
2996
3000
3004
3008
3012
3016
3020
3024
3028
3032
3036
3040
3044
3048
3052
3056
3060
3064
3068
3072
3076
3080
3084
3088
3092
3096
3100
3104
3108
3112
3116
3120
3124
3128
3132
3136
3140
3144
3148
3152
3156
3160
3164
3168
3172
3176
3180
3184
3188
3192
3196
3200
3204
3208
3212
3216
3220
3224
3228
3232
3236
3240
3244
3248
3252
3256
3260
3264
3268
3272
3276
3280
3284
3288
3292
3296
3300
3304
3308
3312
3316
3320
3324
3328
3332
3336
3340
3344
3348
3352
3356
3360
3364
3368
3372
3376
3380
3384
3388
3392
3396
3400
3404
3408
3412
3416
3420
3424
3428
3432
3436
3440
3444
3448
3452
3456
3460
3464
3468
3472
3476
3480
3484
3488
3492
3496
3500
3504
3508
3512
3516
3520
3524
3528
3532
3536
3540
3544
3548
3552
3556
3560
3564
3568
3572
3576
3580
3584
3588
3592
3596
3600
3604
3608
3612
3616
3620
3624
3628
3632
3636
3640
3644
3648
3652
3656
3660
3664
3668
3672
3676
3680
3684
3688
3692
3696
3700
3704
3708
3712
3716
3720
3724
3728
3732
3736
3740
3744
3748
3752
3756
3760
3764
3768
3772
3776
3780
3784
3788
3792
3796
3800
3804
3808
3812
3816
3820
3824
3828
3832
3836
3840
3844
3848
3852
3856
3860
3864
3868
3872
3876
3880
3884
3888
3892
3896
3900
3904
3908
3912
3916
3920
3924
3928
3932
3936
3940
3944
3948
3952
3956
3960
3964
3968
3972
3976
3980
3984
3988
3992
3996
4000
4004
4008
4012
4016
4020
4024
4028
4032
4036
4040
4044
4048
4052
4056
4060
4064
4068
4072
4076
4080
4084
4088
4092
4096
4100
4104
4108
4112
4116
4120
4124
4128
4132
4136
4140
4144
4148
4152
4156
4160
4164
4168
4172
4176
4180
4184
4188
4192
4196
4200
4204
4208
4212
4216
4220
4224
4228
4232
4236
4240
4244
4248
4252
4256
4260
4264
4268
4272
4276
4280
4284
4288
4292
4296
4300
4304
4308
4312
4316
4320
4324
4328
4332
4336
4340
4344
4348
4352
4356
4360
4364
4368
4372
4376
4380
4384
4388
4392
4396
4400
4404
4408
4412
4416
4420
4424
4428
4432
4436
4440
4444
4448
4452
4456
4460
4464
4468
4472
4476
4480
4484
4488
4492
4496
4500
4504
4508
4512
4516
4520
4524
4528
4532
4536
4540
4544
4548
4552
4556
4560
4564
4568
4572
4576
4580
4584
4588
4592
4596
4600
4604
4608
4612
4616
4620
4624
4628
4632
4636
4640
4644
4648
4652
4656
4660
4664
4668
4672
4676
4680
4684
4688
4692
4696
4700
4704
4708
4712
4716
4720
4724
4728
4732
4736
4740
4744
4748
4752
4756
4760
4764
4768
4772
4776
4780
4784
4788
4792
4796
4800
4804
4808
4812
4816
4820
4824
4828
4832
4836
4840
4844
4848
4852
4856
4860
4864
4868
4872
4876
4880
4884
4888
4892
4896
4900
4904
4908
4912
4916
4920
4924
4928
4932
4936
4940
4944
4948
4952
4956
4960
4964
4968
4972
4976
4980
4984
4988
4992
4996
5000
5004
5008
5012
5016
5020
5024
5028
5032
5036
5040
5044
5048
5052
5056
5060
5064
5068
5072
5076
5080
5084
5088
5092
5096
5100
5104
5108
5112
5116
5120
5124
5128
5132
5136
5140
5144
5148
5152
5156
5160
5164
5168
5172
5176
5180
5184
5188
5192
5196
5200
5204
5208
5212
5216
5220
5224
5228
5232
5236
5240
5244
5248
5252
5256
5260
5264
5268
5272
5276
5280
5284
5288
5292
5296
5300
5304
5308
5312
5316
5320
5324
5328
5332
5336
5340
5344
5348
5352
5356
5360
5364
5368
5372
5376
5380
5384
5388
5392
5396
5400
5404
5408
5412
5416
5420
5424
5428
5432
5436
5440
5444
5448
5452
5456
5460
5464
5468
5472
5476
5480
5484
5488
5492
5496
5500
5504
5508
5512
5516
5520
5524
5528
5532
5536
5540
5544
5548
5552
5556
5560
5564
5568
5572
5576
5580
5584
5588
5592
5596
5600
5604
5608
5612
5616
5620
5624
5628
5632
5636
5640
5644
5648
5652
5656
5660
5664
5668
5672
5676
5680
5684
5688
5692
5696
5700
5704
5708
5712
5716
5720
5724
5728
5732
5736
5740
5744
5748
5752
5756
5760
5764
5768
5772
5776
5780
5784
5788
5792
5796
5800
5804
5808
5812
5816
5820
5824
5828
5832
5836
5840
5844
5848
5852
5856
5860
5864
5868
5872
5876
5880
5884
5888
5892
5896
5900
5904
5908
5912
5916
5920
5924
5928
5932
5936
5940
5944
5948
5952
5956
5960
5964
5968
5972
5976
5980
5984
5988
5992
5996
6000
              </DataArray>   
              <DataArray type="UInt8" Name="types" format="ascii">   
10
10
10
10
10
10
10
10
10
10
10
10
10
10
10
10
10
10
10
10
10
10
10
10
10
10
10
10
10
10
10
10
10
10
10
10
10
10
10
10
10
10
10
10
10
10
10
10
10
10
10
10
10
10
10
10
10
10
10
10
10
10
10
10
10
10
10
10
10
10
10
10
10
10
10
10
10
10
10
10
10
10
10
10
10
10
10
10
10
10
10
10
10
10
10
10
10
10
10
10
10
10
10
10
10
10
10
10
10
10
10
10
10
10
10
10
10
10
10
10
10
10
10
10
10
10
10
10
10
10
10
10
10
10
10
10
10
10
10
10
10
10
10
10
10
10
10
10
10
10
10
10
10
10
10
10
10
10
10
10
10
10
10
10
10
10
10
10
10
10
10
10
10
10
10
10
10
10
10
10
10
10
10
10
10
10
10
10
10
10
10
10
10
10
10
10
10
10
10
10
10
10
10
10
10
10
10
10
10
10
10
10
10
10
10
10
10
10
10
10
10
10
10
10
10
10
10
10
10
10
10
10
10
10
10
10
10
10
10
10
10
10
10
10
10
10
10
10
10
10
10
10
10
10
10
10
10
10
10
10
10
10
10
10
10
10
10
10
10
10
10
10
10
10
10
10
10
10
10
10
10
10
10
10
10
10
10
10
10
10
10
10
10
10
10
10
10
10
10
10
10
10
10
10
10
10
10
10
10
10
10
10
10
10
10
10
10
10
10
10
10
10
10
10
10
10
10
10
10
10
10
10
10
10
10
10
10
10
10
10
10
10
10
10
10
10
10
10
10
10
10
10
10
10
10
10
10
10
10
10
10
10
10
10
10
10
10
10
10
10
10
10
10
10
10
10
10
10
10
10
10
10
10
10
10
10
10
10
10
10
10
10
10
10
10
10
10
10
10
10
10
10
10
10
10
10
10
10
10
10
10
10
10
10
10
10
10
10
10
10
10
10
10
10
10
10
10
10
10
10
10
10
10
10
10
10
10
10
10
10
10
10
10
10
10
10
10
10
10
10
10
10
10
10
10
10
10
10
10
10
10
10
10
10
10
10
10
10
10
10
10
10
10
10
10
10
10
10
10
10
10
10
10
10
10
10
10
10
10
10
10
10
10
10
10
10
10
10
10
10
10
10
10
10
10
10
10
10
10
10
10
10
10
10
10
10
10
10
10
10
10
10
10
10
10
10
10
10
10
10
10
10
10
10
10
10
10
10
10
10
10
10
10
10
10
10
10
10
10
10
10
10
10
10
10
10
10
10
10
10
10
10
10
10
10
10
10
10
10
10
10
10
10
10
10
10
10
10
10
10
10
10
10
10
10
10
10
10
10
10
10
10
10
10
10
10
10
10
10
10
10
10
10
10
10
10
10
10
10
10
10
10
10
10
10
10
10
10
10
10
10
10
10
10
10
10
10
10
10
10
10
10
10
10
10
10
10
10
10
10
10
10
10
10
10
10
10
10
10
10
10
10
10
10
10
10
10
10
10
10
10
10
10
10
10
10
10
10
10
10
10
10
10
10
10
10
10
10
10
10
10
10
10
10
10
10
10
10
10
10
10
10
10
10
10
10
10
10
10
10
10
10
10
10
10
10
10
10
10
10
10
10
10
10
10
10
10
10
10
10
10
10
10
10
10
10
10
10
10
10
10
10
10
10
10
10
10
10
10
10
10
10
10
10
10
10
10
10
10
10
10
10
10
10
10
10
10
10
10
10
10
10
10
10
10
10
10
10
10
10
10
10
10
10
10
10
10
10
10
10
10
10
10
10
10
10
10
10
10
10
10
10
10
10
10
10
10
10
10
10
10
10
10
10
10
10
10
10
10
10
10
10
10
10
10
10
10
10
10
10
10
10
10
10
10
10
10
10
10
10
10
10
10
10
10
10
10
10
10
10
10
10
10
10
10
10
10
10
10
10
10
10
10
10
10
10
10
10
10
10
10
10
10
10
10
10
10
10
10
10
10
10
10
10
10
10
10
10
10
10
10
10
10
10
10
10
10
10
10
10
10
10
10
10
10
10
10
10
10
10
10
10
10
10
10
10
10
10
10
10
10
10
10
10
10
10
10
10
10
10
10
10
10
10
10
10
10
10
10
10
10
10
10
10
10
10
10
10
10
10
10
10
10
10
10
10
10
10
10
10
10
10
10
10
10
10
10
10
10
10
10
10
10
10
10
10
10
10
10
10
10
10
10
10
10
10
10
10
10
10
10
10
10
10
10
10
10
10
10
10
10
10
10
10
10
10
10
10
10
10
10
10
10
10
10
10
10
10
10
10
10
10
10
10
10
10
10
10
10
10
10
10
10
10
10
10
10
10
10
10
10
10
10
10
10
10
10
10
10
10
10
10
10
10
10
10
10
10
10
10
10
10
10
10
10
10
10
10
10
10
10
10
10
10
10
10
10
10
10
10
10
10
10
10
10
10
10
10
10
10
10
10
10
10
10
10
10
10
10
10
10
10
10
10
10
10
10
10
10
10
10
10
10
10
10
10
10
10
10
10
10
10
10
10
10
10
10
10
10
10
10
10
10
10
10
10
10
10
10
10
10
10
10
10
10
10
10
10
10
10
10
10
10
10
10
10
10
10
10
10
10
10
10
10
10
10
10
10
10
10
10
10
10
10
10
10
10
10
10
10
10
10
10
10
10
10
10
10
10
10
10
10
10
10
10
10
10
10
10
10
10
10
10
10
10
10
10
10
10
10
10
10
10
10
10
10
10
10
10
10
10
10
10
10
10
10
10
10
10
10
10
10
10
10
10
10
10
10
10
10
10
10
10
10
10
10
10
10
10
10
10
10
10
10
10
10
10
10
10
10
10
10
10
10
10
10
10
10
10
10
10
10
10
10
10
10
10
10
10
10
10
10
10
10
10
10
10
10
10
10
10
10
10
10
10
10
10
10
10
10
10
10
10
10
10
10
10
10
10
10
10
10
10
10
10
10
10
10
10
10
10
10
10
10
10
10
10
10
10
10
10
10
10
10
10
10
10
10
10
10
10
10
10
10
10
10
10
10
10
10
10
10
10
10
10
10
10
10
10
10
10
10
10
10
10
10
10
10
10
10
10
10
10
10
10
10
10
10
10
10
10
10
10
10
10
10
10
10
10
10
10
10
10
10
10
10
10
10
10
10
10
10
10
10
10
10
10
10
10
10
10
10
10
10
10
10
10
10
10
10
10
10
10
10
10
10
10
10
10
10
10
10
10
10
10
10
10
10
10
10
10
10
10
10
10
10
10
10
10
10
10
10
10
10
10
10
10
10
10
10
10
10
10
10
10
10
10
10
10
10
10
10
10
10
10
10
10
10
10
10
10
10
10
10
10
10
10
10
10
10
10
10
10
10
10
10
10
10
10
10
10
10
10
10
10
10
10
10
10
10
              </DataArray>   
          </Cells>  
          <PointData>  
             <DataArray type="Float64" NumberOfComponents="3" Name="Strains" format="ascii">   
-0.00011314908742653464   0.0   -7.420835994026224e-05
-0.00011314908742653464   0.0   -7.420835994026224e-05
-0.00011314908742653464   0.0   -7.420835994026224e-05
-0.00011314908742653464   0.0   -7.420835994026224e-05
-7.200405950255848e-05   1.2541594093521598e-05   1.8916430558108162e-06
-7.200405950255848e-05   1.2541594093521598e-05   1.8916430558108162e-06
-7.200405950255848e-05   1.2541594093521598e-05   1.8916430558108162e-06
-7.200405950255848e-05   1.2541594093521598e-05   1.8916430558108162e-06
-7.058378904986941e-05   0.0   -7.003125786781074e-05
-7.058378904986941e-05   0.0   -7.003125786781074e-05
-7.058378904986941e-05   0.0   -7.003125786781074e-05
-7.058378904986941e-05   0.0   -7.003125786781074e-05
-0.00011842049591124082   1.5047285845797397e-05   6.68215393663464e-07
-0.00011842049591124082   1.5047285845797397e-05   6.68215393663464e-07
-0.00011842049591124082   1.5047285845797397e-05   6.68215393663464e-07
-0.00011842049591124082   1.5047285845797397e-05   6.68215393663464e-07
-9.186643823820186e-05   3.480918393709579e-06   -3.664872692348205e-05
-9.186643823820186e-05   3.480918393709579e-06   -3.664872692348205e-05
-9.186643823820186e-05   3.480918393709579e-06   -3.664872692348205e-05
-9.186643823820186e-05   3.480918393709579e-06   -3.664872692348205e-05
-0.00011842049591124102   0.0   -7.90596293752892e-05
-0.00011842049591124102   0.0   -7.90596293752892e-05
-0.00011842049591124102   0.0   -7.90596293752892e-05
-0.00011842049591124102   0.0   -7.90596293752892e-05
-7.058378904986941e-05   1.5047285845797424e-05   9.6965869011419e-06
-7.058378904986941e-05   1.5047285845797424e-05   9.6965869011419e-06
-7.058378904986941e-05   1.5047285845797424e-05   9.6965869011419e-06
-7.058378904986941e-05   1.5047285845797424e-05   9.6965869011419e-06
-7.078688856273885e-05   0.0   -7.174646460614574e-05
-7.078688856273885e-05   0.0   -7.174646460614574e-05
-7.078688856273885e-05   0.0   -7.174646460614574e-05
-7.078688856273885e-05   0.0   -7.174646460614574e-05
-0.00012212440946167516   1.612000872944127e-05   4.144064987750349e-06
-0.00012212440946167516   1.612000872944127e-05   4.144064987750349e-06
-0.00012212440946167516   1.612000872944127e-05   4.144064987750349e-06
-0.00012212440946167516   1.612000872944127e-05   4.144064987750349e-06
-9.460369223698978e-05   6.094303974286212e-06   -3.57083742002989e-05
-9.460369223698978e-05   6.094303974286212e-06   -3.57083742002989e-05
-9.460369223698978e-05   6.094303974286212e-06   -3.57083742002989e-05
-9.460369223698978e-05   6.094303974286212e-06   -3.57083742002989e-05
-0.00012212440946167535   0.0   -8.141846984381052e-05
-0.00012212440946167535   0.0   -8.141846984381052e-05
-0.00012212440946167535   0.0   -8.141846984381052e-05
-0.00012212440946167535   0.0   -8.141846984381052e-05
-7.078688856273872e-05   1.612000872944127e-05   1.3816070225415114e-05
-7.078688856273872e-05   1.612000872944127e-05   1.3816070225415114e-05
-7.078688856273872e-05   1.612000872944127e-05   1.3816070225415114e-05
-7.078688856273872e-05   1.612000872944127e-05   1.3816070225415114e-05
-7.075423645048897e-05   0.0   -7.218656714888961e-05
-7.075423645048897e-05   0.0   -7.218656714888961e-05
-7.075423645048897e-05   0.0   -7.218656714888961e-05
-7.075423645048897e-05   0.0   -7.218656714888961e-05
-0.0001300996496597852   1.8361214076088612e-05   1.5705726420951223e-05
-0.0001300996496597852   1.8361214076088612e-05   1.5705726420951223e-05
-0.0001300996496597852   1.8361214076088612e-05   1.5705726420951223e-05
-0.0001300996496597852   1.8361214076088612e-05   1.5705726420951223e-05
-9.6439322956082e-05   7.693252245767408e-06   -3.399404098702797e-05
-9.6439322956082e-05   7.693252245767408e-06   -3.399404098702797e-05
-9.6439322956082e-05   7.693252245767408e-06   -3.399404098702797e-05
-9.6439322956082e-05   7.693252245767408e-06   -3.399404098702797e-05
-7.200405950255861e-05   0.0   -6.668340348414927e-05
-7.200405950255861e-05   0.0   -6.668340348414927e-05
-7.200405950255861e-05   0.0   -6.668340348414927e-05
-7.200405950255861e-05   0.0   -6.668340348414927e-05
-3.2786365247071826e-05   4.601084256259202e-06   1.4400708287508232e-06
-3.2786365247071826e-05   4.601084256259202e-06   1.4400708287508232e-06
-3.2786365247071826e-05   4.601084256259202e-06   1.4400708287508232e-06
-3.2786365247071826e-05   4.601084256259202e-06   1.4400708287508232e-06
-3.1537400515517574e-05   0.0   -6.610229958983598e-05
-3.1537400515517574e-05   0.0   -6.610229958983598e-05
-3.1537400515517574e-05   0.0   -6.610229958983598e-05
-3.1537400515517574e-05   0.0   -6.610229958983598e-05
-7.058378904986941e-05   6.548263796624416e-06   -4.9539436438911135e-06
-7.058378904986941e-05   6.548263796624416e-06   -4.9539436438911135e-06
-7.058378904986941e-05   6.548263796624416e-06   -4.9539436438911135e-06
-7.058378904986941e-05   6.548263796624416e-06   -4.9539436438911135e-06
-5.177073000903803e-05   4.842532452609813e-07   -3.267063571445846e-05
-5.177073000903803e-05   4.842532452609813e-07   -3.267063571445846e-05
-5.177073000903803e-05   4.842532452609813e-07   -3.267063571445846e-05
-5.177073000903803e-05   4.842532452609813e-07   -3.267063571445846e-05
-7.058378904986935e-05   0.0   -7.003125786781069e-05
-7.058378904986935e-05   0.0   -7.003125786781069e-05
-7.058378904986935e-05   0.0   -7.003125786781069e-05
-7.058378904986935e-05   0.0   -7.003125786781069e-05
-3.1537400515517574e-05   6.548263796624402e-06   -1.0249853659164614e-06
-3.1537400515517574e-05   6.548263796624402e-06   -1.0249853659164614e-06
-3.1537400515517574e-05   6.548263796624402e-06   -1.0249853659164614e-06
-3.1537400515517574e-05   6.548263796624402e-06   -1.0249853659164614e-06
-3.0837595218995805e-05   0.0   -6.693289741484608e-05
-3.0837595218995805e-05   0.0   -6.693289741484608e-05
-3.0837595218995805e-05   0.0   -6.693289741484608e-05
-3.0837595218995805e-05   0.0   -6.693289741484608e-05
-7.078688856273885e-05   8.022611985499222e-06   -5.164309033240777e-06
-7.078688856273885e-05   8.022611985499222e-06   -5.164309033240777e-06
-7.078688856273885e-05   8.022611985499222e-06   -5.164309033240777e-06
-7.078688856273885e-05   8.022611985499222e-06   -5.164309033240777e-06
-5.071069213443262e-05   2.581967044137125e-06   -3.53602494489338e-05
-5.071069213443262e-05   2.581967044137125e-06   -3.53602494489338e-05
-5.071069213443262e-05   2.581967044137125e-06   -3.53602494489338e-05
-5.071069213443262e-05   2.581967044137125e-06   -3.53602494489338e-05
-7.078688856273885e-05   0.0   -7.174646460614574e-05
-7.078688856273885e-05   0.0   -7.174646460614574e-05
-7.078688856273885e-05   0.0   -7.174646460614574e-05
-7.078688856273885e-05   0.0   -7.174646460614574e-05
-3.083759521899586e-05   8.022611985499222e-06   -3.50741841941231e-07
-3.083759521899586e-05   8.022611985499222e-06   -3.50741841941231e-07
-3.083759521899586e-05   8.022611985499222e-06   -3.50741841941231e-07
-3.083759521899586e-05   8.022611985499222e-06   -3.50741841941231e-07
-3.0201035189149335e-05   0.0   -6.658599500318755e-05
-3.0201035189149335e-05   0.0   -6.658599500318755e-05
-3.0201035189149335e-05   0.0   -6.658599500318755e-05
-3.0201035189149335e-05   0.0   -6.658599500318755e-05
-7.075423645048878e-05   9.33428690950332e-06   -4.597898379990202e-06
-7.075423645048878e-05   9.33428690950332e-06   -4.597898379990202e-06
-7.075423645048878e-05   9.33428690950332e-06   -4.597898379990202e-06
-7.075423645048878e-05   9.33428690950332e-06   -4.597898379990202e-06
-5.049396187594407e-05   4.300391335798439e-06   -3.5344685326675386e-05
-5.049396187594407e-05   4.300391335798439e-06   -3.5344685326675386e-05
-5.049396187594407e-05   4.300391335798439e-06   -3.5344685326675386e-05
-5.049396187594407e-05   4.300391335798439e-06   -3.5344685326675386e-05
-3.278636524707188e-05   0.0   -6.392275293039375e-05
-3.278636524707188e-05   0.0   -6.392275293039375e-05
-3.278636524707188e-05   0.0   -6.392275293039375e-05
-3.278636524707188e-05   0.0   -6.392275293039375e-05
4.27044190677422e-06   -5.884724769177264e-07   -2.514491160134157e-06
4.27044190677422e-06   -5.884724769177264e-07   -2.514491160134157e-06
4.27044190677422e-06   -5.884724769177264e-07   -2.514491160134157e-06
4.27044190677422e-06   -5.884724769177264e-07   -2.514491160134157e-06
5.065780927413691e-06   0.0   -6.540601310509512e-05
5.065780927413691e-06   0.0   -6.540601310509512e-05
5.065780927413691e-06   0.0   -6.540601310509512e-05
5.065780927413691e-06   0.0   -6.540601310509512e-05
-3.1537400515517574e-05   1.1604774745679224e-06   -5.096997184950532e-06
-3.1537400515517574e-05   1.1604774745679224e-06   -5.096997184950532e-06
-3.1537400515517574e-05   1.1604774745679224e-06   -5.096997184950532e-06
-3.1537400515517574e-05   1.1604774745679224e-06   -5.096997184950532e-06
-1.3860292159829064e-05   -1.2360501455846584e-06   -3.312092787233981e-05
-1.3860292159829064e-05   -1.2360501455846584e-06   -3.312092787233981e-05
-1.3860292159829064e-05   -1.2360501455846584e-06   -3.312092787233981e-05
-1.3860292159829064e-05   -1.2360501455846584e-06   -3.312092787233981e-05
-3.153740051551763e-05   0.0   -6.610229958983609e-05
-3.153740051551763e-05   0.0   -6.610229958983609e-05
-3.153740051551763e-05   0.0   -6.610229958983609e-05
-3.153740051551763e-05   0.0   -6.610229958983609e-05
5.065780927413699e-06   1.1604774745679224e-06   -4.400710700209783e-06
5.065780927413699e-06   1.1604774745679224e-06   -4.400710700209783e-06
5.065780927413699e-06   1.1604774745679224e-06   -4.400710700209783e-06
5.065780927413699e-06   1.1604774745679224e-06   -4.400710700209783e-06
5.692978815545999e-06   0.0   -6.531275023971427e-05
5.692978815545999e-06   0.0   -6.531275023971427e-05
5.692978815545999e-06   0.0   -6.531275023971427e-05
5.692978815545999e-06   0.0   -6.531275023971427e-05
-3.083759521899575e-05   2.7002452918863557e-06   -6.048607357276418e-06
-3.083759521899575e-05   2.7002452918863557e-06   -6.048607357276418e-06
-3.083759521899575e-05   2.7002452918863557e-06   -6.048607357276418e-06
-3.083759521899575e-05   2.7002452918863557e-06   -6.048607357276418e-06
-1.2922210849985788e-05   6.579577917681015e-07   -3.468220880555546e-05
-1.2922210849985788e-05   6.579577917681015e-07   -3.468220880555546e-05
-1.2922210849985788e-05   6.579577917681015e-07   -3.468220880555546e-05
-1.2922210849985788e-05   6.579577917681015e-07   -3.468220880555546e-05
-3.083759521899586e-05   0.0   -6.69328974148462e-05
-3.083759521899586e-05   0.0   -6.69328974148462e-05
-3.083759521899586e-05   0.0   -6.69328974148462e-05
-3.083759521899586e-05   0.0   -6.69328974148462e-05
5.692978815546008e-06   2.7002452918863692e-06   -4.428460182144614e-06
5.692978815546008e-06   2.7002452918863692e-06   -4.428460182144614e-06
5.692978815546008e-06   2.7002452918863692e-06   -4.428460182144614e-06
5.692978815546008e-06   2.7002452918863692e-06   -4.428460182144614e-06
6.53821791813546e-06   0.0   -6.389563754402796e-05
6.53821791813546e-06   0.0   -6.389563754402796e-05
6.53821791813546e-06   0.0   -6.389563754402796e-05
6.53821791813546e-06   0.0   -6.389563754402796e-05
-3.020103518914931e-05   4.4839290985992486e-06   -5.353906491046222e-06
-3.020103518914931e-05   4.4839290985992486e-06   -5.353906491046222e-06
-3.020103518914931e-05   4.4839290985992486e-06   -5.353906491046222e-06
-3.020103518914931e-05   4.4839290985992486e-06   -5.353906491046222e-06
-1.2149688650430173e-05   2.531049892348445e-06   -3.426775653182761e-05
-1.2149688650430173e-05   2.531049892348445e-06   -3.426775653182761e-05
-1.2149688650430173e-05   2.531049892348445e-06   -3.426775653182761e-05
-1.2149688650430173e-05   2.531049892348445e-06   -3.426775653182761e-05
4.270441906774228e-06   0.0   -6.427583641654439e-05
4.270441906774228e-06   0.0   -6.427583641654439e-05
4.270441906774228e-06   0.0   -6.427583641654439e-05
4.270441906774228e-06   0.0   -6.427583641654439e-05
4.4491607614357054e-05   -5.218389841634631e-06   -3.715941422201643e-07
4.4491607614357054e-05   -5.218389841634631e-06   -3.715941422201643e-07
4.4491607614357054e-05   -5.218389841634631e-06   -3.715941422201643e-07
4.4491607614357054e-05   -5.218389841634631e-06   -3.715941422201643e-07
4.456496529891665e-05   0.0   -6.776708171274146e-05
4.456496529891665e-05   0.0   -6.776708171274146e-05
4.456496529891665e-05   0.0   -6.776708171274146e-05
4.456496529891665e-05   0.0   -6.776708171274146e-05
5.065780927413699e-06   -3.93511434607686e-06   4.2596084740954613e-07
5.065780927413699e-06   -3.93511434607686e-06   4.2596084740954613e-07
5.065780927413699e-06   -3.93511434607686e-06   4.2596084740954613e-07
5.065780927413699e-06   -3.93511434607686e-06   4.2596084740954613e-07
2.4417703602845437e-05   -2.909371080164225e-06   -3.2442689571190885e-05
2.4417703602845437e-05   -2.909371080164225e-06   -3.2442689571190885e-05
2.4417703602845437e-05   -2.909371080164225e-06   -3.2442689571190885e-05
2.4417703602845437e-05   -2.909371080164225e-06   -3.2442689571190885e-05
5.065780927413708e-06   0.0   -6.540601310509534e-05
5.065780927413708e-06   0.0   -6.540601310509534e-05
5.065780927413708e-06   0.0   -6.540601310509534e-05
5.065780927413708e-06   0.0   -6.540601310509534e-05
4.456496529891657e-05   -3.93511434607686e-06   -1.9351077602365667e-06
4.456496529891657e-05   -3.93511434607686e-06   -1.9351077602365667e-06
4.456496529891657e-05   -3.93511434607686e-06   -1.9351077602365667e-06
4.456496529891657e-05   -3.93511434607686e-06   -1.9351077602365667e-06
4.436913970831834e-05   0.0   -6.679935213656347e-05
4.436913970831834e-05   0.0   -6.679935213656347e-05
4.436913970831834e-05   0.0   -6.679935213656347e-05
4.436913970831834e-05   0.0   -6.679935213656347e-05
5.692978815546008e-06   -2.4776698280818186e-06   -8.524820850938411e-07
5.692978815546008e-06   -2.4776698280818186e-06   -8.524820850938411e-07
5.692978815546008e-06   -2.4776698280818186e-06   -8.524820850938411e-07
5.692978815546008e-06   -2.4776698280818186e-06   -8.524820850938411e-07
2.4717460317866026e-05   -1.1611158595567757e-06   -3.334988363674219e-05
2.4717460317866026e-05   -1.1611158595567757e-06   -3.334988363674219e-05
2.4717460317866026e-05   -1.1611158595567757e-06   -3.334988363674219e-05
2.4717460317866026e-05   -1.1611158595567757e-06   -3.334988363674219e-05
5.692978815546008e-06   0.0   -6.531275023971438e-05
5.692978815546008e-06   0.0   -6.531275023971438e-05
5.692978815546008e-06   0.0   -6.531275023971438e-05
5.692978815546008e-06   0.0   -6.531275023971438e-05
4.4369139708318266e-05   -2.4776698280818186e-06   -2.33908398194292e-06
4.4369139708318266e-05   -2.4776698280818186e-06   -2.33908398194292e-06
4.4369139708318266e-05   -2.4776698280818186e-06   -2.33908398194292e-06
4.4369139708318266e-05   -2.4776698280818186e-06   -2.33908398194292e-06
4.522367023924137e-05   0.0   -6.420697006960397e-05
4.522367023924137e-05   0.0   -6.420697006960397e-05
4.522367023924137e-05   0.0   -6.420697006960397e-05
4.522367023924137e-05   0.0   -6.420697006960397e-05
6.538217918135471e-06   -5.188875426265081e-07   5.801163244817509e-07
6.538217918135471e-06   -5.188875426265081e-07   5.801163244817509e-07
6.538217918135471e-06   -5.188875426265081e-07   5.801163244817509e-07
6.538217918135471e-06   -5.188875426265081e-07   5.801163244817509e-07
2.545832452739369e-05   9.214834750920063e-07   -3.181761730157968e-05
2.545832452739369e-05   9.214834750920063e-07   -3.181761730157968e-05
2.545832452739369e-05   9.214834750920063e-07   -3.181761730157968e-05
2.545832452739369e-05   9.214834750920063e-07   -3.181761730157968e-05
4.449160761435721e-05   0.0   -6.740687032152517e-05
4.449160761435721e-05   0.0   -6.740687032152517e-05
4.449160761435721e-05   0.0   -6.740687032152517e-05
4.449160761435721e-05   0.0   -6.740687032152517e-05
0.00010041572391739214   -1.3224721959967782e-05   1.7865157007552703e-05
0.00010041572391739214   -1.3224721959967782e-05   1.7865157007552703e-05
0.00010041572391739214   -1.3224721959967782e-05   1.7865157007552703e-05
0.00010041572391739214   -1.3224721959967782e-05   1.7865157007552703e-05
9.42990932338509e-05   0.0   -7.452018616349458e-05
9.42990932338509e-05   0.0   -7.452018616349458e-05
9.42990932338509e-05   0.0   -7.452018616349458e-05
9.42990932338509e-05   0.0   -7.452018616349458e-05
4.456496529891657e-05   -1.1255174084588528e-05   1.5123131512148906e-05
4.456496529891657e-05   -1.1255174084588528e-05   1.5123131512148906e-05
4.456496529891657e-05   -1.1255174084588528e-05   1.5123131512148906e-05
4.456496529891657e-05   -1.1255174084588528e-05   1.5123131512148906e-05
6.939535042410405e-05   -5.9277632016411735e-06   -2.945729022626512e-05
6.939535042410405e-05   -5.9277632016411735e-06   -2.945729022626512e-05
6.939535042410405e-05   -5.9277632016411735e-06   -2.945729022626512e-05
6.939535042410405e-05   -5.9277632016411735e-06   -2.945729022626512e-05
4.456496529891661e-05   0.0   -6.776708171274141e-05
4.456496529891661e-05   0.0   -6.776708171274141e-05
4.456496529891661e-05   0.0   -6.776708171274141e-05
4.456496529891661e-05   0.0   -6.776708171274141e-05
9.42990932338509e-05   -1.1255174084588541e-05   8.370027061395797e-06
9.42990932338509e-05   -1.1255174084588541e-05   8.370027061395797e-06
9.42990932338509e-05   -1.1255174084588541e-05   8.370027061395797e-06
9.42990932338509e-05   -1.1255174084588541e-05   8.370027061395797e-06
9.14762297343406e-05   0.0   -7.297081633631017e-05
9.14762297343406e-05   0.0   -7.297081633631017e-05
9.14762297343406e-05   0.0   -7.297081633631017e-05
9.14762297343406e-05   0.0   -7.297081633631017e-05
4.4369139708318266e-05   -1.0285773666244473e-05   1.171246457347363e-05
4.4369139708318266e-05   -1.0285773666244473e-05   1.171246457347363e-05
4.4369139708318266e-05   -1.0285773666244473e-05   1.171246457347363e-05
4.4369139708318266e-05   -1.0285773666244473e-05   1.171246457347363e-05
6.802059751662859e-05   -4.336445519640596e-06   -3.1276228661672445e-05
6.802059751662859e-05   -4.336445519640596e-06   -3.1276228661672445e-05
6.802059751662859e-05   -4.336445519640596e-06   -3.1276228661672445e-05
6.802059751662859e-05   -4.336445519640596e-06   -3.1276228661672445e-05
4.436913970831834e-05   0.0   -6.679935213656347e-05
4.436913970831834e-05   0.0   -6.679935213656347e-05
4.436913970831834e-05   0.0   -6.679935213656347e-05
4.436913970831834e-05   0.0   -6.679935213656347e-05
9.147622973434045e-05   -1.0285773666244473e-05   5.541000373726949e-06
9.147622973434045e-05   -1.0285773666244473e-05   5.541000373726949e-06
9.147622973434045e-05   -1.0285773666244473e-05   5.541000373726949e-06
9.147622973434045e-05   -1.0285773666244473e-05   5.541000373726949e-06
8.727724697418279e-05   0.0   -6.900572477574869e-05
8.727724697418279e-05   0.0   -6.900572477574869e-05
8.727724697418279e-05   0.0   -6.900572477574869e-05
8.727724697418279e-05   0.0   -6.900572477574869e-05
4.522367023924125e-05   -7.997924510241188e-06   5.882324488631761e-06
4.522367023924125e-05   -7.997924510241188e-06   5.882324488631761e-06
4.522367023924125e-05   -7.997924510241188e-06   5.882324488631761e-06
4.522367023924125e-05   -7.997924510241188e-06   5.882324488631761e-06
6.582319334125045e-05   -1.8386438659876784e-06   -3.214578240126895e-05
6.582319334125045e-05   -1.8386438659876784e-06   -3.214578240126895e-05
6.582319334125045e-05   -1.8386438659876784e-06   -3.214578240126895e-05
6.582319334125045e-05   -1.8386438659876784e-06   -3.214578240126895e-05
-9.821110394649788e-05   1.2541594093521564e-05   -6.44048640249535e-05
-9.821110394649788e-05   1.2541594093521564e-05   -6.44048640249535e-05
-9.821110394649788e-05   1.2541594093521564e-05   -6.44048640249535e-05
-9.821110394649788e-05   1.2541594093521564e-05   -6.44048640249535e-05
-6.289997666028534e-05   1.1280752619664575e-05   -6.309490098913462e-06
-6.289997666028534e-05   1.1280752619664575e-05   -6.309490098913462e-06
-6.289997666028534e-05   1.1280752619664575e-05   -6.309490098913462e-06
-6.289997666028534e-05   1.1280752619664575e-05   -6.309490098913462e-06
-6.448498037412777e-05   1.5047285845797383e-05   -5.408648522265639e-05
-6.448498037412777e-05   1.5047285845797383e-05   -5.408648522265639e-05
-6.448498037412777e-05   1.5047285845797383e-05   -5.408648522265639e-05
-6.448498037412777e-05   1.5047285845797383e-05   -5.408648522265639e-05
-9.927930442257856e-05   1.3537363517160373e-05   4.8100082552771616e-06
-9.927930442257856e-05   1.3537363517160373e-05   4.8100082552771616e-06
-9.927930442257856e-05   1.3537363517160373e-05   4.8100082552771616e-06
-9.927930442257856e-05   1.3537363517160373e-05   4.8100082552771616e-06
-7.800220269161518e-05   1.3099090447413235e-05   -3.0388864121147177e-05
-7.800220269161518e-05   1.3099090447413235e-05   -3.0388864121147177e-05
-7.800220269161518e-05   1.3099090447413235e-05   -3.0388864121147177e-05
-7.800220269161518e-05   1.3099090447413235e-05   -3.0388864121147177e-05
-9.927930442257856e-05   1.5047285845797388e-05   -5.318053182547419e-05
-9.927930442257856e-05   1.5047285845797388e-05   -5.318053182547419e-05
-9.927930442257856e-05   1.5047285845797388e-05   -5.318053182547419e-05
-9.927930442257856e-05   1.5047285845797388e-05   -5.318053182547419e-05
-6.448498037412802e-05   1.3537363517160427e-05   3.904054858095058e-06
-6.448498037412802e-05   1.3537363517160427e-05   3.904054858095058e-06
-6.448498037412802e-05   1.3537363517160427e-05   3.904054858095058e-06
-6.448498037412802e-05   1.3537363517160427e-05   3.904054858095058e-06
-6.481959001863358e-05   1.6120008729441257e-05   -4.86244833067761e-05
-6.481959001863358e-05   1.6120008729441257e-05   -4.86244833067761e-05
-6.481959001863358e-05   1.6120008729441257e-05   -4.86244833067761e-05
-6.481959001863358e-05   1.6120008729441257e-05   -4.86244833067761e-05
-9.998236125267607e-05   1.4555752544896704e-05   1.091868912735458e-05
-9.998236125267607e-05   1.4555752544896704e-05   1.091868912735458e-05
-9.998236125267607e-05   1.4555752544896704e-05   1.091868912735458e-05
-9.998236125267607e-05   1.4555752544896704e-05   1.091868912735458e-05
-8.029904020182376e-05   1.4518112667694333e-05   -2.186426203107779e-05
-8.029904020182376e-05   1.4518112667694333e-05   -2.186426203107779e-05
-8.029904020182376e-05   1.4518112667694333e-05   -2.186426203107779e-05
-8.029904020182376e-05   1.4518112667694333e-05   -2.186426203107779e-05
-9.998236125267589e-05   1.6120008729441254e-05   -4.7685929596049377e-05
-9.998236125267589e-05   1.6120008729441254e-05   -4.7685929596049377e-05
-9.998236125267589e-05   1.6120008729441254e-05   -4.7685929596049377e-05
-9.998236125267589e-05   1.6120008729441254e-05   -4.7685929596049377e-05
-6.48195900186337e-05   1.4555752544896704e-05   9.980135416627736e-06
-6.48195900186337e-05   1.4555752544896704e-05   9.980135416627736e-06
-6.48195900186337e-05   1.4555752544896704e-05   9.980135416627736e-06
-6.48195900186337e-05   1.4555752544896704e-05   9.980135416627736e-06
-6.445420210939163e-05   1.8361214076088598e-05   -3.592057273225306e-05
-6.445420210939163e-05   1.8361214076088598e-05   -3.592057273225306e-05
-6.445420210939163e-05   1.8361214076088598e-05   -3.592057273225306e-05
-6.445420210939163e-05   1.8361214076088598e-05   -3.592057273225306e-05
-9.721622990067334e-05   1.536441698832096e-05   2.0480885172543466e-05
-9.721622990067334e-05   1.536441698832096e-05   2.0480885172543466e-05
-9.721622990067334e-05   1.536441698832096e-05   2.0480885172543466e-05
-9.721622990067334e-05   1.536441698832096e-05   2.0480885172543466e-05
-7.821433552585393e-05   1.5923002802650896e-05   -1.152409027408677e-05
-7.821433552585393e-05   1.5923002802650896e-05   -1.152409027408677e-05
-7.821433552585393e-05   1.5923002802650896e-05   -1.152409027408677e-05
-7.821433552585393e-05   1.5923002802650896e-05   -1.152409027408677e-05
-6.289997666028534e-05   4.6010842562592e-06   -6.837359169008319e-05
-6.289997666028534e-05   4.6010842562592e-06   -6.837359169008319e-05
-6.289997666028534e-05   4.6010842562592e-06   -6.837359169008319e-05
-6.289997666028534e-05   4.6010842562592e-06   -6.837359169008319e-05
-2.9799446833382676e-05   5.249035383843076e-06   -1.2817271302028284e-05
-2.9799446833382676e-05   5.249035383843076e-06   -1.2817271302028284e-05
-2.9799446833382676e-05   5.249035383843076e-06   -1.2817271302028284e-05
-2.9799446833382676e-05   5.249035383843076e-06   -1.2817271302028284e-05
-3.0513983573263354e-05   6.548263796624402e-06   -6.827146295422618e-05
-3.0513983573263354e-05   6.548263796624402e-06   -6.827146295422618e-05
-3.0513983573263354e-05   6.548263796624402e-06   -6.827146295422618e-05
-3.0513983573263354e-05   6.548263796624402e-06   -6.827146295422618e-05
-6.448498037412779e-05   7.324185152396629e-06   -1.2118687766248556e-05
-6.448498037412779e-05   7.324185152396629e-06   -1.2118687766248556e-05
-6.448498037412779e-05   7.324185152396629e-06   -1.2118687766248556e-05
-6.448498037412779e-05   7.324185152396629e-06   -1.2118687766248556e-05
-4.6792632977341876e-05   5.897705919010165e-06   -4.075004588752672e-05
-4.6792632977341876e-05   5.897705919010165e-06   -4.075004588752672e-05
-4.6792632977341876e-05   5.897705919010165e-06   -4.075004588752672e-05
-4.6792632977341876e-05   5.897705919010165e-06   -4.075004588752672e-05
-6.448498037412773e-05   6.548263796624398e-06   -6.873701576768931e-05
-6.448498037412773e-05   6.548263796624398e-06   -6.873701576768931e-05
-6.448498037412773e-05   6.548263796624398e-06   -6.873701576768931e-05
-6.448498037412773e-05   6.548263796624398e-06   -6.873701576768931e-05
-3.05139835732633e-05   7.324185152396629e-06   -1.16531349527851e-05
-3.05139835732633e-05   7.324185152396629e-06   -1.16531349527851e-05
-3.05139835732633e-05   7.324185152396629e-06   -1.16531349527851e-05
-3.05139835732633e-05   7.324185152396629e-06   -1.16531349527851e-05
-3.0740821250404664e-05   8.022611985499222e-06   -6.699347834016883e-05
-3.0740821250404664e-05   8.022611985499222e-06   -6.699347834016883e-05
-3.0740821250404664e-05   8.022611985499222e-06   -6.699347834016883e-05
-3.0740821250404664e-05   8.022611985499222e-06   -6.699347834016883e-05
-6.481959001863358e-05   9.041585694271291e-06   -1.0806914618383611e-05
-6.481959001863358e-05   9.041585694271291e-06   -1.0806914618383611e-05
-6.481959001863358e-05   9.041585694271291e-06   -1.0806914618383611e-05
-6.481959001863358e-05   9.041585694271291e-06   -1.0806914618383611e-05
-4.7161448407570655e-05   7.4843512898413575e-06   -3.930280999416385e-05
-4.7161448407570655e-05   7.4843512898413575e-06   -3.930280999416385e-05
-4.7161448407570655e-05   7.4843512898413575e-06   -3.930280999416385e-05
-4.7161448407570655e-05   7.4843512898413575e-06   -3.930280999416385e-05
-6.481959001863358e-05   8.022611985499205e-06   -6.760486256543195e-05
-6.481959001863358e-05   8.022611985499205e-06   -6.760486256543195e-05
-6.481959001863358e-05   8.022611985499205e-06   -6.760486256543195e-05
-6.481959001863358e-05   8.022611985499205e-06   -6.760486256543195e-05
-3.0740821250404704e-05   9.041585694271291e-06   -1.019553039312051e-05
-3.0740821250404704e-05   9.041585694271291e-06   -1.019553039312051e-05
-3.0740821250404704e-05   9.041585694271291e-06   -1.019553039312051e-05
-3.0740821250404704e-05   9.041585694271291e-06   -1.019553039312051e-05
-3.066899662256391e-05   9.33428690950332e-06   -6.630797172777538e-05
-3.066899662256391e-05   9.33428690950332e-06   -6.630797172777538e-05
-3.066899662256391e-05   9.33428690950332e-06   -6.630797172777538e-05
-3.066899662256391e-05   9.33428690950332e-06   -6.630797172777538e-05
-6.445420210939158e-05   1.0889210661290478e-05   -1.0932250167468077e-05
-6.445420210939158e-05   1.0889210661290478e-05   -1.0932250167468077e-05
-6.445420210939158e-05   1.0889210661290478e-05   -1.0932250167468077e-05
-6.445420210939158e-05   1.0889210661290478e-05   -1.0932250167468077e-05
-4.744233936180046e-05   8.920430815553089e-06   -3.810408683934435e-05
-4.744233936180046e-05   8.920430815553089e-06   -3.810408683934435e-05
-4.744233936180046e-05   8.920430815553089e-06   -3.810408683934435e-05
-4.744233936180046e-05   8.920430815553089e-06   -3.810408683934435e-05
-2.9799446833382622e-05   -5.884724769177242e-07   -7.158629951626719e-05
-2.9799446833382622e-05   -5.884724769177242e-07   -7.158629951626719e-05
-2.9799446833382622e-05   -5.884724769177242e-07   -7.158629951626719e-05
-2.9799446833382622e-05   -5.884724769177242e-07   -7.158629951626719e-05
2.8839835524876863e-06   -1.5573183398609946e-07   -1.68542711540577e-05
2.8839835524876863e-06   -1.5573183398609946e-07   -1.68542711540577e-05
2.8839835524876863e-06   -1.5573183398609946e-07   -1.68542711540577e-05
2.8839835524876863e-06   -1.5573183398609946e-07   -1.68542711540577e-05
2.746491701067929e-06   1.1604774745679089e-06   -7.198610194095334e-05
2.746491701067929e-06   1.1604774745679089e-06   -7.198610194095334e-05
2.746491701067929e-06   1.1604774745679089e-06   -7.198610194095334e-05
2.746491701067929e-06   1.1604774745679089e-06   -7.198610194095334e-05
-3.0513983573263296e-05   1.7560988617459396e-06   -1.690934931604138e-05
-3.0513983573263296e-05   1.7560988617459396e-06   -1.690934931604138e-05
-3.0513983573263296e-05   1.7560988617459396e-06   -1.690934931604138e-05
-3.0513983573263296e-05   1.7560988617459396e-06   -1.690934931604138e-05
-1.3753290421614734e-05   5.828695211905119e-07   -4.41399002977891e-05
-1.3753290421614734e-05   5.828695211905119e-07   -4.41399002977891e-05
-1.3753290421614734e-05   5.828695211905119e-07   -4.41399002977891e-05
-1.3753290421614734e-05   5.828695211905119e-07   -4.41399002977891e-05
-3.05139835732633e-05   1.1604774745679137e-06   -7.234347477326013e-05
-3.05139835732633e-05   1.1604774745679137e-06   -7.234347477326013e-05
-3.05139835732633e-05   1.1604774745679137e-06   -7.234347477326013e-05
-3.05139835732633e-05   1.1604774745679137e-06   -7.234347477326013e-05
2.746491701067934e-06   1.7560988617458854e-06   -1.6551976483734514e-05
2.746491701067934e-06   1.7560988617458854e-06   -1.6551976483734514e-05
2.746491701067934e-06   1.7560988617458854e-06   -1.6551976483734514e-05
2.746491701067934e-06   1.7560988617458854e-06   -1.6551976483734514e-05
2.560175522235657e-06   2.7002452918863557e-06   -7.213708275453378e-05
2.560175522235657e-06   2.7002452918863557e-06   -7.213708275453378e-05
2.560175522235657e-06   2.7002452918863557e-06   -7.213708275453378e-05
2.560175522235657e-06   2.7002452918863557e-06   -7.213708275453378e-05
-3.07408212504046e-05   3.6240137935031553e-06   -1.718968256777006e-05
-3.07408212504046e-05   3.6240137935031553e-06   -1.718968256777006e-05
-3.07408212504046e-05   3.6240137935031553e-06   -1.718968256777006e-05
-3.07408212504046e-05   3.6240137935031553e-06   -1.718968256777006e-05
-1.4013207729708576e-05   2.203198354928964e-06   -4.421654917245233e-05
-1.4013207729708576e-05   2.203198354928964e-06   -4.421654917245233e-05
-1.4013207729708576e-05   2.203198354928964e-06   -4.421654917245233e-05
-1.4013207729708576e-05   2.203198354928964e-06   -4.421654917245233e-05
-3.074082125040461e-05   2.700245291886358e-06   -7.269134385550387e-05
-3.074082125040461e-05   2.700245291886358e-06   -7.269134385550387e-05
-3.074082125040461e-05   2.700245291886358e-06   -7.269134385550387e-05
-3.074082125040461e-05   2.700245291886358e-06   -7.269134385550387e-05
2.560175522235657e-06   3.6240137935031553e-06   -1.6635421466800092e-05
2.560175522235657e-06   3.6240137935031553e-06   -1.6635421466800092e-05
2.560175522235657e-06   3.6240137935031553e-06   -1.6635421466800092e-05
2.560175522235657e-06   3.6240137935031553e-06   -1.6635421466800092e-05
2.1883482536905558e-06   4.483929098599235e-06   -7.201272912973038e-05
2.1883482536905558e-06   4.483929098599235e-06   -7.201272912973038e-05
2.1883482536905558e-06   4.483929098599235e-06   -7.201272912973038e-05
2.1883482536905558e-06   4.483929098599235e-06   -7.201272912973038e-05
-3.0668996622563886e-05   5.5703005232708084e-06   -1.7902310524109334e-05
-3.0668996622563886e-05   5.5703005232708084e-06   -1.7902310524109334e-05
-3.0668996622563886e-05   5.5703005232708084e-06   -1.7902310524109334e-05
-3.0668996622563886e-05   5.5703005232708084e-06   -1.7902310524109334e-05
-1.4171896961985542e-05   3.867767421244372e-06   -4.43759567638573e-05
-1.4171896961985542e-05   3.867767421244372e-06   -4.43759567638573e-05
-1.4171896961985542e-05   3.867767421244372e-06   -4.43759567638573e-05
-1.4171896961985542e-05   3.867767421244372e-06   -4.43759567638573e-05
2.8839835524876863e-06   -5.218389841634634e-06   -6.60527242076135e-05
2.8839835524876863e-06   -5.218389841634634e-06   -6.60527242076135e-05
2.8839835524876863e-06   -5.218389841634634e-06   -6.60527242076135e-05
2.8839835524876863e-06   -5.218389841634634e-06   -6.60527242076135e-05
3.656488196224652e-05   -5.365230071808244e-06   -1.0005997662786202e-05
3.656488196224652e-05   -5.365230071808244e-06   -1.0005997662786202e-05
3.656488196224652e-05   -5.365230071808244e-06   -1.0005997662786202e-05
3.656488196224652e-05   -5.365230071808244e-06   -1.0005997662786202e-05
3.6860956692033146e-05   -3.935114346076846e-06   -6.697548471165944e-05
3.6860956692033146e-05   -3.935114346076846e-06   -6.697548471165944e-05
3.6860956692033146e-05   -3.935114346076846e-06   -6.697548471165944e-05
3.6860956692033146e-05   -3.935114346076846e-06   -6.697548471165944e-05
2.7464917010679343e-06   -3.628538209952503e-06   -1.0301988741725296e-05
2.7464917010679343e-06   -3.628538209952503e-06   -1.0301988741725296e-05
2.7464917010679343e-06   -3.628538209952503e-06   -1.0301988741725296e-05
2.7464917010679343e-06   -3.628538209952503e-06   -1.0301988741725296e-05
1.9511479454220395e-05   -4.3429673248939935e-06   -3.7814977528014556e-05
1.9511479454220395e-05   -4.3429673248939935e-06   -3.7814977528014556e-05
1.9511479454220395e-05   -4.3429673248939935e-06   -3.7814977528014556e-05
1.9511479454220395e-05   -4.3429673248939935e-06   -3.7814977528014556e-05
2.746491701067929e-06   -3.9351143460768445e-06   -6.715943039333401e-05
2.746491701067929e-06   -3.9351143460768445e-06   -6.715943039333401e-05
2.746491701067929e-06   -3.9351143460768445e-06   -6.715943039333401e-05
2.746491701067929e-06   -3.9351143460768445e-06   -6.715943039333401e-05
3.6860956692033146e-05   -3.6285382099525572e-06   -1.0118043060050575e-05
3.6860956692033146e-05   -3.6285382099525572e-06   -1.0118043060050575e-05
3.6860956692033146e-05   -3.6285382099525572e-06   -1.0118043060050575e-05
3.6860956692033146e-05   -3.6285382099525572e-06   -1.0118043060050575e-05
3.6674911044786474e-05   -2.4776698280818186e-06   -6.823077209066533e-05
3.6674911044786474e-05   -2.4776698280818186e-06   -6.823077209066533e-05
3.6674911044786474e-05   -2.4776698280818186e-06   -6.823077209066533e-05
3.6674911044786474e-05   -2.4776698280818186e-06   -6.823077209066533e-05
2.560175522235657e-06   -1.927115550052149e-06   -1.1703212119898396e-05
2.560175522235657e-06   -1.927115550052149e-06   -1.1703212119898396e-05
2.560175522235657e-06   -1.927115550052149e-06   -1.1703212119898396e-05
2.560175522235657e-06   -1.927115550052149e-06   -1.1703212119898396e-05
1.9299189633561905e-05   -2.9560886699516744e-06   -3.8984185100169084e-05
1.9299189633561905e-05   -2.9560886699516744e-06   -3.8984185100169084e-05
1.9299189633561905e-05   -2.9560886699516744e-06   -3.8984185100169084e-05
1.9299189633561905e-05   -2.9560886699516744e-06   -3.8984185100169084e-05
2.560175522235657e-06   -2.4776698280818173e-06   -6.856110465748301e-05
2.560175522235657e-06   -2.4776698280818173e-06   -6.856110465748301e-05
2.560175522235657e-06   -2.4776698280818173e-06   -6.856110465748301e-05
2.560175522235657e-06   -2.4776698280818173e-06   -6.856110465748301e-05
3.6674911044786474e-05   -1.927115550052203e-06   -1.1372879553080703e-05
3.6674911044786474e-05   -1.927115550052203e-06   -1.1372879553080703e-05
3.6674911044786474e-05   -1.927115550052203e-06   -1.1372879553080703e-05
3.6674911044786474e-05   -1.927115550052203e-06   -1.1372879553080703e-05
3.559951217200931e-05   -5.188875426265081e-07   -6.835114516967123e-05
3.559951217200931e-05   -5.188875426265081e-07   -6.835114516967123e-05
3.559951217200931e-05   -5.188875426265081e-07   -6.835114516967123e-05
3.559951217200931e-05   -5.188875426265081e-07   -6.835114516967123e-05
2.1883482536905566e-06   1.7764346352472718e-07   -1.3083790576164114e-05
2.1883482536905566e-06   1.7764346352472718e-07   -1.3083790576164114e-05
2.1883482536905566e-06   1.7764346352472718e-07   -1.3083790576164114e-05
2.1883482536905566e-06   1.7764346352472718e-07   -1.3083790576164114e-05
1.9084489561289293e-05   -1.3362172070854092e-06   -4.033570968646257e-05
1.9084489561289293e-05   -1.3362172070854092e-06   -4.033570968646257e-05
1.9084489561289293e-05   -1.3362172070854092e-06   -4.033570968646257e-05
1.9084489561289293e-05   -1.3362172070854092e-06   -4.033570968646257e-05
3.656488196224652e-05   -1.3224721959967753e-05   -3.996924401996416e-05
3.656488196224652e-05   -1.3224721959967753e-05   -3.996924401996416e-05
3.656488196224652e-05   -1.3224721959967753e-05   -3.996924401996416e-05
3.656488196224652e-05   -1.3224721959967753e-05   -3.996924401996416e-05
6.981223153429329e-05   -9.974276473019605e-06   1.7393272558949302e-05
6.981223153429329e-05   -9.974276473019605e-06   1.7393272558949302e-05
6.981223153429329e-05   -9.974276473019605e-06   1.7393272558949302e-05
6.981223153429329e-05   -9.974276473019605e-06   1.7393272558949302e-05
7.245770783221794e-05   -1.1255174084588555e-05   -4.8594609401792107e-05
7.245770783221794e-05   -1.1255174084588555e-05   -4.8594609401792107e-05
7.245770783221794e-05   -1.1255174084588555e-05   -4.8594609401792107e-05
7.245770783221794e-05   -1.1255174084588555e-05   -4.8594609401792107e-05
3.6860956692033214e-05   -9.050780688785295e-06   9.410673127700531e-06
3.6860956692033214e-05   -9.050780688785295e-06   9.410673127700531e-06
3.6860956692033214e-05   -9.050780688785295e-06   9.410673127700531e-06
3.6860956692033214e-05   -9.050780688785295e-06   9.410673127700531e-06
5.1416300713181844e-05   -1.0830546440327967e-05   -1.3780374123288224e-05
5.1416300713181844e-05   -1.0830546440327967e-05   -1.3780374123288224e-05
5.1416300713181844e-05   -1.0830546440327967e-05   -1.3780374123288224e-05
5.1416300713181844e-05   -1.0830546440327967e-05   -1.3780374123288224e-05
3.686095669203312e-05   -1.1255174084588512e-05   -4.991724543927386e-05
3.686095669203312e-05   -1.1255174084588512e-05   -4.991724543927386e-05
3.686095669203312e-05   -1.1255174084588512e-05   -4.991724543927386e-05
3.686095669203312e-05   -1.1255174084588512e-05   -4.991724543927386e-05
7.245770783221783e-05   -9.050780688785295e-06   1.0733309165182625e-05
7.245770783221783e-05   -9.050780688785295e-06   1.0733309165182625e-05
7.245770783221783e-05   -9.050780688785295e-06   1.0733309165182625e-05
7.245770783221783e-05   -9.050780688785295e-06   1.0733309165182625e-05
7.217913781401018e-05   -1.028577366624446e-05   -5.285071753780238e-05
7.217913781401018e-05   -1.028577366624446e-05   -5.285071753780238e-05
7.217913781401018e-05   -1.028577366624446e-05   -5.285071753780238e-05
7.217913781401018e-05   -1.028577366624446e-05   -5.285071753780238e-05
3.6674911044786474e-05   -8.071597003833913e-06   4.994487746790927e-06
3.6674911044786474e-05   -8.071597003833913e-06   4.994487746790927e-06
3.6674911044786474e-05   -8.071597003833913e-06   4.994487746790927e-06
3.6674911044786474e-05   -8.071597003833913e-06   4.994487746790927e-06
5.320652829856569e-05   -9.56637019514572e-06   -2.1661343761387406e-05
5.320652829856569e-05   -9.56637019514572e-06   -2.1661343761387406e-05
5.320652829856569e-05   -9.56637019514572e-06   -2.1661343761387406e-05
5.320652829856569e-05   -9.56637019514572e-06   -2.1661343761387406e-05
3.667491104478642e-05   -1.0285773666244461e-05   -5.41792235352487e-05
3.667491104478642e-05   -1.0285773666244461e-05   -5.41792235352487e-05
3.667491104478642e-05   -1.0285773666244461e-05   -5.41792235352487e-05
3.667491104478642e-05   -1.0285773666244461e-05   -5.41792235352487e-05
7.217913781401018e-05   -8.071597003833913e-06   6.322993744237084e-06
7.217913781401018e-05   -8.071597003833913e-06   6.322993744237084e-06
7.217913781401018e-05   -8.071597003833913e-06   6.322993744237084e-06
7.217913781401018e-05   -8.071597003833913e-06   6.322993744237084e-06
7.17341055468615e-05   -7.997924510241174e-06   -6.151739202049487e-05
7.17341055468615e-05   -7.997924510241174e-06   -6.151739202049487e-05
7.17341055468615e-05   -7.997924510241174e-06   -6.151739202049487e-05
7.17341055468615e-05   -7.997924510241174e-06   -6.151739202049487e-05
3.5599512172009335e-05   -5.964237077823748e-06   -2.513282188524983e-06
3.5599512172009335e-05   -5.964237077823748e-06   -2.513282188524983e-06
3.5599512172009335e-05   -5.964237077823748e-06   -2.513282188524983e-06
3.5599512172009335e-05   -5.964237077823748e-06   -2.513282188524983e-06
5.167775165028367e-05   -8.238221032780144e-06   -2.7945957612675006e-05
5.167775165028367e-05   -8.238221032780144e-06   -2.7945957612675006e-05
5.167775165028367e-05   -8.238221032780144e-06   -2.7945957612675006e-05
5.167775165028367e-05   -8.238221032780144e-06   -2.7945957612675006e-05
-7.826545518211869e-05   1.1280752619664589e-05   -5.3998129530742774e-05
-7.826545518211869e-05   1.1280752619664589e-05   -5.3998129530742774e-05
-7.826545518211869e-05   1.1280752619664589e-05   -5.3998129530742774e-05
-7.826545518211869e-05   1.1280752619664589e-05   -5.3998129530742774e-05
-5.1302570787197974e-05   8.622344288885934e-06   -1.0655033871008739e-05
-5.1302570787197974e-05   8.622344288885934e-06   -1.0655033871008739e-05
-5.1302570787197974e-05   8.622344288885934e-06   -1.0655033871008739e-05
-5.1302570787197974e-05   8.622344288885934e-06   -1.0655033871008739e-05
-5.155226225479469e-05   1.3537363517160373e-05   -4.483337807294717e-05
-5.155226225479469e-05   1.3537363517160373e-05   -4.483337807294717e-05
-5.155226225479469e-05   1.3537363517160373e-05   -4.483337807294717e-05
-5.155226225479469e-05   1.3537363517160373e-05   -4.483337807294717e-05
-7.708443034389661e-05   1.042909740865813e-05   -4.1480492600932256e-07
-7.708443034389661e-05   1.042909740865813e-05   -4.1480492600932256e-07
-7.708443034389661e-05   1.042909740865813e-05   -4.1480492600932256e-07
-7.708443034389661e-05   1.042909740865813e-05   -4.1480492600932256e-07
-6.182142086863987e-05   1.1470134700417348e-05   -2.6477776426492934e-05
-6.182142086863987e-05   1.1470134700417348e-05   -2.6477776426492934e-05
-6.182142086863987e-05   1.1470134700417348e-05   -2.6477776426492934e-05
-6.182142086863987e-05   1.1470134700417348e-05   -2.6477776426492934e-05
-7.708443034389661e-05   1.3537363517160368e-05   -4.2968418407845886e-05
-7.708443034389661e-05   1.3537363517160368e-05   -4.2968418407845886e-05
-7.708443034389661e-05   1.3537363517160368e-05   -4.2968418407845886e-05
-7.708443034389661e-05   1.3537363517160368e-05   -4.2968418407845886e-05
-5.155226225479469e-05   1.042909740865813e-05   -2.279764591110595e-06
-5.155226225479469e-05   1.042909740865813e-05   -2.279764591110595e-06
-5.155226225479469e-05   1.042909740865813e-05   -2.279764591110595e-06
-5.155226225479469e-05   1.042909740865813e-05   -2.279764591110595e-06
-5.1501820288688503e-05   1.4555752544896704e-05   -3.835446494454466e-05
-5.1501820288688503e-05   1.4555752544896704e-05   -3.835446494454466e-05
-5.1501820288688503e-05   1.4555752544896704e-05   -3.835446494454466e-05
-5.1501820288688503e-05   1.4555752544896704e-05   -3.835446494454466e-05
-7.593231782996519e-05   1.1222658166198051e-05   4.362887584802256e-06
-7.593231782996519e-05   1.1222658166198051e-05   4.362887584802256e-06
-7.593231782996519e-05   1.1222658166198051e-05   4.362887584802256e-06
-7.593231782996519e-05   1.1222658166198051e-05   4.362887584802256e-06
-6.235849470471434e-05   1.2517545329395548e-05   -1.903708325520098e-05
-6.235849470471434e-05   1.2517545329395548e-05   -1.903708325520098e-05
-6.235849470471434e-05   1.2517545329395548e-05   -1.903708325520098e-05
-6.235849470471434e-05   1.2517545329395548e-05   -1.903708325520098e-05
-7.593231782996519e-05   1.4555752544896718e-05   -3.6354608317325465e-05
-7.593231782996519e-05   1.4555752544896718e-05   -3.6354608317325465e-05
-7.593231782996519e-05   1.4555752544896718e-05   -3.6354608317325465e-05
-7.593231782996519e-05   1.4555752544896718e-05   -3.6354608317325465e-05
-5.150182028868861e-05   1.1222658166198051e-05   2.363030957583479e-06
-5.150182028868861e-05   1.1222658166198051e-05   2.363030957583479e-06
-5.150182028868861e-05   1.1222658166198051e-05   2.363030957583479e-06
-5.150182028868861e-05   1.1222658166198051e-05   2.363030957583479e-06
-5.155562520219704e-05   1.536441698832096e-05   -2.9279793029598155e-05
-5.155562520219704e-05   1.536441698832096e-05   -2.9279793029598155e-05
-5.155562520219704e-05   1.536441698832096e-05   -2.9279793029598155e-05
-5.155562520219704e-05   1.536441698832096e-05   -2.9279793029598155e-05
-7.442658239938938e-05   1.200294058180092e-05   1.08553548096343e-05
-7.442658239938938e-05   1.200294058180092e-05   1.08553548096343e-05
-7.442658239938938e-05   1.200294058180092e-05   1.08553548096343e-05
-7.442658239938938e-05   1.200294058180092e-05   1.08553548096343e-05
-6.094039708228153e-05   1.3068057412494332e-05   -1.2260690817293934e-05
-6.094039708228153e-05   1.3068057412494332e-05   -1.2260690817293934e-05
-6.094039708228153e-05   1.3068057412494332e-05   -1.2260690817293934e-05
-6.094039708228153e-05   1.3068057412494332e-05   -1.2260690817293934e-05
-5.1302570787197974e-05   5.249035383843083e-06   -6.24897264088751e-05
-5.1302570787197974e-05   5.249035383843083e-06   -6.24897264088751e-05
-5.1302570787197974e-05   5.249035383843083e-06   -6.24897264088751e-05
-5.1302570787197974e-05   5.249035383843083e-06   -6.24897264088751e-05
-2.6102923083283383e-05   4.298344588742542e-06   -2.1060728046077762e-05
-2.6102923083283383e-05   4.298344588742542e-06   -2.1060728046077762e-05
-2.6102923083283383e-05   4.298344588742542e-06   -2.1060728046077762e-05
-2.6102923083283383e-05   4.298344588742542e-06   -2.1060728046077762e-05
-2.642141037285524e-05   7.324185152396629e-06   -6.160559918237977e-05
-2.642141037285524e-05   7.324185152396629e-06   -6.160559918237977e-05
-2.642141037285524e-05   7.324185152396629e-06   -6.160559918237977e-05
-2.642141037285524e-05   7.324185152396629e-06   -6.160559918237977e-05
-5.155226225479468e-05   6.075054343914919e-06   -1.897136756072497e-05
-5.155226225479468e-05   6.075054343914919e-06   -1.897136756072497e-05
-5.155226225479468e-05   6.075054343914919e-06   -1.897136756072497e-05
-5.155226225479468e-05   6.075054343914919e-06   -1.897136756072497e-05
-3.85124099536132e-05   6.052325661273165e-06   -4.0690817519775744e-05
-3.85124099536132e-05   6.052325661273165e-06   -4.0690817519775744e-05
-3.85124099536132e-05   6.052325661273165e-06   -4.0690817519775744e-05
-3.85124099536132e-05   6.052325661273165e-06   -4.0690817519775744e-05
-5.155226225479463e-05   7.324185152396635e-06   -6.0856120697290515e-05
-5.155226225479463e-05   7.324185152396635e-06   -6.0856120697290515e-05
-5.155226225479463e-05   7.324185152396635e-06   -6.0856120697290515e-05
-5.155226225479463e-05   7.324185152396635e-06   -6.0856120697290515e-05
-2.6421410372855282e-05   6.0750543439148106e-06   -1.9720846045814062e-05
-2.6421410372855282e-05   6.0750543439148106e-06   -1.9720846045814062e-05
-2.6421410372855282e-05   6.0750543439148106e-06   -1.9720846045814062e-05
-2.6421410372855282e-05   6.0750543439148106e-06   -1.9720846045814062e-05
-2.6628442382387155e-05   9.041585694271291e-06   -5.997454715745565e-05
-2.6628442382387155e-05   9.041585694271291e-06   -5.997454715745565e-05
-2.6628442382387155e-05   9.041585694271291e-06   -5.997454715745565e-05
-2.6628442382387155e-05   9.041585694271291e-06   -5.997454715745565e-05
-5.1501820288688503e-05   7.653198731105509e-06   -1.7685885135720555e-05
-5.1501820288688503e-05   7.653198731105509e-06   -1.7685885135720555e-05
-5.1501820288688503e-05   7.653198731105509e-06   -1.7685885135720555e-05
-5.1501820288688503e-05   7.653198731105509e-06   -1.7685885135720555e-05
-3.858501393021303e-05   7.513812294369254e-06   -3.9130263871137654e-05
-3.858501393021303e-05   7.513812294369254e-06   -3.9130263871137654e-05
-3.858501393021303e-05   7.513812294369254e-06   -3.9130263871137654e-05
-3.858501393021303e-05   7.513812294369254e-06   -3.9130263871137654e-05
-5.1501820288688503e-05   9.041585694271301e-06   -5.9141514979556145e-05
-5.1501820288688503e-05   9.041585694271301e-06   -5.9141514979556145e-05
-5.1501820288688503e-05   9.041585694271301e-06   -5.9141514979556145e-05
-5.1501820288688503e-05   9.041585694271301e-06   -5.9141514979556145e-05
-2.662844238238721e-05   7.653198731105509e-06   -1.8518917313619766e-05
-2.662844238238721e-05   7.653198731105509e-06   -1.8518917313619766e-05
-2.662844238238721e-05   7.653198731105509e-06   -1.8518917313619766e-05
-2.662844238238721e-05   7.653198731105509e-06   -1.8518917313619766e-05
-2.6895802229768542e-05   1.0889210661290424e-05   -5.982940555353142e-05
-2.6895802229768542e-05   1.0889210661290424e-05   -5.982940555353142e-05
-2.6895802229768542e-05   1.0889210661290424e-05   -5.982940555353142e-05
-2.6895802229768542e-05   1.0889210661290424e-05   -5.982940555353142e-05
-5.155562520219697e-05   9.331618266986445e-06   -1.77951451629018e-05
-5.155562520219697e-05   9.331618266986445e-06   -1.77951451629018e-05
-5.155562520219697e-05   9.331618266986445e-06   -1.77951451629018e-05
-5.155562520219697e-05   9.331618266986445e-06   -1.77951451629018e-05
-3.90436389411308e-05   8.961121815863804e-06   -3.8426157727337824e-05
-3.90436389411308e-05   8.961121815863804e-06   -3.8426157727337824e-05
-3.90436389411308e-05   8.961121815863804e-06   -3.8426157727337824e-05
-3.90436389411308e-05   8.961121815863804e-06   -3.8426157727337824e-05
-2.6102923083283342e-05   -1.5573183398611696e-07   -6.735678512372376e-05
-2.6102923083283342e-05   -1.5573183398611696e-07   -6.735678512372376e-05
-2.6102923083283342e-05   -1.5573183398611696e-07   -6.735678512372376e-05
-2.6102923083283342e-05   -1.5573183398611696e-07   -6.735678512372376e-05
-1.186730262350398e-06   2.2864393953083307e-07   -2.559917162472532e-05
-1.186730262350398e-06   2.2864393953083307e-07   -2.559917162472532e-05
-1.186730262350398e-06   2.2864393953083307e-07   -2.559917162472532e-05
-1.186730262350398e-06   2.2864393953083307e-07   -2.559917162472532e-05
-1.4424568989897185e-06   1.7560988617459396e-06   -6.672911045427075e-05
-1.4424568989897185e-06   1.7560988617459396e-06   -6.672911045427075e-05
-1.4424568989897185e-06   1.7560988617459396e-06   -6.672911045427075e-05
-1.4424568989897185e-06   1.7560988617459396e-06   -6.672911045427075e-05
-2.6421410372855194e-05   1.977270680687945e-06   -2.5230224422526706e-05
-2.6421410372855194e-05   1.977270680687945e-06   -2.5230224422526706e-05
-2.6421410372855194e-05   1.977270680687945e-06   -2.5230224422526706e-05
-2.6421410372855194e-05   1.977270680687945e-06   -2.5230224422526706e-05
-1.3710980402363455e-05   1.1518302140544755e-06   -4.59190100933663e-05
-1.3710980402363455e-05   1.1518302140544755e-06   -4.59190100933663e-05
-1.3710980402363455e-05   1.1518302140544755e-06   -4.59190100933663e-05
-1.3710980402363455e-05   1.1518302140544755e-06   -4.59190100933663e-05
-2.642141037285524e-05   1.7560988617459156e-06   -6.686181354563595e-05
-2.642141037285524e-05   1.7560988617459156e-06   -6.686181354563595e-05
-2.642141037285524e-05   1.7560988617459156e-06   -6.686181354563595e-05
-2.642141037285524e-05   1.7560988617459156e-06   -6.686181354563595e-05
-1.4424568989897185e-06   1.977270680687945e-06   -2.509752133116153e-05
-1.4424568989897185e-06   1.977270680687945e-06   -2.509752133116153e-05
-1.4424568989897185e-06   1.977270680687945e-06   -2.509752133116153e-05
-1.4424568989897185e-06   1.977270680687945e-06   -2.509752133116153e-05
-1.627745006009113e-06   3.6240137935032095e-06   -6.69107134812598e-05
-1.627745006009113e-06   3.6240137935032095e-06   -6.69107134812598e-05
-1.627745006009113e-06   3.6240137935032095e-06   -6.69107134812598e-05
-1.627745006009113e-06   3.6240137935032095e-06   -6.69107134812598e-05
-2.6628442382387155e-05   3.7206568782457245e-06   -2.530087037147527e-05
-2.6628442382387155e-05   3.7206568782457245e-06   -2.530087037147527e-05
-2.6628442382387155e-05   3.7206568782457245e-06   -2.530087037147527e-05
-2.6628442382387155e-05   3.7206568782457245e-06   -2.530087037147527e-05
-1.4040620644472391e-05   2.6938701452719808e-06   -4.566450122821557e-05
-1.4040620644472391e-05   2.6938701452719808e-06   -4.566450122821557e-05
-1.4040620644472391e-05   2.6938701452719808e-06   -4.566450122821557e-05
-1.4040620644472391e-05   2.6938701452719808e-06   -4.566450122821557e-05
-2.6628442382387155e-05   3.6240137935031997e-06   -6.696869933210537e-05
-2.6628442382387155e-05   3.6240137935031997e-06   -6.696869933210537e-05
-2.6628442382387155e-05   3.6240137935031997e-06   -6.696869933210537e-05
-2.6628442382387155e-05   3.6240137935031997e-06   -6.696869933210537e-05
-1.627745006009113e-06   3.7206568782457245e-06   -2.524288452062943e-05
-1.627745006009113e-06   3.7206568782457245e-06   -2.524288452062943e-05
-1.627745006009113e-06   3.7206568782457245e-06   -2.524288452062943e-05
-1.627745006009113e-06   3.7206568782457245e-06   -2.524288452062943e-05
-1.9180446636089142e-06   5.570300523270863e-06   -6.777183888651532e-05
-1.9180446636089142e-06   5.570300523270863e-06   -6.777183888651532e-05
-1.9180446636089142e-06   5.570300523270863e-06   -6.777183888651532e-05
-1.9180446636089142e-06   5.570300523270863e-06   -6.777183888651532e-05
-2.689580222976857e-05   5.504602647820353e-06   -2.6102824217645755e-05
-2.689580222976857e-05   5.504602647820353e-06   -2.6102824217645755e-05
-2.689580222976857e-05   5.504602647820353e-06   -2.6102824217645755e-05
-2.689580222976857e-05   5.504602647820353e-06   -2.6102824217645755e-05
-1.4390729934819464e-05   4.254225340327537e-06   -4.619438499139808e-05
-1.4390729934819464e-05   4.254225340327537e-06   -4.619438499139808e-05
-1.4390729934819464e-05   4.254225340327537e-06   -4.619438499139808e-05
-1.4390729934819464e-05   4.254225340327537e-06   -4.619438499139808e-05
-1.1867302623503988e-06   -5.365230071808263e-06   -6.0189782030237865e-05
-1.1867302623503988e-06   -5.365230071808263e-06   -6.0189782030237865e-05
-1.1867302623503988e-06   -5.365230071808263e-06   -6.0189782030237865e-05
-1.1867302623503988e-06   -5.365230071808263e-06   -6.0189782030237865e-05
2.3605952497733466e-05   -3.599232533658416e-06   -1.7809045573875055e-05
2.3605952497733466e-05   -3.599232533658416e-06   -1.7809045573875055e-05
2.3605952497733466e-05   -3.599232533658416e-06   -1.7809045573875055e-05
2.3605952497733466e-05   -3.599232533658416e-06   -1.7809045573875055e-05
2.3586399394159537e-05   -3.6285382099525572e-06   -5.9500071433189885e-05
2.3586399394159537e-05   -3.6285382099525572e-06   -5.9500071433189885e-05
2.3586399394159537e-05   -3.6285382099525572e-06   -5.9500071433189885e-05
2.3586399394159537e-05   -3.6285382099525572e-06   -5.9500071433189885e-05
-1.4424568989897183e-06   -1.9967860781667374e-06   -1.8764362223679357e-05
-1.4424568989897183e-06   -1.9967860781667374e-06   -1.8764362223679357e-05
-1.4424568989897183e-06   -1.9967860781667374e-06   -1.8764362223679357e-05
-1.4424568989897183e-06   -1.9967860781667374e-06   -1.8764362223679357e-05
1.1055627188467736e-05   -3.5215492615714287e-06   -3.8679644459398946e-05
1.1055627188467736e-05   -3.5215492615714287e-06   -3.8679644459398946e-05
1.1055627188467736e-05   -3.5215492615714287e-06   -3.8679644459398946e-05
1.1055627188467736e-05   -3.5215492615714287e-06   -3.8679644459398946e-05
-1.4424568989897185e-06   -3.628538209952576e-06   -6.0479122712261415e-05
-1.4424568989897185e-06   -3.628538209952576e-06   -6.0479122712261415e-05
-1.4424568989897185e-06   -3.628538209952576e-06   -6.0479122712261415e-05
-1.4424568989897185e-06   -3.628538209952576e-06   -6.0479122712261415e-05
2.3586399394159564e-05   -1.9967860781667374e-06   -1.7785310944607878e-05
2.3586399394159564e-05   -1.9967860781667374e-06   -1.7785310944607878e-05
2.3586399394159564e-05   -1.9967860781667374e-06   -1.7785310944607878e-05
2.3586399394159564e-05   -1.9967860781667374e-06   -1.7785310944607878e-05
2.3695856919391114e-05   -1.927115550052203e-06   -6.107534153361046e-05
2.3695856919391114e-05   -1.927115550052203e-06   -6.107534153361046e-05
2.3695856919391114e-05   -1.927115550052203e-06   -6.107534153361046e-05
2.3695856919391114e-05   -1.927115550052203e-06   -6.107534153361046e-05
-1.627745006009115e-06   -4.21844548806013e-07   -1.977250092535784e-05
-1.627745006009115e-06   -4.21844548806013e-07   -1.977250092535784e-05
-1.627745006009115e-06   -4.21844548806013e-07   -1.977250092535784e-05
-1.627745006009115e-06   -4.21844548806013e-07   -1.977250092535784e-05
1.0715323536628188e-05   -2.1319634712029358e-06   -3.9318210476315215e-05
1.0715323536628188e-05   -2.1319634712029358e-06   -3.9318210476315215e-05
1.0715323536628188e-05   -2.1319634712029358e-06   -3.9318210476315215e-05
1.0715323536628188e-05   -2.1319634712029358e-06   -3.9318210476315215e-05
-1.627745006009113e-06   -1.9271155500521794e-06   -6.197850413435817e-05
-1.627745006009113e-06   -1.9271155500521794e-06   -6.197850413435817e-05
-1.627745006009113e-06   -1.9271155500521794e-06   -6.197850413435817e-05
-1.627745006009113e-06   -1.9271155500521794e-06   -6.197850413435817e-05
2.3695856919391154e-05   -4.21844548806013e-07   -1.8869338324609835e-05
2.3695856919391154e-05   -4.21844548806013e-07   -1.8869338324609835e-05
2.3695856919391154e-05   -4.21844548806013e-07   -1.8869338324609835e-05
2.3695856919391154e-05   -4.21844548806013e-07   -1.8869338324609835e-05
2.3512291941242666e-05   1.7764346352467297e-07   -6.285974727199067e-05
2.3512291941242666e-05   1.7764346352467297e-07   -6.285974727199067e-05
2.3512291941242666e-05   1.7764346352467297e-07   -6.285974727199067e-05
2.3512291941242666e-05   1.7764346352467297e-07   -6.285974727199067e-05
-1.918044663608918e-06   1.4199676658288758e-06   -2.1221247451954075e-05
-1.918044663608918e-06   1.4199676658288758e-06   -2.1221247451954075e-05
-1.918044663608918e-06   1.4199676658288758e-06   -2.1221247451954075e-05
-1.918044663608918e-06   1.4199676658288758e-06   -2.1221247451954075e-05
1.0595133379667546e-05   -6.448273025423928e-07   -4.083766720972501e-05
1.0595133379667546e-05   -6.448273025423928e-07   -4.083766720972501e-05
1.0595133379667546e-05   -6.448273025423928e-07   -4.083766720972501e-05
1.0595133379667546e-05   -6.448273025423928e-07   -4.083766720972501e-05
2.3605952497733412e-05   -9.974276473019645e-06   -3.368118057778136e-05
2.3605952497733412e-05   -9.974276473019645e-06   -3.368118057778136e-05
2.3605952497733412e-05   -9.974276473019645e-06   -3.368118057778136e-05
2.3605952497733412e-05   -9.974276473019645e-06   -3.368118057778136e-05
4.6829685747987876e-05   -6.530256369498906e-06   7.0914535680887715e-06
4.6829685747987876e-05   -6.530256369498906e-06   7.0914535680887715e-06
4.6829685747987876e-05   -6.530256369498906e-06   7.0914535680887715e-06
4.6829685747987876e-05   -6.530256369498906e-06   7.0914535680887715e-06
4.840391808769471e-05   -9.050780688785241e-06   -3.790534789500333e-05
4.840391808769471e-05   -9.050780688785241e-06   -3.790534789500333e-05
4.840391808769471e-05   -9.050780688785241e-06   -3.790534789500333e-05
4.840391808769471e-05   -9.050780688785241e-06   -3.790534789500333e-05
2.3586399394159537e-05   -5.607435104726583e-06   1.391175910453495e-06
2.3586399394159537e-05   -5.607435104726583e-06   1.391175910453495e-06
2.3586399394159537e-05   -5.607435104726583e-06   1.391175910453495e-06
2.3586399394159537e-05   -5.607435104726583e-06   1.391175910453495e-06
3.408464189273266e-05   -7.698519678639036e-06   -1.4851244176154174e-05
3.408464189273266e-05   -7.698519678639036e-06   -1.4851244176154174e-05
3.408464189273266e-05   -7.698519678639036e-06   -1.4851244176154174e-05
3.408464189273266e-05   -7.698519678639036e-06   -1.4851244176154174e-05
2.358639939415951e-05   -9.050780688785307e-06   -3.997135524543848e-05
2.358639939415951e-05   -9.050780688785307e-06   -3.997135524543848e-05
2.358639939415951e-05   -9.050780688785307e-06   -3.997135524543848e-05
2.358639939415951e-05   -9.050780688785307e-06   -3.997135524543848e-05
4.840391808769471e-05   -5.607435104726475e-06   3.457183260888782e-06
4.840391808769471e-05   -5.607435104726475e-06   3.457183260888782e-06
4.840391808769471e-05   -5.607435104726475e-06   3.457183260888782e-06
4.840391808769471e-05   -5.607435104726475e-06   3.457183260888782e-06
4.9613046757573156e-05   -8.071597003833913e-06   -4.275420049307225e-05
4.9613046757573156e-05   -8.071597003833913e-06   -4.275420049307225e-05
4.9613046757573156e-05   -8.071597003833913e-06   -4.275420049307225e-05
4.9613046757573156e-05   -8.071597003833913e-06   -4.275420049307225e-05
2.369585691939107e-05   -4.815307436056133e-06   -1.5126578367689262e-06
2.369585691939107e-05   -4.815307436056133e-06   -1.5126578367689262e-06
2.369585691939107e-05   -4.815307436056133e-06   -1.5126578367689262e-06
2.369585691939107e-05   -4.815307436056133e-06   -1.5126578367689262e-06
3.523994193592981e-05   -7.103056719514125e-06   -1.9380149960925155e-05
3.523994193592981e-05   -7.103056719514125e-06   -1.9380149960925155e-05
3.523994193592981e-05   -7.103056719514125e-06   -1.9380149960925155e-05
3.523994193592981e-05   -7.103056719514125e-06   -1.9380149960925155e-05
2.3695856919391114e-05   -8.071597003833904e-06   -4.470797423373896e-05
2.3695856919391114e-05   -8.071597003833904e-06   -4.470797423373896e-05
2.3695856919391114e-05   -8.071597003833904e-06   -4.470797423373896e-05
2.3695856919391114e-05   -8.071597003833904e-06   -4.470797423373896e-05
4.9613046757573075e-05   -4.815307436056133e-06   4.411159038981375e-07
4.9613046757573075e-05   -4.815307436056133e-06   4.411159038981375e-07
4.9613046757573075e-05   -4.815307436056133e-06   4.411159038981375e-07
4.9613046757573075e-05   -4.815307436056133e-06   4.411159038981375e-07
5.090081748576321e-05   -5.964237077823694e-06   -5.100221234072058e-05
5.090081748576321e-05   -5.964237077823694e-06   -5.100221234072058e-05
5.090081748576321e-05   -5.964237077823694e-06   -5.100221234072058e-05
5.090081748576321e-05   -5.964237077823694e-06   -5.100221234072058e-05
2.351229194124257e-05   -3.122661832287801e-06   -7.0596149138410795e-06
2.351229194124257e-05   -3.122661832287801e-06   -7.0596149138410795e-06
2.351229194124257e-05   -3.122661832287801e-06   -7.0596149138410795e-06
2.351229194124257e-05   -3.122661832287801e-06   -7.0596149138410795e-06
3.5086763859851086e-05   -6.119856177962634e-06   -2.4552084837450248e-05
3.5086763859851086e-05   -6.119856177962634e-06   -2.4552084837450248e-05
3.5086763859851086e-05   -6.119856177962634e-06   -2.4552084837450248e-05
3.5086763859851086e-05   -6.119856177962634e-06   -2.4552084837450248e-05
-5.626774209206898e-05   8.622344288885912e-06   -4.2792048561220196e-05
-5.626774209206898e-05   8.622344288885912e-06   -4.2792048561220196e-05
-5.626774209206898e-05   8.622344288885912e-06   -4.2792048561220196e-05
-5.626774209206898e-05   8.622344288885912e-06   -4.2792048561220196e-05
-3.830313731954449e-05   5.487372105998558e-06   -1.473202391674506e-05
-3.830313731954449e-05   5.487372105998558e-06   -1.473202391674506e-05
-3.830313731954449e-05   5.487372105998558e-06   -1.473202391674506e-05
-3.830313731954449e-05   5.487372105998558e-06   -1.473202391674506e-05
-3.816389699205577e-05   1.042909740865813e-05   -3.635315104316434e-05
-3.816389699205577e-05   1.042909740865813e-05   -3.635315104316434e-05
-3.816389699205577e-05   1.042909740865813e-05   -3.635315104316434e-05
-3.816389699205577e-05   1.042909740865813e-05   -3.635315104316434e-05
-5.458702898198946e-05   6.983422728755982e-06   -6.913859585333678e-06
-5.458702898198946e-05   6.983422728755982e-06   -6.913859585333678e-06
-5.458702898198946e-05   6.983422728755982e-06   -6.913859585333678e-06
-5.458702898198946e-05   6.983422728755982e-06   -6.913859585333678e-06
-4.4843739845154864e-05   8.302358511297651e-06   -2.394403628291626e-05
-4.4843739845154864e-05   8.302358511297651e-06   -2.394403628291626e-05
-4.4843739845154864e-05   8.302358511297651e-06   -2.394403628291626e-05
-4.4843739845154864e-05   8.302358511297651e-06   -2.394403628291626e-05
-5.458702898198948e-05   1.0429097408658182e-05   -3.428574623522314e-05
-5.458702898198948e-05   1.0429097408658182e-05   -3.428574623522314e-05
-5.458702898198948e-05   1.0429097408658182e-05   -3.428574623522314e-05
-5.458702898198948e-05   1.0429097408658182e-05   -3.428574623522314e-05
-3.816389699205582e-05   6.983422728755982e-06   -8.981264393274992e-06
-3.816389699205582e-05   6.983422728755982e-06   -8.981264393274992e-06
-3.816389699205582e-05   6.983422728755982e-06   -8.981264393274992e-06
-3.816389699205582e-05   6.983422728755982e-06   -8.981264393274992e-06
-3.787459588771376e-05   1.1222658166198051e-05   -3.1699638739719695e-05
-3.787459588771376e-05   1.1222658166198051e-05   -3.1699638739719695e-05
-3.787459588771376e-05   1.1222658166198051e-05   -3.1699638739719695e-05
-3.787459588771376e-05   1.1222658166198051e-05   -3.1699638739719695e-05
-5.3330265675489176e-05   7.680180609696396e-06   -3.8147025595262765e-06
-5.3330265675489176e-05   7.680180609696396e-06   -3.8147025595262765e-06
-5.3330265675489176e-05   7.680180609696396e-06   -3.8147025595262765e-06
-5.3330265675489176e-05   7.680180609696396e-06   -3.8147025595262765e-06
-4.484701709718609e-05   9.137091429054422e-06   -1.882759668164638e-05
-4.484701709718609e-05   9.137091429054422e-06   -1.882759668164638e-05
-4.484701709718609e-05   9.137091429054422e-06   -1.882759668164638e-05
-4.484701709718609e-05   9.137091429054422e-06   -1.882759668164638e-05
-5.333026567548918e-05   1.122265816619804e-05   -2.9574152205818626e-05
-5.333026567548918e-05   1.122265816619804e-05   -2.9574152205818626e-05
-5.333026567548918e-05   1.122265816619804e-05   -2.9574152205818626e-05
-5.333026567548918e-05   1.122265816619804e-05   -2.9574152205818626e-05
-3.7874595887713844e-05   7.680180609696179e-06   -5.940189093427156e-06
-3.7874595887713844e-05   7.680180609696179e-06   -5.940189093427156e-06
-3.7874595887713844e-05   7.680180609696179e-06   -5.940189093427156e-06
-3.7874595887713844e-05   7.680180609696179e-06   -5.940189093427156e-06
-3.7758536298210254e-05   1.2002940581801028e-05   -2.525688559207415e-05
-3.7758536298210254e-05   1.2002940581801028e-05   -2.525688559207415e-05
-3.7758536298210254e-05   1.2002940581801028e-05   -2.525688559207415e-05
-3.7758536298210254e-05   1.2002940581801028e-05   -2.525688559207415e-05
-5.168544764637668e-05   8.555894970977036e-06   2.2860688030741302e-08
-5.168544764637668e-05   8.555894970977036e-06   2.2860688030741302e-08
-5.168544764637668e-05   8.555894970977036e-06   2.2860688030741302e-08
-5.168544764637668e-05   8.555894970977036e-06   2.2860688030741302e-08
-4.352059672509229e-05   9.588843047238075e-06   -1.4204993026533047e-05
-4.352059672509229e-05   9.588843047238075e-06   -1.4204993026533047e-05
-4.352059672509229e-05   9.588843047238075e-06   -1.4204993026533047e-05
-4.352059672509229e-05   9.588843047238075e-06   -1.4204993026533047e-05
-3.830313731954441e-05   4.2983445887425035e-06   -5.4508311568961265e-05
-3.830313731954441e-05   4.2983445887425035e-06   -5.4508311568961265e-05
-3.830313731954441e-05   4.2983445887425035e-06   -5.4508311568961265e-05
-3.830313731954441e-05   4.2983445887425035e-06   -5.4508311568961265e-05
-2.2022801603873015e-05   2.8354753369068484e-06   -2.8252140260610296e-05
-2.2022801603873015e-05   2.8354753369068484e-06   -2.8252140260610296e-05
-2.2022801603873015e-05   2.8354753369068484e-06   -2.8252140260610296e-05
-2.2022801603873015e-05   2.8354753369068484e-06   -2.8252140260610296e-05
-2.2033408865109938e-05   6.0750543439148106e-06   -5.404096734761086e-05
-2.2033408865109938e-05   6.0750543439148106e-06   -5.404096734761086e-05
-2.2033408865109938e-05   6.0750543439148106e-06   -5.404096734761086e-05
-2.2033408865109938e-05   6.0750543439148106e-06   -5.404096734761086e-05
-3.816389699205577e-05   4.414698785861534e-06   -2.616060713453558e-05
-3.816389699205577e-05   4.414698785861534e-06   -2.616060713453558e-05
-3.816389699205577e-05   4.414698785861534e-06   -2.616060713453558e-05
-3.816389699205577e-05   4.414698785861534e-06   -2.616060713453558e-05
-2.9853090376901394e-05   4.700645441271236e-06   -4.01835194863723e-05
-2.9853090376901394e-05   4.700645441271236e-06   -4.01835194863723e-05
-2.9853090376901394e-05   4.700645441271236e-06   -4.01835194863723e-05
-2.9853090376901394e-05   4.700645441271236e-06   -4.01835194863723e-05
-3.816389699205574e-05   6.075054343914897e-06   -5.304475401277857e-05
-3.816389699205574e-05   6.075054343914897e-06   -5.304475401277857e-05
-3.816389699205574e-05   6.075054343914897e-06   -5.304475401277857e-05
-3.816389699205574e-05   6.075054343914897e-06   -5.304475401277857e-05
-2.203340886510987e-05   4.414698785861317e-06   -2.7156820469367626e-05
-2.203340886510987e-05   4.414698785861317e-06   -2.7156820469367626e-05
-2.203340886510987e-05   4.414698785861317e-06   -2.7156820469367626e-05
-2.203340886510987e-05   4.414698785861317e-06   -2.7156820469367626e-05
-2.2016961130292447e-05   7.653198731105509e-06   -5.2829636667082775e-05
-2.2016961130292447e-05   7.653198731105509e-06   -5.2829636667082775e-05
-2.2016961130292447e-05   7.653198731105509e-06   -5.2829636667082775e-05
-2.2016961130292447e-05   7.653198731105509e-06   -5.2829636667082775e-05
-3.7874595887713776e-05   5.8513956743397235e-06   -2.531916357065441e-05
-3.7874595887713776e-05   5.8513956743397235e-06   -2.531916357065441e-05
-3.7874595887713776e-05   5.8513956743397235e-06   -2.531916357065441e-05
-3.7874595887713776e-05   5.8513956743397235e-06   -2.531916357065441e-05
-2.971382766061526e-05   5.997275990704564e-06   -3.9007972138970534e-05
-2.971382766061526e-05   5.997275990704564e-06   -3.9007972138970534e-05
-2.971382766061526e-05   5.997275990704564e-06   -3.9007972138970534e-05
-2.971382766061526e-05   5.997275990704564e-06   -3.9007972138970534e-05
-3.787459588771376e-05   7.653198731105458e-06   -5.174855483302328e-05
-3.787459588771376e-05   7.653198731105458e-06   -5.174855483302328e-05
-3.787459588771376e-05   7.653198731105458e-06   -5.174855483302328e-05
-3.787459588771376e-05   7.653198731105458e-06   -5.174855483302328e-05
-2.2016961130292447e-05   5.8513956743397235e-06   -2.6400245404713713e-05
-2.2016961130292447e-05   5.8513956743397235e-06   -2.6400245404713713e-05
-2.2016961130292447e-05   5.8513956743397235e-06   -2.6400245404713713e-05
-2.2016961130292447e-05   5.8513956743397235e-06   -2.6400245404713713e-05
-2.20343424210695e-05   9.331618266986445e-06   -5.3042474955096626e-05
-2.20343424210695e-05   9.331618266986445e-06   -5.3042474955096626e-05
-2.20343424210695e-05   9.331618266986445e-06   -5.3042474955096626e-05
-2.20343424210695e-05   9.331618266986445e-06   -5.3042474955096626e-05
-3.775853629821022e-05   7.41165954298937e-06   -2.5683509925463594e-05
-3.775853629821022e-05   7.41165954298937e-06   -2.5683509925463594e-05
-3.775853629821022e-05   7.41165954298937e-06   -2.5683509925463594e-05
-3.775853629821022e-05   7.41165954298937e-06   -2.5683509925463594e-05
-2.9906074303230338e-05   7.2797115885369105e-06   -3.8691777811091996e-05
-2.9906074303230338e-05   7.2797115885369105e-06   -3.8691777811091996e-05
-2.9906074303230338e-05   7.2797115885369105e-06   -3.8691777811091996e-05
-2.9906074303230338e-05   7.2797115885369105e-06   -3.8691777811091996e-05
-2.2022801603873042e-05   2.286439395308603e-07   -6.015510216282052e-05
-2.2022801603873042e-05   2.286439395308603e-07   -6.015510216282052e-05
-2.2022801603873042e-05   2.286439395308603e-07   -6.015510216282052e-05
-2.2022801603873042e-05   2.286439395308603e-07   -6.015510216282052e-05
-5.970072376460146e-06   4.872264107646726e-07   -3.324540396772548e-05
-5.970072376460146e-06   4.872264107646726e-07   -3.324540396772548e-05
-5.970072376460146e-06   4.872264107646726e-07   -3.324540396772548e-05
-5.970072376460146e-06   4.872264107646726e-07   -3.324540396772548e-05
-5.981253995780207e-06   1.977270680687945e-06   -5.949187911849312e-05
-5.981253995780207e-06   1.977270680687945e-06   -5.949187911849312e-05
-5.981253995780207e-06   1.977270680687945e-06   -5.949187911849312e-05
-5.981253995780207e-06   1.977270680687945e-06   -5.949187911849312e-05
-2.203340886510987e-05   2.074715023738698e-06   -3.2796754275440584e-05
-2.203340886510987e-05   2.074715023738698e-06   -3.2796754275440584e-05
-2.203340886510987e-05   2.074715023738698e-06   -3.2796754275440584e-05
-2.203340886510987e-05   2.074715023738698e-06   -3.2796754275440584e-05
-1.3908937884587259e-05   1.3970600824951725e-06   -4.5930946278232336e-05
-1.3908937884587259e-05   1.3970600824951725e-06   -4.5930946278232336e-05
-1.3908937884587259e-05   1.3970600824951725e-06   -4.5930946278232336e-05
-1.3908937884587259e-05   1.3970600824951725e-06   -4.5930946278232336e-05
-2.2033408865109898e-05   1.9772706806879077e-06   -5.9550345724323475e-05
-2.2033408865109898e-05   1.9772706806879077e-06   -5.9550345724323475e-05
-2.2033408865109898e-05   1.9772706806879077e-06   -5.9550345724323475e-05
-2.2033408865109898e-05   1.9772706806879077e-06   -5.9550345724323475e-05
-5.981253995780207e-06   2.0747150237384812e-06   -3.2738287669610284e-05
-5.981253995780207e-06   2.0747150237384812e-06   -3.2738287669610284e-05
-5.981253995780207e-06   2.0747150237384812e-06   -3.2738287669610284e-05
-5.981253995780207e-06   2.0747150237384812e-06   -3.2738287669610284e-05
-5.9600049599116704e-06   3.7206568782457245e-06   -5.964361955096984e-05
-5.9600049599116704e-06   3.7206568782457245e-06   -5.964361955096984e-05
-5.9600049599116704e-06   3.7206568782457245e-06   -5.964361955096984e-05
-5.9600049599116704e-06   3.7206568782457245e-06   -5.964361955096984e-05
-2.2016961130292447e-05   3.6672738348592516e-06   -3.2849996107636666e-05
-2.2016961130292447e-05   3.6672738348592516e-06   -3.2849996107636666e-05
-2.2016961130292447e-05   3.6672738348592516e-06   -3.2849996107636666e-05
-2.2016961130292447e-05   3.6672738348592516e-06   -3.2849996107636666e-05
-1.4001877916294743e-05   2.7855994899946956e-06   -4.5679463524047434e-05
-1.4001877916294743e-05   2.7855994899946956e-06   -4.5679463524047434e-05
-1.4001877916294743e-05   2.7855994899946956e-06   -4.5679463524047434e-05
-1.4001877916294743e-05   2.7855994899946956e-06   -4.5679463524047434e-05
-2.2016961130292447e-05   3.7206568782457237e-06   -5.9611589724937986e-05
-2.2016961130292447e-05   3.7206568782457237e-06   -5.9611589724937986e-05
-2.2016961130292447e-05   3.7206568782457237e-06   -5.9611589724937986e-05
-2.2016961130292447e-05   3.7206568782457237e-06   -5.9611589724937986e-05
-5.9600049599116704e-06   3.6672738348592516e-06   -3.288202593366838e-05
-5.9600049599116704e-06   3.6672738348592516e-06   -3.288202593366838e-05
-5.9600049599116704e-06   3.6672738348592516e-06   -3.288202593366838e-05
-5.9600049599116704e-06   3.6672738348592516e-06   -3.288202593366838e-05
-5.969300476006888e-06   5.504602647820353e-06   -6.054575388632171e-05
-5.969300476006888e-06   5.504602647820353e-06   -6.054575388632171e-05
-5.969300476006888e-06   5.504602647820353e-06   -6.054575388632171e-05
-5.969300476006888e-06   5.504602647820353e-06   -6.054575388632171e-05
-2.203434242106951e-05   5.28767712604781e-06   -3.36405286648204e-05
-2.203434242106951e-05   5.28767712604781e-06   -3.36405286648204e-05
-2.203434242106951e-05   5.28767712604781e-06   -3.36405286648204e-05
-2.203434242106951e-05   5.28767712604781e-06   -3.36405286648204e-05
-1.4122087120080293e-05   4.192371620020648e-06   -4.617043752951947e-05
-1.4122087120080293e-05   4.192371620020648e-06   -4.617043752951947e-05
-1.4122087120080293e-05   4.192371620020648e-06   -4.617043752951947e-05
-1.4122087120080293e-05   4.192371620020648e-06   -4.617043752951947e-05
-5.970072376460136e-06   -3.5992325336583512e-06   -5.3269425152119776e-05
-5.970072376460136e-06   -3.5992325336583512e-06   -5.3269425152119776e-05
-5.970072376460136e-06   -3.5992325336583512e-06   -5.3269425152119776e-05
-5.970072376460136e-06   -3.5992325336583512e-06   -5.3269425152119776e-05
9.85112383727237e-06   -1.6606173492096296e-06   -2.5737595685229836e-05
9.85112383727237e-06   -1.6606173492096296e-06   -2.5737595685229836e-05
9.85112383727237e-06   -1.6606173492096296e-06   -2.5737595685229836e-05
9.85112383727237e-06   -1.6606173492096296e-06   -2.5737595685229836e-05
9.980377862207164e-06   -1.9967860781667374e-06   -5.206005113115068e-05
9.980377862207164e-06   -1.9967860781667374e-06   -5.206005113115068e-05
9.980377862207164e-06   -1.9967860781667374e-06   -5.206005113115068e-05
9.980377862207164e-06   -1.9967860781667374e-06   -5.206005113115068e-05
-5.981253995780196e-06   -1.6567127839994117e-07   -2.6556000247698564e-05
-5.981253995780196e-06   -1.6567127839994117e-07   -2.6556000247698564e-05
-5.981253995780196e-06   -1.6567127839994117e-07   -2.6556000247698564e-05
-5.981253995780196e-06   -1.6567127839994117e-07   -2.6556000247698564e-05
1.979032131969399e-06   -1.7176403692601523e-06   -3.889196233943171e-05
1.979032131969399e-06   -1.7176403692601523e-06   -3.889196233943171e-05
1.979032131969399e-06   -1.7176403692601523e-06   -3.889196233943171e-05
1.979032131969399e-06   -1.7176403692601523e-06   -3.889196233943171e-05
-5.981253995780207e-06   -1.996786078166774e-06   -5.315872001101092e-05
-5.981253995780207e-06   -1.996786078166774e-06   -5.315872001101092e-05
-5.981253995780207e-06   -1.996786078166774e-06   -5.315872001101092e-05
-5.981253995780207e-06   -1.996786078166774e-06   -5.315872001101092e-05
9.980377862207164e-06   -1.6567127839972433e-07   -2.545733136783844e-05
9.980377862207164e-06   -1.6567127839972433e-07   -2.545733136783844e-05
9.980377862207164e-06   -1.6567127839972433e-07   -2.545733136783844e-05
9.980377862207164e-06   -1.6567127839972433e-07   -2.545733136783844e-05
1.0284494095121884e-05   -4.21844548806013e-07   -5.3156445634809006e-05
1.0284494095121884e-05   -4.21844548806013e-07   -5.3156445634809006e-05
1.0284494095121884e-05   -4.21844548806013e-07   -5.3156445634809006e-05
1.0284494095121884e-05   -4.21844548806013e-07   -5.3156445634809006e-05
-5.96000495991166e-06   1.2728059860089153e-06   -2.7099070863975325e-05
-5.96000495991166e-06   1.2728059860089153e-06   -2.7099070863975325e-05
-5.96000495991166e-06   1.2728059860089153e-06   -2.7099070863975325e-05
-5.96000495991166e-06   1.2728059860089153e-06   -2.7099070863975325e-05
1.8876163922237938e-06   -4.7407650707637257e-07   -3.913031028835e-05
1.8876163922237938e-06   -4.7407650707637257e-07   -3.913031028835e-05
1.8876163922237938e-06   -4.7407650707637257e-07   -3.913031028835e-05
1.8876163922237938e-06   -4.7407650707637257e-07   -3.913031028835e-05
-5.9600049599116704e-06   -4.2184454880599214e-07   -5.417323595569793e-05
-5.9600049599116704e-06   -4.2184454880599214e-07   -5.417323595569793e-05
-5.9600049599116704e-06   -4.2184454880599214e-07   -5.417323595569793e-05
-5.9600049599116704e-06   -4.2184454880599214e-07   -5.417323595569793e-05
1.0284494095121898e-05   1.2728059860089153e-06   -2.6082280543086346e-05
1.0284494095121898e-05   1.2728059860089153e-06   -2.6082280543086346e-05
1.0284494095121898e-05   1.2728059860089153e-06   -2.6082280543086346e-05
1.0284494095121898e-05   1.2728059860089153e-06   -2.6082280543086346e-05
1.04332031933329e-05   1.4199676658288758e-06   -5.4723645110190755e-05
1.04332031933329e-05   1.4199676658288758e-06   -5.4723645110190755e-05
1.04332031933329e-05   1.4199676658288758e-06   -5.4723645110190755e-05
1.04332031933329e-05   1.4199676658288758e-06   -5.4723645110190755e-05
-5.969300476006888e-06   2.921823141110308e-06   -2.8287252279793134e-05
-5.969300476006888e-06   2.921823141110308e-06   -2.8287252279793134e-05
-5.969300476006888e-06   2.921823141110308e-06   -2.8287252279793134e-05
-5.969300476006888e-06   2.921823141110308e-06   -2.8287252279793134e-05
1.9428263684870526e-06   8.564226748328848e-07   -4.02348900741833e-05
1.9428263684870526e-06   8.564226748328848e-07   -4.02348900741833e-05
1.9428263684870526e-06   8.564226748328848e-07   -4.02348900741833e-05
1.9428263684870526e-06   8.564226748328848e-07   -4.02348900741833e-05
9.851123837272357e-06   -6.530256369498896e-06   -2.9272168961599323e-05
9.851123837272357e-06   -6.530256369498896e-06   -2.9272168961599323e-05
9.851123837272357e-06   -6.530256369498896e-06   -2.9272168961599323e-05
9.851123837272357e-06   -6.530256369498896e-06   -2.9272168961599323e-05
2.3910227616117963e-05   -3.0532681911707004e-06   -3.7541364231930734e-06
2.3910227616117963e-05   -3.0532681911707004e-06   -3.7541364231930734e-06
2.3910227616117963e-05   -3.0532681911707004e-06   -3.7541364231930734e-06
2.3910227616117963e-05   -3.0532681911707004e-06   -3.7541364231930734e-06
2.557738673920364e-05   -5.607435104726583e-06   -3.074376934051671e-05
2.557738673920364e-05   -5.607435104726583e-06   -3.074376934051671e-05
2.557738673920364e-05   -5.607435104726583e-06   -3.074376934051671e-05
2.557738673920364e-05   -5.607435104726583e-06   -3.074376934051671e-05
9.980377862207169e-06   -2.0411102121052193e-06   -6.888549481095342e-06
9.980377862207169e-06   -2.0411102121052193e-06   -6.888549481095342e-06
9.980377862207169e-06   -2.0411102121052193e-06   -6.888549481095342e-06
9.980377862207169e-06   -2.0411102121052193e-06   -6.888549481095342e-06
1.6590854609896904e-05   -4.174621946373977e-06   -1.6625903686683628e-05
1.6590854609896904e-05   -4.174621946373977e-06   -1.6625903686683628e-05
1.6590854609896904e-05   -4.174621946373977e-06   -1.6625903686683628e-05
1.6590854609896904e-05   -4.174621946373977e-06   -1.6625903686683628e-05
9.980377862207164e-06   -5.607435104726538e-06   -3.288356427608922e-05
9.980377862207164e-06   -5.607435104726538e-06   -3.288356427608922e-05
9.980377862207164e-06   -5.607435104726538e-06   -3.288356427608922e-05
9.980377862207164e-06   -5.607435104726538e-06   -3.288356427608922e-05
2.5577386739203585e-05   -2.0411102121052193e-06   -4.748754545522583e-06
2.5577386739203585e-05   -2.0411102121052193e-06   -4.748754545522583e-06
2.5577386739203585e-05   -2.0411102121052193e-06   -4.748754545522583e-06
2.5577386739203585e-05   -2.0411102121052193e-06   -4.748754545522583e-06
2.686032252882767e-05   -4.815307436056133e-06   -3.3715775229086733e-05
2.686032252882767e-05   -4.815307436056133e-06   -3.3715775229086733e-05
2.686032252882767e-05   -4.815307436056133e-06   -3.3715775229086733e-05
2.686032252882767e-05   -4.815307436056133e-06   -3.3715775229086733e-05
1.0284494095121898e-05   -1.3419909062543749e-06   -8.173384424124848e-06
1.0284494095121898e-05   -1.3419909062543749e-06   -8.173384424124848e-06
1.0284494095121898e-05   -1.3419909062543749e-06   -8.173384424124848e-06
1.0284494095121898e-05   -1.3419909062543749e-06   -8.173384424124848e-06
1.7610404627904258e-05   -3.6550315989638746e-06   -1.8995410896469685e-05
1.7610404627904258e-05   -3.6550315989638746e-06   -1.8995410896469685e-05
1.7610404627904258e-05   -3.6550315989638746e-06   -1.8995410896469685e-05
1.7610404627904258e-05   -3.6550315989638746e-06   -1.8995410896469685e-05
1.0284494095121884e-05   -4.815307436056132e-06   -3.5799765146967745e-05
1.0284494095121884e-05   -4.815307436056132e-06   -3.5799765146967745e-05
1.0284494095121884e-05   -4.815307436056132e-06   -3.5799765146967745e-05
1.0284494095121884e-05   -4.815307436056132e-06   -3.5799765146967745e-05
2.6860322528827617e-05   -1.3419909062545917e-06   -6.089394506243566e-06
2.6860322528827617e-05   -1.3419909062545917e-06   -6.089394506243566e-06
2.6860322528827617e-05   -1.3419909062545917e-06   -6.089394506243566e-06
2.6860322528827617e-05   -1.3419909062545917e-06   -6.089394506243566e-06
2.8564846029192198e-05   -3.122661832287801e-06   -3.9413979275388776e-05
2.8564846029192198e-05   -3.122661832287801e-06   -3.9413979275388776e-05
2.8564846029192198e-05   -3.122661832287801e-06   -3.9413979275388776e-05
2.8564846029192198e-05   -3.122661832287801e-06   -3.9413979275388776e-05
1.043320319333293e-05   3.3051197832192555e-08   -1.1088002367028312e-05
1.043320319333293e-05   3.3051197832192555e-08   -1.1088002367028312e-05
1.043320319333293e-05   3.3051197832192555e-08   -1.1088002367028312e-05
1.043320319333293e-05   3.3051197832192555e-08   -1.1088002367028312e-05
1.794876457260026e-05   -2.881092270198035e-06   -2.1865451918322732e-05
1.794876457260026e-05   -2.881092270198035e-06   -2.1865451918322732e-05
1.794876457260026e-05   -2.881092270198035e-06   -2.1865451918322732e-05
1.794876457260026e-05   -2.881092270198035e-06   -2.1865451918322732e-05
-3.408053810813712e-05   5.487372105998647e-06   -3.192577584883161e-05
-3.408053810813712e-05   5.487372105998647e-06   -3.192577584883161e-05
-3.408053810813712e-05   5.487372105998647e-06   -3.192577584883161e-05
-3.408053810813712e-05   5.487372105998647e-06   -3.192577584883161e-05
-2.5154239429706987e-05   2.237426853991158e-06   -1.8998578535985852e-05
-2.5154239429706987e-05   2.237426853991158e-06   -1.8998578535985852e-05
-2.5154239429706987e-05   2.237426853991158e-06   -1.8998578535985852e-05
-2.5154239429706987e-05   2.237426853991158e-06   -1.8998578535985852e-05
-2.4783711325774172e-05   6.983422728755982e-06   -2.8164239341214826e-05
-2.4783711325774172e-05   6.983422728755982e-06   -2.8164239341214826e-05
-2.4783711325774172e-05   6.983422728755982e-06   -2.8164239341214826e-05
-2.4783711325774172e-05   6.983422728755982e-06   -2.8164239341214826e-05
-3.222994766273186e-05   3.4826575195285887e-06   -1.3653386320748584e-05
-3.222994766273186e-05   3.4826575195285887e-06   -1.3653386320748584e-05
-3.222994766273186e-05   3.4826575195285887e-06   -1.3653386320748584e-05
-3.222994766273186e-05   3.4826575195285887e-06   -1.3653386320748584e-05
-2.78307814113436e-05   4.921835324801262e-06   -2.1848836756227226e-05
-2.78307814113436e-05   4.921835324801262e-06   -2.1848836756227226e-05
-2.78307814113436e-05   4.921835324801262e-06   -2.1848836756227226e-05
-2.78307814113436e-05   4.921835324801262e-06   -2.1848836756227226e-05
-3.222994766273186e-05   6.9834227287560694e-06   -2.6063780215678412e-05
-3.222994766273186e-05   6.9834227287560694e-06   -2.6063780215678412e-05
-3.222994766273186e-05   6.9834227287560694e-06   -2.6063780215678412e-05
-3.222994766273186e-05   6.9834227287560694e-06   -2.6063780215678412e-05
-2.4783711325774226e-05   3.482657519528372e-06   -1.5753845446285324e-05
-2.4783711325774226e-05   3.482657519528372e-06   -1.5753845446285324e-05
-2.4783711325774226e-05   3.482657519528372e-06   -1.5753845446285324e-05
-2.4783711325774226e-05   3.482657519528372e-06   -1.5753845446285324e-05
-2.425505284029268e-05   7.680180609696179e-06   -2.514937508837239e-05
-2.425505284029268e-05   7.680180609696179e-06   -2.514937508837239e-05
-2.425505284029268e-05   7.680180609696179e-06   -2.514937508837239e-05
-2.425505284029268e-05   7.680180609696179e-06   -2.514937508837239e-05
-3.075329840361558e-05   4.111507952966583e-06   -1.2177762222129532e-05
-3.075329840361558e-05   4.111507952966583e-06   -1.2177762222129532e-05
-3.075329840361558e-05   4.111507952966583e-06   -1.2177762222129532e-05
-3.075329840361558e-05   4.111507952966583e-06   -1.2177762222129532e-05
-2.7342436014925855e-05   5.59362750701892e-06   -1.8751804602377248e-05
-2.7342436014925855e-05   5.59362750701892e-06   -1.8751804602377248e-05
-2.7342436014925855e-05   5.59362750701892e-06   -1.8751804602377248e-05
-2.7342436014925855e-05   5.59362750701892e-06   -1.8751804602377248e-05
-3.075329840361552e-05   7.680180609696262e-06   -2.30081714943345e-05
-3.075329840361552e-05   7.680180609696262e-06   -2.30081714943345e-05
-3.075329840361552e-05   7.680180609696262e-06   -2.30081714943345e-05
-3.075329840361552e-05   7.680180609696262e-06   -2.30081714943345e-05
-2.4255052840292733e-05   4.111507952966583e-06   -1.4318965816167338e-05
-2.4255052840292733e-05   4.111507952966583e-06   -1.4318965816167338e-05
-2.4255052840292733e-05   4.111507952966583e-06   -1.4318965816167338e-05
-2.4255052840292733e-05   4.111507952966583e-06   -1.4318965816167338e-05
-2.389443625441367e-05   8.555894970977253e-06   -2.1281055544543088e-05
-2.389443625441367e-05   8.555894970977253e-06   -2.1281055544543088e-05
-2.389443625441367e-05   8.555894970977253e-06   -2.1281055544543088e-05
-2.389443625441367e-05   8.555894970977253e-06   -2.1281055544543088e-05
-2.887287560091565e-05   5.107486783713236e-06   -1.091461172134827e-05
-2.887287560091565e-05   5.107486783713236e-06   -1.091461172134827e-05
-2.887287560091565e-05   5.107486783713236e-06   -1.091461172134827e-05
-2.887287560091565e-05   5.107486783713236e-06   -1.091461172134827e-05
-2.606444228706175e-05   6.058898187515874e-06   -1.6166180753386292e-05
-2.606444228706175e-05   6.058898187515874e-06   -1.6166180753386292e-05
-2.606444228706175e-05   6.058898187515874e-06   -1.6166180753386292e-05
-2.606444228706175e-05   6.058898187515874e-06   -1.6166180753386292e-05
-2.5154239429706987e-05   2.8354753369069424e-06   -4.651813779279991e-05
-2.5154239429706987e-05   2.8354753369069424e-06   -4.651813779279991e-05
-2.5154239429706987e-05   2.8354753369069424e-06   -4.651813779279991e-05
-2.5154239429706987e-05   2.8354753369069424e-06   -4.651813779279991e-05
-1.7902711326151077e-05   1.2829117416650413e-06   -3.536379577735195e-05
-1.7902711326151077e-05   1.2829117416650413e-06   -3.536379577735195e-05
-1.7902711326151077e-05   1.2829117416650413e-06   -3.536379577735195e-05
-1.7902711326151077e-05   1.2829117416650413e-06   -3.536379577735195e-05
-1.765972286579179e-05   4.414698785861534e-06   -4.63660431719744e-05
-1.765972286579179e-05   4.414698785861534e-06   -4.63660431719744e-05
-1.765972286579179e-05   4.414698785861534e-06   -4.63660431719744e-05
-1.765972286579179e-05   4.414698785861534e-06   -4.63660431719744e-05
-2.4783711325774257e-05   2.7105969700302185e-06   -3.347026798250469e-05
-2.4783711325774257e-05   2.7105969700302185e-06   -3.347026798250469e-05
-2.4783711325774257e-05   2.7105969700302185e-06   -3.347026798250469e-05
-2.4783711325774257e-05   2.7105969700302185e-06   -3.347026798250469e-05
-2.1166722226686347e-05   3.084446686896008e-06   -3.972289297777171e-05
-2.1166722226686347e-05   3.084446686896008e-06   -3.972289297777171e-05
-2.1166722226686347e-05   3.084446686896008e-06   -3.972289297777171e-05
-2.1166722226686347e-05   3.084446686896008e-06   -3.972289297777171e-05
-2.4783711325774172e-05   4.414698785861579e-06   -4.5343582082475525e-05
-2.4783711325774172e-05   4.414698785861579e-06   -4.5343582082475525e-05
-2.4783711325774172e-05   4.414698785861579e-06   -4.5343582082475525e-05
-2.4783711325774172e-05   4.414698785861579e-06   -4.5343582082475525e-05
-1.7659722865791816e-05   2.7105969700304353e-06   -3.449272907200357e-05
-1.7659722865791816e-05   2.7105969700304353e-06   -3.449272907200357e-05
-1.7659722865791816e-05   2.7105969700304353e-06   -3.449272907200357e-05
-1.7659722865791816e-05   2.7105969700304353e-06   -3.449272907200357e-05
-1.7391416264970772e-05   5.8513956743397235e-06   -4.561646758740939e-05
-1.7391416264970772e-05   5.8513956743397235e-06   -4.561646758740939e-05
-1.7391416264970772e-05   5.8513956743397235e-06   -4.561646758740939e-05
-1.7391416264970772e-05   5.8513956743397235e-06   -4.561646758740939e-05
-2.4255052840292733e-05   4.037865637990029e-06   -3.3088955273395996e-05
-2.4255052840292733e-05   4.037865637990029e-06   -3.3088955273395996e-05
-2.4255052840292733e-05   4.037865637990029e-06   -3.3088955273395996e-05
-2.4255052840292733e-05   4.037865637990029e-06   -3.3088955273395996e-05
-2.0847389079575923e-05   4.238490654332426e-06   -3.888876988439576e-05
-2.0847389079575923e-05   4.238490654332426e-06   -3.888876988439576e-05
-2.0847389079575923e-05   4.238490654332426e-06   -3.888876988439576e-05
-2.0847389079575923e-05   4.238490654332426e-06   -3.888876988439576e-05
-2.425505284029268e-05   5.851395674339774e-06   -4.45283495655994e-05
-2.425505284029268e-05   5.851395674339774e-06   -4.45283495655994e-05
-2.425505284029268e-05   5.851395674339774e-06   -4.45283495655994e-05
-2.425505284029268e-05   5.851395674339774e-06   -4.45283495655994e-05
-1.7391416264970745e-05   4.037865637990029e-06   -3.417707329520577e-05
-1.7391416264970745e-05   4.037865637990029e-06   -3.417707329520577e-05
-1.7391416264970745e-05   4.037865637990029e-06   -3.417707329520577e-05
-1.7391416264970745e-05   4.037865637990029e-06   -3.417707329520577e-05
-1.7152658525639036e-05   7.411659542989153e-06   -4.6058730326992646e-05
-1.7152658525639036e-05   7.411659542989153e-06   -4.6058730326992646e-05
-1.7152658525639036e-05   7.411659542989153e-06   -4.6058730326992646e-05
-1.7152658525639036e-05   7.411659542989153e-06   -4.6058730326992646e-05
-2.389443625441372e-05   5.512440317240186e-06   -3.368290257691869e-05
-2.389443625441372e-05   5.512440317240186e-06   -3.368290257691869e-05
-2.389443625441372e-05   5.512440317240186e-06   -3.368290257691869e-05
-2.389443625441372e-05   5.512440317240186e-06   -3.368290257691869e-05
-2.0722181271944862e-05   5.407114721333803e-06   -3.8906798856823096e-05
-2.0722181271944862e-05   5.407114721333803e-06   -3.8906798856823096e-05
-2.0722181271944862e-05   5.407114721333803e-06   -3.8906798856823096e-05
-2.0722181271944862e-05   5.407114721333803e-06   -3.8906798856823096e-05
-1.7902711326151023e-05   4.872264107647074e-07   -5.259808913980041e-05
-1.7902711326151023e-05   4.872264107647074e-07   -5.259808913980041e-05
-1.7902711326151023e-05   4.872264107647074e-07   -5.259808913980041e-05
-1.7902711326151023e-05   4.872264107647074e-07   -5.259808913980041e-05
-1.0837465119494614e-05   7.341805351632723e-07   -4.067450632073391e-05
-1.0837465119494614e-05   7.341805351632723e-07   -4.067450632073391e-05
-1.0837465119494614e-05   7.341805351632723e-07   -4.067450632073391e-05
-1.0837465119494614e-05   7.341805351632723e-07   -4.067450632073391e-05
-1.0600565094993834e-05   2.0747150237384812e-06   -5.193799489907518e-05
-1.0600565094993834e-05   2.0747150237384812e-06   -5.193799489907518e-05
-1.0600565094993834e-05   2.0747150237384812e-06   -5.193799489907518e-05
-1.0600565094993834e-05   2.0747150237384812e-06   -5.193799489907518e-05
-1.765972286579178e-05   2.1880184886925377e-06   -4.0240714026717155e-05
-1.765972286579178e-05   2.1880184886925377e-06   -4.0240714026717155e-05
-1.765972286579178e-05   2.1880184886925377e-06   -4.0240714026717155e-05
-1.765972286579178e-05   2.1880184886925377e-06   -4.0240714026717155e-05
-1.4158835474374703e-05   1.5732638728614343e-06   -4.570667357624796e-05
-1.4158835474374703e-05   1.5732638728614343e-06   -4.570667357624796e-05
-1.4158835474374703e-05   1.5732638728614343e-06   -4.570667357624796e-05
-1.4158835474374703e-05   1.5732638728614343e-06   -4.570667357624796e-05
-1.7659722865791735e-05   2.0747150237385774e-06   -5.200597697804733e-05
-1.7659722865791735e-05   2.0747150237385774e-06   -5.200597697804733e-05
-1.7659722865791735e-05   2.0747150237385774e-06   -5.200597697804733e-05
-1.7659722865791735e-05   2.0747150237385774e-06   -5.200597697804733e-05
-1.0600565094993816e-05   2.1880184886925377e-06   -4.017273194774492e-05
-1.0600565094993816e-05   2.1880184886925377e-06   -4.017273194774492e-05
-1.0600565094993816e-05   2.1880184886925377e-06   -4.017273194774492e-05
-1.0600565094993816e-05   2.1880184886925377e-06   -4.017273194774492e-05
-1.0334191190342722e-05   3.6672738348592516e-06   -5.2073819106834905e-05
-1.0334191190342722e-05   3.6672738348592516e-06   -5.2073819106834905e-05
-1.0334191190342722e-05   3.6672738348592516e-06   -5.2073819106834905e-05
-1.0334191190342722e-05   3.6672738348592516e-06   -5.2073819106834905e-05
-1.7391416264970735e-05   3.6546058073546554e-06   -4.0304176499285116e-05
-1.7391416264970735e-05   3.6546058073546554e-06   -4.0304176499285116e-05
-1.7391416264970735e-05   3.6546058073546554e-06   -4.0304176499285116e-05
-1.7391416264970735e-05   3.6546058073546554e-06   -4.0304176499285116e-05
-1.3999727381325655e-05   2.8221547476938065e-06   -4.545752066956391e-05
-1.3999727381325655e-05   2.8221547476938065e-06   -4.545752066956391e-05
-1.3999727381325655e-05   2.8221547476938065e-06   -4.545752066956391e-05
-1.3999727381325655e-05   2.8221547476938065e-06   -4.545752066956391e-05
-1.739141626497069e-05   3.667273834859363e-06   -5.206621829033202e-05
-1.739141626497069e-05   3.667273834859363e-06   -5.206621829033202e-05
-1.739141626497069e-05   3.667273834859363e-06   -5.206621829033202e-05
-1.739141626497069e-05   3.667273834859363e-06   -5.206621829033202e-05
-1.0334191190342686e-05   3.6546058073546554e-06   -4.031177731578792e-05
-1.0334191190342686e-05   3.6546058073546554e-06   -4.031177731578792e-05
-1.0334191190342686e-05   3.6546058073546554e-06   -4.031177731578792e-05
-1.0334191190342686e-05   3.6546058073546554e-06   -4.031177731578792e-05
-1.0094829468610519e-05   5.287677126048027e-06   -5.295039344578676e-05
-1.0094829468610519e-05   5.287677126048027e-06   -5.295039344578676e-05
-1.0094829468610519e-05   5.287677126048027e-06   -5.295039344578676e-05
-1.0094829468610519e-05   5.287677126048027e-06   -5.295039344578676e-05
-1.715265852563909e-05   5.143311102988627e-06   -4.110072540357011e-05
-1.715265852563909e-05   5.143311102988627e-06   -4.110072540357011e-05
-1.715265852563909e-05   5.143311102988627e-06   -4.110072540357011e-05
-1.715265852563909e-05   5.143311102988627e-06   -4.110072540357011e-05
-1.3868036296380327e-05   4.087644599768368e-06   -4.59416958837359e-05
-1.3868036296380327e-05   4.087644599768368e-06   -4.59416958837359e-05
-1.3868036296380327e-05   4.087644599768368e-06   -4.59416958837359e-05
-1.3868036296380327e-05   4.087644599768368e-06   -4.59416958837359e-05
-1.0837465119494577e-05   -1.6606173492096474e-06   -4.6105277493334795e-05
-1.0837465119494577e-05   -1.6606173492096474e-06   -4.6105277493334795e-05
-1.0837465119494577e-05   -1.6606173492096474e-06   -4.6105277493334795e-05
-1.0837465119494577e-05   -1.6606173492096474e-06   -4.6105277493334795e-05
-3.9836147636594725e-06   3.11884663722721e-07   -3.3498692359183626e-05
-3.9836147636594725e-06   3.11884663722721e-07   -3.3498692359183626e-05
-3.9836147636594725e-06   3.11884663722721e-07   -3.3498692359183626e-05
-3.9836147636594725e-06   3.11884663722721e-07   -3.3498692359183626e-05
-3.6300263683568972e-06   -1.6567127839972433e-07   -4.4624338600750355e-05
-3.6300263683568972e-06   -1.6567127839972433e-07   -4.4624338600750355e-05
-3.6300263683568972e-06   -1.6567127839972433e-07   -4.4624338600750355e-05
-3.6300263683568972e-06   -1.6567127839972433e-07   -4.4624338600750355e-05
-1.0600565094993816e-05   1.719943515622038e-06   -3.413814293276819e-05
-1.0600565094993816e-05   1.719943515622038e-06   -3.413814293276819e-05
-1.0600565094993816e-05   1.719943515622038e-06   -3.413814293276819e-05
-1.0600565094993816e-05   1.719943515622038e-06   -3.413814293276819e-05
-7.189648532702413e-06   1.9847917661665326e-07   -3.891012526651804e-05
-7.189648532702413e-06   1.9847917661665326e-07   -3.891012526651804e-05
-7.189648532702413e-06   1.9847917661665326e-07   -3.891012526651804e-05
-7.189648532702413e-06   1.9847917661665326e-07   -3.891012526651804e-05
-1.0600565094993797e-05   -1.6567127839967112e-07   -4.5755707477163304e-05
-1.0600565094993797e-05   -1.6567127839967112e-07   -4.5755707477163304e-05
-1.0600565094993797e-05   -1.6567127839967112e-07   -4.5755707477163304e-05
-1.0600565094993797e-05   -1.6567127839967112e-07   -4.5755707477163304e-05
-3.6300263683568837e-06   1.7199435156222548e-06   -3.3006774056355175e-05
-3.6300263683568837e-06   1.7199435156222548e-06   -3.3006774056355175e-05
-3.6300263683568837e-06   1.7199435156222548e-06   -3.3006774056355175e-05
-3.6300263683568837e-06   1.7199435156222548e-06   -3.3006774056355175e-05
-3.105653303470124e-06   1.2728059860089153e-06   -4.522631855188961e-05
-3.105653303470124e-06   1.2728059860089153e-06   -4.522631855188961e-05
-3.105653303470124e-06   1.2728059860089153e-06   -4.522631855188961e-05
-3.105653303470124e-06   1.2728059860089153e-06   -4.522631855188961e-05
-1.0334191190342705e-05   3.0470484614290427e-06   -3.42433008923538e-05
-1.0334191190342705e-05   3.0470484614290427e-06   -3.42433008923538e-05
-1.0334191190342705e-05   3.0470484614290427e-06   -3.42433008923538e-05
-1.0334191190342705e-05   3.0470484614290427e-06   -3.42433008923538e-05
-6.975679258155924e-06   1.3351971774326794e-06   -3.8813710008934034e-05
-6.975679258155924e-06   1.3351971774326794e-06   -3.8813710008934034e-05
-6.975679258155924e-06   1.3351971774326794e-06   -3.8813710008934034e-05
-6.975679258155924e-06   1.3351971774326794e-06   -3.8813710008934034e-05
-1.0334191190342686e-05   1.272805986008806e-06   -4.629086403714158e-05
-1.0334191190342686e-05   1.272805986008806e-06   -4.629086403714158e-05
-1.0334191190342686e-05   1.272805986008806e-06   -4.629086403714158e-05
-1.0334191190342686e-05   1.272805986008806e-06   -4.629086403714158e-05
-3.105653303470124e-06   3.0470484614290427e-06   -3.31787554071017e-05
-3.105653303470124e-06   3.0470484614290427e-06   -3.31787554071017e-05
-3.105653303470124e-06   3.0470484614290427e-06   -3.31787554071017e-05
-3.105653303470124e-06   3.0470484614290427e-06   -3.31787554071017e-05
-2.7394341822084854e-06   2.921823141110091e-06   -4.6491296002267686e-05
-2.7394341822084854e-06   2.921823141110091e-06   -4.6491296002267686e-05
-2.7394341822084854e-06   2.921823141110091e-06   -4.6491296002267686e-05
-2.7394341822084854e-06   2.921823141110091e-06   -4.6491296002267686e-05
-1.0094829468610519e-05   4.547932716824276e-06   -3.5207969603692505e-05
-1.0094829468610519e-05   4.547932716824276e-06   -3.5207969603692505e-05
-1.0094829468610519e-05   4.547932716824276e-06   -3.5207969603692505e-05
-1.0094829468610519e-05   4.547932716824276e-06   -3.5207969603692505e-05
-6.751583127346034e-06   2.526872484483623e-06   -3.9567410699728995e-05
-6.751583127346034e-06   2.526872484483623e-06   -3.9567410699728995e-05
-6.751583127346034e-06   2.526872484483623e-06   -3.9567410699728995e-05
-6.751583127346034e-06   2.526872484483623e-06   -3.9567410699728995e-05
-3.983614763659445e-06   -3.0532681911706365e-06   -2.5024509930535632e-05
-3.983614763659445e-06   -3.0532681911706365e-06   -2.5024509930535632e-05
-3.983614763659445e-06   -3.0532681911706365e-06   -2.5024509930535632e-05
-3.983614763659445e-06   -3.0532681911706365e-06   -2.5024509930535632e-05
1.0937314809811988e-06   4.303224211969943e-07   -1.4472111822047247e-05
1.0937314809811988e-06   4.303224211969943e-07   -1.4472111822047247e-05
1.0937314809811988e-06   4.303224211969943e-07   -1.4472111822047247e-05
1.0937314809811988e-06   4.303224211969943e-07   -1.4472111822047247e-05
2.9555204165943006e-06   -2.041110212105436e-06   -2.3905116347977485e-05
2.9555204165943006e-06   -2.041110212105436e-06   -2.3905116347977485e-05
2.9555204165943006e-06   -2.041110212105436e-06   -2.3905116347977485e-05
2.9555204165943006e-06   -2.041110212105436e-06   -2.3905116347977485e-05
-3.630026368356888e-06   1.5429570646109322e-06   -1.5079645405754755e-05
-3.630026368356888e-06   1.5429570646109322e-06   -1.5079645405754755e-05
-3.630026368356888e-06   1.5429570646109322e-06   -1.5079645405754755e-05
-3.630026368356888e-06   1.5429570646109322e-06   -1.5079645405754755e-05
-8.684953027982605e-07   -6.297830793247292e-07   -1.837855309532523e-05
-8.684953027982605e-07   -6.297830793247292e-07   -1.837855309532523e-05
-8.684953027982605e-07   -6.297830793247292e-07   -1.837855309532523e-05
-8.684953027982605e-07   -6.297830793247292e-07   -1.837855309532523e-05
-3.6300263683568837e-06   -2.041110212105203e-06   -2.6055556714007014e-05
-3.6300263683568837e-06   -2.041110212105203e-06   -2.6055556714007014e-05
-3.6300263683568837e-06   -2.041110212105203e-06   -2.6055556714007014e-05
-3.6300263683568837e-06   -2.041110212105203e-06   -2.6055556714007014e-05
2.9555204165943006e-06   1.5429570646107154e-06   -1.2929205039725281e-05
2.9555204165943006e-06   1.5429570646107154e-06   -1.2929205039725281e-05
2.9555204165943006e-06   1.5429570646107154e-06   -1.2929205039725281e-05
2.9555204165943006e-06   1.5429570646107154e-06   -1.2929205039725281e-05
4.425491891628245e-06   -1.3419909062545917e-06   -2.5210916655723776e-05
4.425491891628245e-06   -1.3419909062545917e-06   -2.5210916655723776e-05
4.425491891628245e-06   -1.3419909062545917e-06   -2.5210916655723776e-05
4.425491891628245e-06   -1.3419909062545917e-06   -2.5210916655723776e-05
-3.1056533034701193e-06   2.1688520557524345e-06   -1.4765513774430523e-05
-3.1056533034701193e-06   2.1688520557524345e-06   -1.4765513774430523e-05
-3.1056533034701193e-06   2.1688520557524345e-06   -1.4765513774430523e-05
-3.1056533034701193e-06   2.1688520557524345e-06   -1.4765513774430523e-05
7.71969723771608e-08   -9.730665155929796e-08   -1.87105690097889e-05
7.71969723771608e-08   -9.730665155929796e-08   -1.87105690097889e-05
7.71969723771608e-08   -9.730665155929796e-08   -1.87105690097889e-05
7.71969723771608e-08   -9.730665155929796e-08   -1.87105690097889e-05
-3.105653303470124e-06   -1.3419909062543499e-06   -2.731742243292795e-05
-3.105653303470124e-06   -1.3419909062543499e-06   -2.731742243292795e-05
-3.105653303470124e-06   -1.3419909062543499e-06   -2.731742243292795e-05
-3.105653303470124e-06   -1.3419909062543499e-06   -2.731742243292795e-05
4.425491891628218e-06   2.1688520557524345e-06   -1.2659007997226296e-05
4.425491891628218e-06   2.1688520557524345e-06   -1.2659007997226296e-05
4.425491891628218e-06   2.1688520557524345e-06   -1.2659007997226296e-05
4.425491891628218e-06   2.1688520557524345e-06   -1.2659007997226296e-05
6.27973980553599e-06   3.3051197831975715e-08   -2.824528726493757e-05
6.27973980553599e-06   3.3051197831975715e-08   -2.824528726493757e-05
6.27973980553599e-06   3.3051197831975715e-08   -2.824528726493757e-05
6.27973980553599e-06   3.3051197831975715e-08   -2.824528726493757e-05
-2.7394341822084807e-06   3.279504714056051e-06   -1.5161202728430749e-05
-2.7394341822084807e-06   3.279504714056051e-06   -1.5161202728430749e-05
-2.7394341822084807e-06   3.279504714056051e-06   -1.5161202728430749e-05
-2.7394341822084807e-06   3.279504714056051e-06   -1.5161202728430749e-05
8.890449625528626e-07   5.111935871145688e-07   -1.9547681293535118e-05
8.890449625528626e-07   5.111935871145688e-07   -1.9547681293535118e-05
8.890449625528626e-07   5.111935871145688e-07   -1.9547681293535118e-05
8.890449625528626e-07   5.111935871145688e-07   -1.9547681293535118e-05
-1.1892297405914512e-05   2.23742685399105e-06   -2.129508885682712e-05
-1.1892297405914512e-05   2.23742685399105e-06   -2.129508885682712e-05
-1.1892297405914512e-05   2.23742685399105e-06   -2.129508885682712e-05
-1.1892297405914512e-05   2.23742685399105e-06   -2.129508885682712e-05
-1.2033539103440544e-05   -1.037781272014487e-06   -2.3495616561640506e-05
-1.2033539103440544e-05   -1.037781272014487e-06   -2.3495616561640506e-05
-1.2033539103440544e-05   -1.037781272014487e-06   -2.3495616561640506e-05
-1.2033539103440544e-05   -1.037781272014487e-06   -2.3495616561640506e-05
-1.1429715954454876e-05   3.482657519528372e-06   -2.000782969455964e-05
-1.1429715954454876e-05   3.482657519528372e-06   -2.000782969455964e-05
-1.1429715954454876e-05   3.482657519528372e-06   -2.000782969455964e-05
-1.1429715954454876e-05   3.482657519528372e-06   -2.000782969455964e-05
-9.818028698274026e-06   -3.007266196307368e-08   -2.0586337012632925e-05
-9.818028698274026e-06   -3.007266196307368e-08   -2.0586337012632925e-05
-9.818028698274026e-06   -3.007266196307368e-08   -2.0586337012632925e-05
-9.818028698274026e-06   -3.007266196307368e-08   -2.0586337012632925e-05
-1.0799694545308869e-05   1.5402244473267882e-06   -1.9892405533149357e-05
-1.0799694545308869e-05   1.5402244473267882e-06   -1.9892405533149357e-05
-1.0799694545308869e-05   1.5402244473267882e-06   -1.9892405533149357e-05
-1.0799694545308869e-05   1.5402244473267882e-06   -1.9892405533149357e-05
-9.818028698273988e-06   3.482657519528449e-06   -1.790019158566503e-05
-9.818028698273988e-06   3.482657519528449e-06   -1.790019158566503e-05
-9.818028698273988e-06   3.482657519528449e-06   -1.790019158566503e-05
-9.818028698273988e-06   3.482657519528449e-06   -1.790019158566503e-05
-1.142971595445493e-05   -3.007266196307368e-08   -2.2693975121528074e-05
-1.142971595445493e-05   -3.007266196307368e-08   -2.2693975121528074e-05
-1.142971595445493e-05   -3.007266196307368e-08   -2.2693975121528074e-05
-1.142971595445493e-05   -3.007266196307368e-08   -2.2693975121528074e-05
-1.0668252189746923e-05   4.111507952966583e-06   -1.856758355979612e-05
-1.0668252189746923e-05   4.111507952966583e-06   -1.856758355979612e-05
-1.0668252189746923e-05   4.111507952966583e-06   -1.856758355979612e-05
-1.0668252189746923e-05   4.111507952966583e-06   -1.856758355979612e-05
-8.102088360712566e-06   5.396253873152061e-07   -2.0701393735462342e-05
-8.102088360712566e-06   5.396253873152061e-07   -2.0701393735462342e-05
-8.102088360712566e-06   5.396253873152061e-07   -2.0701393735462342e-05
-8.102088360712566e-06   5.396253873152061e-07   -2.0701393735462342e-05
-9.817071594241435e-06   2.0573981751124265e-06   -1.8753752018926774e-05
-9.817071594241435e-06   2.0573981751124265e-06   -1.8753752018926774e-05
-9.817071594241435e-06   2.0573981751124265e-06   -1.8753752018926774e-05
-9.817071594241435e-06   2.0573981751124265e-06   -1.8753752018926774e-05
-8.10208836071253e-06   4.111507952966684e-06   -1.6424454020405057e-05
-8.10208836071253e-06   4.111507952966684e-06   -1.6424454020405057e-05
-8.10208836071253e-06   4.111507952966684e-06   -1.6424454020405057e-05
-8.10208836071253e-06   4.111507952966684e-06   -1.6424454020405057e-05
-1.0668252189746977e-05   5.396253873152061e-07   -2.2844523274853244e-05
-1.0668252189746977e-05   5.396253873152061e-07   -2.2844523274853244e-05
-1.0668252189746977e-05   5.396253873152061e-07   -2.2844523274853244e-05
-1.0668252189746977e-05   5.396253873152061e-07   -2.2844523274853244e-05
-1.0073818031239301e-05   5.1074867837130195e-06   -1.7227685462406104e-05
-1.0073818031239301e-05   5.1074867837130195e-06   -1.7227685462406104e-05
-1.0073818031239301e-05   5.1074867837130195e-06   -1.7227685462406104e-05
-1.0073818031239301e-05   5.1074867837130195e-06   -1.7227685462406104e-05
-5.983454000926467e-06   1.6759718811131582e-06   -2.1986049904700912e-05
-5.983454000926467e-06   1.6759718811131582e-06   -2.1986049904700912e-05
-5.983454000926467e-06   1.6759718811131582e-06   -2.1986049904700912e-05
-5.983454000926467e-06   1.6759718811131582e-06   -2.1986049904700912e-05
-8.58843126243357e-06   2.5525769068333523e-06   -1.817038415095364e-05
-8.58843126243357e-06   2.5525769068333523e-06   -1.817038415095364e-05
-8.58843126243357e-06   2.5525769068333523e-06   -1.817038415095364e-05
-8.58843126243357e-06   2.5525769068333523e-06   -1.817038415095364e-05
-1.203353910344049e-05   1.2829117416648283e-06   -3.8693892816651356e-05
-1.203353910344049e-05   1.2829117416648283e-06   -3.8693892816651356e-05
-1.203353910344049e-05   1.2829117416648283e-06   -3.8693892816651356e-05
-1.203353910344049e-05   1.2829117416648283e-06   -3.8693892816651356e-05
-1.3850678368308343e-05   -2.2595011092501303e-07   -4.262777536965178e-05
-1.3850678368308343e-05   -2.2595011092501303e-07   -4.262777536965178e-05
-1.3850678368308343e-05   -2.2595011092501303e-07   -4.262777536965178e-05
-1.3850678368308343e-05   -2.2595011092501303e-07   -4.262777536965178e-05
-1.3362400984699951e-05   2.7105969700302185e-06   -3.872343338166503e-05
-1.3362400984699951e-05   2.7105969700302185e-06   -3.872343338166503e-05
-1.3362400984699951e-05   2.7105969700302185e-06   -3.872343338166503e-05
-1.3362400984699951e-05   2.7105969700302185e-06   -3.872343338166503e-05
-1.1429715954454903e-05   1.0452950518875185e-06   -4.094539394785418e-05
-1.1429715954454903e-05   1.0452950518875185e-06   -4.094539394785418e-05
-1.1429715954454903e-05   1.0452950518875185e-06   -4.094539394785418e-05
-1.1429715954454903e-05   1.0452950518875185e-06   -4.094539394785418e-05
-1.2521480944793947e-05   1.4818897203458005e-06   -3.9387742431698253e-05
-1.2521480944793947e-05   1.4818897203458005e-06   -3.9387742431698253e-05
-1.2521480944793947e-05   1.4818897203458005e-06   -3.9387742431698253e-05
-1.2521480944793947e-05   1.4818897203458005e-06   -3.9387742431698253e-05
-1.1429715954454876e-05   2.7105969700304027e-06   -3.7724252230778954e-05
-1.1429715954454876e-05   2.7105969700304027e-06   -3.7724252230778954e-05
-1.1429715954454876e-05   2.7105969700304027e-06   -3.7724252230778954e-05
-1.1429715954454876e-05   2.7105969700304027e-06   -3.7724252230778954e-05
-1.3362400984699924e-05   1.0452950518875185e-06   -4.1944575098740037e-05
-1.3362400984699924e-05   1.0452950518875185e-06   -4.1944575098740037e-05
-1.3362400984699924e-05   1.0452950518875185e-06   -4.1944575098740037e-05
-1.3362400984699924e-05   1.0452950518875185e-06   -4.1944575098740037e-05
-1.2854605737303547e-05   4.037865637990029e-06   -3.8398898489721894e-05
-1.2854605737303547e-05   4.037865637990029e-06   -3.8398898489721894e-05
-1.2854605737303547e-05   4.037865637990029e-06   -3.8398898489721894e-05
-1.2854605737303547e-05   4.037865637990029e-06   -3.8398898489721894e-05
-1.0668252189746954e-05   2.268989850161187e-06   -4.098149559628552e-05
-1.0668252189746954e-05   2.268989850161187e-06   -4.098149559628552e-05
-1.0668252189746954e-05   2.268989850161187e-06   -4.098149559628552e-05
-1.0668252189746954e-05   2.268989850161187e-06   -4.098149559628552e-05
-1.2032162072412876e-05   2.5064739397062663e-06   -3.8850802912236205e-05
-1.2032162072412876e-05   2.5064739397062663e-06   -3.8850802912236205e-05
-1.2032162072412876e-05   2.5064739397062663e-06   -3.8850802912236205e-05
-1.2032162072412876e-05   2.5064739397062663e-06   -3.8850802912236205e-05
-1.0668252189746923e-05   4.037865637990103e-06   -3.733757301702448e-05
-1.0668252189746923e-05   4.037865637990103e-06   -3.733757301702448e-05
-1.0668252189746923e-05   4.037865637990103e-06   -3.733757301702448e-05
-1.0668252189746923e-05   4.037865637990103e-06   -3.733757301702448e-05
-1.285460573730352e-05   2.268989850161404e-06   -4.204282106898261e-05
-1.285460573730352e-05   2.268989850161404e-06   -4.204282106898261e-05
-1.285460573730352e-05   2.268989850161404e-06   -4.204282106898261e-05
-1.285460573730352e-05   2.268989850161404e-06   -4.204282106898261e-05
-1.2376214573907367e-05   5.512440317240186e-06   -3.903474737627921e-05
-1.2376214573907367e-05   5.512440317240186e-06   -3.903474737627921e-05
-1.2376214573907367e-05   5.512440317240186e-06   -3.903474737627921e-05
-1.2376214573907367e-05   5.512440317240186e-06   -3.903474737627921e-05
-1.00738180312394e-05   3.666080366138266e-06   -4.176425897673135e-05
-1.00738180312394e-05   3.666080366138266e-06   -4.176425897673135e-05
-1.00738180312394e-05   3.666080366138266e-06   -4.176425897673135e-05
-1.00738180312394e-05   3.666080366138266e-06   -4.176425897673135e-05
-1.160148839407983e-05   3.58099382338317e-06   -3.916708977967707e-05
-1.160148839407983e-05   3.58099382338317e-06   -3.916708977967707e-05
-1.160148839407983e-05   3.58099382338317e-06   -3.916708977967707e-05
-1.160148839407983e-05   3.58099382338317e-06   -3.916708977967707e-05
-1.3850678368308261e-05   7.341805351633605e-07   -4.505809294622651e-05
-1.3850678368308261e-05   7.341805351633605e-07   -4.505809294622651e-05
-1.3850678368308261e-05   7.341805351633605e-07   -4.505809294622651e-05
-1.3850678368308261e-05   7.341805351633605e-07   -4.505809294622651e-05
-1.5766097814492984e-05   1.052636240233976e-06   -4.805938526682542e-05
-1.5766097814492984e-05   1.052636240233976e-06   -4.805938526682542e-05
-1.5766097814492984e-05   1.052636240233976e-06   -4.805938526682542e-05
-1.5766097814492984e-05   1.052636240233976e-06   -4.805938526682542e-05
-1.5286143464973133e-05   2.1880184886925377e-06   -4.436446404484668e-05
-1.5286143464973133e-05   2.1880184886925377e-06   -4.436446404484668e-05
-1.5286143464973133e-05   2.1880184886925377e-06   -4.436446404484668e-05
-1.5286143464973133e-05   2.1880184886925377e-06   -4.436446404484668e-05
-1.3362400984699917e-05   2.3662756412461128e-06   -4.767765580350044e-05
-1.3362400984699917e-05   2.3662756412461128e-06   -4.767765580350044e-05
-1.3362400984699917e-05   2.3662756412461128e-06   -4.767765580350044e-05
-1.3362400984699917e-05   2.3662756412461128e-06   -4.767765580350044e-05
-1.4478652398372202e-05   1.7897943789982156e-06   -4.547134802336517e-05
-1.4478652398372202e-05   1.7897943789982156e-06   -4.547134802336517e-05
-1.4478652398372202e-05   1.7897943789982156e-06   -4.547134802336517e-05
-1.4478652398372202e-05   1.7897943789982156e-06   -4.547134802336517e-05
-1.3362400984699924e-05   2.1880184886924403e-06   -4.4471418336378696e-05
-1.3362400984699924e-05   2.1880184886924403e-06   -4.4471418336378696e-05
-1.3362400984699924e-05   2.1880184886924403e-06   -4.4471418336378696e-05
-1.3362400984699924e-05   2.1880184886924403e-06   -4.4471418336378696e-05
-1.5286143464973133e-05   2.3662756412461128e-06   -4.757070151196856e-05
-1.5286143464973133e-05   2.3662756412461128e-06   -4.757070151196856e-05
-1.5286143464973133e-05   2.3662756412461128e-06   -4.757070151196856e-05
-1.5286143464973133e-05   2.3662756412461128e-06   -4.757070151196856e-05
-1.4781479528162539e-05   3.6546058073546554e-06   -4.449346107152888e-05
-1.4781479528162539e-05   3.6546058073546554e-06   -4.449346107152888e-05
-1.4781479528162539e-05   3.6546058073546554e-06   -4.449346107152888e-05
-1.4781479528162539e-05   3.6546058073546554e-06   -4.449346107152888e-05
-1.2854605737303523e-05   3.708840177808889e-06   -4.77374580118993e-05
-1.2854605737303523e-05   3.708840177808889e-06   -4.77374580118993e-05
-1.2854605737303523e-05   3.708840177808889e-06   -4.77374580118993e-05
-1.2854605737303523e-05   3.708840177808889e-06   -4.77374580118993e-05
-1.4075676957774623e-05   2.9133229280183144e-06   -4.522502896124065e-05
-1.4075676957774623e-05   2.9133229280183144e-06   -4.522502896124065e-05
-1.4075676957774623e-05   2.9133229280183144e-06   -4.522502896124065e-05
-1.4075676957774623e-05   2.9133229280183144e-06   -4.522502896124065e-05
-1.285460573730352e-05   3.6546058073547333e-06   -4.452600169380116e-05
-1.285460573730352e-05   3.6546058073547333e-06   -4.452600169380116e-05
-1.285460573730352e-05   3.6546058073547333e-06   -4.452600169380116e-05
-1.285460573730352e-05   3.6546058073547333e-06   -4.452600169380116e-05
-1.4781479528162515e-05   3.708840177808889e-06   -4.7704917389626914e-05
-1.4781479528162515e-05   3.708840177808889e-06   -4.7704917389626914e-05
-1.4781479528162515e-05   3.708840177808889e-06   -4.7704917389626914e-05
-1.4781479528162515e-05   3.708840177808889e-06   -4.7704917389626914e-05
-1.43054765366358e-05   5.1433111029884106e-06   -4.535704796350057e-05
-1.43054765366358e-05   5.1433111029884106e-06   -4.535704796350057e-05
-1.43054765366358e-05   5.1433111029884106e-06   -4.535704796350057e-05
-1.43054765366358e-05   5.1433111029884106e-06   -4.535704796350057e-05
-1.2376214573907346e-05   5.069962276289808e-06   -4.852847527202865e-05
-1.2376214573907346e-05   5.069962276289808e-06   -4.852847527202865e-05
-1.2376214573907346e-05   5.069962276289808e-06   -4.852847527202865e-05
-1.2376214573907346e-05   5.069962276289808e-06   -4.852847527202865e-05
-1.3704652575359105e-05   4.0525627815048235e-06   -4.570397223940405e-05
-1.3704652575359105e-05   4.0525627815048235e-06   -4.570397223940405e-05
-1.3704652575359105e-05   4.0525627815048235e-06   -4.570397223940405e-05
-1.3704652575359105e-05   4.0525627815048235e-06   -4.570397223940405e-05
-1.576609781449296e-05   3.118846637227504e-07   -3.8874706769393384e-05
-1.576609781449296e-05   3.118846637227504e-07   -3.8874706769393384e-05
-1.576609781449296e-05   3.118846637227504e-07   -3.8874706769393384e-05
-1.576609781449296e-05   3.118846637227504e-07   -3.8874706769393384e-05
-1.7787307957439495e-05   2.340248838869413e-06   -4.102637183588283e-05
-1.7787307957439495e-05   2.340248838869413e-06   -4.102637183588283e-05
-1.7787307957439495e-05   2.340248838869413e-06   -4.102637183588283e-05
-1.7787307957439495e-05   2.340248838869413e-06   -4.102637183588283e-05
-1.7206844355308312e-05   1.7199435156222548e-06   -3.716694179473176e-05
-1.7206844355308312e-05   1.7199435156222548e-06   -3.716694179473176e-05
-1.7206844355308312e-05   1.7199435156222548e-06   -3.716694179473176e-05
-1.7206844355308312e-05   1.7199435156222548e-06   -3.716694179473176e-05
-1.5286143464973133e-05   3.6581655741860057e-06   -4.15310431804283e-05
-1.5286143464973133e-05   3.6581655741860057e-06   -4.15310431804283e-05
-1.5286143464973133e-05   3.6581655741860057e-06   -4.15310431804283e-05
-1.5286143464973133e-05   3.6581655741860057e-06   -4.15310431804283e-05
-1.638402968827644e-05   2.1544921334892136e-06   -3.879902874383875e-05
-1.638402968827644e-05   2.1544921334892136e-06   -3.879902874383875e-05
-1.638402968827644e-05   2.1544921334892136e-06   -3.879902874383875e-05
-1.638402968827644e-05   2.1544921334892136e-06   -3.879902874383875e-05
-1.5286143464973106e-05   1.7199435156220362e-06   -3.8329875029869884e-05
-1.5286143464973106e-05   1.7199435156220362e-06   -3.8329875029869884e-05
-1.5286143464973106e-05   1.7199435156220362e-06   -3.8329875029869884e-05
-1.5286143464973106e-05   1.7199435156220362e-06   -3.8329875029869884e-05
-1.7206844355308312e-05   3.6581655741860057e-06   -4.036810994529033e-05
-1.7206844355308312e-05   3.6581655741860057e-06   -4.036810994529033e-05
-1.7206844355308312e-05   3.6581655741860057e-06   -4.036810994529033e-05
-1.7206844355308312e-05   3.6581655741860057e-06   -4.036810994529033e-05
-1.64573262019256e-05   3.0470484614290427e-06   -3.732871947702103e-05
-1.64573262019256e-05   3.0470484614290427e-06   -3.732871947702103e-05
-1.64573262019256e-05   3.0470484614290427e-06   -3.732871947702103e-05
-1.64573262019256e-05   3.0470484614290427e-06   -3.732871947702103e-05
-1.4781479528162515e-05   4.874157079884887e-06   -4.1218062437699634e-05
-1.4781479528162515e-05   4.874157079884887e-06   -4.1218062437699634e-05
-1.4781479528162515e-05   4.874157079884887e-06   -4.1218062437699634e-05
-1.4781479528162515e-05   4.874157079884887e-06   -4.1218062437699634e-05
-1.5865305312255493e-05   3.19993250147161e-06   -3.8407151383830486e-05
-1.5865305312255493e-05   3.19993250147161e-06   -3.8407151383830486e-05
-1.5865305312255493e-05   3.19993250147161e-06   -3.8407151383830486e-05
-1.5865305312255493e-05   3.19993250147161e-06   -3.8407151383830486e-05
-1.4781479528162488e-05   3.047048461429154e-06   -3.8424984648094624e-05
-1.4781479528162488e-05   3.047048461429154e-06   -3.8424984648094624e-05
-1.4781479528162488e-05   3.047048461429154e-06   -3.8424984648094624e-05
-1.4781479528162488e-05   3.047048461429154e-06   -3.8424984648094624e-05
-1.645732620192564e-05   4.874157079885104e-06   -4.012179726662615e-05
-1.645732620192564e-05   4.874157079885104e-06   -4.012179726662615e-05
-1.645732620192564e-05   4.874157079885104e-06   -4.012179726662615e-05
-1.645732620192564e-05   4.874157079885104e-06   -4.012179726662615e-05
-1.5868352916065137e-05   4.547932716824276e-06   -3.836410423139656e-05
-1.5868352916065137e-05   4.547932716824276e-06   -3.836410423139656e-05
-1.5868352916065137e-05   4.547932716824276e-06   -3.836410423139656e-05
-1.5868352916065137e-05   4.547932716824276e-06   -3.836410423139656e-05
-1.43054765366358e-05   6.237213247475316e-06   -4.198246651550283e-05
-1.43054765366358e-05   6.237213247475316e-06   -4.198246651550283e-05
-1.43054765366358e-05   6.237213247475316e-06   -4.198246651550283e-05
-1.43054765366358e-05   6.237213247475316e-06   -4.198246651550283e-05
-1.547625796341954e-05   4.268617995558353e-06   -3.885000698637926e-05
-1.547625796341954e-05   4.268617995558353e-06   -3.885000698637926e-05
-1.547625796341954e-05   4.268617995558353e-06   -3.885000698637926e-05
-1.547625796341954e-05   4.268617995558353e-06   -3.885000698637926e-05
-1.778730795743944e-05   4.303224211970512e-07   -2.0721262094589542e-05
-1.778730795743944e-05   4.303224211970512e-07   -2.0721262094589542e-05
-1.778730795743944e-05   4.303224211970512e-07   -2.0721262094589542e-05
-1.778730795743944e-05   4.303224211970512e-07   -2.0721262094589542e-05
-2.1530745462932207e-05   3.931443586625534e-06   -2.4859651904486895e-05
-2.1530745462932207e-05   3.931443586625534e-06   -2.4859651904486895e-05
-2.1530745462932207e-05   3.931443586625534e-06   -2.4859651904486895e-05
-2.1530745462932207e-05   3.931443586625534e-06   -2.4859651904486895e-05
-1.947306205326473e-05   1.5429570646107154e-06   -1.7089990963711234e-05
-1.947306205326473e-05   1.5429570646107154e-06   -1.7089990963711234e-05
-1.947306205326473e-05   1.5429570646107154e-06   -1.7089990963711234e-05
-1.947306205326473e-05   1.5429570646107154e-06   -1.7089990963711234e-05
-1.7206844355308285e-05   5.125994031978179e-06   -2.3016842640725314e-05
-1.7206844355308285e-05   5.125994031978179e-06   -2.3016842640725314e-05
-1.7206844355308285e-05   5.125994031978179e-06   -2.3016842640725314e-05
-1.7206844355308285e-05   5.125994031978179e-06   -2.3016842640725314e-05
-1.8230532864462502e-05   2.902554182831075e-06   -1.997663121598031e-05
-1.8230532864462502e-05   2.902554182831075e-06   -1.997663121598031e-05
-1.8230532864462502e-05   2.902554182831075e-06   -1.997663121598031e-05
-1.8230532864462502e-05   2.902554182831075e-06   -1.997663121598031e-05
-1.720684435530823e-05   1.5429570646108679e-06   -1.9239813144131127e-05
-1.720684435530823e-05   1.5429570646108679e-06   -1.9239813144131127e-05
-1.720684435530823e-05   1.5429570646108679e-06   -1.9239813144131127e-05
-1.720684435530823e-05   1.5429570646108679e-06   -1.9239813144131127e-05
-1.947306205326473e-05   5.125994031977962e-06   -2.086702046030526e-05
-1.947306205326473e-05   5.125994031977962e-06   -2.086702046030526e-05
-1.947306205326473e-05   5.125994031977962e-06   -2.086702046030526e-05
-1.947306205326473e-05   5.125994031977962e-06   -2.086702046030526e-05
-1.779942403626683e-05   2.1688520557524345e-06   -1.681300806403985e-05
-1.779942403626683e-05   2.1688520557524345e-06   -1.681300806403985e-05
-1.779942403626683e-05   2.1688520557524345e-06   -1.681300806403985e-05
-1.779942403626683e-05   2.1688520557524345e-06   -1.681300806403985e-05
-1.64573262019256e-05   5.6729683562692715e-06   -2.115230756825158e-05
-1.64573262019256e-05   5.6729683562692715e-06   -2.115230756825158e-05
-1.64573262019256e-05   5.6729683562692715e-06   -2.115230756825158e-05
-1.64573262019256e-05   5.6729683562692715e-06   -2.115230756825158e-05
-1.735087077997247e-05   3.4552881941038623e-06   -1.8332458507541206e-05
-1.735087077997247e-05   3.4552881941038623e-06   -1.8332458507541206e-05
-1.735087077997247e-05   3.4552881941038623e-06   -1.8332458507541206e-05
-1.735087077997247e-05   3.4552881941038623e-06   -1.8332458507541206e-05
-1.6457326201925574e-05   2.168852055752308e-06   -1.891547784434991e-05
-1.6457326201925574e-05   2.168852055752308e-06   -1.891547784434991e-05
-1.6457326201925574e-05   2.168852055752308e-06   -1.891547784434991e-05
-1.6457326201925574e-05   2.168852055752308e-06   -1.891547784434991e-05
-1.7799424036266857e-05   5.672968356269055e-06   -1.90498377879416e-05
-1.7799424036266857e-05   5.672968356269055e-06   -1.90498377879416e-05
-1.7799424036266857e-05   5.672968356269055e-06   -1.90498377879416e-05
-1.7799424036266857e-05   5.672968356269055e-06   -1.90498377879416e-05
-1.5753139980270942e-05   3.279504714056051e-06   -1.7347952169589507e-05
-1.5753139980270942e-05   3.279504714056051e-06   -1.7347952169589507e-05
-1.5753139980270942e-05   3.279504714056051e-06   -1.7347952169589507e-05
-1.5753139980270942e-05   3.279504714056051e-06   -1.7347952169589507e-05
-1.586835291606511e-05   6.5212562673456695e-06   -1.910098154190608e-05
-1.586835291606511e-05   6.5212562673456695e-06   -1.910098154190608e-05
-1.586835291606511e-05   6.5212562673456695e-06   -1.910098154190608e-05
-1.586835291606511e-05   6.5212562673456695e-06   -1.910098154190608e-05
-1.6059216983255273e-05   3.902627258752607e-06   -1.7211697358100134e-05
-1.6059216983255273e-05   3.902627258752607e-06   -1.7211697358100134e-05
-1.6059216983255273e-05   3.902627258752607e-06   -1.7211697358100134e-05
-1.6059216983255273e-05   3.902627258752607e-06   -1.7211697358100134e-05
1.0486315916097245e-05   -1.037781272014377e-06   -1.079948733875998e-05
1.0486315916097245e-05   -1.037781272014377e-06   -1.079948733875998e-05
1.0486315916097245e-05   -1.037781272014377e-06   -1.079948733875998e-05
1.0486315916097245e-05   -1.037781272014377e-06   -1.079948733875998e-05
1.0725096570705808e-06   -4.373077681224524e-06   -2.849034228266363e-05
1.0725096570705808e-06   -4.373077681224524e-06   -2.849034228266363e-05
1.0725096570705808e-06   -4.373077681224524e-06   -2.849034228266363e-05
1.0725096570705808e-06   -4.373077681224524e-06   -2.849034228266363e-05
1.9005923646376937e-06   -3.007266196307368e-08   -1.1927089244713083e-05
1.9005923646376937e-06   -3.007266196307368e-08   -1.1927089244713083e-05
1.9005923646376937e-06   -3.007266196307368e-08   -1.1927089244713083e-05
1.9005923646376937e-06   -3.007266196307368e-08   -1.1927089244713083e-05
1.2796105587079982e-05   -3.593270076307758e-06   -2.7948359500176777e-05
1.2796105587079982e-05   -3.593270076307758e-06   -2.7948359500176777e-05
1.2796105587079982e-05   -3.593270076307758e-06   -2.7948359500176777e-05
1.2796105587079982e-05   -3.593270076307758e-06   -2.7948359500176777e-05
6.3195434959158545e-06   -1.8238434318063566e-06   -1.821574533493735e-05
6.3195434959158545e-06   -1.8238434318063566e-06   -1.821574533493735e-05
6.3195434959158545e-06   -1.8238434318063566e-06   -1.821574533493735e-05
6.3195434959158545e-06   -1.8238434318063566e-06   -1.821574533493735e-05
1.2796105587079964e-05   -3.0072661962981655e-08   -9.789170796106273e-06
1.2796105587079964e-05   -3.0072661962981655e-08   -9.789170796106273e-06
1.2796105587079964e-05   -3.0072661962981655e-08   -9.789170796106273e-06
1.2796105587079964e-05   -3.0072661962981655e-08   -9.789170796106273e-06
1.9005923646376937e-06   -3.593270076307758e-06   -3.0086277948783696e-05
1.9005923646376937e-06   -3.593270076307758e-06   -3.0086277948783696e-05
1.9005923646376937e-06   -3.593270076307758e-06   -3.0086277948783696e-05
1.9005923646376937e-06   -3.593270076307758e-06   -3.0086277948783696e-05
2.8765694130825667e-06   5.396253873152061e-07   -1.2017130721760473e-05
2.8765694130825667e-06   5.396253873152061e-07   -1.2017130721760473e-05
2.8765694130825667e-06   5.396253873152061e-07   -1.2017130721760473e-05
2.8765694130825667e-06   5.396253873152061e-07   -1.2017130721760473e-05
1.4749125174247216e-05   -3.0738021862715403e-06   -2.963666711288304e-05
1.4749125174247216e-05   -3.0738021862715403e-06   -2.963666711288304e-05
1.4749125174247216e-05   -3.0738021862715403e-06   -2.963666711288304e-05
1.4749125174247216e-05   -3.0738021862715403e-06   -2.963666711288304e-05
7.785168063423524e-06   -1.4597195846541115e-06   -1.8998521489148085e-05
7.785168063423524e-06   -1.4597195846541115e-06   -1.8998521489148085e-05
7.785168063423524e-06   -1.4597195846541115e-06   -1.8998521489148085e-05
7.785168063423524e-06   -1.4597195846541115e-06   -1.8998521489148085e-05
1.474912517424726e-05   5.396253873152218e-07   -9.849074177608642e-06
1.474912517424726e-05   5.396253873152218e-07   -9.849074177608642e-06
1.474912517424726e-05   5.396253873152218e-07   -9.849074177608642e-06
1.474912517424726e-05   5.396253873152218e-07   -9.849074177608642e-06
2.8765694130825667e-06   -3.0738021862711067e-06   -3.180472365703487e-05
2.8765694130825667e-06   -3.0738021862711067e-06   -3.180472365703487e-05
2.8765694130825667e-06   -3.0738021862711067e-06   -3.180472365703487e-05
2.8765694130825667e-06   -3.0738021862711067e-06   -3.180472365703487e-05
3.680486293917344e-06   1.6759718811131582e-06   -1.3164142888558378e-05
3.680486293917344e-06   1.6759718811131582e-06   -1.3164142888558378e-05
3.680486293917344e-06   1.6759718811131582e-06   -1.3164142888558378e-05
3.680486293917344e-06   1.6759718811131582e-06   -1.3164142888558378e-05
1.7095136678726095e-05   -1.7644666828039654e-06   -3.3457630391556096e-05
1.7095136678726095e-05   -1.7644666828039654e-06   -3.3457630391556096e-05
1.7095136678726095e-05   -1.7644666828039654e-06   -3.3457630391556096e-05
1.7095136678726095e-05   -1.7644666828039654e-06   -3.3457630391556096e-05
8.952227566985428e-06   -9.25374827419681e-07   -2.0389570318552364e-05
8.952227566985428e-06   -9.25374827419681e-07   -2.0389570318552364e-05
8.952227566985428e-06   -9.25374827419681e-07   -2.0389570318552364e-05
8.952227566985428e-06   -9.25374827419681e-07   -2.0389570318552364e-05
1.072509657070635e-06   -2.259501109252212e-07   -3.10275068807432e-05
1.072509657070635e-06   -2.259501109252212e-07   -3.10275068807432e-05
1.072509657070635e-06   -2.259501109252212e-07   -3.10275068807432e-05
1.072509657070635e-06   -2.259501109252212e-07   -3.10275068807432e-05
-9.921127823103666e-06   -1.7314809382328565e-06   -5.0253554510751655e-05
-9.921127823103666e-06   -1.7314809382328565e-06   -5.0253554510751655e-05
-9.921127823103666e-06   -1.7314809382328565e-06   -5.0253554510751655e-05
-9.921127823103666e-06   -1.7314809382328565e-06   -5.0253554510751655e-05
-9.19438721689976e-06   1.0452950518875185e-06   -3.120336470093725e-05
-9.19438721689976e-06   1.0452950518875185e-06   -3.120336470093725e-05
-9.19438721689976e-06   1.0452950518875185e-06   -3.120336470093725e-05
-9.19438721689976e-06   1.0452950518875185e-06   -3.120336470093725e-05
1.900592364637672e-06   -6.627993312754467e-07   -4.8670140706935097e-05
1.900592364637672e-06   -6.627993312754467e-07   -4.8670140706935097e-05
1.900592364637672e-06   -6.627993312754467e-07   -4.8670140706935097e-05
1.900592364637672e-06   -6.627993312754467e-07   -4.8670140706935097e-05
-3.942222563326934e-06   -6.66429813131128e-08   -3.928980963697175e-05
-3.942222563326934e-06   -6.66429813131128e-08   -3.928980963697175e-05
-3.942222563326934e-06   -6.66429813131128e-08   -3.928980963697175e-05
-3.942222563326934e-06   -6.66429813131128e-08   -3.928980963697175e-05
1.9005923646376395e-06   1.0452950518876263e-06   -3.0178508071039296e-05
1.9005923646376395e-06   1.0452950518876263e-06   -3.0178508071039296e-05
1.9005923646376395e-06   1.0452950518876263e-06   -3.0178508071039296e-05
1.9005923646376395e-06   1.0452950518876263e-06   -3.0178508071039296e-05
-9.194387216899787e-06   -6.627993312754467e-07   -4.96949973368331e-05
-9.194387216899787e-06   -6.627993312754467e-07   -4.96949973368331e-05
-9.194387216899787e-06   -6.627993312754467e-07   -4.96949973368331e-05
-9.194387216899787e-06   -6.627993312754467e-07   -4.96949973368331e-05
-8.463517078784172e-06   2.268989850161187e-06   -3.1250239989668574e-05
-8.463517078784172e-06   2.268989850161187e-06   -3.1250239989668574e-05
-8.463517078784172e-06   2.268989850161187e-06   -3.1250239989668574e-05
-8.463517078784172e-06   2.268989850161187e-06   -3.1250239989668574e-05
2.876569413082571e-06   4.420949393678028e-07   -4.905424719630399e-05
2.876569413082571e-06   4.420949393678028e-07   -4.905424719630399e-05
2.876569413082571e-06   4.420949393678028e-07   -4.905424719630399e-05
2.876569413082571e-06   4.420949393678028e-07   -4.905424719630399e-05
-3.2982978422626618e-06   8.107977554697166e-07   -3.898402346038971e-05
-3.2982978422626618e-06   8.107977554697166e-07   -3.898402346038971e-05
-3.2982978422626618e-06   8.107977554697166e-07   -3.898402346038971e-05
-3.2982978422626618e-06   8.107977554697166e-07   -3.898402346038971e-05
2.8765694130825667e-06   2.268989850161292e-06   -3.0154103043192586e-05
2.8765694130825667e-06   2.268989850161292e-06   -3.0154103043192586e-05
2.8765694130825667e-06   2.268989850161292e-06   -3.0154103043192586e-05
2.8765694130825667e-06   2.268989850161292e-06   -3.0154103043192586e-05
-8.463517078784172e-06   4.420949393682365e-07   -5.015038414277976e-05
-8.463517078784172e-06   4.420949393682365e-07   -5.015038414277976e-05
-8.463517078784172e-06   4.420949393682365e-07   -5.015038414277976e-05
-8.463517078784172e-06   4.420949393682365e-07   -5.015038414277976e-05
-7.765060194536358e-06   3.666080366138266e-06   -3.203288368189001e-05
-7.765060194536358e-06   3.666080366138266e-06   -3.203288368189001e-05
-7.765060194536358e-06   3.666080366138266e-06   -3.203288368189001e-05
-7.765060194536358e-06   3.666080366138266e-06   -3.203288368189001e-05
3.6804862939173366e-06   1.7503459280362316e-06   -4.9959353833118594e-05
3.6804862939173366e-06   1.7503459280362316e-06   -4.9959353833118594e-05
3.6804862939173366e-06   1.7503459280362316e-06   -4.9959353833118594e-05
3.6804862939173366e-06   1.7503459280362316e-06   -4.9959353833118594e-05
-2.581521900535255e-06   1.7832082142583278e-06   -3.954239088076406e-05
-2.581521900535255e-06   1.7832082142583278e-06   -3.954239088076406e-05
-2.581521900535255e-06   1.7832082142583278e-06   -3.954239088076406e-05
-2.581521900535255e-06   1.7832082142583278e-06   -3.954239088076406e-05
-9.921127823103666e-06   1.0526362402338847e-06   -3.755350869734408e-05
-9.921127823103666e-06   1.0526362402338847e-06   -3.755350869734408e-05
-9.921127823103666e-06   1.0526362402338847e-06   -3.755350869734408e-05
-9.921127823103666e-06   1.0526362402338847e-06   -3.755350869734408e-05
-2.0819978734826327e-05   1.3270317875450043e-06   -5.555362288849519e-05
-2.0819978734826327e-05   1.3270317875450043e-06   -5.555362288849519e-05
-2.0819978734826327e-05   1.3270317875450043e-06   -5.555362288849519e-05
-2.0819978734826327e-05   1.3270317875450043e-06   -5.555362288849519e-05
-2.0087993613229166e-05   2.3662756412463296e-06   -3.688175426992137e-05
-2.0087993613229166e-05   2.3662756412463296e-06   -3.688175426992137e-05
-2.0087993613229166e-05   2.3662756412463296e-06   -3.688175426992137e-05
-2.0087993613229166e-05   2.3662756412463296e-06   -3.688175426992137e-05
-9.194387216899794e-06   2.4574275342076693e-06   -5.509245606624691e-05
-9.194387216899794e-06   2.4574275342076693e-06   -5.509245606624691e-05
-9.194387216899794e-06   2.4574275342076693e-06   -5.509245606624691e-05
-9.194387216899794e-06   2.4574275342076693e-06   -5.509245606624691e-05
-1.4918963716942166e-05   2.0314818490805957e-06   -4.5295927821766864e-05
-1.4918963716942166e-05   2.0314818490805957e-06   -4.5295927821766864e-05
-1.4918963716942166e-05   2.0314818490805957e-06   -4.5295927821766864e-05
-1.4918963716942166e-05   2.0314818490805957e-06   -4.5295927821766864e-05
-9.194387216899787e-06   2.3662756412462233e-06   -3.693644540569822e-05
-9.194387216899787e-06   2.3662756412462233e-06   -3.693644540569822e-05
-9.194387216899787e-06   2.3662756412462233e-06   -3.693644540569822e-05
-9.194387216899787e-06   2.3662756412462233e-06   -3.693644540569822e-05
-2.008799361322913e-05   2.4574275342072356e-06   -5.5037764930470495e-05
-2.008799361322913e-05   2.4574275342072356e-06   -5.5037764930470495e-05
-2.008799361322913e-05   2.4574275342072356e-06   -5.5037764930470495e-05
-2.008799361322913e-05   2.4574275342072356e-06   -5.5037764930470495e-05
-1.9344361190633422e-05   3.708840177808889e-06   -3.697757847421915e-05
-1.9344361190633422e-05   3.708840177808889e-06   -3.697757847421915e-05
-1.9344361190633422e-05   3.708840177808889e-06   -3.697757847421915e-05
-1.9344361190633422e-05   3.708840177808889e-06   -3.697757847421915e-05
-8.463517078784175e-06   3.654337608419156e-06   -5.507961711900063e-05
-8.463517078784175e-06   3.654337608419156e-06   -5.507961711900063e-05
-8.463517078784175e-06   3.654337608419156e-06   -5.507961711900063e-05
-8.463517078784175e-06   3.654337608419156e-06   -5.507961711900063e-05
-1.427467656040288e-05   3.0180091208594807e-06   -4.50125542237678e-05
-1.427467656040288e-05   3.0180091208594807e-06   -4.50125542237678e-05
-1.427467656040288e-05   3.0180091208594807e-06   -4.50125542237678e-05
-1.427467656040288e-05   3.0180091208594807e-06   -4.50125542237678e-05
-8.463517078784172e-06   3.7088401778088685e-06   -3.694487693258527e-05
-8.463517078784172e-06   3.7088401778088685e-06   -3.694487693258527e-05
-8.463517078784172e-06   3.7088401778088685e-06   -3.694487693258527e-05
-8.463517078784172e-06   3.7088401778088685e-06   -3.694487693258527e-05
-1.9344361190633388e-05   3.654337608419156e-06   -5.5112318660634294e-05
-1.9344361190633388e-05   3.654337608419156e-06   -5.5112318660634294e-05
-1.9344361190633388e-05   3.654337608419156e-06   -5.5112318660634294e-05
-1.9344361190633388e-05   3.654337608419156e-06   -5.5112318660634294e-05
-1.8635241731227134e-05   5.069962276289808e-06   -3.780810886375098e-05
-1.8635241731227134e-05   5.069962276289808e-06   -3.780810886375098e-05
-1.8635241731227134e-05   5.069962276289808e-06   -3.780810886375098e-05
-1.8635241731227134e-05   5.069962276289808e-06   -3.780810886375098e-05
-7.765060194536382e-06   4.871920847582256e-06   -5.580625323434434e-05
-7.765060194536382e-06   4.871920847582256e-06   -5.580625323434434e-05
-7.765060194536382e-06   4.871920847582256e-06   -5.580625323434434e-05
-7.765060194536382e-06   4.871920847582256e-06   -5.580625323434434e-05
-1.367518492932983e-05   4.019501074200866e-06   -4.54445934789929e-05
-1.367518492932983e-05   4.019501074200866e-06   -4.54445934789929e-05
-1.367518492932983e-05   4.019501074200866e-06   -4.54445934789929e-05
-1.367518492932983e-05   4.019501074200866e-06   -4.54445934789929e-05
-2.081997873482636e-05   2.34024883886931e-06   -3.157287644310288e-05
-2.081997873482636e-05   2.34024883886931e-06   -3.157287644310288e-05
-2.081997873482636e-05   2.34024883886931e-06   -3.157287644310288e-05
-2.081997873482636e-05   2.34024883886931e-06   -3.157287644310288e-05
-3.158657056420026e-05   4.294853952062014e-06   -4.834443309081047e-05
-3.158657056420026e-05   4.294853952062014e-06   -4.834443309081047e-05
-3.158657056420026e-05   4.294853952062014e-06   -4.834443309081047e-05
-3.158657056420026e-05   4.294853952062014e-06   -4.834443309081047e-05
-3.0750403207918905e-05   3.6581655741860057e-06   -2.973614423835893e-05
-3.0750403207918905e-05   3.6581655741860057e-06   -2.973614423835893e-05
-3.0750403207918905e-05   3.6581655741860057e-06   -2.973614423835893e-05
-3.0750403207918905e-05   3.6581655741860057e-06   -2.973614423835893e-05
-2.008799361322913e-05   5.501418407556635e-06   -4.8612778596197485e-05
-2.008799361322913e-05   5.501418407556635e-06   -4.8612778596197485e-05
-2.008799361322913e-05   5.501418407556635e-06   -4.8612778596197485e-05
-2.008799361322913e-05   5.501418407556635e-06   -4.8612778596197485e-05
-2.5632494948442726e-05   4.105661757897953e-06   -3.853448904771301e-05
-2.5632494948442726e-05   4.105661757897953e-06   -3.853448904771301e-05
-2.5632494948442726e-05   4.105661757897953e-06   -3.853448904771301e-05
-2.5632494948442726e-05   4.105661757897953e-06   -3.853448904771301e-05
-2.0087993613229166e-05   3.6581655741858753e-06   -3.084209593838148e-05
-2.0087993613229166e-05   3.6581655741858753e-06   -3.084209593838148e-05
-2.0087993613229166e-05   3.6581655741858753e-06   -3.084209593838148e-05
-2.0087993613229166e-05   3.6581655741858753e-06   -3.084209593838148e-05
-3.075040320791896e-05   5.501418407556635e-06   -4.750682689617556e-05
-3.075040320791896e-05   5.501418407556635e-06   -4.750682689617556e-05
-3.075040320791896e-05   5.501418407556635e-06   -4.750682689617556e-05
-3.075040320791896e-05   5.501418407556635e-06   -4.750682689617556e-05
-2.97498089087522e-05   4.874157079885104e-06   -2.946218130281419e-05
-2.97498089087522e-05   4.874157079885104e-06   -2.946218130281419e-05
-2.97498089087522e-05   4.874157079885104e-06   -2.946218130281419e-05
-2.97498089087522e-05   4.874157079885104e-06   -2.946218130281419e-05
-1.9344361190633422e-05   6.5883941123478715e-06   -4.7833136385823304e-05
-1.9344361190633422e-05   6.5883941123478715e-06   -4.7833136385823304e-05
-1.9344361190633422e-05   6.5883941123478715e-06   -4.7833136385823304e-05
-1.9344361190633422e-05   6.5883941123478715e-06   -4.7833136385823304e-05
-2.479004463151078e-05   5.058155108118249e-06   -3.783885391515735e-05
-2.479004463151078e-05   5.058155108118249e-06   -3.783885391515735e-05
-2.479004463151078e-05   5.058155108118249e-06   -3.783885391515735e-05
-2.479004463151078e-05   5.058155108118249e-06   -3.783885391515735e-05
-1.9344361190633422e-05   4.874157079885047e-06   -3.049072352229198e-05
-1.9344361190633422e-05   4.874157079885047e-06   -3.049072352229198e-05
-1.9344361190633422e-05   4.874157079885047e-06   -3.049072352229198e-05
-1.9344361190633422e-05   4.874157079885047e-06   -3.049072352229198e-05
-2.97498089087522e-05   6.5883941123478715e-06   -4.6804594166345364e-05
-2.97498089087522e-05   6.5883941123478715e-06   -4.6804594166345364e-05
-2.97498089087522e-05   6.5883941123478715e-06   -4.6804594166345364e-05
-2.97498089087522e-05   6.5883941123478715e-06   -4.6804594166345364e-05
-2.8916044565580412e-05   6.237213247475316e-06   -3.027748336558128e-05
-2.8916044565580412e-05   6.237213247475316e-06   -3.027748336558128e-05
-2.8916044565580412e-05   6.237213247475316e-06   -3.027748336558128e-05
-2.8916044565580412e-05   6.237213247475316e-06   -3.027748336558128e-05
-1.8635241731227138e-05   7.804892323516003e-06   -4.8352762201794844e-05
-1.8635241731227138e-05   7.804892323516003e-06   -4.8352762201794844e-05
-1.8635241731227138e-05   7.804892323516003e-06   -4.8352762201794844e-05
-1.8635241731227138e-05   7.804892323516003e-06   -4.8352762201794844e-05
-2.422505947224575e-05   5.996875833546612e-06   -3.795158940611521e-05
-2.422505947224575e-05   5.996875833546612e-06   -3.795158940611521e-05
-2.422505947224575e-05   5.996875833546612e-06   -3.795158940611521e-05
-2.422505947224575e-05   5.996875833546612e-06   -3.795158940611521e-05
-3.158657056420026e-05   3.931443586625509e-06   -1.633406614304873e-05
-3.158657056420026e-05   3.931443586625509e-06   -1.633406614304873e-05
-3.158657056420026e-05   3.931443586625509e-06   -1.633406614304873e-05
-3.158657056420026e-05   3.931443586625509e-06   -1.633406614304873e-05
-4.3854451521495015e-05   7.383418842295177e-06   -3.470934925180473e-05
-4.3854451521495015e-05   7.383418842295177e-06   -3.470934925180473e-05
-4.3854451521495015e-05   7.383418842295177e-06   -3.470934925180473e-05
-4.3854451521495015e-05   7.383418842295177e-06   -3.470934925180473e-05
-4.1559995329974405e-05   5.125994031978179e-06   -1.0278984662391837e-05
-4.1559995329974405e-05   5.125994031978179e-06   -1.0278984662391837e-05
-4.1559995329974405e-05   5.125994031978179e-06   -1.0278984662391837e-05
-4.1559995329974405e-05   5.125994031978179e-06   -1.0278984662391837e-05
-3.0750403207918905e-05   8.635814484314955e-06   -3.040086380388643e-05
-3.0750403207918905e-05   8.635814484314955e-06   -3.040086380388643e-05
-3.0750403207918905e-05   8.635814484314955e-06   -3.040086380388643e-05
-3.0750403207918905e-05   8.635814484314955e-06   -3.040086380388643e-05
-3.543502090242961e-05   6.41278103024473e-06   -2.125934757392638e-05
-3.543502090242961e-05   6.41278103024473e-06   -2.125934757392638e-05
-3.543502090242961e-05   6.41278103024473e-06   -2.125934757392638e-05
-3.543502090242961e-05   6.41278103024473e-06   -2.125934757392638e-05
-3.075040320791893e-05   5.125994031978156e-06   -1.2384876933794076e-05
-3.075040320791893e-05   5.125994031978156e-06   -1.2384876933794076e-05
-3.075040320791893e-05   5.125994031978156e-06   -1.2384876933794076e-05
-3.075040320791893e-05   5.125994031978156e-06   -1.2384876933794076e-05
-4.155999532997424e-05   8.635814484315388e-06   -2.829497153248456e-05
-4.155999532997424e-05   8.635814484315388e-06   -2.829497153248456e-05
-4.155999532997424e-05   8.635814484315388e-06   -2.829497153248456e-05
-4.155999532997424e-05   8.635814484315388e-06   -2.829497153248456e-05
-3.966358461380737e-05   5.672968356269055e-06   -8.445789524478176e-06
-3.966358461380737e-05   5.672968356269055e-06   -8.445789524478176e-06
-3.966358461380737e-05   5.672968356269055e-06   -8.445789524478176e-06
-3.966358461380737e-05   5.672968356269055e-06   -8.445789524478176e-06
-2.974980890875216e-05   9.08447182287192e-06   -2.7015651112865052e-05
-2.974980890875216e-05   9.08447182287192e-06   -2.7015651112865052e-05
-2.974980890875216e-05   9.08447182287192e-06   -2.7015651112865052e-05
-2.974980890875216e-05   9.08447182287192e-06   -2.7015651112865052e-05
-3.45926705632404e-05   6.975600291822537e-06   -1.7678892103421763e-05
-3.45926705632404e-05   6.975600291822537e-06   -1.7678892103421763e-05
-3.45926705632404e-05   6.975600291822537e-06   -1.7678892103421763e-05
-3.45926705632404e-05   6.975600291822537e-06   -1.7678892103421763e-05
-2.97498089087522e-05   5.672968356269047e-06   -1.0492691604439917e-05
-2.97498089087522e-05   5.672968356269047e-06   -1.0492691604439917e-05
-2.97498089087522e-05   5.672968356269047e-06   -1.0492691604439917e-05
-2.97498089087522e-05   5.672968356269047e-06   -1.0492691604439917e-05
-3.966358461380724e-05   9.08447182287192e-06   -2.4968749032903406e-05
-3.966358461380724e-05   9.08447182287192e-06   -2.4968749032903406e-05
-3.966358461380724e-05   9.08447182287192e-06   -2.4968749032903406e-05
-3.966358461380724e-05   9.08447182287192e-06   -2.4968749032903406e-05
-3.742160933551628e-05   6.521256267345886e-06   -6.529765583291117e-06
-3.742160933551628e-05   6.521256267345886e-06   -6.529765583291117e-06
-3.742160933551628e-05   6.521256267345886e-06   -6.529765583291117e-06
-3.742160933551628e-05   6.521256267345886e-06   -6.529765583291117e-06
-2.8916044565580385e-05   9.654258145819824e-06   -2.2585507993601734e-05
-2.8916044565580385e-05   9.654258145819824e-06   -2.2585507993601734e-05
-2.8916044565580385e-05   9.654258145819824e-06   -2.2585507993601734e-05
-2.8916044565580385e-05   9.654258145819824e-06   -2.2585507993601734e-05
-3.2811037629223517e-05   7.247685404679349e-06   -1.4649909242846421e-05
-3.2811037629223517e-05   7.247685404679349e-06   -1.4649909242846421e-05
-3.2811037629223517e-05   7.247685404679349e-06   -1.4649909242846421e-05
-3.2811037629223517e-05   7.247685404679349e-06   -1.4649909242846421e-05
3.332803346326938e-05   -4.373077681224555e-06   -2.832152567052663e-07
3.332803346326938e-05   -4.373077681224555e-06   -2.832152567052663e-07
3.332803346326938e-05   -4.373077681224555e-06   -2.832152567052663e-07
3.332803346326938e-05   -4.373077681224555e-06   -2.832152567052663e-07
1.4209336243426818e-05   -7.892663779741037e-06   -3.4259462282219474e-05
1.4209336243426818e-05   -7.892663779741037e-06   -3.4259462282219474e-05
1.4209336243426818e-05   -7.892663779741037e-06   -3.4259462282219474e-05
1.4209336243426818e-05   -7.892663779741037e-06   -3.4259462282219474e-05
1.5219535484305705e-05   -3.593270076307324e-06   -3.7930993803758726e-06
1.5219535484305705e-05   -3.593270076307324e-06   -3.7930993803758726e-06
1.5219535484305705e-05   -3.593270076307324e-06   -3.7930993803758726e-06
1.5219535484305705e-05   -3.593270076307324e-06   -3.7930993803758726e-06
3.5854816951545955e-05   -7.3397268764139635e-06   -3.593736107904567e-05
3.5854816951545955e-05   -7.3397268764139635e-06   -3.593736107904567e-05
3.5854816951545955e-05   -7.3397268764139635e-06   -3.593736107904567e-05
3.5854816951545955e-05   -7.3397268764139635e-06   -3.593736107904567e-05
2.365902034762807e-05   -5.200399186937321e-06   -1.6894630019535176e-05
2.365902034762807e-05   -5.200399186937321e-06   -1.6894630019535176e-05
2.365902034762807e-05   -5.200399186937321e-06   -1.6894630019535176e-05
2.365902034762807e-05   -5.200399186937321e-06   -1.6894630019535176e-05
3.5854816951546e-05   -3.593270076307415e-06   -1.5452253003119757e-06
3.5854816951546e-05   -3.593270076307415e-06   -1.5452253003119757e-06
3.5854816951546e-05   -3.593270076307415e-06   -1.5452253003119757e-06
3.5854816951546e-05   -3.593270076307415e-06   -1.5452253003119757e-06
1.5219535484305651e-05   -7.3397268764139635e-06   -3.8185235159109566e-05
1.5219535484305651e-05   -7.3397268764139635e-06   -3.8185235159109566e-05
1.5219535484305651e-05   -7.3397268764139635e-06   -3.8185235159109566e-05
1.5219535484305651e-05   -7.3397268764139635e-06   -3.8185235159109566e-05
1.6338436781578074e-05   -3.0738021862711067e-06   -5.330999233336053e-06
1.6338436781578074e-05   -3.0738021862711067e-06   -5.330999233336053e-06
1.6338436781578074e-05   -3.0738021862711067e-06   -5.330999233336053e-06
1.6338436781578074e-05   -3.0738021862711067e-06   -5.330999233336053e-06
3.7978195807464306e-05   -6.865171372544623e-06   -3.912244276471589e-05
3.7978195807464306e-05   -6.865171372544623e-06   -3.912244276471589e-05
3.7978195807464306e-05   -6.865171372544623e-06   -3.912244276471589e-05
3.7978195807464306e-05   -6.865171372544623e-06   -3.912244276471589e-05
2.5556936160543072e-05   -4.989206892090214e-06   -1.9545922041453107e-05
2.5556936160543072e-05   -4.989206892090214e-06   -1.9545922041453107e-05
2.5556936160543072e-05   -4.989206892090214e-06   -1.9545922041453107e-05
2.5556936160543072e-05   -4.989206892090214e-06   -1.9545922041453107e-05
3.797819580746435e-05   -3.0738021862711147e-06   -3.0561777215722466e-06
3.797819580746435e-05   -3.0738021862711147e-06   -3.0561777215722466e-06
3.797819580746435e-05   -3.0738021862711147e-06   -3.0561777215722466e-06
3.797819580746435e-05   -3.0738021862711147e-06   -3.0561777215722466e-06
1.6338436781578047e-05   -6.865171372544623e-06   -4.139726427648024e-05
1.6338436781578047e-05   -6.865171372544623e-06   -4.139726427648024e-05
1.6338436781578047e-05   -6.865171372544623e-06   -4.139726427648024e-05
1.6338436781578047e-05   -6.865171372544623e-06   -4.139726427648024e-05
1.726390584256548e-05   -1.7644666828039654e-06   -8.882555094095676e-06
1.726390584256548e-05   -1.7644666828039654e-06   -8.882555094095676e-06
1.726390584256548e-05   -1.7644666828039654e-06   -8.882555094095676e-06
1.726390584256548e-05   -1.7644666828039654e-06   -8.882555094095676e-06
4.044357107684271e-05   -5.363708103019345e-06   -4.535578563242865e-05
4.044357107684271e-05   -5.363708103019345e-06   -4.535578563242865e-05
4.044357107684271e-05   -5.363708103019345e-06   -4.535578563242865e-05
4.044357107684271e-05   -5.363708103019345e-06   -4.535578563242865e-05
2.6587425346095993e-05   -4.403267025755719e-06   -2.2838474060876397e-05
2.6587425346095993e-05   -4.403267025755719e-06   -2.2838474060876397e-05
2.6587425346095993e-05   -4.403267025755719e-06   -2.2838474060876397e-05
2.6587425346095993e-05   -4.403267025755719e-06   -2.2838474060876397e-05
1.4209336243426818e-05   -1.7314809382329757e-06   -2.3254860647518643e-05
1.4209336243426818e-05   -1.7314809382329757e-06   -2.3254860647518643e-05
1.4209336243426818e-05   -1.7314809382329757e-06   -2.3254860647518643e-05
1.4209336243426818e-05   -1.7314809382329757e-06   -2.3254860647518643e-05
-6.034699463212533e-06   -3.69954613411343e-06   -5.8175759276112406e-05
-6.034699463212533e-06   -3.69954613411343e-06   -5.8175759276112406e-05
-6.034699463212533e-06   -3.69954613411343e-06   -5.8175759276112406e-05
-6.034699463212533e-06   -3.69954613411343e-06   -5.8175759276112406e-05
-5.094375030343263e-06   -6.627993312758804e-07   -2.3738812944662903e-05
-5.094375030343263e-06   -6.627993312758804e-07   -2.3738812944662903e-05
-5.094375030343263e-06   -6.627993312758804e-07   -2.3738812944662903e-05
-5.094375030343263e-06   -6.627993312758804e-07   -2.3738812944662903e-05
1.5219535484305715e-05   -2.9325506748349196e-06   -5.623347966294244e-05
1.5219535484305715e-05   -2.9325506748349196e-06   -5.623347966294244e-05
1.5219535484305715e-05   -2.9325506748349196e-06   -5.623347966294244e-05
1.5219535484305715e-05   -2.9325506748349196e-06   -5.623347966294244e-05
4.6255257724478576e-06   -1.7894480654470288e-06   -3.9262658375478624e-05
4.6255257724478576e-06   -1.7894480654470288e-06   -3.9262658375478624e-05
4.6255257724478576e-06   -1.7894480654470288e-06   -3.9262658375478624e-05
4.6255257724478576e-06   -1.7894480654470288e-06   -3.9262658375478624e-05
1.5219535484305705e-05   -6.627993312756829e-07   -2.237696213852722e-05
1.5219535484305705e-05   -6.627993312756829e-07   -2.237696213852722e-05
1.5219535484305705e-05   -6.627993312756829e-07   -2.237696213852722e-05
1.5219535484305705e-05   -6.627993312756829e-07   -2.237696213852722e-05
-5.094375030343236e-06   -2.9325506748349196e-06   -5.7595330469077796e-05
-5.094375030343236e-06   -2.9325506748349196e-06   -5.7595330469077796e-05
-5.094375030343236e-06   -2.9325506748349196e-06   -5.7595330469077796e-05
-5.094375030343236e-06   -2.9325506748349196e-06   -5.7595330469077796e-05
-4.196544316879396e-06   4.420949393682365e-07   -2.404272558358513e-05
-4.196544316879396e-06   4.420949393682365e-07   -2.404272558358513e-05
-4.196544316879396e-06   4.420949393682365e-07   -2.404272558358513e-05
-4.196544316879396e-06   4.420949393682365e-07   -2.404272558358513e-05
1.6338436781578047e-05   -1.99490974559912e-06   -5.680549127003409e-05
1.6338436781578047e-05   -1.99490974559912e-06   -5.680549127003409e-05
1.6338436781578047e-05   -1.99490974559912e-06   -5.680549127003409e-05
1.6338436781578047e-05   -1.99490974559912e-06   -5.680549127003409e-05
5.372106643359112e-06   -1.111296899185179e-06   -3.9058442080850135e-05
5.372106643359112e-06   -1.111296899185179e-06   -3.9058442080850135e-05
5.372106643359112e-06   -1.111296899185179e-06   -3.9058442080850135e-05
5.372106643359112e-06   -1.111296899185179e-06   -3.9058442080850135e-05
1.6338436781578074e-05   4.420949393679688e-07   -2.2580522772605062e-05
1.6338436781578074e-05   4.420949393679688e-07   -2.2580522772605062e-05
1.6338436781578074e-05   4.420949393679688e-07   -2.2580522772605062e-05
1.6338436781578074e-05   4.420949393679688e-07   -2.2580522772605062e-05
-4.196544316879396e-06   -1.99490974559912e-06   -5.8267694081014535e-05
-4.196544316879396e-06   -1.99490974559912e-06   -5.8267694081014535e-05
-4.196544316879396e-06   -1.99490974559912e-06   -5.8267694081014535e-05
-4.196544316879396e-06   -1.99490974559912e-06   -5.8267694081014535e-05
-3.3530601477376137e-06   1.7503459280362316e-06   -2.4859438252163414e-05
-3.3530601477376137e-06   1.7503459280362316e-06   -2.4859438252163414e-05
-3.3530601477376137e-06   1.7503459280362316e-06   -2.4859438252163414e-05
-3.3530601477376137e-06   1.7503459280362316e-06   -2.4859438252163414e-05
1.726390584256545e-05   -8.153588300567442e-07   -5.768162538114625e-05
1.726390584256545e-05   -8.153588300567442e-07   -5.768162538114625e-05
1.726390584256545e-05   -8.153588300567442e-07   -5.768162538114625e-05
1.726390584256545e-05   -8.153588300567442e-07   -5.768162538114625e-05
6.302681808818335e-06   -2.7507994342611253e-07   -3.973708599021384e-05
6.302681808818335e-06   -2.7507994342611253e-07   -3.973708599021384e-05
6.302681808818335e-06   -2.7507994342611253e-07   -3.973708599021384e-05
6.302681808818335e-06   -2.7507994342611253e-07   -3.973708599021384e-05
-6.034699463212533e-06   1.327031787544742e-06   -2.9900405471177055e-05
-6.034699463212533e-06   1.327031787544742e-06   -2.9900405471177055e-05
-6.034699463212533e-06   1.327031787544742e-06   -2.9900405471177055e-05
-6.034699463212533e-06   1.327031787544742e-06   -2.9900405471177055e-05
-2.592218651802793e-05   6.66742919882158e-07   -6.344239054980032e-05
-2.592218651802793e-05   6.66742919882158e-07   -6.344239054980032e-05
-2.592218651802793e-05   6.66742919882158e-07   -6.344239054980032e-05
-2.592218651802793e-05   6.66742919882158e-07   -6.344239054980032e-05
-2.4910015102756445e-05   2.4574275342072356e-06   -2.969394821635842e-05
-2.4910015102756445e-05   2.4574275342072356e-06   -2.969394821635842e-05
-2.4910015102756445e-05   2.4574275342072356e-06   -2.969394821635842e-05
-2.4910015102756445e-05   2.4574275342072356e-06   -2.969394821635842e-05
-5.094375030343244e-06   1.5279666304049248e-06   -6.21623384614321e-05
-5.094375030343244e-06   1.5279666304049248e-06   -6.21623384614321e-05
-5.094375030343244e-06   1.5279666304049248e-06   -6.21623384614321e-05
-5.094375030343244e-06   1.5279666304049248e-06   -6.21623384614321e-05
-1.5384138024063567e-05   1.8192238762223742e-06   -4.518748781938883e-05
-1.5384138024063567e-05   1.8192238762223742e-06   -4.518748781938883e-05
-1.5384138024063567e-05   1.8192238762223742e-06   -4.518748781938883e-05
-1.5384138024063567e-05   1.8192238762223742e-06   -4.518748781938883e-05
-5.094375030343263e-06   2.457427534207465e-06   -2.91362716740766e-05
-5.094375030343263e-06   2.457427534207465e-06   -2.91362716740766e-05
-5.094375030343263e-06   2.457427534207465e-06   -2.91362716740766e-05
-5.094375030343263e-06   2.457427534207465e-06   -2.91362716740766e-05
-2.4910015102756445e-05   1.5279666304049248e-06   -6.27200150037136e-05
-2.4910015102756445e-05   1.5279666304049248e-06   -6.27200150037136e-05
-2.4910015102756445e-05   1.5279666304049248e-06   -6.27200150037136e-05
-2.4910015102756445e-05   1.5279666304049248e-06   -6.27200150037136e-05
-2.3933842258145087e-05   3.654337608419156e-06   -2.964919241650512e-05
-2.3933842258145087e-05   3.654337608419156e-06   -2.964919241650512e-05
-2.3933842258145087e-05   3.654337608419156e-06   -2.964919241650512e-05
-2.3933842258145087e-05   3.654337608419156e-06   -2.964919241650512e-05
-4.1965443168794165e-06   2.5256145139208354e-06   -6.18674551285824e-05
-4.1965443168794165e-06   2.5256145139208354e-06   -6.18674551285824e-05
-4.1965443168794165e-06   2.5256145139208354e-06   -6.18674551285824e-05
-4.1965443168794165e-06   2.5256145139208354e-06   -6.18674551285824e-05
-1.4513029858640376e-05   2.625451992612198e-06   -4.473321504619559e-05
-1.4513029858640376e-05   2.625451992612198e-06   -4.473321504619559e-05
-1.4513029858640376e-05   2.625451992612198e-06   -4.473321504619559e-05
-1.4513029858640376e-05   2.625451992612198e-06   -4.473321504619559e-05
-4.196544316879423e-06   3.6543376084193266e-06   -2.8971958559805997e-05
-4.196544316879423e-06   3.6543376084193266e-06   -2.8971958559805997e-05
-4.196544316879423e-06   3.6543376084193266e-06   -2.8971958559805997e-05
-4.196544316879423e-06   3.6543376084193266e-06   -2.8971958559805997e-05
-2.3933842258145087e-05   2.5256145139208354e-06   -6.254468898528147e-05
-2.3933842258145087e-05   2.5256145139208354e-06   -6.254468898528147e-05
-2.3933842258145087e-05   2.5256145139208354e-06   -6.254468898528147e-05
-2.3933842258145087e-05   2.5256145139208354e-06   -6.254468898528147e-05
-2.3031791460129006e-05   4.871920847582256e-06   -3.0346021280905095e-05
-2.3031791460129006e-05   4.871920847582256e-06   -3.0346021280905095e-05
-2.3031791460129006e-05   4.871920847582256e-06   -3.0346021280905095e-05
-2.3031791460129006e-05   4.871920847582256e-06   -3.0346021280905095e-05
-3.3530601477376375e-06   3.5567136969540114e-06   -6.235478251118029e-05
-3.3530601477376375e-06   3.5567136969540114e-06   -6.235478251118029e-05
-3.3530601477376375e-06   3.5567136969540114e-06   -6.235478251118029e-05
-3.3530601477376375e-06   3.5567136969540114e-06   -6.235478251118029e-05
-1.3734642125249143e-05   3.4527276180419154e-06   -4.498975423464818e-05
-1.3734642125249143e-05   3.4527276180419154e-06   -4.498975423464818e-05
-1.3734642125249143e-05   3.4527276180419154e-06   -4.498975423464818e-05
-1.3734642125249143e-05   3.4527276180419154e-06   -4.498975423464818e-05
-2.5922186518027985e-05   4.294853952062075e-06   -2.4260152062005255e-05
-2.5922186518027985e-05   4.294853952062075e-06   -2.4260152062005255e-05
-2.5922186518027985e-05   4.294853952062075e-06   -2.4260152062005255e-05
-2.5922186518027985e-05   4.294853952062075e-06   -2.4260152062005255e-05
-4.543754699894644e-05   5.1891324329284005e-06   -5.6249185775016216e-05
-4.543754699894644e-05   5.1891324329284005e-06   -5.6249185775016216e-05
-4.543754699894644e-05   5.1891324329284005e-06   -5.6249185775016216e-05
-4.543754699894644e-05   5.1891324329284005e-06   -5.6249185775016216e-05
-4.421779816212271e-05   5.501418407556635e-06   -2.2799887621071692e-05
-4.421779816212271e-05   5.501418407556635e-06   -2.2799887621071692e-05
-4.421779816212271e-05   5.501418407556635e-06   -2.2799887621071692e-05
-4.421779816212271e-05   5.501418407556635e-06   -2.2799887621071692e-05
-2.4910015102756485e-05   6.283208842579671e-06   -5.544860031436284e-05
-2.4910015102756485e-05   6.283208842579671e-06   -5.544860031436284e-05
-2.4910015102756485e-05   6.283208842579671e-06   -5.544860031436284e-05
-2.4910015102756485e-05   6.283208842579671e-06   -5.544860031436284e-05
-3.4865205199803403e-05   5.54617004649852e-06   -3.841439354163576e-05
-3.4865205199803403e-05   5.54617004649852e-06   -3.841439354163576e-05
-3.4865205199803403e-05   5.54617004649852e-06   -3.841439354163576e-05
-3.4865205199803403e-05   5.54617004649852e-06   -3.841439354163576e-05
-2.4910015102756485e-05   5.501418407556438e-06   -2.3268961882085817e-05
-2.4910015102756485e-05   5.501418407556438e-06   -2.3268961882085817e-05
-2.4910015102756485e-05   5.501418407556438e-06   -2.3268961882085817e-05
-2.4910015102756485e-05   5.501418407556438e-06   -2.3268961882085817e-05
-4.421779816212271e-05   6.283208842579671e-06   -5.4979526053349024e-05
-4.421779816212271e-05   6.283208842579671e-06   -5.4979526053349024e-05
-4.421779816212271e-05   6.283208842579671e-06   -5.4979526053349024e-05
-4.421779816212271e-05   6.283208842579671e-06   -5.4979526053349024e-05
-4.286860603692279e-05   6.5883941123478715e-06   -2.1987752792402204e-05
-4.286860603692279e-05   6.5883941123478715e-06   -2.1987752792402204e-05
-4.286860603692279e-05   6.5883941123478715e-06   -2.1987752792402204e-05
-4.286860603692279e-05   6.5883941123478715e-06   -2.1987752792402204e-05
-2.3933842258145128e-05   7.225489694500688e-06   -5.3927949772990006e-05
-2.3933842258145128e-05   7.225489694500688e-06   -5.3927949772990006e-05
-2.3933842258145128e-05   7.225489694500688e-06   -5.3927949772990006e-05
-2.3933842258145128e-05   7.225489694500688e-06   -5.3927949772990006e-05
-3.3631973002074226e-05   6.397753924229036e-06   -3.72677570709452e-05
-3.3631973002074226e-05   6.397753924229036e-06   -3.72677570709452e-05
-3.3631973002074226e-05   6.397753924229036e-06   -3.72677570709452e-05
-3.3631973002074226e-05   6.397753924229036e-06   -3.72677570709452e-05
-2.3933842258145135e-05   6.588394112347993e-06   -2.237001014169398e-05
-2.3933842258145135e-05   6.588394112347993e-06   -2.237001014169398e-05
-2.3933842258145135e-05   6.588394112347993e-06   -2.237001014169398e-05
-2.3933842258145135e-05   6.588394112347993e-06   -2.237001014169398e-05
-4.286860603692279e-05   7.225489694500688e-06   -5.354569242369835e-05
-4.286860603692279e-05   7.225489694500688e-06   -5.354569242369835e-05
-4.286860603692279e-05   7.225489694500688e-06   -5.354569242369835e-05
-4.286860603692279e-05   7.225489694500688e-06   -5.354569242369835e-05
-4.172840521107703e-05   7.804892323516003e-06   -2.2495692434118053e-05
-4.172840521107703e-05   7.804892323516003e-06   -2.2495692434118053e-05
-4.172840521107703e-05   7.804892323516003e-06   -2.2495692434118053e-05
-4.172840521107703e-05   7.804892323516003e-06   -2.2495692434118053e-05
-2.3031791460129057e-05   8.268247251871398e-06   -5.393472830937765e-05
-2.3031791460129057e-05   8.268247251871398e-06   -5.393472830937765e-05
-2.3031791460129057e-05   8.268247251871398e-06   -5.393472830937765e-05
-2.3031791460129057e-05   8.268247251871398e-06   -5.393472830937765e-05
-3.28636578868672e-05   7.182280619399788e-06   -3.68967042853319e-05
-3.28636578868672e-05   7.182280619399788e-06   -3.68967042853319e-05
-3.28636578868672e-05   7.182280619399788e-06   -3.68967042853319e-05
-3.28636578868672e-05   7.182280619399788e-06   -3.68967042853319e-05
-4.543754699894644e-05   7.383418842295334e-06   -1.215968628788186e-05
-4.543754699894644e-05   7.383418842295334e-06   -1.215968628788186e-05
-4.543754699894644e-05   7.383418842295334e-06   -1.215968628788186e-05
-4.543754699894644e-05   7.383418842295334e-06   -1.215968628788186e-05
-6.598831450745044e-05   1.0203921083017445e-05   -4.4718664124288564e-05
-6.598831450745044e-05   1.0203921083017445e-05   -4.4718664124288564e-05
-6.598831450745044e-05   1.0203921083017445e-05   -4.4718664124288564e-05
-6.598831450745044e-05   1.0203921083017445e-05   -4.4718664124288564e-05
-6.319029216188526e-05   8.635814484314955e-06   -3.8808925730527376e-06
-6.319029216188526e-05   8.635814484314955e-06   -3.8808925730527376e-06
-6.319029216188526e-05   8.635814484314955e-06   -3.8808925730527376e-06
-6.319029216188526e-05   8.635814484314955e-06   -3.8808925730527376e-06
-4.421779816212264e-05   1.165753441053274e-05   -3.7314747861720863e-05
-4.421779816212264e-05   1.165753441053274e-05   -3.7314747861720863e-05
-4.421779816212264e-05   1.165753441053274e-05   -3.7314747861720863e-05
-4.421779816212264e-05   1.165753441053274e-05   -3.7314747861720863e-05
-5.244651311813837e-05   9.72137125266996e-06   -2.243852504031025e-05
-5.244651311813837e-05   9.72137125266996e-06   -2.243852504031025e-05
-5.244651311813837e-05   9.72137125266996e-06   -2.243852504031025e-05
-5.244651311813837e-05   9.72137125266996e-06   -2.243852504031025e-05
-4.421779816212267e-05   8.635814484314884e-06   -5.693924528783149e-06
-4.421779816212267e-05   8.635814484314884e-06   -5.693924528783149e-06
-4.421779816212267e-05   8.635814484314884e-06   -5.693924528783149e-06
-4.421779816212267e-05   8.635814484314884e-06   -5.693924528783149e-06
-6.319029216188518e-05   1.165753441053274e-05   -3.5501715905990154e-05
-6.319029216188518e-05   1.165753441053274e-05   -3.5501715905990154e-05
-6.319029216188518e-05   1.165753441053274e-05   -3.5501715905990154e-05
-6.319029216188518e-05   1.165753441053274e-05   -3.5501715905990154e-05
-6.088775187085589e-05   9.08447182287192e-06   -4.2567670713658523e-07
-6.088775187085589e-05   9.08447182287192e-06   -4.2567670713658523e-07
-6.088775187085589e-05   9.08447182287192e-06   -4.2567670713658523e-07
-6.088775187085589e-05   9.08447182287192e-06   -4.2567670713658523e-07
-4.286860603692279e-05   1.2039693542513497e-05   -3.223071946214345e-05
-4.286860603692279e-05   1.2039693542513497e-05   -3.223071946214345e-05
-4.286860603692279e-05   1.2039693542513497e-05   -3.223071946214345e-05
-4.286860603692279e-05   1.2039693542513497e-05   -3.223071946214345e-05
-5.1490543460366434e-05   1.029970646017949e-05   -1.6816831507003235e-05
-5.1490543460366434e-05   1.029970646017949e-05   -1.6816831507003235e-05
-5.1490543460366434e-05   1.029970646017949e-05   -1.6816831507003235e-05
-5.1490543460366434e-05   1.029970646017949e-05   -1.6816831507003235e-05
-4.286860603692279e-05   9.084471822872052e-06   -2.198809738921661e-06
-4.286860603692279e-05   9.084471822872052e-06   -2.198809738921661e-06
-4.286860603692279e-05   9.084471822872052e-06   -2.198809738921661e-06
-4.286860603692279e-05   9.084471822872052e-06   -2.198809738921661e-06
-6.088775187085567e-05   1.2039693542513497e-05   -3.045758643035871e-05
-6.088775187085567e-05   1.2039693542513497e-05   -3.045758643035871e-05
-6.088775187085567e-05   1.2039693542513497e-05   -3.045758643035871e-05
-6.088775187085567e-05   1.2039693542513497e-05   -3.045758643035871e-05
-5.840459361620246e-05   9.654258145819824e-06   3.960334217552189e-06
-5.840459361620246e-05   9.654258145819824e-06   3.960334217552189e-06
-5.840459361620246e-05   9.654258145819824e-06   3.960334217552189e-06
-5.840459361620246e-05   9.654258145819824e-06   3.960334217552189e-06
-4.1728405211077004e-05   1.2369891294322557e-05   -2.5462693013425252e-05
-4.1728405211077004e-05   1.2369891294322557e-05   -2.5462693013425252e-05
-4.1728405211077004e-05   1.2369891294322557e-05   -2.5462693013425252e-05
-4.1728405211077004e-05   1.2369891294322557e-05   -2.5462693013425252e-05
-4.9157822866092265e-05   1.0394271168989114e-05   -1.1894958179867296e-05
-4.9157822866092265e-05   1.0394271168989114e-05   -1.1894958179867296e-05
-4.9157822866092265e-05   1.0394271168989114e-05   -1.1894958179867296e-05
-4.9157822866092265e-05   1.0394271168989114e-05   -1.1894958179867296e-05
5.658799512751921e-05   -7.892663779740922e-06   1.1185735538140956e-05
5.658799512751921e-05   -7.892663779740922e-06   1.1185735538140956e-05
5.658799512751921e-05   -7.892663779740922e-06   1.1185735538140956e-05
5.658799512751921e-05   -7.892663779740922e-06   1.1185735538140956e-05
2.7278041162063116e-05   -1.1691758666020503e-05   -3.994364466938685e-05
2.7278041162063116e-05   -1.1691758666020503e-05   -3.994364466938685e-05
2.7278041162063116e-05   -1.1691758666020503e-05   -3.994364466938685e-05
2.7278041162063116e-05   -1.1691758666020503e-05   -3.994364466938685e-05
2.8397806842038974e-05   -7.3397268764139635e-06   5.3767404815823795e-06
2.8397806842038974e-05   -7.3397268764139635e-06   5.3767404815823795e-06
2.8397806842038974e-05   -7.3397268764139635e-06   5.3767404815823795e-06
2.8397806842038974e-05   -7.3397268764139635e-06   5.3767404815823795e-06
5.9184625035384596e-05   -1.1418119475423063e-05   -4.348758761458789e-05
5.9184625035384596e-05   -1.1418119475423063e-05   -4.348758761458789e-05
5.9184625035384596e-05   -1.1418119475423063e-05   -4.348758761458789e-05
5.9184625035384596e-05   -1.1418119475423063e-05   -4.348758761458789e-05
4.111984473492072e-05   -8.642979403380123e-06   -1.5044704490373671e-05
4.111984473492072e-05   -8.642979403380123e-06   -1.5044704490373671e-05
4.111984473492072e-05   -8.642979403380123e-06   -1.5044704490373671e-05
4.111984473492072e-05   -8.642979403380123e-06   -1.5044704490373671e-05
5.918462503538472e-05   -7.3397268764137916e-06   7.823776040988316e-06
5.918462503538472e-05   -7.3397268764137916e-06   7.823776040988316e-06
5.918462503538472e-05   -7.3397268764137916e-06   7.823776040988316e-06
5.918462503538472e-05   -7.3397268764137916e-06   7.823776040988316e-06
2.839780684203892e-05   -1.1418119475423063e-05   -4.593462317399339e-05
2.839780684203892e-05   -1.1418119475423063e-05   -4.593462317399339e-05
2.839780684203892e-05   -1.1418119475423063e-05   -4.593462317399339e-05
2.839780684203892e-05   -1.1418119475423063e-05   -4.593462317399339e-05
2.9511650037542588e-05   -6.865171372544623e-06   2.536140839053992e-06
2.9511650037542588e-05   -6.865171372544623e-06   2.536140839053992e-06
2.9511650037542588e-05   -6.865171372544623e-06   2.536140839053992e-06
2.9511650037542588e-05   -6.865171372544623e-06   2.536140839053992e-06
6.117819542948418e-05   -1.102191518214616e-05   -4.774738852842108e-05
6.117819542948418e-05   -1.102191518214616e-05   -4.774738852842108e-05
6.117819542948418e-05   -1.102191518214616e-05   -4.774738852842108e-05
6.117819542948418e-05   -1.102191518214616e-05   -4.774738852842108e-05
4.330620805112164e-05   -8.614563222363817e-06   -1.940515407368649e-05
4.330620805112164e-05   -8.614563222363817e-06   -1.940515407368649e-05
4.330620805112164e-05   -8.614563222363817e-06   -1.940515407368649e-05
4.330620805112164e-05   -8.614563222363817e-06   -1.940515407368649e-05
6.117819542948418e-05   -6.865171372544655e-06   5.030187124815044e-06
6.117819542948418e-05   -6.865171372544655e-06   5.030187124815044e-06
6.117819542948418e-05   -6.865171372544655e-06   5.030187124815044e-06
6.117819542948418e-05   -6.865171372544655e-06   5.030187124815044e-06
2.9511650037542588e-05   -1.102191518214616e-05   -5.024143481418175e-05
2.9511650037542588e-05   -1.102191518214616e-05   -5.024143481418175e-05
2.9511650037542588e-05   -1.102191518214616e-05   -5.024143481418175e-05
2.9511650037542588e-05   -1.102191518214616e-05   -5.024143481418175e-05
3.0268690379555108e-05   -5.363708103019345e-06   -3.1878160056779403e-06
3.0268690379555108e-05   -5.363708103019345e-06   -3.1878160056779403e-06
3.0268690379555108e-05   -5.363708103019345e-06   -3.1878160056779403e-06
3.0268690379555108e-05   -5.363708103019345e-06   -3.1878160056779403e-06
6.328609662615672e-05   -9.475804691268155e-06   -5.574956846373118e-05
6.328609662615672e-05   -9.475804691268155e-06   -5.574956846373118e-05
6.328609662615672e-05   -9.475804691268155e-06   -5.574956846373118e-05
6.328609662615672e-05   -9.475804691268155e-06   -5.574956846373118e-05
4.391986432140534e-05   -7.95283517120984e-06   -2.4386296334514808e-05
4.391986432140534e-05   -7.95283517120984e-06   -2.4386296334514808e-05
4.391986432140534e-05   -7.95283517120984e-06   -2.4386296334514808e-05
4.391986432140534e-05   -7.95283517120984e-06   -2.4386296334514808e-05
2.727804116206317e-05   -3.6995461341133463e-06   -1.3829179269991788e-05
2.727804116206317e-05   -3.6995461341133463e-06   -1.3829179269991788e-05
2.727804116206317e-05   -3.6995461341133463e-06   -1.3829179269991788e-05
2.727804116206317e-05   -3.6995461341133463e-06   -1.3829179269991788e-05
-1.6369093009005085e-06   -7.585433713695657e-06   -6.435229592268062e-05
-1.6369093009005085e-06   -7.585433713695657e-06   -6.435229592268062e-05
-1.6369093009005085e-06   -7.585433713695657e-06   -6.435229592268062e-05
-1.6369093009005085e-06   -7.585433713695657e-06   -6.435229592268062e-05
-4.871695619396545e-07   -2.932550674834486e-06   -1.5246073828140876e-05
-4.871695619396545e-07   -2.932550674834486e-06   -1.5246073828140876e-05
-4.871695619396545e-07   -2.932550674834486e-06   -1.5246073828140876e-05
-4.871695619396545e-07   -2.932550674834486e-06   -1.5246073828140876e-05
2.8397806842038977e-05   -7.2235003513196165e-06   -6.081313136221435e-05
2.8397806842038977e-05   -7.2235003513196165e-06   -6.081313136221435e-05
2.8397806842038977e-05   -7.2235003513196165e-06   -6.081313136221435e-05
2.8397806842038977e-05   -7.2235003513196165e-06   -6.081313136221435e-05
1.3428543561963033e-05   -4.588759874879847e-06   -3.7445203514618235e-05
1.3428543561963033e-05   -4.588759874879847e-06   -3.7445203514618235e-05
1.3428543561963033e-05   -4.588759874879847e-06   -3.7445203514618235e-05
1.3428543561963033e-05   -4.588759874879847e-06   -3.7445203514618235e-05
2.8397806842038947e-05   -2.932550674834662e-06   -1.2671504022249841e-05
2.8397806842038947e-05   -2.932550674834662e-06   -1.2671504022249841e-05
2.8397806842038947e-05   -2.932550674834662e-06   -1.2671504022249841e-05
2.8397806842038947e-05   -2.932550674834662e-06   -1.2671504022249841e-05
-4.871695619396545e-07   -7.2235003513196165e-06   -6.338770116810517e-05
-4.871695619396545e-07   -7.2235003513196165e-06   -6.338770116810517e-05
-4.871695619396545e-07   -7.2235003513196165e-06   -6.338770116810517e-05
-4.871695619396545e-07   -7.2235003513196165e-06   -6.338770116810517e-05
5.259128129359416e-07   -1.99490974559912e-06   -1.5604402069294317e-05
5.259128129359416e-07   -1.99490974559912e-06   -1.5604402069294317e-05
5.259128129359416e-07   -1.99490974559912e-06   -1.5604402069294317e-05
5.259128129359416e-07   -1.99490974559912e-06   -1.5604402069294317e-05
2.9511650037542585e-05   -6.548769603589074e-06   -6.118164819551104e-05
2.9511650037542585e-05   -6.548769603589074e-06   -6.118164819551104e-05
2.9511650037542585e-05   -6.548769603589074e-06   -6.118164819551104e-05
2.9511650037542585e-05   -6.548769603589074e-06   -6.118164819551104e-05
1.4211935595229159e-05   -4.213577937591754e-06   -3.708323912458638e-05
1.4211935595229159e-05   -4.213577937591754e-06   -3.708323912458638e-05
1.4211935595229159e-05   -4.213577937591754e-06   -3.708323912458638e-05
1.4211935595229159e-05   -4.213577937591754e-06   -3.708323912458638e-05
2.9511650037542588e-05   -1.9949097455988636e-06   -1.287208615449991e-05
2.9511650037542588e-05   -1.9949097455988636e-06   -1.287208615449991e-05
2.9511650037542588e-05   -1.9949097455988636e-06   -1.287208615449991e-05
2.9511650037542588e-05   -1.9949097455988636e-06   -1.287208615449991e-05
5.259128129359687e-07   -6.548769603589508e-06   -6.391396411030556e-05
5.259128129359687e-07   -6.548769603589508e-06   -6.391396411030556e-05
5.259128129359687e-07   -6.548769603589508e-06   -6.391396411030556e-05
5.259128129359687e-07   -6.548769603589508e-06   -6.391396411030556e-05
1.2475019416983394e-06   -8.153588300567442e-07   -1.62182053826624e-05
1.2475019416983394e-06   -8.153588300567442e-07   -1.62182053826624e-05
1.2475019416983394e-06   -8.153588300567442e-07   -1.62182053826624e-05
1.2475019416983394e-06   -8.153588300567442e-07   -1.62182053826624e-05
3.0268690379555196e-05   -5.588849630716857e-06   -6.172275829869494e-05
3.0268690379555196e-05   -5.588849630716857e-06   -6.172275829869494e-05
3.0268690379555196e-05   -5.588849630716857e-06   -6.172275829869494e-05
3.0268690379555196e-05   -5.588849630716857e-06   -6.172275829869494e-05
1.5148577035595728e-05   -3.5519032167848595e-06   -3.7744737240455624e-05
1.5148577035595728e-05   -3.5519032167848595e-06   -3.7744737240455624e-05
1.5148577035595728e-05   -3.5519032167848595e-06   -3.7744737240455624e-05
1.5148577035595728e-05   -3.5519032167848595e-06   -3.7744737240455624e-05
-1.6369093009005085e-06   6.667429198822712e-07   -2.1031169770830988e-05
-1.6369093009005085e-06   6.667429198822712e-07   -2.1031169770830988e-05
-1.6369093009005085e-06   6.667429198822712e-07   -2.1031169770830988e-05
-1.6369093009005085e-06   6.667429198822712e-07   -2.1031169770830988e-05
-3.0124677373752004e-05   -3.996702918541983e-06   -7.13088507286381e-05
-3.0124677373752004e-05   -3.996702918541983e-06   -7.13088507286381e-05
-3.0124677373752004e-05   -3.996702918541983e-06   -7.13088507286381e-05
-3.0124677373752004e-05   -3.996702918541983e-06   -7.13088507286381e-05
-2.8745321547711807e-05   1.5279666304044912e-06   -2.2872243233103533e-05
-2.8745321547711807e-05   1.5279666304044912e-06   -2.2872243233103533e-05
-2.8745321547711807e-05   1.5279666304044912e-06   -2.2872243233103533e-05
-2.8745321547711807e-05   1.5279666304044912e-06   -2.2872243233103533e-05
-4.871695619396415e-07   -3.570635723942721e-06   -6.691000179678201e-05
-4.871695619396415e-07   -3.570635723942721e-06   -6.691000179678201e-05
-4.871695619396415e-07   -3.570635723942721e-06   -6.691000179678201e-05
-4.871695619396415e-07   -3.570635723942721e-06   -6.691000179678201e-05
-1.5066972674184141e-05   -7.817140826446231e-07   -4.428368292781995e-05
-1.5066972674184141e-05   -7.817140826446231e-07   -4.428368292781995e-05
-1.5066972674184141e-05   -7.817140826446231e-07   -4.428368292781995e-05
-1.5066972674184141e-05   -7.817140826446231e-07   -4.428368292781995e-05
-4.871695619396545e-07   1.5279666304044888e-06   -1.981308182049486e-05
-4.871695619396545e-07   1.5279666304044888e-06   -1.981308182049486e-05
-4.871695619396545e-07   1.5279666304044888e-06   -1.981308182049486e-05
-4.871695619396545e-07   1.5279666304044888e-06   -1.981308182049486e-05
-2.8745321547711807e-05   -3.570635723942721e-06   -6.996916320939068e-05
-2.8745321547711807e-05   -3.570635723942721e-06   -6.996916320939068e-05
-2.8745321547711807e-05   -3.570635723942721e-06   -6.996916320939068e-05
-2.8745321547711807e-05   -3.570635723942721e-06   -6.996916320939068e-05
-2.7479819013854673e-05   2.5256145139204017e-06   -2.246317249005969e-05
-2.7479819013854673e-05   2.5256145139204017e-06   -2.246317249005969e-05
-2.7479819013854673e-05   2.5256145139204017e-06   -2.246317249005969e-05
-2.7479819013854673e-05   2.5256145139204017e-06   -2.246317249005969e-05
5.259128129359555e-07   -2.9060677747415505e-06   -6.588038282817995e-05
5.259128129359555e-07   -2.9060677747415505e-06   -6.588038282817995e-05
5.259128129359555e-07   -2.9060677747415505e-06   -6.588038282817995e-05
5.259128129359555e-07   -2.9060677747415505e-06   -6.588038282817995e-05
-1.3943244436719609e-05   -2.934234613013488e-07   -4.3332707333485117e-05
-1.3943244436719609e-05   -2.934234613013488e-07   -4.3332707333485117e-05
-1.3943244436719609e-05   -2.934234613013488e-07   -4.3332707333485117e-05
-1.3943244436719609e-05   -2.934234613013488e-07   -4.3332707333485117e-05
5.259128129359687e-07   2.5256145139205724e-06   -1.9204163116862127e-05
5.259128129359687e-07   2.5256145139205724e-06   -1.9204163116862127e-05
5.259128129359687e-07   2.5256145139205724e-06   -1.9204163116862127e-05
5.259128129359687e-07   2.5256145139205724e-06   -1.9204163116862127e-05
-2.7479819013854673e-05   -2.9060677747415505e-06   -6.913939220137746e-05
-2.7479819013854673e-05   -2.9060677747415505e-06   -6.913939220137746e-05
-2.7479819013854673e-05   -2.9060677747415505e-06   -6.913939220137746e-05
-2.7479819013854673e-05   -2.9060677747415505e-06   -6.913939220137746e-05
-2.6626439251086945e-05   3.5567136969540114e-06   -2.2851594969634922e-05
-2.6626439251086945e-05   3.5567136969540114e-06   -2.2851594969634922e-05
-2.6626439251086945e-05   3.5567136969540114e-06   -2.2851594969634922e-05
-2.6626439251086945e-05   3.5567136969540114e-06   -2.2851594969634922e-05
1.247501941698334e-06   -2.2760451560363028e-06   -6.580850831248335e-05
1.247501941698334e-06   -2.2760451560363028e-06   -6.580850831248335e-05
1.247501941698334e-06   -2.2760451560363028e-06   -6.580850831248335e-05
1.247501941698334e-06   -2.2760451560363028e-06   -6.580850831248335e-05
-1.3141454141383274e-05   2.549456789807496e-07   -4.334550934169127e-05
-1.3141454141383274e-05   2.549456789807496e-07   -4.334550934169127e-05
-1.3141454141383274e-05   2.549456789807496e-07   -4.334550934169127e-05
-1.3141454141383274e-05   2.549456789807496e-07   -4.334550934169127e-05
-3.0124677373752004e-05   5.189132432928516e-06   -1.71725995876215e-05
-3.0124677373752004e-05   5.189132432928516e-06   -1.71725995876215e-05
-3.0124677373752004e-05   5.189132432928516e-06   -1.71725995876215e-05
-3.0124677373752004e-05   5.189132432928516e-06   -1.71725995876215e-05
-5.900785053440686e-05   9.852325192844305e-07   -6.78335614702325e-05
-5.900785053440686e-05   9.852325192844305e-07   -6.78335614702325e-05
-5.900785053440686e-05   9.852325192844305e-07   -6.78335614702325e-05
-5.900785053440686e-05   9.852325192844305e-07   -6.78335614702325e-05
-5.704432649353048e-05   6.283208842579671e-06   -1.830581000984797e-05
-5.704432649353048e-05   6.283208842579671e-06   -1.830581000984797e-05
-5.704432649353048e-05   6.283208842579671e-06   -1.830581000984797e-05
-5.704432649353048e-05   6.283208842579671e-06   -1.830581000984797e-05
-2.87453215477118e-05   1.7749063990876897e-06   -6.276583678678383e-05
-2.87453215477118e-05   1.7749063990876897e-06   -6.276583678678383e-05
-2.87453215477118e-05   1.7749063990876897e-06   -6.276583678678383e-05
-2.87453215477118e-05   1.7749063990876897e-06   -6.276583678678383e-05
-4.327592608259318e-05   3.934673477431951e-06   -3.984402280898797e-05
-4.327592608259318e-05   3.934673477431951e-06   -3.984402280898797e-05
-4.327592608259318e-05   3.934673477431951e-06   -3.984402280898797e-05
-4.327592608259318e-05   3.934673477431951e-06   -3.984402280898797e-05
-2.8745321547711807e-05   6.283208842579787e-06   -1.560082854375265e-05
-2.8745321547711807e-05   6.283208842579787e-06   -1.560082854375265e-05
-2.8745321547711807e-05   6.283208842579787e-06   -1.560082854375265e-05
-2.8745321547711807e-05   6.283208842579787e-06   -1.560082854375265e-05
-5.704432649353058e-05   1.7749063990876897e-06   -6.547081825287928e-05
-5.704432649353058e-05   1.7749063990876897e-06   -6.547081825287928e-05
-5.704432649353058e-05   1.7749063990876897e-06   -6.547081825287928e-05
-5.704432649353058e-05   1.7749063990876897e-06   -6.547081825287928e-05
-5.514680750176961e-05   7.225489694501121e-06   -1.6680500943227474e-05
-5.514680750176961e-05   7.225489694501121e-06   -1.6680500943227474e-05
-5.514680750176961e-05   7.225489694501121e-06   -1.6680500943227474e-05
-5.514680750176961e-05   7.225489694501121e-06   -1.6680500943227474e-05
-2.747981901385472e-05   2.5020435854019273e-06   -5.9958080757626725e-05
-2.747981901385472e-05   2.5020435854019273e-06   -5.9958080757626725e-05
-2.747981901385472e-05   2.5020435854019273e-06   -5.9958080757626725e-05
-2.747981901385472e-05   2.5020435854019273e-06   -5.9958080757626725e-05
-4.150221731668101e-05   4.621713357700827e-06   -3.7859218782961885e-05
-4.150221731668101e-05   4.621713357700827e-06   -3.7859218782961885e-05
-4.150221731668101e-05   4.621713357700827e-06   -3.7859218782961885e-05
-4.150221731668101e-05   4.621713357700827e-06   -3.7859218782961885e-05
-2.7479819013854673e-05   7.225489694500919e-06   -1.3846433277768348e-05
-2.7479819013854673e-05   7.225489694500919e-06   -1.3846433277768348e-05
-2.7479819013854673e-05   7.225489694500919e-06   -1.3846433277768348e-05
-2.7479819013854673e-05   7.225489694500919e-06   -1.3846433277768348e-05
-5.5146807501769705e-05   2.5020435854019273e-06   -6.279214842308577e-05
-5.5146807501769705e-05   2.5020435854019273e-06   -6.279214842308577e-05
-5.5146807501769705e-05   2.5020435854019273e-06   -6.279214842308577e-05
-5.5146807501769705e-05   2.5020435854019273e-06   -6.279214842308577e-05
-5.3706522317182226e-05   8.268247251871398e-06   -1.6732842296315583e-05
-5.3706522317182226e-05   8.268247251871398e-06   -1.6732842296315583e-05
-5.3706522317182226e-05   8.268247251871398e-06   -1.6732842296315583e-05
-5.3706522317182226e-05   8.268247251871398e-06   -1.6732842296315583e-05
-2.662643925108699e-05   3.1175375537705573e-06   -5.8775888254280654e-05
-2.662643925108699e-05   3.1175375537705573e-06   -5.8775888254280654e-05
-2.662643925108699e-05   3.1175375537705573e-06   -5.8775888254280654e-05
-2.662643925108699e-05   3.1175375537705573e-06   -5.8775888254280654e-05
-4.0506629803859734e-05   5.101136342010142e-06   -3.683239660593712e-05
-4.0506629803859734e-05   5.101136342010142e-06   -3.683239660593712e-05
-4.0506629803859734e-05   5.101136342010142e-06   -3.683239660593712e-05
-4.0506629803859734e-05   5.101136342010142e-06   -3.683239660593712e-05
-5.900785053440686e-05   1.0203921083017411e-05   -9.856719229513764e-06
-5.900785053440686e-05   1.0203921083017411e-05   -9.856719229513764e-06
-5.900785053440686e-05   1.0203921083017411e-05   -9.856719229513764e-06
-5.900785053440686e-05   1.0203921083017411e-05   -9.856719229513764e-06
-8.917939851527389e-05   9.627649095464777e-06   -6.0488395723490686e-05
-8.917939851527389e-05   9.627649095464777e-06   -6.0488395723490686e-05
-8.917939851527389e-05   9.627649095464777e-06   -6.0488395723490686e-05
-8.917939851527389e-05   9.627649095464777e-06   -6.0488395723490686e-05
-8.531069019993156e-05   1.165753441053274e-05   -3.182333977234768e-07
-8.531069019993156e-05   1.165753441053274e-05   -3.182333977234768e-07
-8.531069019993156e-05   1.165753441053274e-05   -3.182333977234768e-07
-8.531069019993156e-05   1.165753441053274e-05   -3.182333977234768e-07
-5.7044326493530384e-05   1.2195531778026562e-05   -4.7751637995554984e-05
-5.7044326493530384e-05   1.2195531778026562e-05   -4.7751637995554984e-05
-5.7044326493530384e-05   1.2195531778026562e-05   -4.7751637995554984e-05
-5.7044326493530384e-05   1.2195531778026562e-05   -4.7751637995554984e-05
-6.950272715052093e-05   1.1500179227021904e-05   -2.657042536996811e-05
-6.950272715052093e-05   1.1500179227021904e-05   -2.657042536996811e-05
-6.950272715052093e-05   1.1500179227021904e-05   -2.657042536996811e-05
-6.950272715052093e-05   1.1500179227021904e-05   -2.657042536996811e-05
-5.7044326493530526e-05   1.1657534410532452e-05   -6.410318182199434e-07
-5.7044326493530526e-05   1.1657534410532452e-05   -6.410318182199434e-07
-5.7044326493530526e-05   1.1657534410532452e-05   -6.410318182199434e-07
-5.7044326493530526e-05   1.1657534410532452e-05   -6.410318182199434e-07
-8.53106901999314e-05   1.2195531778026562e-05   -4.742883957505853e-05
-8.53106901999314e-05   1.2195531778026562e-05   -4.742883957505853e-05
-8.53106901999314e-05   1.2195531778026562e-05   -4.742883957505853e-05
-8.53106901999314e-05   1.2195531778026562e-05   -4.742883957505853e-05
-8.210127937814447e-05   1.2039693542513497e-05   5.0740311133556926e-06
-8.210127937814447e-05   1.2039693542513497e-05   5.0740311133556926e-06
-8.210127937814447e-05   1.2039693542513497e-05   5.0740311133556926e-06
-8.210127937814447e-05   1.2039693542513497e-05   5.0740311133556926e-06
-5.514680750176961e-05   1.27722920342274e-05   -4.0289647775630946e-05
-5.514680750176961e-05   1.27722920342274e-05   -4.0289647775630946e-05
-5.514680750176961e-05   1.27722920342274e-05   -4.0289647775630946e-05
-5.514680750176961e-05   1.27722920342274e-05   -4.0289647775630946e-05
-6.80338972967998e-05   1.2336428533286925e-05   -1.854964668334888e-05
-6.80338972967998e-05   1.2336428533286925e-05   -1.854964668334888e-05
-6.80338972967998e-05   1.2336428533286925e-05   -1.854964668334888e-05
-6.80338972967998e-05   1.2336428533286925e-05   -1.854964668334888e-05
-5.5146807501769705e-05   1.203969354251347e-05   4.6344720183270904e-06
-5.5146807501769705e-05   1.203969354251347e-05   4.6344720183270904e-06
-5.5146807501769705e-05   1.203969354251347e-05   4.6344720183270904e-06
-5.5146807501769705e-05   1.203969354251347e-05   4.6344720183270904e-06
-8.210127937814462e-05   1.2772292034227833e-05   -3.98500886806027e-05
-8.210127937814462e-05   1.2772292034227833e-05   -3.98500886806027e-05
-8.210127937814462e-05   1.2772292034227833e-05   -3.98500886806027e-05
-8.210127937814462e-05   1.2772292034227833e-05   -3.98500886806027e-05
-7.874546971706615e-05   1.2369891294322557e-05   1.2298317151954435e-05
-7.874546971706615e-05   1.2369891294322557e-05   1.2298317151954435e-05
-7.874546971706615e-05   1.2369891294322557e-05   1.2298317151954435e-05
-7.874546971706615e-05   1.2369891294322557e-05   1.2298317151954435e-05
-5.370652231718227e-05   1.376511980987448e-05   -3.0270398957183065e-05
-5.370652231718227e-05   1.376511980987448e-05   -3.0270398957183065e-05
-5.370652231718227e-05   1.376511980987448e-05   -3.0270398957183065e-05
-5.370652231718227e-05   1.376511980987448e-05   -3.0270398957183065e-05
-6.47958829345438e-05   1.261839759956725e-05   -1.1100097935397556e-05
-6.47958829345438e-05   1.261839759956725e-05   -1.1100097935397556e-05
-6.47958829345438e-05   1.261839759956725e-05   -1.1100097935397556e-05
-6.47958829345438e-05   1.261839759956725e-05   -1.1100097935397556e-05
7.781795953451458e-05   -1.169175866602046e-05   2.652120549288188e-05
7.781795953451458e-05   -1.169175866602046e-05   2.652120549288188e-05
7.781795953451458e-05   -1.169175866602046e-05   2.652120549288188e-05
7.781795953451458e-05   -1.169175866602046e-05   2.652120549288188e-05
3.9124128507571744e-05   -1.4790076379457215e-05   -3.98275035134179e-05
3.9124128507571744e-05   -1.4790076379457215e-05   -3.98275035134179e-05
3.9124128507571744e-05   -1.4790076379457215e-05   -3.98275035134179e-05
3.9124128507571744e-05   -1.4790076379457215e-05   -3.98275035134179e-05
4.0082766402687665e-05   -1.1418119475423063e-05   1.9017263186881656e-05
4.0082766402687665e-05   -1.1418119475423063e-05   1.9017263186881656e-05
4.0082766402687665e-05   -1.1418119475423063e-05   1.9017263186881656e-05
4.0082766402687665e-05   -1.1418119475423063e-05   1.9017263186881656e-05
7.97606176277665e-05   -1.5160038267135294e-05   -4.486733757988915e-05
7.97606176277665e-05   -1.5160038267135294e-05   -4.486733757988915e-05
7.97606176277665e-05   -1.5160038267135294e-05   -4.486733757988915e-05
7.97606176277665e-05   -1.5160038267135294e-05   -4.486733757988915e-05
5.683887460479797e-05   -1.1942978870712814e-05   -8.594668179461257e-06
5.683887460479797e-05   -1.1942978870712814e-05   -8.594668179461257e-06
5.683887460479797e-05   -1.1942978870712814e-05   -8.594668179461257e-06
5.683887460479797e-05   -1.1942978870712814e-05   -8.594668179461257e-06
7.976061762776648e-05   -1.1418119475422963e-05   2.1262414461908994e-05
7.976061762776648e-05   -1.1418119475422963e-05   2.1262414461908994e-05
7.976061762776648e-05   -1.1418119475422963e-05   2.1262414461908994e-05
7.976061762776648e-05   -1.1418119475422963e-05   2.1262414461908994e-05
4.0082766402687665e-05   -1.5160038267135294e-05   -4.711248885491616e-05
4.0082766402687665e-05   -1.5160038267135294e-05   -4.711248885491616e-05
4.0082766402687665e-05   -1.5160038267135294e-05   -4.711248885491616e-05
4.0082766402687665e-05   -1.5160038267135294e-05   -4.711248885491616e-05
4.089311571721003e-05   -1.102191518214616e-05   1.5002093983179383e-05
4.089311571721003e-05   -1.102191518214616e-05   1.5002093983179383e-05
4.089311571721003e-05   -1.102191518214616e-05   1.5002093983179383e-05
4.089311571721003e-05   -1.102191518214616e-05   1.5002093983179383e-05
8.097157859944183e-05   -1.5023227910315046e-05   -4.9394556516972556e-05
8.097157859944183e-05   -1.5023227910315046e-05   -4.9394556516972556e-05
8.097157859944183e-05   -1.5023227910315046e-05   -4.9394556516972556e-05
8.097157859944183e-05   -1.5023227910315046e-05   -4.9394556516972556e-05
5.8845073587848424e-05   -1.2320859159282039e-05   -1.413846941493652e-05
5.8845073587848424e-05   -1.2320859159282039e-05   -1.413846941493652e-05
5.8845073587848424e-05   -1.2320859159282039e-05   -1.413846941493652e-05
5.8845073587848424e-05   -1.2320859159282039e-05   -1.413846941493652e-05
8.097157859944184e-05   -1.1021915182146292e-05   1.7402881620080454e-05
8.097157859944184e-05   -1.1021915182146292e-05   1.7402881620080454e-05
8.097157859944184e-05   -1.1021915182146292e-05   1.7402881620080454e-05
8.097157859944184e-05   -1.1021915182146292e-05   1.7402881620080454e-05
4.089311571721003e-05   -1.5023227910315046e-05   -5.179534415387368e-05
4.089311571721003e-05   -1.5023227910315046e-05   -5.179534415387368e-05
4.089311571721003e-05   -1.5023227910315046e-05   -5.179534415387368e-05
4.089311571721003e-05   -1.5023227910315046e-05   -5.179534415387368e-05
4.1740144150158976e-05   -9.475804691268155e-06   7.208138054537287e-06
4.1740144150158976e-05   -9.475804691268155e-06   7.208138054537287e-06
4.1740144150158976e-05   -9.475804691268155e-06   7.208138054537287e-06
4.1740144150158976e-05   -9.475804691268155e-06   7.208138054537287e-06
8.21639257708602e-05   -1.4189014861847385e-05   -5.733690521095042e-05
8.21639257708602e-05   -1.4189014861847385e-05   -5.733690521095042e-05
8.21639257708602e-05   -1.4189014861847385e-05   -5.733690521095042e-05
8.21639257708602e-05   -1.4189014861847385e-05   -5.733690521095042e-05
5.887685236435605e-05   -1.1858343434536893e-05   -1.992351905649671e-05
5.887685236435605e-05   -1.1858343434536893e-05   -1.992351905649671e-05
5.887685236435605e-05   -1.1858343434536893e-05   -1.992351905649671e-05
5.887685236435605e-05   -1.1858343434536893e-05   -1.992351905649671e-05
3.9124128507571744e-05   -7.585433713695699e-06   2.585096159276115e-06
3.9124128507571744e-05   -7.585433713695699e-06   2.585096159276115e-06
3.9124128507571744e-05   -7.585433713695699e-06   2.585096159276115e-06
3.9124128507571744e-05   -7.585433713695699e-06   2.585096159276115e-06
4.664277265004096e-06   -1.4859449884327587e-05   -5.92123989473824e-05
4.664277265004096e-06   -1.4859449884327587e-05   -5.92123989473824e-05
4.664277265004096e-06   -1.4859449884327587e-05   -5.92123989473824e-05
4.664277265004096e-06   -1.4859449884327587e-05   -5.92123989473824e-05
5.781828226467448e-06   -7.223500351319183e-06   -3.976176122552459e-07
5.781828226467448e-06   -7.223500351319183e-06   -3.976176122552459e-07
5.781828226467448e-06   -7.223500351319183e-06   -3.976176122552459e-07
5.781828226467448e-06   -7.223500351319183e-06   -3.976176122552459e-07
4.008276640268773e-05   -1.4784121369513289e-05   -5.302947529503939e-05
4.008276640268773e-05   -1.4784121369513289e-05   -5.302947529503939e-05
4.008276640268773e-05   -1.4784121369513289e-05   -5.302947529503939e-05
4.008276640268773e-05   -1.4784121369513289e-05   -5.302947529503939e-05
2.2501073158413403e-05   -1.0023658484877365e-05   -2.6582930952030238e-05
2.2501073158413403e-05   -1.0023658484877365e-05   -2.6582930952030238e-05
2.2501073158413403e-05   -1.0023658484877365e-05   -2.6582930952030238e-05
2.2501073158413403e-05   -1.0023658484877365e-05   -2.6582930952030238e-05
4.008276640268761e-05   -7.223500351319254e-06   4.138754998661348e-06
4.008276640268761e-05   -7.223500351319254e-06   4.138754998661348e-06
4.008276640268761e-05   -7.223500351319254e-06   4.138754998661348e-06
4.008276640268761e-05   -7.223500351319254e-06   4.138754998661348e-06
5.781828226467448e-06   -1.4784121369512855e-05   -5.756584790595561e-05
5.781828226467448e-06   -1.4784121369512855e-05   -5.756584790595561e-05
5.781828226467448e-06   -1.4784121369512855e-05   -5.756584790595561e-05
5.781828226467448e-06   -1.4784121369512855e-05   -5.756584790595561e-05
6.790635197029043e-06   -6.548769603589508e-06   -7.6098922498994e-07
6.790635197029043e-06   -6.548769603589508e-06   -7.6098922498994e-07
6.790635197029043e-06   -6.548769603589508e-06   -7.6098922498994e-07
6.790635197029043e-06   -6.548769603589508e-06   -7.6098922498994e-07
4.089311571721004e-05   -1.4586885981656122e-05   -5.277558693178499e-05
4.089311571721004e-05   -1.4586885981656122e-05   -5.277558693178499e-05
4.089311571721004e-05   -1.4586885981656122e-05   -5.277558693178499e-05
4.089311571721004e-05   -1.4586885981656122e-05   -5.277558693178499e-05
2.3136396157286083e-05   -1.0135075601129615e-05   -2.5852140560226906e-05
2.3136396157286083e-05   -1.0135075601129615e-05   -2.5852140560226906e-05
2.3136396157286083e-05   -1.0135075601129615e-05   -2.5852140560226906e-05
2.3136396157286083e-05   -1.0135075601129615e-05   -2.5852140560226906e-05
4.089311571721003e-05   -6.54876960358952e-06   4.061880601850202e-06
4.089311571721003e-05   -6.54876960358952e-06   4.061880601850202e-06
4.089311571721003e-05   -6.54876960358952e-06   4.061880601850202e-06
4.089311571721003e-05   -6.54876960358952e-06   4.061880601850202e-06
6.790635197029016e-06   -1.4586885981656122e-05   -5.7598456758624914e-05
6.790635197029016e-06   -1.4586885981656122e-05   -5.7598456758624914e-05
6.790635197029016e-06   -1.4586885981656122e-05   -5.7598456758624914e-05
6.790635197029016e-06   -1.4586885981656122e-05   -5.7598456758624914e-05
8.296032534759395e-06   -5.588849630716857e-06   -1.459716463727851e-06
8.296032534759395e-06   -5.588849630716857e-06   -1.459716463727851e-06
8.296032534759395e-06   -5.588849630716857e-06   -1.459716463727851e-06
8.296032534759395e-06   -5.588849630716857e-06   -1.459716463727851e-06
4.174014415015903e-05   -1.419205402446817e-05   -5.203797985314296e-05
4.174014415015903e-05   -1.419205402446817e-05   -5.203797985314296e-05
4.174014415015903e-05   -1.419205402446817e-05   -5.203797985314296e-05
4.174014415015903e-05   -1.419205402446817e-05   -5.203797985314296e-05
2.434584956533489e-05   -9.979238947774565e-06   -2.557517792445258e-05
2.434584956533489e-05   -9.979238947774565e-06   -2.557517792445258e-05
2.434584956533489e-05   -9.979238947774565e-06   -2.557517792445258e-05
2.434584956533489e-05   -9.979238947774565e-06   -2.557517792445258e-05
4.664277265004096e-06   -3.996702918542023e-06   -5.937800846006177e-06
4.664277265004096e-06   -3.996702918542023e-06   -5.937800846006177e-06
4.664277265004096e-06   -3.996702918542023e-06   -5.937800846006177e-06
4.664277265004096e-06   -3.996702918542023e-06   -5.937800846006177e-06
-2.9440188688723665e-05   -1.7948816901018454e-05   -7.114984582503843e-05
-2.9440188688723665e-05   -1.7948816901018454e-05   -7.114984582503843e-05
-2.9440188688723665e-05   -1.7948816901018454e-05   -7.114984582503843e-05
-2.9440188688723665e-05   -1.7948816901018454e-05   -7.114984582503843e-05
-2.769962932507268e-05   -3.5706357239431545e-06   -1.2785874653962939e-05
-2.769962932507268e-05   -3.5706357239431545e-06   -1.2785874653962939e-05
-2.769962932507268e-05   -3.5706357239431545e-06   -1.2785874653962939e-05
-2.769962932507268e-05   -3.5706357239431545e-06   -1.2785874653962939e-05
5.781828226467435e-06   -1.834722974566102e-05   -5.97223474934991e-05
5.781828226467435e-06   -1.834722974566102e-05   -5.97223474934991e-05
5.781828226467435e-06   -1.834722974566102e-05   -5.97223474934991e-05
5.781828226467435e-06   -1.834722974566102e-05   -5.97223474934991e-05
-1.1278725236372609e-05   -1.0154149699155481e-05   -3.6203939750002105e-05
-1.1278725236372609e-05   -1.0154149699155481e-05   -3.6203939750002105e-05
-1.1278725236372609e-05   -1.0154149699155481e-05   -3.6203939750002105e-05
-1.1278725236372609e-05   -1.0154149699155481e-05   -3.6203939750002105e-05
5.781828226467448e-06   -3.570635723942964e-06   -3.91991824093209e-06
5.781828226467448e-06   -3.570635723942964e-06   -3.91991824093209e-06
5.781828226467448e-06   -3.570635723942964e-06   -3.91991824093209e-06
5.781828226467448e-06   -3.570635723942964e-06   -3.91991824093209e-06
-2.7699629325072733e-05   -1.8347229745660585e-05   -6.858830390653e-05
-2.7699629325072733e-05   -1.8347229745660585e-05   -6.858830390653e-05
-2.7699629325072733e-05   -1.8347229745660585e-05   -6.858830390653e-05
-2.7699629325072733e-05   -1.8347229745660585e-05   -6.858830390653e-05
-2.620002565310739e-05   -2.9060677747415505e-06   -1.1941669663612878e-05
-2.620002565310739e-05   -2.9060677747415505e-06   -1.1941669663612878e-05
-2.620002565310739e-05   -2.9060677747415505e-06   -1.1941669663612878e-05
-2.620002565310739e-05   -2.9060677747415505e-06   -1.1941669663612878e-05
6.790635197029013e-06   -1.826317064265552e-05   -5.771184269309223e-05
6.790635197029013e-06   -1.826317064265552e-05   -5.771184269309223e-05
6.790635197029013e-06   -1.826317064265552e-05   -5.771184269309223e-05
6.790635197029013e-06   -1.826317064265552e-05   -5.771184269309223e-05
-1.00426387826517e-05   -1.0385533297877121e-05   -3.438296846715791e-05
-1.00426387826517e-05   -1.0385533297877121e-05   -3.438296846715791e-05
-1.00426387826517e-05   -1.0385533297877121e-05   -3.438296846715791e-05
-1.00426387826517e-05   -1.0385533297877121e-05   -3.438296846715791e-05
6.790635197029016e-06   -2.906067774741591e-06   -2.7274079428649296e-06
6.790635197029016e-06   -2.906067774741591e-06   -2.7274079428649296e-06
6.790635197029016e-06   -2.906067774741591e-06   -2.7274079428649296e-06
6.790635197029016e-06   -2.906067774741591e-06   -2.7274079428649296e-06
-2.6200025653107473e-05   -1.8263170642655088e-05   -6.692610441384056e-05
-2.6200025653107473e-05   -1.8263170642655088e-05   -6.692610441384056e-05
-2.6200025653107473e-05   -1.8263170642655088e-05   -6.692610441384056e-05
-2.6200025653107473e-05   -1.8263170642655088e-05   -6.692610441384056e-05
-2.3612831383592413e-05   -2.2760451560363028e-06   -1.1890651009721252e-05
-2.3612831383592413e-05   -2.2760451560363028e-06   -1.1890651009721252e-05
-2.3612831383592413e-05   -2.2760451560363028e-06   -1.1890651009721252e-05
-2.3612831383592413e-05   -2.2760451560363028e-06   -1.1890651009721252e-05
8.296032534759405e-06   -1.7624843510371732e-05   -5.586281186103993e-05
8.296032534759405e-06   -1.7624843510371732e-05   -5.586281186103993e-05
8.296032534759405e-06   -1.7624843510371732e-05   -5.586281186103993e-05
8.296032534759405e-06   -1.7624843510371732e-05   -5.586281186103993e-05
-8.436393698586824e-06   -1.0156826784144066e-05   -3.245624484119936e-05
-8.436393698586824e-06   -1.0156826784144066e-05   -3.245624484119936e-05
-8.436393698586824e-06   -1.0156826784144066e-05   -3.245624484119936e-05
-8.436393698586824e-06   -1.0156826784144066e-05   -3.245624484119936e-05
-2.9440188688723598e-05   9.852325192844479e-07   -8.311440028900031e-06
-2.9440188688723598e-05   9.852325192844479e-07   -8.311440028900031e-06
-2.9440188688723598e-05   9.852325192844479e-07   -8.311440028900031e-06
-2.9440188688723598e-05   9.852325192844479e-07   -8.311440028900031e-06
-6.749899597052075e-05   -2.2402030665000846e-05   -8.577514340913283e-05
-6.749899597052075e-05   -2.2402030665000846e-05   -8.577514340913283e-05
-6.749899597052075e-05   -2.2402030665000846e-05   -8.577514340913283e-05
-6.749899597052075e-05   -2.2402030665000846e-05   -8.577514340913283e-05
-6.542208854900909e-05   1.7749063990876897e-06   -2.1650430922429912e-05
-6.542208854900909e-05   1.7749063990876897e-06   -2.1650430922429912e-05
-6.542208854900909e-05   1.7749063990876897e-06   -2.1650430922429912e-05
-6.542208854900909e-05   1.7749063990876897e-06   -2.1650430922429912e-05
-2.769962932507267e-05   -2.5004898086035572e-05   -6.845331360458366e-05
-2.769962932507267e-05   -2.5004898086035572e-05   -6.845331360458366e-05
-2.769962932507267e-05   -2.5004898086035572e-05   -6.845331360458366e-05
-2.769962932507267e-05   -2.5004898086035572e-05   -6.845331360458366e-05
-4.683047866040024e-05   -1.1404256170050465e-05   -4.47289498619621e-05
-4.683047866040024e-05   -1.1404256170050465e-05   -4.47289498619621e-05
-4.683047866040024e-05   -1.1404256170050465e-05   -4.47289498619621e-05
-4.683047866040024e-05   -1.1404256170050465e-05   -4.47289498619621e-05
-2.769962932507268e-05   1.7749063990876772e-06   -5.582548231356215e-06
-2.769962932507268e-05   1.7749063990876772e-06   -5.582548231356215e-06
-2.769962932507268e-05   1.7749063990876772e-06   -5.582548231356215e-06
-2.769962932507268e-05   1.7749063990876772e-06   -5.582548231356215e-06
-6.54220885490092e-05   -2.5004898086035572e-05   -8.452119629565741e-05
-6.54220885490092e-05   -2.5004898086035572e-05   -8.452119629565741e-05
-6.54220885490092e-05   -2.5004898086035572e-05   -8.452119629565741e-05
-6.54220885490092e-05   -2.5004898086035572e-05   -8.452119629565741e-05
-6.343098706849524e-05   2.5020435854019273e-06   -1.9349309598924074e-05
-6.343098706849524e-05   2.5020435854019273e-06   -1.9349309598924074e-05
-6.343098706849524e-05   2.5020435854019273e-06   -1.9349309598924074e-05
-6.343098706849524e-05   2.5020435854019273e-06   -1.9349309598924074e-05
-2.620002565310744e-05   -2.5146208713034898e-05   -6.481196057884177e-05
-2.620002565310744e-05   -2.5146208713034898e-05   -6.481196057884177e-05
-2.620002565310744e-05   -2.5146208713034898e-05   -6.481196057884177e-05
-2.620002565310744e-05   -2.5146208713034898e-05   -6.481196057884177e-05
-4.48054527597724e-05   -1.1444535694649875e-05   -4.202391921209796e-05
-4.48054527597724e-05   -1.1444535694649875e-05   -4.202391921209796e-05
-4.48054527597724e-05   -1.1444535694649875e-05   -4.202391921209796e-05
-4.48054527597724e-05   -1.1444535694649875e-05   -4.202391921209796e-05
-2.6200025653107432e-05   2.5020435854019726e-06   -2.7603582198620653e-06
-2.6200025653107432e-05   2.5020435854019726e-06   -2.7603582198620653e-06
-2.6200025653107432e-05   2.5020435854019726e-06   -2.7603582198620653e-06
-2.6200025653107432e-05   2.5020435854019726e-06   -2.7603582198620653e-06
-6.343098706849535e-05   -2.5146208713034898e-05   -8.140091195790386e-05
-6.343098706849535e-05   -2.5146208713034898e-05   -8.140091195790386e-05
-6.343098706849535e-05   -2.5146208713034898e-05   -8.140091195790386e-05
-6.343098706849535e-05   -2.5146208713034898e-05   -8.140091195790386e-05
-6.016872875756853e-05   3.1175375537705573e-06   -1.700455349929039e-05
-6.016872875756853e-05   3.1175375537705573e-06   -1.700455349929039e-05
-6.016872875756853e-05   3.1175375537705573e-06   -1.700455349929039e-05
-6.016872875756853e-05   3.1175375537705573e-06   -1.700455349929039e-05
-2.36128313835925e-05   -2.295942554550543e-05   -6.228487126301848e-05
-2.36128313835925e-05   -2.295942554550543e-05   -6.228487126301848e-05
-2.36128313835925e-05   -2.295942554550543e-05   -6.228487126301848e-05
-2.36128313835925e-05   -2.295942554550543e-05   -6.228487126301848e-05
-4.280438363276944e-05   -1.0115909864849906e-05   -3.800506025611654e-05
-4.280438363276944e-05   -1.0115909864849906e-05   -3.800506025611654e-05
-4.280438363276944e-05   -1.0115909864849906e-05   -3.800506025611654e-05
-4.280438363276944e-05   -1.0115909864849906e-05   -3.800506025611654e-05
-6.749899597052075e-05   9.627649095465036e-06   -1.4652869000197737e-05
-6.749899597052075e-05   9.627649095465036e-06   -1.4652869000197737e-05
-6.749899597052075e-05   9.627649095465036e-06   -1.4652869000197737e-05
-6.749899597052075e-05   9.627649095465036e-06   -1.4652869000197737e-05
-0.00011626157991697077   0.0   -0.00010170043170156071
-0.00011626157991697077   0.0   -0.00010170043170156071
-0.00011626157991697077   0.0   -0.00010170043170156071
-0.00011626157991697077   0.0   -0.00010170043170156071
-0.00011322116702368104   1.2195531778026562e-05   -1.1248569731921957e-05
-0.00011322116702368104   1.2195531778026562e-05   -1.1248569731921957e-05
-0.00011322116702368104   1.2195531778026562e-05   -1.1248569731921957e-05
-0.00011322116702368104   1.2195531778026562e-05   -1.1248569731921957e-05
-6.542208854900909e-05   0.0   -8.35963814562257e-05
-6.542208854900909e-05   0.0   -8.35963814562257e-05
-6.542208854900909e-05   0.0   -8.35963814562257e-05
-6.542208854900909e-05   0.0   -8.35963814562257e-05
-8.675094614321948e-05   3.723130510638502e-06   -5.0282163772258264e-05
-8.675094614321948e-05   3.723130510638502e-06   -5.0282163772258264e-05
-8.675094614321948e-05   3.723130510638502e-06   -5.0282163772258264e-05
-8.675094614321948e-05   3.723130510638502e-06   -5.0282163772258264e-05
-6.542208854900915e-05   1.2195531778026857e-05   -3.931250665105629e-06
-6.542208854900915e-05   1.2195531778026857e-05   -3.931250665105629e-06
-6.542208854900915e-05   1.2195531778026857e-05   -3.931250665105629e-06
-6.542208854900915e-05   1.2195531778026857e-05   -3.931250665105629e-06
-0.00011322116702368085   0.0   -9.091370052304168e-05
-0.00011322116702368085   0.0   -9.091370052304168e-05
-0.00011322116702368085   0.0   -9.091370052304168e-05
-0.00011322116702368085   0.0   -9.091370052304168e-05
-0.00011065008000163718   1.2772292034227833e-05   -4.510184172005875e-06
-0.00011065008000163718   1.2772292034227833e-05   -4.510184172005875e-06
-0.00011065008000163718   1.2772292034227833e-05   -4.510184172005875e-06
-0.00011065008000163718   1.2772292034227833e-05   -4.510184172005875e-06
-6.343098706849535e-05   0.0   -7.554529717337282e-05
-6.343098706849535e-05   0.0   -7.554529717337282e-05
-6.343098706849535e-05   0.0   -7.554529717337282e-05
-6.343098706849535e-05   0.0   -7.554529717337282e-05
-8.58412327212723e-05   5.904657444680446e-06   -4.1737682218884904e-05
-8.58412327212723e-05   5.904657444680446e-06   -4.1737682218884904e-05
-8.58412327212723e-05   5.904657444680446e-06   -4.1737682218884904e-05
-8.58412327212723e-05   5.904657444680446e-06   -4.1737682218884904e-05
-6.343098706849535e-05   1.2772292034227783e-05   3.153191048530608e-06
-6.343098706849535e-05   1.2772292034227783e-05   3.153191048530608e-06
-6.343098706849535e-05   1.2772292034227783e-05   3.153191048530608e-06
-6.343098706849535e-05   1.2772292034227783e-05   3.153191048530608e-06
-0.00011065008000163698   0.0   -8.320867239390898e-05
-0.00011065008000163698   0.0   -8.320867239390898e-05
-0.00011065008000163698   0.0   -8.320867239390898e-05
-0.00011065008000163698   0.0   -8.320867239390898e-05
-0.00010552120853085873   1.376511980987448e-05   6.332289730743039e-06
-0.00010552120853085873   1.376511980987448e-05   6.332289730743039e-06
-0.00010552120853085873   1.376511980987448e-05   6.332289730743039e-06
-0.00010552120853085873   1.376511980987448e-05   6.332289730743039e-06
-6.0168728757568584e-05   0.0   -6.099610467214932e-05
-6.0168728757568584e-05   0.0   -6.099610467214932e-05
-6.0168728757568584e-05   0.0   -6.099610467214932e-05
-6.0168728757568584e-05   0.0   -6.099610467214932e-05
-8.136807988655746e-05   7.28457173189553e-06   -3.0034595829639476e-05
-8.136807988655746e-05   7.28457173189553e-06   -3.0034595829639476e-05
-8.136807988655746e-05   7.28457173189553e-06   -3.0034595829639476e-05
-8.136807988655746e-05   7.28457173189553e-06   -3.0034595829639476e-05
8.609372845997176e-05   -1.479007637945722e-05   5.140324189875536e-05
8.609372845997176e-05   -1.479007637945722e-05   5.140324189875536e-05
8.609372845997176e-05   -1.479007637945722e-05   5.140324189875536e-05
8.609372845997176e-05   -1.479007637945722e-05   5.140324189875536e-05
4.467674037409854e-05   -1.1390551123313664e-05   -1.5585356424014036e-05
4.467674037409854e-05   -1.1390551123313664e-05   -1.5585356424014036e-05
4.467674037409854e-05   -1.1390551123313664e-05   -1.5585356424014036e-05
4.467674037409854e-05   -1.1390551123313664e-05   -1.5585356424014036e-05
4.3551073826010264e-05   -1.5160038267135294e-05   4.540603087349864e-05
4.3551073826010264e-05   -1.5160038267135294e-05   4.540603087349864e-05
4.3551073826010264e-05   -1.5160038267135294e-05   4.540603087349864e-05
4.3551073826010264e-05   -1.5160038267135294e-05   4.540603087349864e-05
8.517056093375866e-05   -1.2524683609807519e-05   -2.5540993767145183e-05
8.517056093375866e-05   -1.2524683609807519e-05   -2.5540993767145183e-05
8.517056093375866e-05   -1.2524683609807519e-05   -2.5540993767145183e-05
8.517056093375866e-05   -1.2524683609807519e-05   -2.5540993767145183e-05
6.221890268011984e-05   -1.2740793003035e-05   1.2841435624855668e-05
6.221890268011984e-05   -1.2740793003035e-05   1.2841435624855668e-05
6.221890268011984e-05   -1.2740793003035e-05   1.2841435624855668e-05
6.221890268011984e-05   -1.2740793003035e-05   1.2841435624855668e-05
8.517056093375866e-05   -1.5160038267135097e-05   4.3824818079102107e-05
8.517056093375866e-05   -1.5160038267135097e-05   4.3824818079102107e-05
8.517056093375866e-05   -1.5160038267135097e-05   4.3824818079102107e-05
8.517056093375866e-05   -1.5160038267135097e-05   4.3824818079102107e-05
4.3551073826010264e-05   -1.2524683609807519e-05   -2.395978097274854e-05
4.3551073826010264e-05   -1.2524683609807519e-05   -2.395978097274854e-05
4.3551073826010264e-05   -1.2524683609807519e-05   -2.395978097274854e-05
4.3551073826010264e-05   -1.2524683609807519e-05   -2.395978097274854e-05
4.2532926407169746e-05   -1.5023227910315046e-05   4.077071064697473e-05
4.2532926407169746e-05   -1.5023227910315046e-05   4.077071064697473e-05
4.2532926407169746e-05   -1.5023227910315046e-05   4.077071064697473e-05
4.2532926407169746e-05   -1.5023227910315046e-05   4.077071064697473e-05
8.410349723118115e-05   -1.2629500723193056e-05   -2.9949810371984124e-05
8.410349723118115e-05   -1.2629500723193056e-05   -2.9949810371984124e-05
8.410349723118115e-05   -1.2629500723193056e-05   -2.9949810371984124e-05
8.410349723118115e-05   -1.2629500723193056e-05   -2.9949810371984124e-05
6.216964475724787e-05   -1.2964225634341797e-05   6.807445364593733e-06
6.216964475724787e-05   -1.2964225634341797e-05   6.807445364593733e-06
6.216964475724787e-05   -1.2964225634341797e-05   6.807445364593733e-06
6.216964475724787e-05   -1.2964225634341797e-05   6.807445364593733e-06
8.410349723118131e-05   -1.5023227910314632e-05   3.9334474334701535e-05
8.410349723118131e-05   -1.5023227910314632e-05   3.9334474334701535e-05
8.410349723118131e-05   -1.5023227910314632e-05   3.9334474334701535e-05
8.410349723118131e-05   -1.5023227910314632e-05   3.9334474334701535e-05
4.2532926407169746e-05   -1.2629500723193056e-05   -2.8513574059711418e-05
4.2532926407169746e-05   -1.2629500723193056e-05   -2.8513574059711418e-05
4.2532926407169746e-05   -1.2629500723193056e-05   -2.8513574059711418e-05
4.2532926407169746e-05   -1.2629500723193056e-05   -2.8513574059711418e-05
4.129084431742306e-05   -1.4189014861847385e-05   3.322947785441713e-05
4.129084431742306e-05   -1.4189014861847385e-05   3.322947785441713e-05
4.129084431742306e-05   -1.4189014861847385e-05   3.322947785441713e-05
4.129084431742306e-05   -1.4189014861847385e-05   3.322947785441713e-05
8.243165249083687e-05   -1.2367532899487665e-05   -3.643142494535499e-05
8.243165249083687e-05   -1.2367532899487665e-05   -3.643142494535499e-05
8.243165249083687e-05   -1.2367532899487665e-05   -3.643142494535499e-05
8.243165249083687e-05   -1.2367532899487665e-05   -3.643142494535499e-05
6.0045502394623114e-05   -1.2327872953875763e-05   8.550292476343347e-07
6.0045502394623114e-05   -1.2327872953875763e-05   8.550292476343347e-07
6.0045502394623114e-05   -1.2327872953875763e-05   8.550292476343347e-07
6.0045502394623114e-05   -1.2327872953875763e-05   8.550292476343347e-07
4.467674037409854e-05   -1.4859449884327413e-05   3.8422471320855803e-05
4.467674037409854e-05   -1.4859449884327413e-05   3.8422471320855803e-05
4.467674037409854e-05   -1.4859449884327413e-05   3.8422471320855803e-05
4.467674037409854e-05   -1.4859449884327413e-05   3.8422471320855803e-05
9.539916493423638e-06   -7.05032169172554e-06   -1.545342489804114e-05
9.539916493423638e-06   -7.05032169172554e-06   -1.545342489804114e-05
9.539916493423638e-06   -7.05032169172554e-06   -1.545342489804114e-05
9.539916493423638e-06   -7.05032169172554e-06   -1.545342489804114e-05
7.758358387129912e-06   -1.4784121369512855e-05   4.387249986983642e-05
7.758358387129912e-06   -1.4784121369512855e-05   4.387249986983642e-05
7.758358387129912e-06   -1.4784121369512855e-05   4.387249986983642e-05
7.758358387129912e-06   -1.4784121369512855e-05   4.387249986983642e-05
4.355107382601027e-05   -7.478362308744636e-06   -2.0165481298091735e-05
4.355107382601027e-05   -7.478362308744636e-06   -2.0165481298091735e-05
4.355107382601027e-05   -7.478362308744636e-06   -2.0165481298091735e-05
4.355107382601027e-05   -7.478362308744636e-06   -2.0165481298091735e-05
2.634510070518176e-05   -1.0634404404346199e-05   1.0404765827316646e-05
2.634510070518176e-05   -1.0634404404346199e-05   1.0404765827316646e-05
2.634510070518176e-05   -1.0634404404346199e-05   1.0404765827316646e-05
2.634510070518176e-05   -1.0634404404346199e-05   1.0404765827316646e-05
4.3551073826010237e-05   -1.4784121369512942e-05   3.9489044433375356e-05
4.3551073826010237e-05   -1.4784121369512942e-05   3.9489044433375356e-05
4.3551073826010237e-05   -1.4784121369512942e-05   3.9489044433375356e-05
4.3551073826010237e-05   -1.4784121369512942e-05   3.9489044433375356e-05
7.758358387129939e-06   -7.478362308744636e-06   -1.5782025861630538e-05
7.758358387129939e-06   -7.478362308744636e-06   -1.5782025861630538e-05
7.758358387129939e-06   -7.478362308744636e-06   -1.5782025861630538e-05
7.758358387129939e-06   -7.478362308744636e-06   -1.5782025861630538e-05
6.488166520182703e-06   -1.4586885981656122e-05   4.394102693012873e-05
6.488166520182703e-06   -1.4586885981656122e-05   4.394102693012873e-05
6.488166520182703e-06   -1.4586885981656122e-05   4.394102693012873e-05
6.488166520182703e-06   -1.4586885981656122e-05   4.394102693012873e-05
4.2532926407169746e-05   -7.669287546546982e-06   -2.0284131942581804e-05
4.2532926407169746e-05   -7.669287546546982e-06   -2.0284131942581804e-05
4.2532926407169746e-05   -7.669287546546982e-06   -2.0284131942581804e-05
4.2532926407169746e-05   -7.669287546546982e-06   -2.0284131942581804e-05
2.48185443585438e-05   -1.041697433231065e-05   1.0888450209920391e-05
2.48185443585438e-05   -1.041697433231065e-05   1.0888450209920391e-05
2.48185443585438e-05   -1.041697433231065e-05   1.0888450209920391e-05
2.48185443585438e-05   -1.041697433231065e-05   1.0888450209920391e-05
4.25329264071698e-05   -1.4586885981656362e-05   3.9790467869063205e-05
4.25329264071698e-05   -1.4586885981656362e-05   3.9790467869063205e-05
4.25329264071698e-05   -1.4586885981656362e-05   3.9790467869063205e-05
4.25329264071698e-05   -1.4586885981656362e-05   3.9790467869063205e-05
6.488166520182703e-06   -7.669287546546982e-06   -1.6133572881516086e-05
6.488166520182703e-06   -7.669287546546982e-06   -1.6133572881516086e-05
6.488166520182703e-06   -7.669287546546982e-06   -1.6133572881516086e-05
6.488166520182703e-06   -7.669287546546982e-06   -1.6133572881516086e-05
5.075094676237419e-06   -1.419205402446817e-05   4.537311843867556e-05
5.075094676237419e-06   -1.419205402446817e-05   4.537311843867556e-05
5.075094676237419e-06   -1.419205402446817e-05   4.537311843867556e-05
5.075094676237419e-06   -1.419205402446817e-05   4.537311843867556e-05
4.129084431742309e-05   -7.497405484295418e-06   -1.9003253420737026e-05
4.129084431742309e-05   -7.497405484295418e-06   -1.9003253420737026e-05
4.129084431742309e-05   -7.497405484295418e-06   -1.9003253420737026e-05
4.129084431742309e-05   -7.497405484295418e-06   -1.9003253420737026e-05
2.3884470433444492e-05   -9.960760894331747e-06   1.1485382965249047e-05
2.3884470433444492e-05   -9.960760894331747e-06   1.1485382965249047e-05
2.3884470433444492e-05   -9.960760894331747e-06   1.1485382965249047e-05
2.3884470433444492e-05   -9.960760894331747e-06   1.1485382965249047e-05
9.539916493423638e-06   -1.7948816901018633e-05   3.954176974824727e-05
9.539916493423638e-06   -1.7948816901018633e-05   3.954176974824727e-05
9.539916493423638e-06   -1.7948816901018633e-05   3.954176974824727e-05
9.539916493423638e-06   -1.7948816901018633e-05   3.954176974824727e-05
-2.4211750115437378e-05   -2.9759210014019925e-06   -7.727270393418067e-06
-2.4211750115437378e-05   -2.9759210014019925e-06   -7.727270393418067e-06
-2.4211750115437378e-05   -2.9759210014019925e-06   -7.727270393418067e-06
-2.4211750115437378e-05   -2.9759210014019925e-06   -7.727270393418067e-06
-2.698336423845977e-05   -1.8347229745660585e-05   5.083867765479132e-05
-2.698336423845977e-05   -1.8347229745660585e-05   5.083867765479132e-05
-2.698336423845977e-05   -1.8347229745660585e-05   5.083867765479132e-05
-2.698336423845977e-05   -1.8347229745660585e-05   5.083867765479132e-05
7.758358387129948e-06   -3.142767458164542e-06   -1.6186870760356354e-05
7.758358387129948e-06   -3.142767458164542e-06   -1.6186870760356354e-05
7.758358387129948e-06   -3.142767458164542e-06   -1.6186870760356354e-05
7.758358387129948e-06   -3.142767458164542e-06   -1.6186870760356354e-05
-8.171268877762586e-06   -1.02629750533185e-05   1.4634632571556899e-05
-8.171268877762586e-06   -1.02629750533185e-05   1.4634632571556899e-05
-8.171268877762586e-06   -1.02629750533185e-05   1.4634632571556899e-05
-8.171268877762586e-06   -1.02629750533185e-05   1.4634632571556899e-05
7.758358387129912e-06   -1.834722974566104e-05   4.171600028229309e-05
7.758358387129912e-06   -1.834722974566104e-05   4.171600028229309e-05
7.758358387129912e-06   -1.834722974566104e-05   4.171600028229309e-05
7.758358387129912e-06   -1.834722974566104e-05   4.171600028229309e-05
-2.6983364238459742e-05   -3.142767458164542e-06   -7.064193387858447e-06
-2.6983364238459742e-05   -3.142767458164542e-06   -7.064193387858447e-06
-2.6983364238459742e-05   -3.142767458164542e-06   -7.064193387858447e-06
-2.6983364238459742e-05   -3.142767458164542e-06   -7.064193387858447e-06
-2.867697212099222e-05   -1.8263170642655088e-05   5.277736482740781e-05
-2.867697212099222e-05   -1.8263170642655088e-05   5.277736482740781e-05
-2.867697212099222e-05   -1.8263170642655088e-05   5.277736482740781e-05
-2.867697212099222e-05   -1.8263170642655088e-05   5.277736482740781e-05
6.488166520182704e-06   -3.3469642564125553e-06   -1.4780923406296323e-05
6.488166520182704e-06   -3.3469642564125553e-06   -1.4780923406296323e-05
6.488166520182704e-06   -3.3469642564125553e-06   -1.4780923406296323e-05
6.488166520182704e-06   -3.3469642564125553e-06   -1.4780923406296323e-05
-1.0047448585560984e-05   -1.0231447188146624e-05   1.6909124862316867e-05
-1.0047448585560984e-05   -1.0231447188146624e-05   1.6909124862316867e-05
-1.0047448585560984e-05   -1.0231447188146624e-05   1.6909124862316867e-05
-1.0047448585560984e-05   -1.0231447188146624e-05   1.6909124862316867e-05
6.488166520182703e-06   -1.826317064265555e-05   4.3827640995661686e-05
6.488166520182703e-06   -1.826317064265555e-05   4.3827640995661686e-05
6.488166520182703e-06   -1.826317064265555e-05   4.3827640995661686e-05
6.488166520182703e-06   -1.826317064265555e-05   4.3827640995661686e-05
-2.8676972120992165e-05   -3.3469642564125553e-06   -5.831199574550441e-06
-2.8676972120992165e-05   -3.3469642564125553e-06   -5.831199574550441e-06
-2.8676972120992165e-05   -3.3469642564125553e-06   -5.831199574550441e-06
-2.8676972120992165e-05   -3.3469642564125553e-06   -5.831199574550441e-06
-3.066939148812325e-05   -1.7624843510371732e-05   5.5288269139214946e-05
-3.066939148812325e-05   -1.7624843510371732e-05   5.5288269139214946e-05
-3.066939148812325e-05   -1.7624843510371732e-05   5.5288269139214946e-05
-3.066939148812325e-05   -1.7624843510371732e-05   5.5288269139214946e-05
5.075094676237432e-06   -3.328076723396658e-06   -1.2863934540238004e-05
5.075094676237432e-06   -3.328076723396658e-06   -1.2863934540238004e-05
5.075094676237432e-06   -3.328076723396658e-06   -1.2863934540238004e-05
5.075094676237432e-06   -3.328076723396658e-06   -1.2863934540238004e-05
-1.157500962338305e-05   -9.825713791850477e-06   1.8784821533535118e-05
-1.157500962338305e-05   -9.825713791850477e-06   1.8784821533535118e-05
-1.157500962338305e-05   -9.825713791850477e-06   1.8784821533535118e-05
-1.157500962338305e-05   -9.825713791850477e-06   1.8784821533535118e-05
-2.4211750115437405e-05   -2.2402030665000907e-05   4.793256761449348e-05
-2.4211750115437405e-05   -2.2402030665000907e-05   4.793256761449348e-05
-2.4211750115437405e-05   -2.2402030665000907e-05   4.793256761449348e-05
-2.4211750115437405e-05   -2.2402030665000907e-05   4.793256761449348e-05
-6.265838589697197e-05   3.1680919718255623e-06   -8.030851059682379e-07
-6.265838589697197e-05   3.1680919718255623e-06   -8.030851059682379e-07
-6.265838589697197e-05   3.1680919718255623e-06   -8.030851059682379e-07
-6.265838589697197e-05   3.1680919718255623e-06   -8.030851059682379e-07
-6.59874420186426e-05   -2.5004898086035572e-05   6.776221934493161e-05
-6.59874420186426e-05   -2.5004898086035572e-05   6.776221934493161e-05
-6.59874420186426e-05   -2.5004898086035572e-05   6.776221934493161e-05
-6.59874420186426e-05   -2.5004898086035572e-05   6.776221934493161e-05
-2.698336423845973e-05   2.97602089428849e-06   -1.4033128343567103e-05
-2.698336423845973e-05   2.97602089428849e-06   -1.4033128343567103e-05
-2.698336423845973e-05   2.97602089428849e-06   -1.4033128343567103e-05
-2.698336423845973e-05   2.97602089428849e-06   -1.4033128343567103e-05
-4.4330762079643596e-05   -9.314404565142955e-06   2.2253456667397953e-05
-4.4330762079643596e-05   -9.314404565142955e-06   2.2253456667397953e-05
-4.4330762079643596e-05   -9.314404565142955e-06   2.2253456667397953e-05
-4.4330762079643596e-05   -9.314404565142955e-06   2.2253456667397953e-05
-2.6983364238459742e-05   -2.500489808603541e-05   5.097366795673718e-05
-2.6983364238459742e-05   -2.500489808603541e-05   5.097366795673718e-05
-2.6983364238459742e-05   -2.500489808603541e-05   5.097366795673718e-05
-2.6983364238459742e-05   -2.500489808603541e-05   5.097366795673718e-05
-6.59874420186425e-05   2.97602089428849e-06   2.7554230446270086e-06
-6.59874420186425e-05   2.97602089428849e-06   2.7554230446270086e-06
-6.59874420186425e-05   2.97602089428849e-06   2.7554230446270086e-06
-6.59874420186425e-05   2.97602089428849e-06   2.7554230446270086e-06
-6.801684696998283e-05   -2.5146208713034898e-05   7.155362995252832e-05
-6.801684696998283e-05   -2.5146208713034898e-05   7.155362995252832e-05
-6.801684696998283e-05   -2.5146208713034898e-05   7.155362995252832e-05
-6.801684696998283e-05   -2.5146208713034898e-05   7.155362995252832e-05
-2.8676972120992172e-05   2.6239934371686743e-06   -1.0674949419244625e-05
-2.8676972120992172e-05   2.6239934371686743e-06   -1.0674949419244625e-05
-2.8676972120992172e-05   2.6239934371686743e-06   -1.0674949419244625e-05
-2.8676972120992172e-05   2.6239934371686743e-06   -1.0674949419244625e-05
-4.649450126293536e-05   -1.0718930462170258e-05   2.7026686823597136e-05
-4.649450126293536e-05   -1.0718930462170258e-05   2.7026686823597136e-05
-4.649450126293536e-05   -1.0718930462170258e-05   2.7026686823597136e-05
-4.649450126293536e-05   -1.0718930462170258e-05   2.7026686823597136e-05
-2.8676972120992165e-05   -2.5146208713034736e-05   5.4891508662406304e-05
-2.8676972120992165e-05   -2.5146208713034736e-05   5.4891508662406304e-05
-2.8676972120992165e-05   -2.5146208713034736e-05   5.4891508662406304e-05
-2.8676972120992165e-05   -2.5146208713034736e-05   5.4891508662406304e-05
-6.801684696998272e-05   2.6239934371686743e-06   5.987171870877172e-06
-6.801684696998272e-05   2.6239934371686743e-06   5.987171870877172e-06
-6.801684696998272e-05   2.6239934371686743e-06   5.987171870877172e-06
-6.801684696998272e-05   2.6239934371686743e-06   5.987171870877172e-06
-7.020308287716237e-05   -2.295942554550543e-05   7.318655424333616e-05
-7.020308287716237e-05   -2.295942554550543e-05   7.318655424333616e-05
-7.020308287716237e-05   -2.295942554550543e-05   7.318655424333616e-05
-7.020308287716237e-05   -2.295942554550543e-05   7.318655424333616e-05
-3.0669391488123265e-05   2.2256836103252617e-06   -7.813996898560949e-06
-3.0669391488123265e-05   2.2256836103252617e-06   -7.813996898560949e-06
-3.0669391488123265e-05   2.2256836103252617e-06   -7.813996898560949e-06
-3.0669391488123265e-05   2.2256836103252617e-06   -7.813996898560949e-06
-4.872250190580279e-05   -1.0800072459812935e-05   3.0089974106321555e-05
-4.872250190580279e-05   -1.0800072459812935e-05   3.0089974106321555e-05
-4.872250190580279e-05   -1.0800072459812935e-05   3.0089974106321555e-05
-4.872250190580279e-05   -1.0800072459812935e-05   3.0089974106321555e-05
-6.265838589697176e-05   1.4571677198205154e-19   5.3125942361440404e-05
-6.265838589697176e-05   1.4571677198205154e-19   5.3125942361440404e-05
-6.265838589697176e-05   1.4571677198205154e-19   5.3125942361440404e-05
-6.265838589697176e-05   1.4571677198205154e-19   5.3125942361440404e-05
-0.00011039229888372374   1.447036758177745e-05   -1.7748358734079924e-05
-0.00011039229888372374   1.447036758177745e-05   -1.7748358734079924e-05
-0.00011039229888372374   1.447036758177745e-05   -1.7748358734079924e-05
-0.00011039229888372374   1.447036758177745e-05   -1.7748358734079924e-05
-0.00011498635573201665   0.0   7.706469527542573e-05
-0.00011498635573201665   0.0   7.706469527542573e-05
-0.00011498635573201665   0.0   7.706469527542573e-05
-0.00011498635573201665   0.0   7.706469527542573e-05
-6.598744201864249e-05   1.3962768485105154e-05   -1.2977822004594337e-05
-6.598744201864249e-05   1.3962768485105154e-05   -1.2977822004594337e-05
-6.598744201864249e-05   1.3962768485105154e-05   -1.2977822004594337e-05
-6.598744201864249e-05   1.3962768485105154e-05   -1.2977822004594337e-05
-8.473148272472383e-05   8.58538273451441e-06   2.1488677289228914e-05
-8.473148272472383e-05   8.58538273451441e-06   2.1488677289228914e-05
-8.473148272472383e-05   8.58538273451441e-06   2.1488677289228914e-05
-8.473148272472383e-05   8.58538273451441e-06   2.1488677289228914e-05
-6.598744201864242e-05   1.6306400674181982e-19   6.868703418436302e-05
-6.598744201864242e-05   1.6306400674181982e-19   6.868703418436302e-05
-6.598744201864242e-05   1.6306400674181982e-19   6.868703418436302e-05
-6.598744201864242e-05   1.6306400674181982e-19   6.868703418436302e-05
-0.00011498635573201684   1.3962768485105154e-05   -4.600160913531418e-06
-0.00011498635573201684   1.3962768485105154e-05   -4.600160913531418e-06
-0.00011498635573201684   1.3962768485105154e-05   -4.600160913531418e-06
-0.00011498635573201684   1.3962768485105154e-05   -4.600160913531418e-06
-0.00011730043107719085   0.0   8.557129257136709e-05
-0.00011730043107719085   0.0   8.557129257136709e-05
-0.00011730043107719085   0.0   8.557129257136709e-05
-0.00011730043107719085   0.0   8.557129257136709e-05
-6.801684696998271e-05   1.3603413057179659e-05   -4.73006210828785e-06
-6.801684696998271e-05   1.3603413057179659e-05   -4.73006210828785e-06
-6.801684696998271e-05   1.3603413057179659e-05   -4.73006210828785e-06
-6.801684696998271e-05   1.3603413057179659e-05   -4.73006210828785e-06
-8.915909222310088e-05   7.167869975792992e-06   3.4368339162408696e-05
-8.915909222310088e-05   7.167869975792992e-06   3.4368339162408696e-05
-8.915909222310088e-05   7.167869975792992e-06   3.4368339162408696e-05
-8.915909222310088e-05   7.167869975792992e-06   3.4368339162408696e-05
-6.801684696998272e-05   1.6306400674181982e-19   7.740924473705925e-05
-6.801684696998272e-05   1.6306400674181982e-19   7.740924473705925e-05
-6.801684696998272e-05   1.6306400674181982e-19   7.740924473705925e-05
-6.801684696998272e-05   1.6306400674181982e-19   7.740924473705925e-05
-0.00011730043107719105   1.3603413057179659e-05   3.431985726020043e-06
-0.00011730043107719105   1.3603413057179659e-05   3.431985726020043e-06
-0.00011730043107719105   1.3603413057179659e-05   3.431985726020043e-06
-0.00011730043107719105   1.3603413057179659e-05   3.431985726020043e-06
-0.00011987868148144695   0.0   9.691541718985877e-05
-0.00011987868148144695   0.0   9.691541718985877e-05
-0.00011987868148144695   0.0   9.691541718985877e-05
-0.00011987868148144695   0.0   9.691541718985877e-05
-7.02030828771623e-05   1.132319749348092e-05   7.32883435329546e-06
-7.02030828771623e-05   1.132319749348092e-05   7.32883435329546e-06
-7.02030828771623e-05   1.132319749348092e-05   7.32883435329546e-06
-7.02030828771623e-05   1.132319749348092e-05   7.32883435329546e-06
-8.990643973266958e-05   5.02924234109612e-06   4.3944135537238115e-05
-8.990643973266958e-05   5.02924234109612e-06   4.3944135537238115e-05
-8.990643973266958e-05   5.02924234109612e-06   4.3944135537238115e-05
-8.990643973266958e-05   5.02924234109612e-06   4.3944135537238115e-05
7.569620544363568e-05   -1.1390551123313838e-05   5.376546726738505e-05
7.569620544363568e-05   -1.1390551123313838e-05   5.376546726738505e-05
7.569620544363568e-05   -1.1390551123313838e-05   5.376546726738505e-05
7.569620544363568e-05   -1.1390551123313838e-05   5.376546726738505e-05
3.828983505416714e-05   -8.585551177537828e-06   -6.895483414263732e-06
3.828983505416714e-05   -8.585551177537828e-06   -6.895483414263732e-06
3.828983505416714e-05   -8.585551177537828e-06   -6.895483414263732e-06
3.828983505416714e-05   -8.585551177537828e-06   -6.895483414263732e-06
3.727774864058545e-05   -1.2524683609807519e-05   4.693581217475227e-05
3.727774864058545e-05   -1.2524683609807519e-05   4.693581217475227e-05
3.727774864058545e-05   -1.2524683609807519e-05   4.693581217475227e-05
3.727774864058545e-05   -1.2524683609807519e-05   4.693581217475227e-05
7.388855512982127e-05   -9.732130215264062e-06   -1.5757730677366612e-05
7.388855512982127e-05   -9.732130215264062e-06   -1.5757730677366612e-05
7.388855512982127e-05   -9.732130215264062e-06   -1.5757730677366612e-05
7.388855512982127e-05   -9.732130215264062e-06   -1.5757730677366612e-05
5.378222906830186e-05   -1.0135807794285981e-05   1.7995019305912127e-05
5.378222906830186e-05   -1.0135807794285981e-05   1.7995019305912127e-05
5.378222906830186e-05   -1.0135807794285981e-05   1.7995019305912127e-05
5.378222906830186e-05   -1.0135807794285981e-05   1.7995019305912127e-05
7.388855512982113e-05   -1.252468360980735e-05   4.526028013802615e-05
7.388855512982113e-05   -1.252468360980735e-05   4.526028013802615e-05
7.388855512982113e-05   -1.252468360980735e-05   4.526028013802615e-05
7.388855512982113e-05   -1.252468360980735e-05   4.526028013802615e-05
3.7277748640585534e-05   -9.732130215264062e-06   -1.4082198640640508e-05
3.7277748640585534e-05   -9.732130215264062e-06   -1.4082198640640508e-05
3.7277748640585534e-05   -9.732130215264062e-06   -1.4082198640640508e-05
3.7277748640585534e-05   -9.732130215264062e-06   -1.4082198640640508e-05
3.597358218590387e-05   -1.2629500723193056e-05   4.21328471033051e-05
3.597358218590387e-05   -1.2629500723193056e-05   4.21328471033051e-05
3.597358218590387e-05   -1.2629500723193056e-05   4.21328471033051e-05
3.597358218590387e-05   -1.2629500723193056e-05   4.21328471033051e-05
7.206069005857946e-05   -9.902905246735646e-06   -1.9648289970362092e-05
7.206069005857946e-05   -9.902905246735646e-06   -1.9648289970362092e-05
7.206069005857946e-05   -9.902905246735646e-06   -1.9648289970362092e-05
7.206069005857946e-05   -9.902905246735646e-06   -1.9648289970362092e-05
5.3273427886514635e-05   -1.0578728663912865e-05   1.2069307700052093e-05
5.3273427886514635e-05   -1.0578728663912865e-05   1.2069307700052093e-05
5.3273427886514635e-05   -1.0578728663912865e-05   1.2069307700052093e-05
5.3273427886514635e-05   -1.0578728663912865e-05   1.2069307700052093e-05
7.206069005857946e-05   -1.2629500723193207e-05   4.049688981743057e-05
7.206069005857946e-05   -1.2629500723193207e-05   4.049688981743057e-05
7.206069005857946e-05   -1.2629500723193207e-05   4.049688981743057e-05
7.206069005857946e-05   -1.2629500723193207e-05   4.049688981743057e-05
3.597358218590387e-05   -9.902905246735646e-06   -1.8012332684487573e-05
3.597358218590387e-05   -9.902905246735646e-06   -1.8012332684487573e-05
3.597358218590387e-05   -9.902905246735646e-06   -1.8012332684487573e-05
3.597358218590387e-05   -9.902905246735646e-06   -1.8012332684487573e-05
3.460540322270224e-05   -1.2367532899487665e-05   3.5009702986363474e-05
3.460540322270224e-05   -1.2367532899487665e-05   3.5009702986363474e-05
3.460540322270224e-05   -1.2367532899487665e-05   3.5009702986363474e-05
3.460540322270224e-05   -1.2367532899487665e-05   3.5009702986363474e-05
6.977269633127657e-05   -9.841810656447368e-06   -2.5117885540418057e-05
6.977269633127657e-05   -9.841810656447368e-06   -2.5117885540418057e-05
6.977269633127657e-05   -9.841810656447368e-06   -2.5117885540418057e-05
6.977269633127657e-05   -9.841810656447368e-06   -2.5117885540418057e-05
5.08962595862607e-05   -1.0302319575061086e-05   6.619147719111031e-06
5.08962595862607e-05   -1.0302319575061086e-05   6.619147719111031e-06
5.08962595862607e-05   -1.0302319575061086e-05   6.619147719111031e-06
5.08962595862607e-05   -1.0302319575061086e-05   6.619147719111031e-06
3.828983505416714e-05   -7.0503216917258624e-06   5.089492184526235e-05
3.828983505416714e-05   -7.0503216917258624e-06   5.089492184526235e-05
3.828983505416714e-05   -7.0503216917258624e-06   5.089492184526235e-05
3.828983505416714e-05   -7.0503216917258624e-06   5.089492184526235e-05
4.211972365351598e-06   -3.031170314801452e-06   -3.4900251432755727e-06
4.211972365351598e-06   -3.031170314801452e-06   -3.4900251432755727e-06
4.211972365351598e-06   -3.031170314801452e-06   -3.4900251432755727e-06
4.211972365351598e-06   -3.031170314801452e-06   -3.4900251432755727e-06
3.206745134820907e-06   -7.478362308744636e-06   5.3028548371470514e-05
3.206745134820907e-06   -7.478362308744636e-06   5.3028548371470514e-05
3.206745134820907e-06   -7.478362308744636e-06   5.3028548371470514e-05
3.206745134820907e-06   -7.478362308744636e-06   5.3028548371470514e-05
3.727774864058553e-05   -3.6476347719757198e-06   -6.054893993531838e-06
3.727774864058553e-05   -3.6476347719757198e-06   -6.054893993531838e-06
3.727774864058553e-05   -3.6476347719757198e-06   -6.054893993531838e-06
3.727774864058553e-05   -3.6476347719757198e-06   -6.054893993531838e-06
2.0547895639958775e-05   -4.929668632463503e-06   2.2597414657138826e-05
2.0547895639958775e-05   -4.929668632463503e-06   2.2597414657138826e-05
2.0547895639958775e-05   -4.929668632463503e-06   2.2597414657138826e-05
2.0547895639958775e-05   -4.929668632463503e-06   2.2597414657138826e-05
3.727774864058551e-05   -7.478362308744841e-06   5.073011184940921e-05
3.727774864058551e-05   -7.478362308744841e-06   5.073011184940921e-05
3.727774864058551e-05   -7.478362308744841e-06   5.073011184940921e-05
3.727774864058551e-05   -7.478362308744841e-06   5.073011184940921e-05
3.206745134820907e-06   -3.6476347719757198e-06   -3.756457471470586e-06
3.206745134820907e-06   -3.6476347719757198e-06   -3.756457471470586e-06
3.206745134820907e-06   -3.6476347719757198e-06   -3.756457471470586e-06
3.206745134820907e-06   -3.6476347719757198e-06   -3.756457471470586e-06
1.9233638246909165e-06   -7.669287546546548e-06   5.2532470550810005e-05
1.9233638246909165e-06   -7.669287546546548e-06   5.2532470550810005e-05
1.9233638246909165e-06   -7.669287546546548e-06   5.2532470550810005e-05
1.9233638246909165e-06   -7.669287546546548e-06   5.2532470550810005e-05
3.597358218590388e-05   -4.052318662587685e-06   -6.388074714920551e-06
3.597358218590388e-05   -4.052318662587685e-06   -6.388074714920551e-06
3.597358218590388e-05   -4.052318662587685e-06   -6.388074714920551e-06
3.597358218590388e-05   -4.052318662587685e-06   -6.388074714920551e-06
1.9273458194032188e-05   -5.1632536803504665e-06   2.2112026282190773e-05
1.9273458194032188e-05   -5.1632536803504665e-06   2.2112026282190773e-05
1.9273458194032188e-05   -5.1632536803504665e-06   2.2112026282190773e-05
1.9273458194032188e-05   -5.1632536803504665e-06   2.2112026282190773e-05
3.597358218590382e-05   -7.669287546546543e-06   5.036228922043447e-05
3.597358218590382e-05   -7.669287546546543e-06   5.036228922043447e-05
3.597358218590382e-05   -7.669287546546543e-06   5.036228922043447e-05
3.597358218590382e-05   -7.669287546546543e-06   5.036228922043447e-05
1.9233638246909165e-06   -4.052318662587685e-06   -4.2178933845450975e-06
1.9233638246909165e-06   -4.052318662587685e-06   -4.2178933845450975e-06
1.9233638246909165e-06   -4.052318662587685e-06   -4.2178933845450975e-06
1.9233638246909165e-06   -4.052318662587685e-06   -4.2178933845450975e-06
5.056092085200387e-07   -7.497405484295418e-06   5.3307627677089174e-05
5.056092085200387e-07   -7.497405484295418e-06   5.3307627677089174e-05
5.056092085200387e-07   -7.497405484295418e-06   5.3307627677089174e-05
5.056092085200387e-07   -7.497405484295418e-06   5.3307627677089174e-05
3.4605403222702215e-05   -4.226334911755416e-06   -5.48800469007187e-06
3.4605403222702215e-05   -4.226334911755416e-06   -5.48800469007187e-06
3.4605403222702215e-05   -4.226334911755416e-06   -5.48800469007187e-06
3.4605403222702215e-05   -4.226334911755416e-06   -5.48800469007187e-06
1.8234560711853513e-05   -5.114911731100846e-06   2.2329878919617394e-05
1.8234560711853513e-05   -5.114911731100846e-06   2.2329878919617394e-05
1.8234560711853513e-05   -5.114911731100846e-06   2.2329878919617394e-05
1.8234560711853513e-05   -5.114911731100846e-06   2.2329878919617394e-05
4.2119723653516255e-06   -2.975921001402011e-06   5.204882963627034e-05
4.2119723653516255e-06   -2.975921001402011e-06   5.204882963627034e-05
4.2119723653516255e-06   -2.975921001402011e-06   5.204882963627034e-05
4.2119723653516255e-06   -2.975921001402011e-06   5.204882963627034e-05
-2.88006714823542e-05   2.690050005514557e-06   4.273391609104036e-07
-2.88006714823542e-05   2.690050005514557e-06   4.273391609104036e-07
-2.88006714823542e-05   2.690050005514557e-06   4.273391609104036e-07
-2.88006714823542e-05   2.690050005514557e-06   4.273391609104036e-07
-2.9933212120747453e-05   -3.142767458164976e-06   5.583998162872082e-05
-2.9933212120747453e-05   -3.142767458164976e-06   5.583998162872082e-05
-2.9933212120747453e-05   -3.142767458164976e-06   5.583998162872082e-05
-2.9933212120747453e-05   -3.142767458164976e-06   5.583998162872082e-05
3.206745134820895e-06   2.217696135128379e-06   -2.6095586198689375e-06
3.206745134820895e-06   2.217696135128379e-06   -2.6095586198689375e-06
3.206745134820895e-06   2.217696135128379e-06   -2.6095586198689375e-06
3.206745134820895e-06   2.217696135128379e-06   -2.6095586198689375e-06
-1.2805192891306779e-05   -5.401475382769971e-08   2.544003129038413e-05
-1.2805192891306779e-05   -5.401475382769971e-08   2.544003129038413e-05
-1.2805192891306779e-05   -5.401475382769971e-08   2.544003129038413e-05
-1.2805192891306779e-05   -5.401475382769971e-08   2.544003129038413e-05
3.206745134820907e-06   -3.1427674581647777e-06   5.262370347274502e-05
3.206745134820907e-06   -3.1427674581647777e-06   5.262370347274502e-05
3.206745134820907e-06   -3.1427674581647777e-06   5.262370347274502e-05
3.206745134820907e-06   -3.1427674581647777e-06   5.262370347274502e-05
-2.9933212120747453e-05   2.217696135128379e-06   6.067195361069127e-07
-2.9933212120747453e-05   2.217696135128379e-06   6.067195361069127e-07
-2.9933212120747453e-05   2.217696135128379e-06   6.067195361069127e-07
-2.9933212120747453e-05   2.217696135128379e-06   6.067195361069127e-07
-3.1451936326220734e-05   -3.3469642564125553e-06   5.696008927580701e-05
-3.1451936326220734e-05   -3.3469642564125553e-06   5.696008927580701e-05
-3.1451936326220734e-05   -3.3469642564125553e-06   5.696008927580701e-05
-3.1451936326220734e-05   -3.3469642564125553e-06   5.696008927580701e-05
1.9233638246909245e-06   1.7779844932157979e-06   -1.7403802254898672e-06
1.9233638246909245e-06   1.7779844932157979e-06   -1.7403802254898672e-06
1.9233638246909245e-06   1.7779844932157979e-06   -1.7403802254898672e-06
1.9233638246909245e-06   1.7779844932157979e-06   -1.7403802254898672e-06
-1.3922445322122392e-05   -1.8718400356370485e-07   2.5848402783933404e-05
-1.3922445322122392e-05   -1.8718400356370485e-07   2.5848402783933404e-05
-1.3922445322122392e-05   -1.8718400356370485e-07   2.5848402783933404e-05
-1.3922445322122392e-05   -1.8718400356370485e-07   2.5848402783933404e-05
1.9233638246909165e-06   -3.3469642564124697e-06   5.388512002602974e-05
1.9233638246909165e-06   -3.3469642564124697e-06   5.388512002602974e-05
1.9233638246909165e-06   -3.3469642564124697e-06   5.388512002602974e-05
1.9233638246909165e-06   -3.3469642564124697e-06   5.388512002602974e-05
-3.1451936326220734e-05   1.7779844932157979e-06   1.3345890242872152e-06
-3.1451936326220734e-05   1.7779844932157979e-06   1.3345890242872152e-06
-3.1451936326220734e-05   1.7779844932157979e-06   1.3345890242872152e-06
-3.1451936326220734e-05   1.7779844932157979e-06   1.3345890242872152e-06
-3.307003711778287e-05   -3.328076723396658e-06   5.830368339589586e-05
-3.307003711778287e-05   -3.328076723396658e-06   5.830368339589586e-05
-3.307003711778287e-05   -3.328076723396658e-06   5.830368339589586e-05
-3.307003711778287e-05   -3.328076723396658e-06   5.830368339589586e-05
5.056092085200345e-07   1.4611332139541008e-06   -5.292531103529973e-07
5.056092085200345e-07   1.4611332139541008e-06   -5.292531103529973e-07
5.056092085200345e-07   1.4611332139541008e-06   -5.292531103529973e-07
5.056092085200345e-07   1.4611332139541008e-06   -5.292531103529973e-07
-1.534740754755161e-05   -2.8296517888852166e-07   2.6938900518806176e-05
-1.534740754755161e-05   -2.8296517888852166e-07   2.6938900518806176e-05
-1.534740754755161e-05   -2.8296517888852166e-07   2.6938900518806176e-05
-1.534740754755161e-05   -2.8296517888852166e-07   2.6938900518806176e-05
-2.8800671482354117e-05   3.1680919718257186e-06   4.703052394577391e-05
-2.8800671482354117e-05   3.1680919718257186e-06   4.703052394577391e-05
-2.8800671482354117e-05   3.1680919718257186e-06   4.703052394577391e-05
-2.8800671482354117e-05   3.1680919718257186e-06   4.703052394577391e-05
-6.11378250841932e-05   8.768369601688808e-06   -3.504565479373273e-06
-6.11378250841932e-05   8.768369601688808e-06   -3.504565479373273e-06
-6.11378250841932e-05   8.768369601688808e-06   -3.504565479373273e-06
-6.11378250841932e-05   8.768369601688808e-06   -3.504565479373273e-06
-6.27880900856381e-05   2.97602089428849e-06   5.206215644744123e-05
-6.27880900856381e-05   2.97602089428849e-06   5.206215644744123e-05
-6.27880900856381e-05   2.97602089428849e-06   5.206215644744123e-05
-6.27880900856381e-05   2.97602089428849e-06   5.206215644744123e-05
-2.99332121207474e-05   8.294537185003347e-06   -5.887083268472297e-06
-2.99332121207474e-05   8.294537185003347e-06   -5.887083268472297e-06
-2.99332121207474e-05   8.294537185003347e-06   -5.887083268472297e-06
-2.99332121207474e-05   8.294537185003347e-06   -5.887083268472297e-06
-4.5304267795923795e-05   5.9036585509119645e-06   2.1165870037276454e-05
-4.5304267795923795e-05   5.9036585509119645e-06   2.1165870037276454e-05
-4.5304267795923795e-05   5.9036585509119645e-06   2.1165870037276454e-05
-4.5304267795923795e-05   5.9036585509119645e-06   2.1165870037276454e-05
-2.9933212120747453e-05   2.976020894288718e-06   4.887104667301184e-05
-2.9933212120747453e-05   2.976020894288718e-06   4.887104667301184e-05
-2.9933212120747453e-05   2.976020894288718e-06   4.887104667301184e-05
-2.9933212120747453e-05   2.976020894288718e-06   4.887104667301184e-05
-6.278809008563796e-05   8.294537185003347e-06   -2.6959734940434476e-06
-6.278809008563796e-05   8.294537185003347e-06   -2.6959734940434476e-06
-6.278809008563796e-05   8.294537185003347e-06   -2.6959734940434476e-06
-6.278809008563796e-05   8.294537185003347e-06   -2.6959734940434476e-06
-6.481022427547712e-05   2.6239934371686743e-06   5.525589236269604e-05
-6.481022427547712e-05   2.6239934371686743e-06   5.525589236269604e-05
-6.481022427547712e-05   2.6239934371686743e-06   5.525589236269604e-05
-6.481022427547712e-05   2.6239934371686743e-06   5.525589236269604e-05
-3.1451936326220734e-05   7.856581656474383e-06   -3.480807150981185e-06
-3.1451936326220734e-05   7.856581656474383e-06   -3.480807150981185e-06
-3.1451936326220734e-05   7.856581656474383e-06   -3.480807150981185e-06
-3.1451936326220734e-05   7.856581656474383e-06   -3.480807150981185e-06
-4.6534012391230334e-05   5.7937513324602535e-06   2.2893684485110098e-05
-4.6534012391230334e-05   5.7937513324602535e-06   2.2893684485110098e-05
-4.6534012391230334e-05   5.7937513324602535e-06   2.2893684485110098e-05
-4.6534012391230334e-05   5.7937513324602535e-06   2.2893684485110098e-05
-3.1451936326220734e-05   2.6239934371684698e-06   5.211633943111261e-05
-3.1451936326220734e-05   2.6239934371684698e-06   5.211633943111261e-05
-3.1451936326220734e-05   2.6239934371684698e-06   5.211633943111261e-05
-3.1451936326220734e-05   2.6239934371684698e-06   5.211633943111261e-05
-6.481022427547699e-05   7.856581656474383e-06   -3.412542193975427e-07
-6.481022427547699e-05   7.856581656474383e-06   -3.412542193975427e-07
-6.481022427547699e-05   7.856581656474383e-06   -3.412542193975427e-07
-6.481022427547699e-05   7.856581656474383e-06   -3.412542193975427e-07
-6.695011842321812e-05   2.2256836103256954e-06   5.7801034732363806e-05
-6.695011842321812e-05   2.2256836103256954e-06   5.7801034732363806e-05
-6.695011842321812e-05   2.2256836103256954e-06   5.7801034732363806e-05
-6.695011842321812e-05   2.2256836103256954e-06   5.7801034732363806e-05
-3.307003711778272e-05   7.268139888618862e-06   -1.6912412103377902e-06
-3.307003711778272e-05   7.268139888618862e-06   -1.6912412103377902e-06
-3.307003711778272e-05   7.268139888618862e-06   -1.6912412103377902e-06
-3.307003711778272e-05   7.268139888618862e-06   -1.6912412103377902e-06
-4.858041005146921e-05   5.438147599095677e-06   2.525737571952097e-05
-4.858041005146921e-05   5.438147599095677e-06   2.525737571952097e-05
-4.858041005146921e-05   5.438147599095677e-06   2.525737571952097e-05
-4.858041005146921e-05   5.438147599095677e-06   2.525737571952097e-05
-6.11378250841932e-05   1.4470367581777412e-05   2.476319634651383e-05
-6.11378250841932e-05   1.4470367581777412e-05   2.476319634651383e-05
-6.11378250841932e-05   1.4470367581777412e-05   2.476319634651383e-05
-6.11378250841932e-05   1.4470367581777412e-05   2.476319634651383e-05
-9.210196733298309e-05   1.4260198949920654e-05   -2.6969808580583517e-05
-9.210196733298309e-05   1.4260198949920654e-05   -2.6969808580583517e-05
-9.210196733298309e-05   1.4260198949920654e-05   -2.6969808580583517e-05
-9.210196733298309e-05   1.4260198949920654e-05   -2.6969808580583517e-05
-9.506392306296574e-05   1.3962768485105154e-05   3.66706916126564e-05
-9.506392306296574e-05   1.3962768485105154e-05   3.66706916126564e-05
-9.506392306296574e-05   1.3962768485105154e-05   3.66706916126564e-05
-9.506392306296574e-05   1.3962768485105154e-05   3.66706916126564e-05
-6.278809008563796e-05   1.4532402175832827e-05   -1.746414356399383e-05
-6.278809008563796e-05   1.4532402175832827e-05   -1.746414356399383e-05
-6.278809008563796e-05   1.4532402175832827e-05   -1.746414356399383e-05
-6.278809008563796e-05   1.4532402175832827e-05   -1.746414356399383e-05
-7.464248634712019e-05   1.4532848181728238e-05   2.2929159349393147e-06
-7.464248634712019e-05   1.4532848181728238e-05   2.2929159349393147e-06
-7.464248634712019e-05   1.4532848181728238e-05   2.2929159349393147e-06
-7.464248634712019e-05   1.4532848181728238e-05   2.2929159349393147e-06
-6.27880900856379e-05   1.3962768485104753e-05   3.632891139821945e-05
-6.27880900856379e-05   1.3962768485104753e-05   3.632891139821945e-05
-6.27880900856379e-05   1.3962768485104753e-05   3.632891139821945e-05
-6.27880900856379e-05   1.3962768485104753e-05   3.632891139821945e-05
-9.506392306296574e-05   1.4532402175832827e-05   -1.712236334955688e-05
-9.506392306296574e-05   1.4532402175832827e-05   -1.712236334955688e-05
-9.506392306296574e-05   1.4532402175832827e-05   -1.712236334955688e-05
-9.506392306296574e-05   1.4532402175832827e-05   -1.712236334955688e-05
-9.796859732589803e-05   1.3603413057179659e-05   4.503296813927792e-05
-9.796859732589803e-05   1.3603413057179659e-05   4.503296813927792e-05
-9.796859732589803e-05   1.3603413057179659e-05   4.503296813927792e-05
-9.796859732589803e-05   1.3603413057179659e-05   4.503296813927792e-05
-6.481022427547699e-05   1.4427262650090929e-05   -1.0725296700504338e-05
-6.481022427547699e-05   1.4427262650090929e-05   -1.0725296700504338e-05
-6.481022427547699e-05   1.4427262650090929e-05   -1.0725296700504338e-05
-6.481022427547699e-05   1.4427262650090929e-05   -1.0725296700504338e-05
-7.803583457786914e-05   1.452950158897185e-05   1.1256043773488322e-05
-7.803583457786914e-05   1.452950158897185e-05   1.1256043773488322e-05
-7.803583457786914e-05   1.452950158897185e-05   1.1256043773488322e-05
-7.803583457786914e-05   1.452950158897185e-05   1.1256043773488322e-05
-6.481022427547699e-05   1.3603413057179448e-05   4.453865838353129e-05
-6.481022427547699e-05   1.3603413057179448e-05   4.453865838353129e-05
-6.481022427547699e-05   1.3603413057179448e-05   4.453865838353129e-05
-6.481022427547699e-05   1.3603413057179448e-05   4.453865838353129e-05
-9.79685973258982e-05   1.4427262650090929e-05   -1.0230986944757435e-05
-9.79685973258982e-05   1.4427262650090929e-05   -1.0230986944757435e-05
-9.79685973258982e-05   1.4427262650090929e-05   -1.0230986944757435e-05
-9.79685973258982e-05   1.4427262650090929e-05   -1.0230986944757435e-05
-0.00010139400544427465   1.132319749348092e-05   5.90068378151635e-05
-0.00010139400544427465   1.132319749348092e-05   5.90068378151635e-05
-0.00010139400544427465   1.132319749348092e-05   5.90068378151635e-05
-0.00010139400544427465   1.132319749348092e-05   5.90068378151635e-05
-6.695011842321806e-05   1.3279926367550966e-05   4.2632212229350543e-07
-6.695011842321806e-05   1.3279926367550966e-05   4.2632212229350543e-07
-6.695011842321806e-05   1.3279926367550966e-05   4.2632212229350543e-07
-6.695011842321806e-05   1.3279926367550966e-05   4.2632212229350543e-07
-7.925679761536887e-05   1.3838684678061167e-05   2.060219912290571e-05
-7.925679761536887e-05   1.3838684678061167e-05   2.060219912290571e-05
-7.925679761536887e-05   1.3838684678061167e-05   2.060219912290571e-05
-7.925679761536887e-05   1.3838684678061167e-05   2.060219912290571e-05
6.136052322194504e-05   -8.585551177537571e-06   4.737443951954466e-05
6.136052322194504e-05   -8.585551177537571e-06   4.737443951954466e-05
6.136052322194504e-05   -8.585551177537571e-06   4.737443951954466e-05
6.136052322194504e-05   -8.585551177537571e-06   4.737443951954466e-05
3.038398501594603e-05   -6.290580352408433e-06   -2.876141662042737e-06
3.038398501594603e-05   -6.290580352408433e-06   -2.876141662042737e-06
3.038398501594603e-05   -6.290580352408433e-06   -2.876141662042737e-06
3.038398501594603e-05   -6.290580352408433e-06   -2.876141662042737e-06
2.9218235128303902e-05   -9.732130215264062e-06   4.120049471137248e-05
2.9218235128303902e-05   -9.732130215264062e-06   4.120049471137248e-05
2.9218235128303902e-05   -9.732130215264062e-06   4.120049471137248e-05
2.9218235128303902e-05   -9.732130215264062e-06   4.120049471137248e-05
5.921634729713248e-05   -7.3001131530745986e-06   -1.0255569140655241e-05
5.921634729713248e-05   -7.3001131530745986e-06   -1.0255569140655241e-05
5.921634729713248e-05   -7.3001131530745986e-06   -1.0255569140655241e-05
5.921634729713248e-05   -7.3001131530745986e-06   -1.0255569140655241e-05
4.29824131514321e-05   -7.895555748510096e-06   1.7158253326106647e-05
4.29824131514321e-05   -7.895555748510096e-06   1.7158253326106647e-05
4.29824131514321e-05   -7.895555748510096e-06   1.7158253326106647e-05
4.29824131514321e-05   -7.895555748510096e-06   1.7158253326106647e-05
5.9216347297132374e-05   -9.732130215263683e-06   3.974128447405893e-05
5.9216347297132374e-05   -9.732130215263683e-06   3.974128447405893e-05
5.9216347297132374e-05   -9.732130215263683e-06   3.974128447405893e-05
5.9216347297132374e-05   -9.732130215263683e-06   3.974128447405893e-05
2.9218235128303997e-05   -7.3001131530745986e-06   -8.796358903341442e-06
2.9218235128303997e-05   -7.3001131530745986e-06   -8.796358903341442e-06
2.9218235128303997e-05   -7.3001131530745986e-06   -8.796358903341442e-06
2.9218235128303997e-05   -7.3001131530745986e-06   -8.796358903341442e-06
2.7923010164203284e-05   -9.902905246735646e-06   3.692564821960206e-05
2.7923010164203284e-05   -9.902905246735646e-06   3.692564821960206e-05
2.7923010164203284e-05   -9.902905246735646e-06   3.692564821960206e-05
2.7923010164203284e-05   -9.902905246735646e-06   3.692564821960206e-05
5.7275032422387206e-05   -7.503171871926263e-06   -1.3434228902256383e-05
5.7275032422387206e-05   -7.503171871926263e-06   -1.3434228902256383e-05
5.7275032422387206e-05   -7.503171871926263e-06   -1.3434228902256383e-05
5.7275032422387206e-05   -7.503171871926263e-06   -1.3434228902256383e-05
4.217388726760007e-05   -8.286682767858888e-06   1.2204452893281478e-05
4.217388726760007e-05   -8.286682767858888e-06   1.2204452893281478e-05
4.217388726760007e-05   -8.286682767858888e-06   1.2204452893281478e-05
4.217388726760007e-05   -8.286682767858888e-06   1.2204452893281478e-05
5.727503242238701e-05   -9.902905246735653e-06   3.5485808194716476e-05
5.727503242238701e-05   -9.902905246735653e-06   3.5485808194716476e-05
5.727503242238701e-05   -9.902905246735653e-06   3.5485808194716476e-05
5.727503242238701e-05   -9.902905246735653e-06   3.5485808194716476e-05
2.7923010164203325e-05   -7.503171871926263e-06   -1.199438887737104e-05
2.7923010164203325e-05   -7.503171871926263e-06   -1.199438887737104e-05
2.7923010164203325e-05   -7.503171871926263e-06   -1.199438887737104e-05
2.7923010164203325e-05   -7.503171871926263e-06   -1.199438887737104e-05
2.6677398628395323e-05   -9.841810656447368e-06   3.0966451982951176e-05
2.6677398628395323e-05   -9.841810656447368e-06   3.0966451982951176e-05
2.6677398628395323e-05   -9.841810656447368e-06   3.0966451982951176e-05
2.6677398628395323e-05   -9.841810656447368e-06   3.0966451982951176e-05
5.5076618447732397e-05   -7.586515260273648e-06   -1.7718758286981077e-05
5.5076618447732397e-05   -7.586515260273648e-06   -1.7718758286981077e-05
5.5076618447732397e-05   -7.586515260273648e-06   -1.7718758286981077e-05
5.5076618447732397e-05   -7.586515260273648e-06   -1.7718758286981077e-05
3.999933585306165e-05   -8.147155704922929e-06   7.746430304260651e-06
3.999933585306165e-05   -8.147155704922929e-06   7.746430304260651e-06
3.999933585306165e-05   -8.147155704922929e-06   7.746430304260651e-06
3.999933585306165e-05   -8.147155704922929e-06   7.746430304260651e-06
3.038398501594603e-05   -3.03117031480143e-06   4.974538945945548e-05
3.038398501594603e-05   -3.03117031480143e-06   4.974538945945548e-05
3.038398501594603e-05   -3.03117031480143e-06   4.974538945945548e-05
3.038398501594603e-05   -3.03117031480143e-06   4.974538945945548e-05
1.3080621250498097e-06   -1.2026937703372466e-06   2.3826039013069913e-06
1.3080621250498097e-06   -1.2026937703372466e-06   2.3826039013069913e-06
1.3080621250498097e-06   -1.2026937703372466e-06   2.3826039013069913e-06
1.3080621250498097e-06   -1.2026937703372466e-06   2.3826039013069913e-06
1.8912991413659879e-07   -3.6476347719757198e-06   5.0265064789302254e-05
1.8912991413659879e-07   -3.6476347719757198e-06   5.0265064789302254e-05
1.8912991413659879e-07   -3.6476347719757198e-06   5.0265064789302254e-05
1.8912991413659879e-07   -3.6476347719757198e-06   5.0265064789302254e-05
2.9218235128304004e-05   -1.9188590539408884e-06   8.459573348693197e-07
2.9218235128304004e-05   -1.9188590539408884e-06   8.459573348693197e-07
2.9218235128304004e-05   -1.9188590539408884e-06   8.459573348693197e-07
2.9218235128304004e-05   -1.9188590539408884e-06   8.459573348693197e-07
1.5089592602031547e-05   -2.359215149044802e-06   2.465790853571856e-05
1.5089592602031547e-05   -2.359215149044802e-06   2.465790853571856e-05
1.5089592602031547e-05   -2.359215149044802e-06   2.465790853571856e-05
1.5089592602031547e-05   -2.359215149044802e-06   2.465790853571856e-05
2.9218235128303984e-05   -3.6476347719758663e-06   4.922779935848153e-05
2.9218235128303984e-05   -3.6476347719758663e-06   4.922779935848153e-05
2.9218235128303984e-05   -3.6476347719758663e-06   4.922779935848153e-05
2.9218235128303984e-05   -3.6476347719758663e-06   4.922779935848153e-05
1.8912991413659879e-07   -1.9188590539408884e-06   1.8832227656898418e-06
1.8912991413659879e-07   -1.9188590539408884e-06   1.8832227656898418e-06
1.8912991413659879e-07   -1.9188590539408884e-06   1.8832227656898418e-06
1.8912991413659879e-07   -1.9188590539408884e-06   1.8832227656898418e-06
-9.739175205122907e-07   -4.052318662587685e-06   4.951054241241902e-05
-9.739175205122907e-07   -4.052318662587685e-06   4.951054241241902e-05
-9.739175205122907e-07   -4.052318662587685e-06   4.951054241241902e-05
-9.739175205122907e-07   -4.052318662587685e-06   4.951054241241902e-05
2.7923010164203318e-05   -2.4512582905045384e-06   3.883600479763884e-07
2.7923010164203318e-05   -2.4512582905045384e-06   3.883600479763884e-07
2.7923010164203318e-05   -2.4512582905045384e-06   3.883600479763884e-07
2.7923010164203318e-05   -2.4512582905045384e-06   3.883600479763884e-07
1.3805453337565645e-05   -2.7346200991941114e-06   2.408763851092057e-05
1.3805453337565645e-05   -2.7346200991941114e-06   2.408763851092057e-05
1.3805453337565645e-05   -2.7346200991941114e-06   2.408763851092057e-05
1.3805453337565645e-05   -2.7346200991941114e-06   2.408763851092057e-05
2.7923010164203325e-05   -4.0523186625876286e-06   4.854990618916922e-05
2.7923010164203325e-05   -4.0523186625876286e-06   4.854990618916922e-05
2.7923010164203325e-05   -4.0523186625876286e-06   4.854990618916922e-05
2.7923010164203325e-05   -4.0523186625876286e-06   4.854990618916922e-05
-9.739175205122907e-07   -2.4512582905045384e-06   1.348996271226515e-06
-9.739175205122907e-07   -2.4512582905045384e-06   1.348996271226515e-06
-9.739175205122907e-07   -2.4512582905045384e-06   1.348996271226515e-06
-9.739175205122907e-07   -2.4512582905045384e-06   1.348996271226515e-06
-2.1847270148628534e-06   -4.22633491175585e-06   4.989366823845141e-05
-2.1847270148628534e-06   -4.22633491175585e-06   4.989366823845141e-05
-2.1847270148628534e-06   -4.22633491175585e-06   4.989366823845141e-05
-2.1847270148628534e-06   -4.22633491175585e-06   4.989366823845141e-05
2.6677398628395388e-05   -2.871720326791914e-06   9.773567487094862e-07
2.6677398628395388e-05   -2.871720326791914e-06   9.773567487094862e-07
2.6677398628395388e-05   -2.871720326791914e-06   9.773567487094862e-07
2.6677398628395388e-05   -2.871720326791914e-06   9.773567487094862e-07
1.2839318762827107e-05   -2.9366839354259128e-06   2.4079801356504955e-05
1.2839318762827107e-05   -2.9366839354259128e-06   2.4079801356504955e-05
1.2839318762827107e-05   -2.9366839354259128e-06   2.4079801356504955e-05
1.2839318762827107e-05   -2.9366839354259128e-06   2.4079801356504955e-05
1.3080621250498097e-06   2.6900500055147285e-06   5.136025708617014e-05
1.3080621250498097e-06   2.6900500055147285e-06   5.136025708617014e-05
1.3080621250498097e-06   2.6900500055147285e-06   5.136025708617014e-05
1.3080621250498097e-06   2.6900500055147285e-06   5.136025708617014e-05
-2.6917541605637102e-05   3.9078593841732415e-06   5.048269828887217e-06
-2.6917541605637102e-05   3.9078593841732415e-06   5.048269828887217e-06
-2.6917541605637102e-05   3.9078593841732415e-06   5.048269828887217e-06
-2.6917541605637102e-05   3.9078593841732415e-06   5.048269828887217e-06
-2.8086562535491335e-05   2.217696135128379e-06   5.206822449952786e-05
-2.8086562535491335e-05   2.217696135128379e-06   5.206822449952786e-05
-2.8086562535491335e-05   2.217696135128379e-06   5.206822449952786e-05
-2.8086562535491335e-05   2.217696135128379e-06   5.206822449952786e-05
1.8912991413659654e-07   3.3114642328350985e-06   4.285809558190508e-06
1.8912991413659654e-07   3.3114642328350985e-06   4.285809558190508e-06
1.8912991413659654e-07   3.3114642328350985e-06   4.285809558190508e-06
1.8912991413659654e-07   3.3114642328350985e-06   4.285809558190508e-06
-1.3397479922760914e-05   3.0667062412867256e-06   2.7077014081282173e-05
-1.3397479922760914e-05   3.0667062412867256e-06   2.7077014081282173e-05
-1.3397479922760914e-05   3.0667062412867256e-06   2.7077014081282173e-05
-1.3397479922760914e-05   3.0667062412867256e-06   2.7077014081282173e-05
1.8912991413659879e-07   2.2176961351282383e-06   5.141196364090374e-05
1.8912991413659879e-07   2.2176961351282383e-06   5.141196364090374e-05
1.8912991413659879e-07   2.2176961351282383e-06   5.141196364090374e-05
1.8912991413659879e-07   2.2176961351282383e-06   5.141196364090374e-05
-2.8086562535491335e-05   3.3114642328350985e-06   4.9420704168147075e-06
-2.8086562535491335e-05   3.3114642328350985e-06   4.9420704168147075e-06
-2.8086562535491335e-05   3.3114642328350985e-06   4.9420704168147075e-06
-2.8086562535491335e-05   3.3114642328350985e-06   4.9420704168147075e-06
-2.9321136673172385e-05   1.7779844932157979e-06   5.2560671512860615e-05
-2.9321136673172385e-05   1.7779844932157979e-06   5.2560671512860615e-05
-2.9321136673172385e-05   1.7779844932157979e-06   5.2560671512860615e-05
-2.9321136673172385e-05   1.7779844932157979e-06   5.2560671512860615e-05
-9.739175205122787e-07   2.7323443955265016e-06   4.742690317040851e-06
-9.739175205122787e-07   2.7323443955265016e-06   4.742690317040851e-06
-9.739175205122787e-07   2.7323443955265016e-06   4.742690317040851e-06
-9.739175205122787e-07   2.7323443955265016e-06   4.742690317040851e-06
-1.4483524553612008e-05   2.7259890243978326e-06   2.7262515261551048e-05
-1.4483524553612008e-05   2.7259890243978326e-06   2.7262515261551048e-05
-1.4483524553612008e-05   2.7259890243978326e-06   2.7262515261551048e-05
-1.4483524553612008e-05   2.7259890243978326e-06   2.7262515261551048e-05
-9.739175205122907e-07   1.7779844932156818e-06   5.198805557147471e-05
-9.739175205122907e-07   1.7779844932156818e-06   5.198805557147471e-05
-9.739175205122907e-07   1.7779844932156818e-06   5.198805557147471e-05
-9.739175205122907e-07   1.7779844932156818e-06   5.198805557147471e-05
-2.9321136673172385e-05   2.7323443955265016e-06   5.3153062584273495e-06
-2.9321136673172385e-05   2.7323443955265016e-06   5.3153062584273495e-06
-2.9321136673172385e-05   2.7323443955265016e-06   5.3153062584273495e-06
-2.9321136673172385e-05   2.7323443955265016e-06   5.3153062584273495e-06
-3.05951809526762e-05   1.4611332139541008e-06   5.33431954891164e-05
-3.05951809526762e-05   1.4611332139541008e-06   5.33431954891164e-05
-3.05951809526762e-05   1.4611332139541008e-06   5.33431954891164e-05
-3.05951809526762e-05   1.4611332139541008e-06   5.33431954891164e-05
-2.1847270148628466e-06   2.2168299047375765e-06   5.539020911624065e-06
-2.1847270148628466e-06   2.2168299047375765e-06   5.539020911624065e-06
-2.1847270148628466e-06   2.2168299047375765e-06   5.539020911624065e-06
-2.1847270148628466e-06   2.2168299047375765e-06   5.539020911624065e-06
-1.5658793225295552e-05   2.399519864680101e-06   2.7886183953047317e-05
-1.5658793225295552e-05   2.399519864680101e-06   2.7886183953047317e-05
-1.5658793225295552e-05   2.399519864680101e-06   2.7886183953047317e-05
-1.5658793225295552e-05   2.399519864680101e-06   2.7886183953047317e-05
-2.691754160563721e-05   8.76836960168893e-06   4.479887149516377e-05
-2.691754160563721e-05   8.76836960168893e-06   4.479887149516377e-05
-2.691754160563721e-05   8.76836960168893e-06   4.479887149516377e-05
-2.691754160563721e-05   8.76836960168893e-06   4.479887149516377e-05
-5.424949393129921e-05   8.879239577588068e-06   -6.87860395400192e-07
-5.424949393129921e-05   8.879239577588068e-06   -6.87860395400192e-07
-5.424949393129921e-05   8.879239577588068e-06   -6.87860395400192e-07
-5.424949393129921e-05   8.879239577588068e-06   -6.87860395400192e-07
-5.560670797122427e-05   8.294537185003347e-06   4.5583286041385104e-05
-5.560670797122427e-05   8.294537185003347e-06   4.5583286041385104e-05
-5.560670797122427e-05   8.294537185003347e-06   4.5583286041385104e-05
-5.560670797122427e-05   8.294537185003347e-06   4.5583286041385104e-05
-2.8086562535491413e-05   8.309311095730954e-06   -2.9248736460585605e-07
-2.8086562535491413e-05   8.309311095730954e-06   -2.9248736460585605e-07
-2.8086562535491413e-05   8.309311095730954e-06   -2.9248736460585605e-07
-2.8086562535491413e-05   8.309311095730954e-06   -2.9248736460585605e-07
-4.103087398188408e-05   8.54276883034558e-06   2.1141290405279596e-05
-4.103087398188408e-05   8.54276883034558e-06   2.1141290405279596e-05
-4.103087398188408e-05   8.54276883034558e-06   2.1141290405279596e-05
-4.103087398188408e-05   8.54276883034558e-06   2.1141290405279596e-05
-2.8086562535491416e-05   8.294537185003242e-06   4.557442169494876e-05
-2.8086562535491416e-05   8.294537185003242e-06   4.557442169494876e-05
-2.8086562535491416e-05   8.294537185003242e-06   4.557442169494876e-05
-2.8086562535491416e-05   8.294537185003242e-06   4.557442169494876e-05
-5.560670797122419e-05   8.309311095730954e-06   -2.836230181694002e-07
-5.560670797122419e-05   8.309311095730954e-06   -2.836230181694002e-07
-5.560670797122419e-05   8.309311095730954e-06   -2.836230181694002e-07
-5.560670797122419e-05   8.309311095730954e-06   -2.836230181694002e-07
-5.711115327407563e-05   7.856581656474383e-06   4.77018818715307e-05
-5.711115327407563e-05   7.856581656474383e-06   4.77018818715307e-05
-5.711115327407563e-05   7.856581656474383e-06   4.77018818715307e-05
-5.711115327407563e-05   7.856581656474383e-06   4.77018818715307e-05
-2.9321136673172426e-05   7.784259213038016e-06   1.4285810027538158e-06
-2.9321136673172426e-05   7.784259213038016e-06   1.4285810027538158e-06
-2.9321136673172426e-05   7.784259213038016e-06   1.4285810027538158e-06
-2.9321136673172426e-05   7.784259213038016e-06   1.4285810027538158e-06
-4.2012857090084415e-05   8.220662860392632e-06   2.231960617586089e-05
-4.2012857090084415e-05   8.220662860392632e-06   2.231960617586089e-05
-4.2012857090084415e-05   8.220662860392632e-06   2.231960617586089e-05
-4.2012857090084415e-05   8.220662860392632e-06   2.231960617586089e-05
-2.932113667317244e-05   7.856581656474385e-06   4.774527533759265e-05
-2.932113667317244e-05   7.856581656474385e-06   4.774527533759265e-05
-2.932113667317244e-05   7.856581656474385e-06   4.774527533759265e-05
-2.932113667317244e-05   7.856581656474385e-06   4.774527533759265e-05
-5.711115327407563e-05   7.784259213038016e-06   1.3851875366919196e-06
-5.711115327407563e-05   7.784259213038016e-06   1.3851875366919196e-06
-5.711115327407563e-05   7.784259213038016e-06   1.3851875366919196e-06
-5.711115327407563e-05   7.784259213038016e-06   1.3851875366919196e-06
-5.854508851181291e-05   7.268139888618862e-06   4.923282175206458e-05
-5.854508851181291e-05   7.268139888618862e-06   4.923282175206458e-05
-5.854508851181291e-05   7.268139888618862e-06   4.923282175206458e-05
-5.854508851181291e-05   7.268139888618862e-06   4.923282175206458e-05
-3.059518095267624e-05   7.143373764191292e-06   2.7245021614935496e-06
-3.059518095267624e-05   7.143373764191292e-06   2.7245021614935496e-06
-3.059518095267624e-05   7.143373764191292e-06   2.7245021614935496e-06
-3.059518095267624e-05   7.143373764191292e-06   2.7245021614935496e-06
-4.357339194733198e-05   7.802758770273071e-06   2.3959222815605205e-05
-4.357339194733198e-05   7.802758770273071e-06   2.3959222815605205e-05
-4.357339194733198e-05   7.802758770273071e-06   2.3959222815605205e-05
-4.357339194733198e-05   7.802758770273071e-06   2.3959222815605205e-05
-5.424949393129913e-05   1.4260198949920678e-05   2.1526251558606855e-05
-5.424949393129913e-05   1.4260198949920678e-05   2.1526251558606855e-05
-5.424949393129913e-05   1.4260198949920678e-05   2.1526251558606855e-05
-5.424949393129913e-05   1.4260198949920678e-05   2.1526251558606855e-05
-8.021204839218422e-05   1.277975007756742e-05   -2.263294186628014e-05
-8.021204839218422e-05   1.277975007756742e-05   -2.263294186628014e-05
-8.021204839218422e-05   1.277975007756742e-05   -2.263294186628014e-05
-8.021204839218422e-05   1.277975007756742e-05   -2.263294186628014e-05
-8.234925404288493e-05   1.4532402175832827e-05   2.9844026201656954e-05
-8.234925404288493e-05   1.4532402175832827e-05   2.9844026201656954e-05
-8.234925404288493e-05   1.4532402175832827e-05   2.9844026201656954e-05
-8.234925404288493e-05   1.4532402175832827e-05   2.9844026201656954e-05
-5.560670797122427e-05   1.2913919226202782e-05   -1.3755794147999809e-05
-5.560670797122427e-05   1.2913919226202782e-05   -1.3755794147999809e-05
-5.560670797122427e-05   1.2913919226202782e-05   -1.3755794147999809e-05
-5.560670797122427e-05   1.2913919226202782e-05   -1.3755794147999809e-05
-6.549683162490173e-05   1.3542939537111807e-05   2.350333088250588e-06
-6.549683162490173e-05   1.3542939537111807e-05   2.350333088250588e-06
-6.549683162490173e-05   1.3542939537111807e-05   2.350333088250588e-06
-6.549683162490173e-05   1.3542939537111807e-05   2.350333088250588e-06
-5.5606707971224135e-05   1.4532402175832705e-05   3.081511597143494e-05
-5.5606707971224135e-05   1.4532402175832705e-05   3.081511597143494e-05
-5.5606707971224135e-05   1.4532402175832705e-05   3.081511597143494e-05
-5.5606707971224135e-05   1.4532402175832705e-05   3.081511597143494e-05
-8.23492540428851e-05   1.2913919226202782e-05   -1.472688391777801e-05
-8.23492540428851e-05   1.2913919226202782e-05   -1.472688391777801e-05
-8.23492540428851e-05   1.2913919226202782e-05   -1.472688391777801e-05
-8.23492540428851e-05   1.2913919226202782e-05   -1.472688391777801e-05
-8.443645704846734e-05   1.4427262650091362e-05   3.632432114241812e-05
-8.443645704846734e-05   1.4427262650091362e-05   3.632432114241812e-05
-8.443645704846734e-05   1.4427262650091362e-05   3.632432114241812e-05
-8.443645704846734e-05   1.4427262650091362e-05   3.632432114241812e-05
-5.7111153274075624e-05   1.2771398903414603e-05   -8.22433356689609e-06
-5.7111153274075624e-05   1.2771398903414603e-05   -8.22433356689609e-06
-5.7111153274075624e-05   1.2771398903414603e-05   -8.22433356689609e-06
-5.7111153274075624e-05   1.2771398903414603e-05   -8.22433356689609e-06
-6.812034341849338e-05   1.378961702391433e-05   9.513385801501913e-06
-6.812034341849338e-05   1.378961702391433e-05   9.513385801501913e-06
-6.812034341849338e-05   1.378961702391433e-05   9.513385801501913e-06
-6.812034341849338e-05   1.378961702391433e-05   9.513385801501913e-06
-5.711115327407563e-05   1.4427262650091222e-05   3.731783939042396e-05
-5.711115327407563e-05   1.4427262650091222e-05   3.731783939042396e-05
-5.711115327407563e-05   1.4427262650091222e-05   3.731783939042396e-05
-5.711115327407563e-05   1.4427262650091222e-05   3.731783939042396e-05
-8.443645704846761e-05   1.2771398903414603e-05   -9.217851814901984e-06
-8.443645704846761e-05   1.2771398903414603e-05   -9.217851814901984e-06
-8.443645704846761e-05   1.2771398903414603e-05   -9.217851814901984e-06
-8.443645704846761e-05   1.2771398903414603e-05   -9.217851814901984e-06
-8.687439264279861e-05   1.3279926367550966e-05   4.742833854327151e-05
-8.687439264279861e-05   1.3279926367550966e-05   4.742833854327151e-05
-8.687439264279861e-05   1.3279926367550966e-05   4.742833854327151e-05
-8.687439264279861e-05   1.3279926367550966e-05   4.742833854327151e-05
-5.854508851181283e-05   1.1785638410136655e-05   1.1094044327431603e-06
-5.854508851181283e-05   1.1785638410136655e-05   1.1094044327431603e-06
-5.854508851181283e-05   1.1785638410136655e-05   1.1094044327431603e-06
-5.854508851181283e-05   1.1785638410136655e-05   1.1094044327431603e-06
-6.879021269924786e-05   1.338300974955799e-05   1.7226188608149024e-05
-6.879021269924786e-05   1.338300974955799e-05   1.7226188608149024e-05
-6.879021269924786e-05   1.338300974955799e-05   1.7226188608149024e-05
-6.879021269924786e-05   1.338300974955799e-05   1.7226188608149024e-05
4.654905851601074e-05   -6.290580352408614e-06   3.95307439093964e-05
4.654905851601074e-05   -6.290580352408614e-06   3.95307439093964e-05
4.654905851601074e-05   -6.290580352408614e-06   3.95307439093964e-05
4.654905851601074e-05   -6.290580352408614e-06   3.95307439093964e-05
2.1917074709374755e-05   -4.153298271959878e-06   -2.4019318672777526e-07
2.1917074709374755e-05   -4.153298271959878e-06   -2.4019318672777526e-07
2.1917074709374755e-05   -4.153298271959878e-06   -2.4019318672777526e-07
2.1917074709374755e-05   -4.153298271959878e-06   -2.4019318672777526e-07
2.087618605020795e-05   -7.3001131530745986e-06   3.473761178232073e-05
2.087618605020795e-05   -7.3001131530745986e-06   3.473761178232073e-05
2.087618605020795e-05   -7.3001131530745986e-06   3.473761178232073e-05
2.087618605020795e-05   -7.3001131530745986e-06   3.473761178232073e-05
4.453539818354934e-05   -5.0424899061948456e-06   -6.048982388042436e-06
4.453539818354934e-05   -5.0424899061948456e-06   -6.048982388042436e-06
4.453539818354934e-05   -5.0424899061948456e-06   -6.048982388042436e-06
4.453539818354934e-05   -5.0424899061948456e-06   -6.048982388042436e-06
3.1894869278002285e-05   -5.740309622229503e-06   1.5437257617490093e-05
3.1894869278002285e-05   -5.740309622229503e-06   1.5437257617490093e-05
3.1894869278002285e-05   -5.740309622229503e-06   1.5437257617490093e-05
3.1894869278002285e-05   -5.740309622229503e-06   1.5437257617490093e-05
4.453539818354926e-05   -7.300113153074296e-06   3.3383037834193354e-05
4.453539818354926e-05   -7.300113153074296e-06   3.3383037834193354e-05
4.453539818354926e-05   -7.300113153074296e-06   3.3383037834193354e-05
4.453539818354926e-05   -7.300113153074296e-06   3.3383037834193354e-05
2.0876186050207997e-05   -5.0424899061948456e-06   -4.694408439914885e-06
2.0876186050207997e-05   -5.0424899061948456e-06   -4.694408439914885e-06
2.0876186050207997e-05   -5.0424899061948456e-06   -4.694408439914885e-06
2.0876186050207997e-05   -5.0424899061948456e-06   -4.694408439914885e-06
1.972754659326091e-05   -7.503171871926263e-06   3.136804848525958e-05
1.972754659326091e-05   -7.503171871926263e-06   3.136804848525958e-05
1.972754659326091e-05   -7.503171871926263e-06   3.136804848525958e-05
1.972754659326091e-05   -7.503171871926263e-06   3.136804848525958e-05
4.2770952534995106e-05   -5.280264110767412e-06   -8.371372740992265e-06
4.2770952534995106e-05   -5.280264110767412e-06   -8.371372740992265e-06
4.2770952534995106e-05   -5.280264110767412e-06   -8.371372740992265e-06
4.2770952534995106e-05   -5.280264110767412e-06   -8.371372740992265e-06
3.1058725880659616e-05   -6.100948892872899e-06   1.1641415885497307e-05
3.1058725880659616e-05   -6.100948892872899e-06   1.1641415885497307e-05
3.1058725880659616e-05   -6.100948892872899e-06   1.1641415885497307e-05
3.1058725880659616e-05   -6.100948892872899e-06   1.1641415885497307e-05
4.277095253499503e-05   -7.503171871926264e-06   3.0034303828564484e-05
4.277095253499503e-05   -7.503171871926264e-06   3.0034303828564484e-05
4.277095253499503e-05   -7.503171871926264e-06   3.0034303828564484e-05
4.277095253499503e-05   -7.503171871926264e-06   3.0034303828564484e-05
1.9727546593260944e-05   -5.280264110767412e-06   -7.0376280842973475e-06
1.9727546593260944e-05   -5.280264110767412e-06   -7.0376280842973475e-06
1.9727546593260944e-05   -5.280264110767412e-06   -7.0376280842973475e-06
1.9727546593260944e-05   -5.280264110767412e-06   -7.0376280842973475e-06
1.866707248317789e-05   -7.586515260273648e-06   2.680662838077958e-05
1.866707248317789e-05   -7.586515260273648e-06   2.680662838077958e-05
1.866707248317789e-05   -7.586515260273648e-06   2.680662838077958e-05
1.866707248317789e-05   -7.586515260273648e-06   2.680662838077958e-05
4.080000590083868e-05   -5.503533658353203e-06   -1.1331382943140187e-05
4.080000590083868e-05   -5.503533658353203e-06   -1.1331382943140187e-05
4.080000590083868e-05   -5.503533658353203e-06   -1.1331382943140187e-05
4.080000590083868e-05   -5.503533658353203e-06   -1.1331382943140187e-05
2.9218534056180325e-05   -6.06657740340362e-06   8.308896378320254e-06
2.9218534056180325e-05   -6.06657740340362e-06   8.308896378320254e-06
2.9218534056180325e-05   -6.06657740340362e-06   8.308896378320254e-06
2.9218534056180325e-05   -6.06657740340362e-06   8.308896378320254e-06
2.1917074709374667e-05   -1.2026937703371447e-06   4.497477279433691e-05
2.1917074709374667e-05   -1.2026937703371447e-06   4.497477279433691e-05
2.1917074709374667e-05   -1.2026937703371447e-06   4.497477279433691e-05
2.1917074709374667e-05   -1.2026937703371447e-06   4.497477279433691e-05
-1.399225990527769e-06   -1.9157022909405824e-08   6.82439367628981e-06
-1.399225990527769e-06   -1.9157022909405824e-08   6.82439367628981e-06
-1.399225990527769e-06   -1.9157022909405824e-08   6.82439367628981e-06
-1.399225990527769e-06   -1.9157022909405824e-08   6.82439367628981e-06
-2.3776677180101095e-06   -1.9188590539408884e-06   4.5055440997499594e-05
-2.3776677180101095e-06   -1.9188590539408884e-06   4.5055440997499594e-05
-2.3776677180101095e-06   -1.9188590539408884e-06   4.5055440997499594e-05
-2.3776677180101095e-06   -1.9188590539408884e-06   4.5055440997499594e-05
2.0876186050207993e-05   -7.930040923274061e-07   5.62350507350137e-06
2.0876186050207993e-05   -7.930040923274061e-07   5.62350507350137e-06
2.0876186050207993e-05   -7.930040923274061e-07   5.62350507350137e-06
2.0876186050207993e-05   -7.930040923274061e-07   5.62350507350137e-06
9.596147471036963e-06   -1.011452841044591e-06   2.4554638621349768e-05
9.596147471036963e-06   -1.011452841044591e-06   2.4554638621349768e-05
9.596147471036963e-06   -1.011452841044591e-06   2.4554638621349768e-05
9.596147471036963e-06   -1.011452841044591e-06   2.4554638621349768e-05
2.0876186050207902e-05   -1.9188590539413284e-06   4.437992802053107e-05
2.0876186050207902e-05   -1.9188590539413284e-06   4.437992802053107e-05
2.0876186050207902e-05   -1.9188590539413284e-06   4.437992802053107e-05
2.0876186050207902e-05   -1.9188590539413284e-06   4.437992802053107e-05
-2.3776677180101095e-06   -7.930040923274061e-07   6.299018050469731e-06
-2.3776677180101095e-06   -7.930040923274061e-07   6.299018050469731e-06
-2.3776677180101095e-06   -7.930040923274061e-07   6.299018050469731e-06
-2.3776677180101095e-06   -7.930040923274061e-07   6.299018050469731e-06
-3.3768700701166787e-06   -2.4512582905045384e-06   4.437951690770283e-05
-3.3768700701166787e-06   -2.4512582905045384e-06   4.437951690770283e-05
-3.3768700701166787e-06   -2.4512582905045384e-06   4.437951690770283e-05
-3.3768700701166787e-06   -2.4512582905045384e-06   4.437951690770283e-05
1.9727546593260944e-05   -1.4033924620113214e-06   5.243436304977841e-06
1.9727546593260944e-05   -1.4033924620113214e-06   5.243436304977841e-06
1.9727546593260944e-05   -1.4033924620113214e-06   5.243436304977841e-06
1.9727546593260944e-05   -1.4033924620113214e-06   5.243436304977841e-06
8.499041288441339e-06   -1.4892437617884495e-06   2.4009122592878496e-05
8.499041288441339e-06   -1.4892437617884495e-06   2.4009122592878496e-05
8.499041288441339e-06   -1.4892437617884495e-06   2.4009122592878496e-05
8.499041288441339e-06   -1.4892437617884495e-06   2.4009122592878496e-05
1.972754659326091e-05   -2.4512582905043355e-06   4.3750797410607115e-05
1.972754659326091e-05   -2.4512582905043355e-06   4.3750797410607115e-05
1.972754659326091e-05   -2.4512582905043355e-06   4.3750797410607115e-05
1.972754659326091e-05   -2.4512582905043355e-06   4.3750797410607115e-05
-3.3768700701166787e-06   -1.4033924620113214e-06   5.872155802073582e-06
-3.3768700701166787e-06   -1.4033924620113214e-06   5.872155802073582e-06
-3.3768700701166787e-06   -1.4033924620113214e-06   5.872155802073582e-06
-3.3768700701166787e-06   -1.4033924620113214e-06   5.872155802073582e-06
-4.381458445813427e-06   -2.871720326791914e-06   4.4691077892125824e-05
-4.381458445813427e-06   -2.871720326791914e-06   4.4691077892125824e-05
-4.381458445813427e-06   -2.871720326791914e-06   4.4691077892125824e-05
-4.381458445813427e-06   -2.871720326791914e-06   4.4691077892125824e-05
1.8667072483177903e-05   -1.969200804525454e-06   5.735347963780753e-06
1.8667072483177903e-05   -1.969200804525454e-06   5.735347963780753e-06
1.8667072483177903e-05   -1.969200804525454e-06   5.735347963780753e-06
1.8667072483177903e-05   -1.969200804525454e-06   5.735347963780753e-06
7.660622282609293e-06   -1.8434172653976517e-06   2.4003961507918403e-05
7.660622282609293e-06   -1.8434172653976517e-06   2.4003961507918403e-05
7.660622282609293e-06   -1.8434172653976517e-06   2.4003961507918403e-05
7.660622282609293e-06   -1.8434172653976517e-06   2.4003961507918403e-05
-1.399225990527769e-06   3.907859384173208e-06   4.761987514317889e-05
-1.399225990527769e-06   3.907859384173208e-06   4.761987514317889e-05
-1.399225990527769e-06   3.907859384173208e-06   4.761987514317889e-05
-1.399225990527769e-06   3.907859384173208e-06   4.761987514317889e-05
-2.4226398124331186e-05   4.021453539364804e-06   9.642744746621388e-06
-2.4226398124331186e-05   4.021453539364804e-06   9.642744746621388e-06
-2.4226398124331186e-05   4.021453539364804e-06   9.642744746621388e-06
-2.4226398124331186e-05   4.021453539364804e-06   9.642744746621388e-06
-2.5209968771079818e-05   3.3114642328350985e-06   4.7475768552577863e-05
-2.5209968771079818e-05   3.3114642328350985e-06   4.7475768552577863e-05
-2.5209968771079818e-05   3.3114642328350985e-06   4.7475768552577863e-05
-2.5209968771079818e-05   3.3114642328350985e-06   4.7475768552577863e-05
-2.377667718010112e-06   3.341032170464664e-06   9.40419270155089e-06
-2.377667718010112e-06   3.341032170464664e-06   9.40419270155089e-06
-2.377667718010112e-06   3.341032170464664e-06   9.40419270155089e-06
-2.377667718010112e-06   3.341032170464664e-06   9.40419270155089e-06
-1.3337871457814437e-05   3.5820009746997256e-06   2.752661765201682e-05
-1.3337871457814437e-05   3.5820009746997256e-06   2.752661765201682e-05
-1.3337871457814437e-05   3.5820009746997256e-06   2.752661765201682e-05
-1.3337871457814437e-05   3.5820009746997256e-06   2.752661765201682e-05
-2.3776677180101095e-06   3.311464232835254e-06   4.745802779000056e-05
-2.3776677180101095e-06   3.311464232835254e-06   4.745802779000056e-05
-2.3776677180101095e-06   3.311464232835254e-06   4.745802779000056e-05
-2.3776677180101095e-06   3.311464232835254e-06   4.745802779000056e-05
-2.5209968771079818e-05   3.341032170464664e-06   9.421933464128385e-06
-2.5209968771079818e-05   3.341032170464664e-06   9.421933464128385e-06
-2.5209968771079818e-05   3.341032170464664e-06   9.421933464128385e-06
-2.5209968771079818e-05   3.341032170464664e-06   9.421933464128385e-06
-2.621817622808033e-05   2.732344395526068e-06   4.773663751407153e-05
-2.621817622808033e-05   2.732344395526068e-06   4.773663751407153e-05
-2.621817622808033e-05   2.732344395526068e-06   4.773663751407153e-05
-2.621817622808033e-05   2.732344395526068e-06   4.773663751407153e-05
-3.37687007011668e-06   2.6713886631165445e-06   9.704367356911465e-06
-3.37687007011668e-06   2.6713886631165445e-06   9.704367356911465e-06
-3.37687007011668e-06   2.6713886631165445e-06   9.704367356911465e-06
-3.37687007011668e-06   2.6713886631165445e-06   9.704367356911465e-06
-1.4251206498655433e-05   3.1243138776033443e-06   2.7556506275784837e-05
-1.4251206498655433e-05   3.1243138776033443e-06   2.7556506275784837e-05
-1.4251206498655433e-05   3.1243138776033443e-06   2.7556506275784837e-05
-1.4251206498655433e-05   3.1243138776033443e-06   2.7556506275784837e-05
-3.3768700701166787e-06   2.7323443955263597e-06   4.7773210953517544e-05
-3.3768700701166787e-06   2.7323443955263597e-06   4.7773210953517544e-05
-3.3768700701166787e-06   2.7323443955263597e-06   4.7773210953517544e-05
-3.3768700701166787e-06   2.7323443955263597e-06   4.7773210953517544e-05
-2.6218176228080413e-05   2.6713886631165445e-06   9.667793917465285e-06
-2.6218176228080413e-05   2.6713886631165445e-06   9.667793917465285e-06
-2.6218176228080413e-05   2.6713886631165445e-06   9.667793917465285e-06
-2.6218176228080413e-05   2.6713886631165445e-06   9.667793917465285e-06
-2.7226051163069454e-05   2.2168299047375765e-06   4.8331425998554556e-05
-2.7226051163069454e-05   2.2168299047375765e-06   4.8331425998554556e-05
-2.7226051163069454e-05   2.2168299047375765e-06   4.8331425998554556e-05
-2.7226051163069454e-05   2.2168299047375765e-06   4.8331425998554556e-05
-4.381458445813449e-06   2.0359177288912025e-06   1.0365652108635455e-05
-4.381458445813449e-06   2.0359177288912025e-06   1.0365652108635455e-05
-4.381458445813449e-06   2.0359177288912025e-06   1.0365652108635455e-05
-4.381458445813449e-06   2.0359177288912025e-06   1.0365652108635455e-05
-1.5207321997870992e-05   2.6782701912126013e-06   2.8023346551338637e-05
-1.5207321997870992e-05   2.6782701912126013e-06   2.8023346551338637e-05
-1.5207321997870992e-05   2.6782701912126013e-06   2.8023346551338637e-05
-1.5207321997870992e-05   2.6782701912126013e-06   2.8023346551338637e-05
-2.422639812433116e-05   8.879239577587923e-06   4.1885379426466994e-05
-2.422639812433116e-05   8.879239577587923e-06   4.1885379426466994e-05
-2.422639812433116e-05   8.879239577587923e-06   4.1885379426466994e-05
-2.422639812433116e-05   8.879239577587923e-06   4.1885379426466994e-05
-4.654545225041371e-05   7.909208139442701e-06   4.10493702010864e-06
-4.654545225041371e-05   7.909208139442701e-06   4.10493702010864e-06
-4.654545225041371e-05   7.909208139442701e-06   4.10493702010864e-06
-4.654545225041371e-05   7.909208139442701e-06   4.10493702010864e-06
-4.7603677155896634e-05   8.309311095730954e-06   4.160992428585506e-05
-4.7603677155896634e-05   8.309311095730954e-06   4.160992428585506e-05
-4.7603677155896634e-05   8.309311095730954e-06   4.160992428585506e-05
-4.7603677155896634e-05   8.309311095730954e-06   4.160992428585506e-05
-2.5209968771079845e-05   7.257166953560448e-06   4.9183634631291915e-06
-2.5209968771079845e-05   7.257166953560448e-06   4.9183634631291915e-06
-2.5209968771079845e-05   7.257166953560448e-06   4.9183634631291915e-06
-2.5209968771079845e-05   7.257166953560448e-06   4.9183634631291915e-06
-3.57778833886027e-05   7.98374535417425e-06   2.2095607451966086e-05
-3.57778833886027e-05   7.98374535417425e-06   2.2095607451966086e-05
-3.57778833886027e-05   7.98374535417425e-06   2.2095607451966086e-05
-3.57778833886027e-05   7.98374535417425e-06   2.2095607451966086e-05
-2.5209968771079818e-05   8.309311095731156e-06   4.2241210771157625e-05
-2.5209968771079818e-05   8.309311095731156e-06   4.2241210771157625e-05
-2.5209968771079818e-05   8.309311095731156e-06   4.2241210771157625e-05
-2.5209968771079818e-05   8.309311095731156e-06   4.2241210771157625e-05
-4.760367715589658e-05   7.257166953560448e-06   4.287076977827061e-06
-4.760367715589658e-05   7.257166953560448e-06   4.287076977827061e-06
-4.760367715589658e-05   7.257166953560448e-06   4.287076977827061e-06
-4.760367715589658e-05   7.257166953560448e-06   4.287076977827061e-06
-4.876881363893095e-05   7.784259213038016e-06   4.316936192043396e-05
-4.876881363893095e-05   7.784259213038016e-06   4.316936192043396e-05
-4.876881363893095e-05   7.784259213038016e-06   4.316936192043396e-05
-4.876881363893095e-05   7.784259213038016e-06   4.316936192043396e-05
-2.6218176228080423e-05   6.650008649764904e-06   6.265516573647229e-06
-2.6218176228080423e-05   6.650008649764904e-06   6.265516573647229e-06
-2.6218176228080423e-05   6.650008649764904e-06   6.265516573647229e-06
-2.6218176228080423e-05   6.650008649764904e-06   6.265516573647229e-06
-3.653832597289144e-05   7.567285467355474e-06   2.2915400057778822e-05
-3.653832597289144e-05   7.567285467355474e-06   2.2915400057778822e-05
-3.653832597289144e-05   7.567285467355474e-06   2.2915400057778822e-05
-3.653832597289144e-05   7.567285467355474e-06   2.2915400057778822e-05
-2.6218176228080413e-05   7.78425921303797e-06   4.3849912258398264e-05
-2.6218176228080413e-05   7.78425921303797e-06   4.3849912258398264e-05
-2.6218176228080413e-05   7.78425921303797e-06   4.3849912258398264e-05
-2.6218176228080413e-05   7.78425921303797e-06   4.3849912258398264e-05
-4.876881363893095e-05   6.650008649764904e-06   5.584966235683145e-06
-4.876881363893095e-05   6.650008649764904e-06   5.584966235683145e-06
-4.876881363893095e-05   6.650008649764904e-06   5.584966235683145e-06
-4.876881363893095e-05   6.650008649764904e-06   5.584966235683145e-06
-4.9834394983622155e-05   7.143373764191292e-06   4.434345677645007e-05
-4.9834394983622155e-05   7.143373764191292e-06   4.434345677645007e-05
-4.9834394983622155e-05   7.143373764191292e-06   4.434345677645007e-05
-4.9834394983622155e-05   7.143373764191292e-06   4.434345677645007e-05
-2.7226051163069488e-05   5.943319668351259e-06   7.382916199699771e-06
-2.7226051163069488e-05   5.943319668351259e-06   7.382916199699771e-06
-2.7226051163069488e-05   5.943319668351259e-06   7.382916199699771e-06
-2.7226051163069488e-05   5.943319668351259e-06   7.382916199699771e-06
-3.774651043980727e-05   7.097950347980178e-06   2.4224236586485202e-05
-3.774651043980727e-05   7.097950347980178e-06   2.4224236586485202e-05
-3.774651043980727e-05   7.097950347980178e-06   2.4224236586485202e-05
-3.774651043980727e-05   7.097950347980178e-06   2.4224236586485202e-05
-4.654545225041371e-05   1.2779750077567297e-05   2.024654841611159e-05
-4.654545225041371e-05   1.2779750077567297e-05   2.024654841611159e-05
-4.654545225041371e-05   1.2779750077567297e-05   2.024654841611159e-05
-4.654545225041371e-05   1.2779750077567297e-05   2.024654841611159e-05
-6.773047468939771e-05   1.0895047413969801e-05   -1.6192643913686636e-05
-6.773047468939771e-05   1.0895047413969801e-05   -1.6192643913686636e-05
-6.773047468939771e-05   1.0895047413969801e-05   -1.6192643913686636e-05
-6.773047468939771e-05   1.0895047413969801e-05   -1.6192643913686636e-05
-6.963182955656554e-05   1.2913919226202782e-05   2.689283320278903e-05
-6.963182955656554e-05   1.2913919226202782e-05   2.689283320278903e-05
-6.963182955656554e-05   1.2913919226202782e-05   2.689283320278903e-05
-6.963182955656554e-05   1.2913919226202782e-05   2.689283320278903e-05
-4.7603677155896655e-05   1.0839052637477177e-05   -8.575834178423851e-06
-4.7603677155896655e-05   1.0839052637477177e-05   -8.575834178423851e-06
-4.7603677155896655e-05   1.0839052637477177e-05   -8.575834178423851e-06
-4.7603677155896655e-05   1.0839052637477177e-05   -8.575834178423851e-06
-5.567609434668721e-05   1.1683887094109287e-05   4.3712937989143176e-06
-5.567609434668721e-05   1.1683887094109287e-05   4.3712937989143176e-06
-5.567609434668721e-05   1.1683887094109287e-05   4.3712937989143176e-06
-5.567609434668721e-05   1.1683887094109287e-05   4.3712937989143176e-06
-4.7603677155896634e-05   1.2913919226202797e-05   2.8137753156024653e-05
-4.7603677155896634e-05   1.2913919226202797e-05   2.8137753156024653e-05
-4.7603677155896634e-05   1.2913919226202797e-05   2.8137753156024653e-05
-4.7603677155896634e-05   1.2913919226202797e-05   2.8137753156024653e-05
-6.963182955656565e-05   1.0839052637477177e-05   -9.820754131659366e-06
-6.963182955656565e-05   1.0839052637477177e-05   -9.820754131659366e-06
-6.963182955656565e-05   1.0839052637477177e-05   -9.820754131659366e-06
-6.963182955656565e-05   1.0839052637477177e-05   -9.820754131659366e-06
-7.13346485260408e-05   1.2771398903415037e-05   3.2267602640688106e-05
-7.13346485260408e-05   1.2771398903415037e-05   3.2267602640688106e-05
-7.13346485260408e-05   1.2771398903415037e-05   3.2267602640688106e-05
-7.13346485260408e-05   1.2771398903415037e-05   3.2267602640688106e-05
-4.8768813638931015e-05   1.0617668609818644e-05   -4.0498839950038265e-06
-4.8768813638931015e-05   1.0617668609818644e-05   -4.0498839950038265e-06
-4.8768813638931015e-05   1.0617668609818644e-05   -4.0498839950038265e-06
-4.8768813638931015e-05   1.0617668609818644e-05   -4.0498839950038265e-06
-5.7859302600981886e-05   1.1812366302066737e-05   1.0384112326400894e-05
-5.7859302600981886e-05   1.1812366302066737e-05   1.0384112326400894e-05
-5.7859302600981886e-05   1.1812366302066737e-05   1.0384112326400894e-05
-5.7859302600981886e-05   1.1812366302066737e-05   1.0384112326400894e-05
-4.876881363893095e-05   1.2771398903414739e-05   3.355984081684633e-05
-4.876881363893095e-05   1.2771398903414739e-05   3.355984081684633e-05
-4.876881363893095e-05   1.2771398903414739e-05   3.355984081684633e-05
-4.876881363893095e-05   1.2771398903414739e-05   3.355984081684633e-05
-7.133464852604091e-05   1.0617668609818644e-05   -5.342122171161511e-06
-7.133464852604091e-05   1.0617668609818644e-05   -5.342122171161511e-06
-7.133464852604091e-05   1.0617668609818644e-05   -5.342122171161511e-06
-7.133464852604091e-05   1.0617668609818644e-05   -5.342122171161511e-06
-7.329169101975998e-05   1.1785638410136221e-05   4.151722555826827e-05
-7.329169101975998e-05   1.1785638410136221e-05   4.151722555826827e-05
-7.329169101975998e-05   1.1785638410136221e-05   4.151722555826827e-05
-7.329169101975998e-05   1.1785638410136221e-05   4.151722555826827e-05
-4.983439498362211e-05   9.642316469990215e-06   3.7077253287928335e-06
-4.983439498362211e-05   9.642316469990215e-06   3.7077253287928335e-06
-4.983439498362211e-05   9.642316469990215e-06   3.7077253287928335e-06
-4.983439498362211e-05   9.642316469990215e-06   3.7077253287928335e-06
-5.832969224845344e-05   1.1408116827704706e-05   1.6807073888882077e-05
-5.832969224845344e-05   1.1408116827704706e-05   1.6807073888882077e-05
-5.832969224845344e-05   1.1408116827704706e-05   1.6807073888882077e-05
-5.832969224845344e-05   1.1408116827704706e-05   1.6807073888882077e-05
3.20398200190985e-05   -4.153298271960202e-06   3.215969192510741e-05
3.20398200190985e-05   -4.153298271960202e-06   3.215969192510741e-05
3.20398200190985e-05   -4.153298271960202e-06   3.215969192510741e-05
3.20398200190985e-05   -4.153298271960202e-06   3.215969192510741e-05
1.3292617264351673e-05   -2.037164811039254e-06   2.1840340770822118e-06
1.3292617264351673e-05   -2.037164811039254e-06   2.1840340770822118e-06
1.3292617264351673e-05   -2.037164811039254e-06   2.1840340770822118e-06
1.3292617264351673e-05   -2.037164811039254e-06   2.1840340770822118e-06
1.2455854891214157e-05   -5.0424899061948456e-06   2.891804662516549e-05
1.2455854891214157e-05   -5.0424899061948456e-06   2.891804662516549e-05
1.2455854891214157e-05   -5.0424899061948456e-06   2.891804662516549e-05
1.2455854891214157e-05   -5.0424899061948456e-06   2.891804662516549e-05
3.025921537732101e-05   -2.8319574636209884e-06   -2.0805403172235602e-06
3.025921537732101e-05   -2.8319574636209884e-06   -2.0805403172235602e-06
3.025921537732101e-05   -2.8319574636209884e-06   -2.0805403172235602e-06
3.025921537732101e-05   -2.8319574636209884e-06   -2.0805403172235602e-06
2.0916470286696597e-05   -3.6010230377507384e-06   1.3952140844962488e-05
2.0916470286696597e-05   -3.6010230377507384e-06   1.3952140844962488e-05
2.0916470286696597e-05   -3.6010230377507384e-06   1.3952140844962488e-05
2.0916470286696597e-05   -3.6010230377507384e-06   1.3952140844962488e-05
3.0259215377321063e-05   -5.042489906194636e-06   2.759172715962135e-05
3.0259215377321063e-05   -5.042489906194636e-06   2.759172715962135e-05
3.0259215377321063e-05   -5.042489906194636e-06   2.759172715962135e-05
3.0259215377321063e-05   -5.042489906194636e-06   2.759172715962135e-05
1.2455854891214123e-05   -2.8319574636209884e-06   -7.542208516793381e-07
1.2455854891214123e-05   -2.8319574636209884e-06   -7.542208516793381e-07
1.2455854891214123e-05   -2.8319574636209884e-06   -7.542208516793381e-07
1.2455854891214123e-05   -2.8319574636209884e-06   -7.542208516793381e-07
1.1516333255107032e-05   -5.280264110767412e-06   2.651026129662213e-05
1.1516333255107032e-05   -5.280264110767412e-06   2.651026129662213e-05
1.1516333255107032e-05   -5.280264110767412e-06   2.651026129662213e-05
1.1516333255107032e-05   -5.280264110767412e-06   2.651026129662213e-05
2.873097980891608e-05   -3.1058780252638148e-06   -3.485447944361655e-06
2.873097980891608e-05   -3.1058780252638148e-06   -3.485447944361655e-06
2.873097980891608e-05   -3.1058780252638148e-06   -3.485447944361655e-06
2.873097980891608e-05   -3.1058780252638148e-06   -3.485447944361655e-06
2.0122930904272166e-05   -3.938033527807472e-06   1.1360593531571594e-05
2.0122930904272166e-05   -3.938033527807472e-06   1.1360593531571594e-05
2.0122930904272166e-05   -3.938033527807472e-06   1.1360593531571594e-05
2.0122930904272166e-05   -3.938033527807472e-06   1.1360593531571594e-05
2.8730979808916135e-05   -5.2802641107674175e-06   2.5205629645319973e-05
2.8730979808916135e-05   -5.2802641107674175e-06   2.5205629645319973e-05
2.8730979808916135e-05   -5.2802641107674175e-06   2.5205629645319973e-05
2.8730979808916135e-05   -5.2802641107674175e-06   2.5205629645319973e-05
1.1516333255107005e-05   -3.1058780252638148e-06   -2.1808162930594694e-06
1.1516333255107005e-05   -3.1058780252638148e-06   -2.1808162930594694e-06
1.1516333255107005e-05   -3.1058780252638148e-06   -2.1808162930594694e-06
1.1516333255107005e-05   -3.1058780252638148e-06   -2.1808162930594694e-06
1.0674269685279574e-05   -5.503533658353203e-06   2.3386046623674996e-05
1.0674269685279574e-05   -5.503533658353203e-06   2.3386046623674996e-05
1.0674269685279574e-05   -5.503533658353203e-06   2.3386046623674996e-05
1.0674269685279574e-05   -5.503533658353203e-06   2.3386046623674996e-05
2.6998134042229205e-05   -3.4689885979725422e-06   -5.041121007469976e-06
2.6998134042229205e-05   -3.4689885979725422e-06   -5.041121007469976e-06
2.6998134042229205e-05   -3.4689885979725422e-06   -5.041121007469976e-06
2.6998134042229205e-05   -3.4689885979725422e-06   -5.041121007469976e-06
1.865738255622841e-05   -4.004767539072824e-06   9.181598833857951e-06
1.865738255622841e-05   -4.004767539072824e-06   9.181598833857951e-06
1.865738255622841e-05   -4.004767539072824e-06   9.181598833857951e-06
1.865738255622841e-05   -4.004767539072824e-06   9.181598833857951e-06
1.329261726435172e-05   -1.9157022909110445e-08   3.978383681622075e-05
1.329261726435172e-05   -1.9157022909110445e-08   3.978383681622075e-05
1.329261726435172e-05   -1.9157022909110445e-08   3.978383681622075e-05
1.329261726435172e-05   -1.9157022909110445e-08   3.978383681622075e-05
-4.302171887114514e-06   1.0542961686797574e-06   1.1103260145397132e-05
-4.302171887114514e-06   1.0542961686797574e-06   1.1103260145397132e-05
-4.302171887114514e-06   1.0542961686797574e-06   1.1103260145397132e-05
-4.302171887114514e-06   1.0542961686797574e-06   1.1103260145397132e-05
-5.07091556306173e-06   -7.930040923274061e-07   3.986123657513511e-05
-5.07091556306173e-06   -7.930040923274061e-07   3.986123657513511e-05
-5.07091556306173e-06   -7.930040923274061e-07   3.986123657513511e-05
-5.07091556306173e-06   -7.930040923274061e-07   3.986123657513511e-05
1.2455854891214121e-05   2.491233019289059e-07   1.0024676048121765e-05
1.2455854891214121e-05   2.491233019289059e-07   1.0024676048121765e-05
1.2455854891214121e-05   2.491233019289059e-07   1.0024676048121765e-05
1.2455854891214121e-05   2.491233019289059e-07   1.0024676048121765e-05
3.968518291841865e-06   5.378746037584467e-08   2.4287438552008002e-05
3.968518291841865e-06   5.378746037584467e-08   2.4287438552008002e-05
3.968518291841865e-06   5.378746037584467e-08   2.4287438552008002e-05
3.968518291841865e-06   5.378746037584467e-08   2.4287438552008002e-05
1.245585489121415e-05   -7.93004092327052e-07   3.923596013858158e-05
1.245585489121415e-05   -7.93004092327052e-07   3.923596013858158e-05
1.245585489121415e-05   -7.93004092327052e-07   3.923596013858158e-05
1.245585489121415e-05   -7.93004092327052e-07   3.923596013858158e-05
-5.07091556306173e-06   2.491233019289059e-07   1.0649952484675495e-05
-5.07091556306173e-06   2.491233019289059e-07   1.0649952484675495e-05
-5.07091556306173e-06   2.491233019289059e-07   1.0649952484675495e-05
-5.07091556306173e-06   2.491233019289059e-07   1.0649952484675495e-05
-5.856834825781251e-06   -1.4033924620113214e-06   3.938728424690411e-05
-5.856834825781251e-06   -1.4033924620113214e-06   3.938728424690411e-05
-5.856834825781251e-06   -1.4033924620113214e-06   3.938728424690411e-05
-5.856834825781251e-06   -1.4033924620113214e-06   3.938728424690411e-05
1.1516333255107007e-05   -4.10128193666353e-07   9.836045551083473e-06
1.1516333255107007e-05   -4.10128193666353e-07   9.836045551083473e-06
1.1516333255107007e-05   -4.10128193666353e-07   9.836045551083473e-06
1.1516333255107007e-05   -4.10128193666353e-07   9.836045551083473e-06
3.1236118835323797e-06   -4.83488883610151e-07   2.3867930917675418e-05
3.1236118835323797e-06   -4.83488883610151e-07   2.3867930917675418e-05
3.1236118835323797e-06   -4.83488883610151e-07   2.3867930917675418e-05
3.1236118835323797e-06   -4.83488883610151e-07   2.3867930917675418e-05
1.1516333255107052e-05   -1.4033924620113222e-06   3.879132568589735e-05
1.1516333255107052e-05   -1.4033924620113222e-06   3.879132568589735e-05
1.1516333255107052e-05   -1.4033924620113222e-06   3.879132568589735e-05
1.1516333255107052e-05   -1.4033924620113222e-06   3.879132568589735e-05
-5.856834825781251e-06   -4.101281936659193e-07   1.0432004112090549e-05
-5.856834825781251e-06   -4.101281936659193e-07   1.0432004112090549e-05
-5.856834825781251e-06   -4.101281936659193e-07   1.0432004112090549e-05
-5.856834825781251e-06   -4.101281936659193e-07   1.0432004112090549e-05
-6.636101453225943e-06   -1.9692008045258877e-06   3.974832651080476e-05
-6.636101453225943e-06   -1.9692008045258877e-06   3.974832651080476e-05
-6.636101453225943e-06   -1.9692008045258877e-06   3.974832651080476e-05
-6.636101453225943e-06   -1.9692008045258877e-06   3.974832651080476e-05
1.0674269685279525e-05   -1.0603042355904896e-06   1.035237000526779e-05
1.0674269685279525e-05   -1.0603042355904896e-06   1.035237000526779e-05
1.0674269685279525e-05   -1.0603042355904896e-06   1.035237000526779e-05
1.0674269685279525e-05   -1.0603042355904896e-06   1.035237000526779e-05
2.455636977019229e-06   -9.319100460654373e-07   2.397305467198574e-05
2.455636977019229e-06   -9.319100460654373e-07   2.397305467198574e-05
2.455636977019229e-06   -9.319100460654373e-07   2.397305467198574e-05
2.455636977019229e-06   -9.319100460654373e-07   2.397305467198574e-05
-4.302171887114487e-06   4.02145353936461e-06   4.3178103308390975e-05
-4.302171887114487e-06   4.02145353936461e-06   4.3178103308390975e-05
-4.302171887114487e-06   4.02145353936461e-06   4.3178103308390975e-05
-4.302171887114487e-06   4.02145353936461e-06   4.3178103308390975e-05
-2.1608133720679576e-05   3.956077200068658e-06   1.4295607782204988e-05
-2.1608133720679576e-05   3.956077200068658e-06   1.4295607782204988e-05
-2.1608133720679576e-05   3.956077200068658e-06   1.4295607782204988e-05
-2.1608133720679576e-05   3.956077200068658e-06   1.4295607782204988e-05
-2.2366418905004823e-05   3.341032170464664e-06   4.2896173273209966e-05
-2.2366418905004823e-05   3.341032170464664e-06   4.2896173273209966e-05
-2.2366418905004823e-05   3.341032170464664e-06   4.2896173273209966e-05
-2.2366418905004823e-05   3.341032170464664e-06   4.2896173273209966e-05
-5.070915563061712e-06   3.2239689154540604e-06   1.4140572322977906e-05
-5.070915563061712e-06   3.2239689154540604e-06   1.4140572322977906e-05
-5.070915563061712e-06   3.2239689154540604e-06   1.4140572322977906e-05
-5.070915563061712e-06   3.2239689154540604e-06   1.4140572322977906e-05
-1.3370133932703472e-05   3.5458526496086676e-06   2.7779472698555394e-05
-1.3370133932703472e-05   3.5458526496086676e-06   2.7779472698555394e-05
-1.3370133932703472e-05   3.5458526496086676e-06   2.7779472698555394e-05
-1.3370133932703472e-05   3.5458526496086676e-06   2.7779472698555394e-05
-5.07091556306173e-06   3.3410321704645805e-06   4.296641122621646e-05
-5.07091556306173e-06   3.3410321704645805e-06   4.296641122621646e-05
-5.07091556306173e-06   3.3410321704645805e-06   4.296641122621646e-05
-5.07091556306173e-06   3.3410321704645805e-06   4.296641122621646e-05
-2.236641890500485e-05   3.2239689154540604e-06   1.407033436997174e-05
-2.236641890500485e-05   3.2239689154540604e-06   1.407033436997174e-05
-2.236641890500485e-05   3.2239689154540604e-06   1.407033436997174e-05
-2.236641890500485e-05   3.2239689154540604e-06   1.407033436997174e-05
-2.314300167116339e-05   2.6713886631165445e-06   4.311680919596517e-05
-2.314300167116339e-05   2.6713886631165445e-06   4.311680919596517e-05
-2.314300167116339e-05   2.6713886631165445e-06   4.311680919596517e-05
-2.314300167116339e-05   2.6713886631165445e-06   4.311680919596517e-05
-5.856834825781236e-06   2.500244320155151e-06   1.4409217726105134e-05
-5.856834825781236e-06   2.500244320155151e-06   1.4409217726105134e-05
-5.856834825781236e-06   2.500244320155151e-06   1.4409217726105134e-05
-5.856834825781236e-06   2.500244320155151e-06   1.4409217726105134e-05
-1.406474569516975e-05   3.014283941741181e-06   2.778064540213509e-05
-1.406474569516975e-05   3.014283941741181e-06   2.778064540213509e-05
-1.406474569516975e-05   3.014283941741181e-06   2.778064540213509e-05
-1.406474569516975e-05   3.014283941741181e-06   2.778064540213509e-05
-5.856834825781251e-06   2.6713886631164315e-06   4.321949580174205e-05
-5.856834825781251e-06   2.6713886631164315e-06   4.321949580174205e-05
-5.856834825781251e-06   2.6713886631164315e-06   4.321949580174205e-05
-5.856834825781251e-06   2.6713886631164315e-06   4.321949580174205e-05
-2.3143001671163416e-05   2.500244320155151e-06   1.4306531120328444e-05
-2.3143001671163416e-05   2.500244320155151e-06   1.4306531120328444e-05
-2.3143001671163416e-05   2.500244320155151e-06   1.4306531120328444e-05
-2.3143001671163416e-05   2.500244320155151e-06   1.4306531120328444e-05
-2.3910604076358494e-05   2.0359177288912025e-06   4.369762414227962e-05
-2.3910604076358494e-05   2.0359177288912025e-06   4.369762414227962e-05
-2.3910604076358494e-05   2.0359177288912025e-06   4.369762414227962e-05
-2.3910604076358494e-05   2.0359177288912025e-06   4.369762414227962e-05
-6.6361014532259214e-06   1.803426395523798e-06   1.504628123707904e-05
-6.6361014532259214e-06   1.803426395523798e-06   1.504628123707904e-05
-6.6361014532259214e-06   1.803426395523798e-06   1.504628123707904e-05
-6.6361014532259214e-06   1.803426395523798e-06   1.504628123707904e-05
-1.4791224111993921e-05   2.4951619823510712e-06   2.8223110982928702e-05
-1.4791224111993921e-05   2.4951619823510712e-06   2.8223110982928702e-05
-1.4791224111993921e-05   2.4951619823510712e-06   2.8223110982928702e-05
-1.4791224111993921e-05   2.4951619823510712e-06   2.8223110982928702e-05
-2.1608133720679576e-05   7.909208139442439e-06   3.818308864118837e-05
-2.1608133720679576e-05   7.909208139442439e-06   3.818308864118837e-05
-2.1608133720679576e-05   7.909208139442439e-06   3.818308864118837e-05
-2.1608133720679576e-05   7.909208139442439e-06   3.818308864118837e-05
-3.8620091430243266e-05   6.778686692386366e-06   9.151512923681604e-06
-3.8620091430243266e-05   6.778686692386366e-06   9.151512923681604e-06
-3.8620091430243266e-05   6.778686692386366e-06   9.151512923681604e-06
-3.8620091430243266e-05   6.778686692386366e-06   9.151512923681604e-06
-3.9433308765371845e-05   7.257166953560448e-06   3.7676201868389134e-05
-3.9433308765371845e-05   7.257166953560448e-06   3.7676201868389134e-05
-3.9433308765371845e-05   7.257166953560448e-06   3.7676201868389134e-05
-3.9433308765371845e-05   7.257166953560448e-06   3.7676201868389134e-05
-2.2366418905004776e-05   6.063164613857863e-06   9.947786838266151e-06
-2.2366418905004776e-05   6.063164613857863e-06   9.947786838266151e-06
-2.2366418905004776e-05   6.063164613857863e-06   9.947786838266151e-06
-2.2366418905004776e-05   6.063164613857863e-06   9.947786838266151e-06
-3.042089412088162e-05   6.883484340992289e-06   2.2879720361780923e-05
-3.042089412088162e-05   6.883484340992289e-06   2.2879720361780923e-05
-3.042089412088162e-05   6.883484340992289e-06   2.2879720361780923e-05
-3.042089412088162e-05   6.883484340992289e-06   2.2879720361780923e-05
-2.236641890500485e-05   7.257166953560486e-06   3.839260327221099e-05
-2.236641890500485e-05   7.257166953560486e-06   3.839260327221099e-05
-2.236641890500485e-05   7.257166953560486e-06   3.839260327221099e-05
-2.236641890500485e-05   7.257166953560486e-06   3.839260327221099e-05
-3.943330876537174e-05   6.0631646138574295e-06   9.231385434444513e-06
-3.943330876537174e-05   6.0631646138574295e-06   9.231385434444513e-06
-3.943330876537174e-05   6.0631646138574295e-06   9.231385434444513e-06
-3.943330876537174e-05   6.0631646138574295e-06   9.231385434444513e-06
-4.0348693241332395e-05   6.650008649764904e-06   3.896539955686065e-05
-4.0348693241332395e-05   6.650008649764904e-06   3.896539955686065e-05
-4.0348693241332395e-05   6.650008649764904e-06   3.896539955686065e-05
-4.0348693241332395e-05   6.650008649764904e-06   3.896539955686065e-05
-2.3143001671163352e-05   5.401454824287971e-06   1.1038379235198852e-05
-2.3143001671163352e-05   5.401454824287971e-06   1.1038379235198852e-05
-2.3143001671163352e-05   5.401454824287971e-06   1.1038379235198852e-05
-2.3143001671163352e-05   5.401454824287971e-06   1.1038379235198852e-05
-3.098495535407152e-05   6.395916041380088e-06   2.351162530979129e-05
-3.098495535407152e-05   6.395916041380088e-06   2.351162530979129e-05
-3.098495535407152e-05   6.395916041380088e-06   2.351162530979129e-05
-3.098495535407152e-05   6.395916041380088e-06   2.351162530979129e-05
-2.3143001671163416e-05   6.65000864976477e-06   3.97145318521469e-05
-2.3143001671163416e-05   6.65000864976477e-06   3.97145318521469e-05
-2.3143001671163416e-05   6.65000864976477e-06   3.97145318521469e-05
-2.3143001671163416e-05   6.65000864976477e-06   3.97145318521469e-05
-4.034869324133229e-05   5.401454824287971e-06   1.0289246939912768e-05
-4.034869324133229e-05   5.401454824287971e-06   1.0289246939912768e-05
-4.034869324133229e-05   5.401454824287971e-06   1.0289246939912768e-05
-4.034869324133229e-05   5.401454824287971e-06   1.0289246939912768e-05
-4.116282007024931e-05   5.9433196683516924e-06   4.005470662397448e-05
-4.116282007024931e-05   5.9433196683516924e-06   4.005470662397448e-05
-4.116282007024931e-05   5.9433196683516924e-06   4.005470662397448e-05
-4.116282007024931e-05   5.9433196683516924e-06   4.005470662397448e-05
-2.391060407635844e-05   4.662104810224197e-06   1.2069742215699948e-05
-2.391060407635844e-05   4.662104810224197e-06   1.2069742215699948e-05
-2.391060407635844e-05   4.662104810224197e-06   1.2069742215699948e-05
-2.391060407635844e-05   4.662104810224197e-06   1.2069742215699948e-05
-3.190198890951339e-05   5.883137687822011e-06   2.4656097211064897e-05
-3.190198890951339e-05   5.883137687822011e-06   2.4656097211064897e-05
-3.190198890951339e-05   5.883137687822011e-06   2.4656097211064897e-05
-3.190198890951339e-05   5.883137687822011e-06   2.4656097211064897e-05
-3.8620091430243266e-05   1.0895047413970245e-05   1.833801643731734e-05
-3.8620091430243266e-05   1.0895047413970245e-05   1.833801643731734e-05
-3.8620091430243266e-05   1.0895047413970245e-05   1.833801643731734e-05
-3.8620091430243266e-05   1.0895047413970245e-05   1.833801643731734e-05
-5.456156712333658e-05   8.88627124261002e-06   -9.436375420654453e-06
-5.456156712333658e-05   8.88627124261002e-06   -9.436375420654453e-06
-5.456156712333658e-05   8.88627124261002e-06   -9.436375420654453e-06
-5.456156712333658e-05   8.88627124261002e-06   -9.436375420654453e-06
-5.62611740161872e-05   1.0839052637477177e-05   2.3503324380319286e-05
-5.62611740161872e-05   1.0839052637477177e-05   2.3503324380319286e-05
-5.62611740161872e-05   1.0839052637477177e-05   2.3503324380319286e-05
-5.62611740161872e-05   1.0839052637477177e-05   2.3503324380319286e-05
-3.9433308765371696e-05   8.655775417778372e-06   -3.2331513725538698e-06
-3.9433308765371696e-05   8.655775417778372e-06   -3.2331513725538698e-06
-3.9433308765371696e-05   8.655775417778372e-06   -3.2331513725538698e-06
-3.9433308765371696e-05   8.655775417778372e-06   -3.2331513725538698e-06
-4.544965114725525e-05   9.640968933893618e-06   6.202969820917441e-06
-4.544965114725525e-05   9.640968933893618e-06   6.202969820917441e-06
-4.544965114725525e-05   9.640968933893618e-06   6.202969820917441e-06
-4.544965114725525e-05   9.640968933893618e-06   6.202969820917441e-06
-3.943330876537179e-05   1.0839052637476813e-05   2.481329071213822e-05
-3.943330876537179e-05   1.0839052637476813e-05   2.481329071213822e-05
-3.943330876537179e-05   1.0839052637476813e-05   2.481329071213822e-05
-3.943330876537179e-05   1.0839052637476813e-05   2.481329071213822e-05
-5.626117401618709e-05   8.655775417778806e-06   -4.543117704372914e-06
-5.626117401618709e-05   8.655775417778806e-06   -4.543117704372914e-06
-5.626117401618709e-05   8.655775417778806e-06   -4.543117704372914e-06
-5.626117401618709e-05   8.655775417778806e-06   -4.543117704372914e-06
-5.774452953180456e-05   1.0617668609818644e-05   2.798514981758207e-05
-5.774452953180456e-05   1.0617668609818644e-05   2.798514981758207e-05
-5.774452953180456e-05   1.0617668609818644e-05   2.798514981758207e-05
-5.774452953180456e-05   1.0617668609818644e-05   2.798514981758207e-05
-4.034869324133222e-05   8.375336095499224e-06   3.374888420536355e-07
-4.034869324133222e-05   8.375336095499224e-06   3.374888420536355e-07
-4.034869324133222e-05   8.375336095499224e-06   3.374888420536355e-07
-4.034869324133222e-05   8.375336095499224e-06   3.374888420536355e-07
-4.724790015182174e-05   9.646523776057122e-06   1.1073454417869768e-05
-4.724790015182174e-05   9.646523776057122e-06   1.1073454417869768e-05
-4.724790015182174e-05   9.646523776057122e-06   1.1073454417869768e-05
-4.724790015182174e-05   9.646523776057122e-06   1.1073454417869768e-05
-4.034869324133229e-05   1.0617668609818544e-05   2.933054932617368e-05
-4.034869324133229e-05   1.0617668609818544e-05   2.933054932617368e-05
-4.034869324133229e-05   1.0617668609818544e-05   2.933054932617368e-05
-4.034869324133229e-05   1.0617668609818544e-05   2.933054932617368e-05
-5.774452953180456e-05   8.375336095499657e-06   -1.00791066653819e-06
-5.774452953180456e-05   8.375336095499657e-06   -1.00791066653819e-06
-5.774452953180456e-05   8.375336095499657e-06   -1.00791066653819e-06
-5.774452953180456e-05   8.375336095499657e-06   -1.00791066653819e-06
-5.946563609774064e-05   9.642316469989781e-06   3.5775317956143445e-05
-5.946563609774064e-05   9.642316469989781e-06   3.5775317956143445e-05
-5.946563609774064e-05   9.642316469989781e-06   3.5775317956143445e-05
-5.946563609774064e-05   9.642316469989781e-06   3.5775317956143445e-05
-4.116282007024915e-05   7.435266045941868e-06   6.594854831419475e-06
-4.116282007024915e-05   7.435266045941868e-06   6.594854831419475e-06
-4.116282007024915e-05   7.435266045941868e-06   6.594854831419475e-06
-4.116282007024915e-05   7.435266045941868e-06   6.594854831419475e-06
-4.765233516315836e-05   9.237217769382435e-06   1.632954228553531e-05
-4.765233516315836e-05   9.237217769382435e-06   1.632954228553531e-05
-4.765233516315836e-05   9.237217769382435e-06   1.632954228553531e-05
-4.765233516315836e-05   9.237217769382435e-06   1.632954228553531e-05
1.7756893600121427e-05   -2.0371648110391855e-06   2.5283285867467144e-05
1.7756893600121427e-05   -2.0371648110391855e-06   2.5283285867467144e-05
1.7756893600121427e-05   -2.0371648110391855e-06   2.5283285867467144e-05
1.7756893600121427e-05   -2.0371648110391855e-06   2.5283285867467144e-05
4.629001321990615e-06   5.5528470289771537e-08   4.659081372713212e-06
4.629001321990615e-06   5.5528470289771537e-08   4.659081372713212e-06
4.629001321990615e-06   5.5528470289771537e-08   4.659081372713212e-06
4.629001321990615e-06   5.5528470289771537e-08   4.659081372713212e-06
4.003703067838108e-06   -2.8319574636209884e-06   2.3578038555175772e-05
4.003703067838108e-06   -2.8319574636209884e-06   2.3578038555175772e-05
4.003703067838108e-06   -2.8319574636209884e-06   2.3578038555175772e-05
4.003703067838108e-06   -2.8319574636209884e-06   2.3578038555175772e-05
1.621169792411429e-05   -6.563107802712298e-07   1.92599245137269e-06
1.621169792411429e-05   -6.563107802712298e-07   1.92599245137269e-06
1.621169792411429e-05   -6.563107802712298e-07   1.92599245137269e-06
1.621169792411429e-05   -6.563107802712298e-07   1.92599245137269e-06
1.0020852299839993e-05   -1.4682504694048942e-06   1.2731232305310876e-05
1.0020852299839993e-05   -1.4682504694048942e-06   1.2731232305310876e-05
1.0020852299839993e-05   -1.4682504694048942e-06   1.2731232305310876e-05
1.0020852299839993e-05   -1.4682504694048942e-06   1.2731232305310876e-05
1.621169792411432e-05   -2.8319574636208185e-06   2.227265054516596e-05
1.621169792411432e-05   -2.8319574636208185e-06   2.227265054516596e-05
1.621169792411432e-05   -2.8319574636208185e-06   2.227265054516596e-05
1.621169792411432e-05   -2.8319574636208185e-06   2.227265054516596e-05
4.0037030678381015e-06   -6.563107802712298e-07   3.2313804613824746e-06
4.0037030678381015e-06   -6.563107802712298e-07   3.2313804613824746e-06
4.0037030678381015e-06   -6.563107802712298e-07   3.2313804613824746e-06
4.0037030678381015e-06   -6.563107802712298e-07   3.2313804613824746e-06
3.2752778359727766e-06   -3.1058780252638148e-06   2.2132352475053062e-05
3.2752778359727766e-06   -3.1058780252638148e-06   2.2132352475053062e-05
3.2752778359727766e-06   -3.1058780252638148e-06   2.2132352475053062e-05
3.2752778359727766e-06   -3.1058780252638148e-06   2.2132352475053062e-05
1.4903757386209389e-05   -9.636860907515782e-07   1.4662380639514079e-06
1.4903757386209389e-05   -9.636860907515782e-07   1.4662380639514079e-06
1.4903757386209389e-05   -9.636860907515782e-07   1.4662380639514079e-06
1.4903757386209389e-05   -9.636860907515782e-07   1.4662380639514079e-06
9.273001434250575e-06   -1.7789260090004047e-06   1.133997526816553e-05
9.273001434250575e-06   -1.7789260090004047e-06   1.133997526816553e-05
9.273001434250575e-06   -1.7789260090004047e-06   1.133997526816553e-05
9.273001434250575e-06   -1.7789260090004047e-06   1.133997526816553e-05
1.4903757386209416e-05   -3.1058780252637042e-06   2.0847037314345677e-05
1.4903757386209416e-05   -3.1058780252637042e-06   2.0847037314345677e-05
1.4903757386209416e-05   -3.1058780252637042e-06   2.0847037314345677e-05
1.4903757386209416e-05   -3.1058780252637042e-06   2.0847037314345677e-05
3.27527783597277e-06   -9.636860907515782e-07   2.7515532246588474e-06
3.27527783597277e-06   -9.636860907515782e-07   2.7515532246588474e-06
3.27527783597277e-06   -9.636860907515782e-07   2.7515532246588474e-06
3.27527783597277e-06   -9.636860907515782e-07   2.7515532246588474e-06
2.6443211743037157e-06   -3.4689885979721086e-06   2.0464410153808472e-05
2.6443211743037157e-06   -3.4689885979721086e-06   2.0464410153808472e-05
2.6443211743037157e-06   -3.4689885979721086e-06   2.0464410153808472e-05
2.6443211743037157e-06   -3.4689885979721086e-06   2.0464410153808472e-05
1.3372675731293477e-05   -1.476555431480361e-06   1.3883593255976045e-06
1.3372675731293477e-05   -1.476555431480361e-06   1.3883593255976045e-06
1.3372675731293477e-05   -1.476555431480361e-06   1.3883593255976045e-06
1.3372675731293477e-05   -1.476555431480361e-06   1.3883593255976045e-06
8.174188187816838e-06   -1.9400362441773355e-06   1.0330593719009941e-05
8.174188187816838e-06   -1.9400362441773355e-06   1.0330593719009941e-05
8.174188187816838e-06   -1.9400362441773355e-06   1.0330593719009941e-05
8.174188187816838e-06   -1.9400362441773355e-06   1.0330593719009941e-05
4.629001321990622e-06   1.0542961686801438e-06   3.4814055989625895e-05
4.629001321990622e-06   1.0542961686801438e-06   3.4814055989625895e-05
4.629001321990622e-06   1.0542961686801438e-06   3.4814055989625895e-05
4.629001321990622e-06   1.0542961686801438e-06   3.4814055989625895e-05
-7.3334659911959265e-06   2.000926755790864e-06   1.5444588819915118e-05
-7.3334659911959265e-06   2.000926755790864e-06   1.5444588819915118e-05
-7.3334659911959265e-06   2.000926755790864e-06   1.5444588819915118e-05
-7.3334659911959265e-06   2.000926755790864e-06   1.5444588819915118e-05
-7.88260157335766e-06   2.491233019289059e-07   3.492502162726757e-05
-7.88260157335766e-06   2.491233019289059e-07   3.492502162726757e-05
-7.88260157335766e-06   2.491233019289059e-07   3.492502162726757e-05
-7.88260157335766e-06   2.491233019289059e-07   3.492502162726757e-05
4.0037030678381015e-06   1.195933589080234e-06   1.4546427719650936e-05
4.0037030678381015e-06   1.195933589080234e-06   1.4546427719650936e-05
4.0037030678381015e-06   1.195933589080234e-06   1.4546427719650936e-05
4.0037030678381015e-06   1.195933589080234e-06   1.4546427719650936e-05
-1.735123335891465e-06   1.0450789061408183e-06   2.420165120229823e-05
-1.735123335891465e-06   1.0450789061408183e-06   2.420165120229823e-05
-1.735123335891465e-06   1.0450789061408183e-06   2.420165120229823e-05
-1.735123335891465e-06   1.0450789061408183e-06   2.420165120229823e-05
4.003703067838105e-06   2.4912330192910473e-07   3.435693545497686e-05
4.003703067838105e-06   2.4912330192910473e-07   3.435693545497686e-05
4.003703067838105e-06   2.4912330192910473e-07   3.435693545497686e-05
4.003703067838105e-06   2.4912330192910473e-07   3.435693545497686e-05
-7.88260157335766e-06   1.195933589080234e-06   1.5114513891941795e-05
-7.88260157335766e-06   1.195933589080234e-06   1.5114513891941795e-05
-7.88260157335766e-06   1.195933589080234e-06   1.5114513891941795e-05
-7.88260157335766e-06   1.195933589080234e-06   1.5114513891941795e-05
-8.447699558916866e-06   -4.101281936659193e-07   3.470324417390643e-05
-8.447699558916866e-06   -4.101281936659193e-07   3.470324417390643e-05
-8.447699558916866e-06   -4.101281936659193e-07   3.470324417390643e-05
-8.447699558916866e-06   -4.101281936659193e-07   3.470324417390643e-05
3.275277835972771e-06   5.132548975179691e-07   1.4610918661046788e-05
3.275277835972771e-06   5.132548975179691e-07   1.4610918661046788e-05
3.275277835972771e-06   5.132548975179691e-07   1.4610918661046788e-05
3.275277835972771e-06   5.132548975179691e-07   1.4610918661046788e-05
-2.3210952080296526e-06   4.833574934904467e-07   2.3956145510134594e-05
-2.3210952080296526e-06   4.833574934904467e-07   2.3956145510134594e-05
-2.3210952080296526e-06   4.833574934904467e-07   2.3956145510134594e-05
-2.3210952080296526e-06   4.833574934904467e-07   2.3956145510134594e-05
3.2752778359727766e-06   -4.1012819366628463e-07   3.4149214319196316e-05
3.2752778359727766e-06   -4.1012819366628463e-07   3.4149214319196316e-05
3.2752778359727766e-06   -4.1012819366628463e-07   3.4149214319196316e-05
3.2752778359727766e-06   -4.1012819366628463e-07   3.4149214319196316e-05
-8.447699558916894e-06   5.132548975179691e-07   1.5164948515757385e-05
-8.447699558916894e-06   5.132548975179691e-07   1.5164948515757385e-05
-8.447699558916894e-06   5.132548975179691e-07   1.5164948515757385e-05
-8.447699558916894e-06   5.132548975179691e-07   1.5164948515757385e-05
-9.004283348487479e-06   -1.0603042355904896e-06   3.516239378697182e-05
-9.004283348487479e-06   -1.0603042355904896e-06   3.516239378697182e-05
-9.004283348487479e-06   -1.0603042355904896e-06   3.516239378697182e-05
-9.004283348487479e-06   -1.0603042355904896e-06   3.516239378697182e-05
2.6443211743037077e-06   -1.8493814116725925e-07   1.5222833258999192e-05
2.6443211743037077e-06   -1.8493814116725925e-07   1.5222833258999192e-05
2.6443211743037077e-06   -1.8493814116725925e-07   1.5222833258999192e-05
2.6443211743037077e-06   -1.8493814116725925e-07   1.5222833258999192e-05
-2.81758320898728e-06   -2.1232067232189802e-08   2.4227783586789947e-05
-2.81758320898728e-06   -2.1232067232189802e-08   2.4227783586789947e-05
-2.81758320898728e-06   -2.1232067232189802e-08   2.4227783586789947e-05
-2.81758320898728e-06   -2.1232067232189802e-08   2.4227783586789947e-05
-7.3334659911959265e-06   3.956077200068836e-06   3.8613607782278124e-05
-7.3334659911959265e-06   3.956077200068836e-06   3.8613607782278124e-05
-7.3334659911959265e-06   3.956077200068836e-06   3.8613607782278124e-05
-7.3334659911959265e-06   3.956077200068836e-06   3.8613607782278124e-05
-1.9095005320105528e-05   3.7278572546195314e-06   1.8874110266825722e-05
-1.9095005320105528e-05   3.7278572546195314e-06   1.8874110266825722e-05
-1.9095005320105528e-05   3.7278572546195314e-06   1.8874110266825722e-05
-1.9095005320105528e-05   3.7278572546195314e-06   1.8874110266825722e-05
-1.962173824277745e-05   3.2239689154540604e-06   3.82724112989116e-05
-1.962173824277745e-05   3.2239689154540604e-06   3.82724112989116e-05
-1.962173824277745e-05   3.2239689154540604e-06   3.82724112989116e-05
-1.962173824277745e-05   3.2239689154540604e-06   3.82724112989116e-05
-7.882601573357643e-06   2.9852519710235267e-06   1.885041368320409e-05
-7.882601573357643e-06   2.9852519710235267e-06   1.885041368320409e-05
-7.882601573357643e-06   2.9852519710235267e-06   1.885041368320409e-05
-7.882601573357643e-06   2.9852519710235267e-06   1.885041368320409e-05
-1.350821140781949e-05   3.390718462827026e-06   2.798315017889274e-05
-1.350821140781949e-05   3.390718462827026e-06   2.798315017889274e-05
-1.350821140781949e-05   3.390718462827026e-06   2.798315017889274e-05
-1.350821140781949e-05   3.390718462827026e-06   2.798315017889274e-05
-7.882601573357633e-06   3.2239689154544314e-06   3.841564146557009e-05
-7.882601573357633e-06   3.2239689154544314e-06   3.841564146557009e-05
-7.882601573357633e-06   3.2239689154544314e-06   3.841564146557009e-05
-7.882601573357633e-06   3.2239689154544314e-06   3.841564146557009e-05
-1.962173824277745e-05   2.98525197102331e-06   1.8707183516545678e-05
-1.962173824277745e-05   2.98525197102331e-06   1.8707183516545678e-05
-1.962173824277745e-05   2.98525197102331e-06   1.8707183516545678e-05
-1.962173824277745e-05   2.98525197102331e-06   1.8707183516545678e-05
-2.0165802125340264e-05   2.500244320155151e-06   3.852817252605911e-05
-2.0165802125340264e-05   2.500244320155151e-06   3.852817252605911e-05
-2.0165802125340264e-05   2.500244320155151e-06   3.852817252605911e-05
-2.0165802125340264e-05   2.500244320155151e-06   3.852817252605911e-05
-8.44769955891687e-06   2.2464355503850567e-06   1.9150286843882148e-05
-8.44769955891687e-06   2.2464355503850567e-06   1.9150286843882148e-05
-8.44769955891687e-06   2.2464355503850567e-06   1.9150286843882148e-05
-8.44769955891687e-06   2.2464355503850567e-06   1.9150286843882148e-05
-1.3977320679125666e-05   2.825657028702848e-06   2.8018789157239436e-05
-1.3977320679125666e-05   2.825657028702848e-06   2.8018789157239436e-05
-1.3977320679125666e-05   2.825657028702848e-06   2.8018789157239436e-05
-1.3977320679125666e-05   2.825657028702848e-06   2.8018789157239436e-05
-8.447699558916894e-06   2.500244320155107e-06   3.868045778792099e-05
-8.447699558916894e-06   2.500244320155107e-06   3.868045778792099e-05
-8.447699558916894e-06   2.500244320155107e-06   3.868045778792099e-05
-8.447699558916894e-06   2.500244320155107e-06   3.868045778792099e-05
-2.0165802125340264e-05   2.2464355503850567e-06   1.899800158202032e-05
-2.0165802125340264e-05   2.2464355503850567e-06   1.899800158202032e-05
-2.0165802125340264e-05   2.2464355503850567e-06   1.899800158202032e-05
-2.0165802125340264e-05   2.2464355503850567e-06   1.899800158202032e-05
-2.0701410147824534e-05   1.803426395523798e-06   3.915223669693742e-05
-2.0701410147824534e-05   1.803426395523798e-06   3.915223669693742e-05
-2.0701410147824534e-05   1.803426395523798e-06   3.915223669693742e-05
-2.0701410147824534e-05   1.803426395523798e-06   3.915223669693742e-05
-9.004283348487482e-06   1.5388757613830472e-06   1.9815755745193842e-05
-9.004283348487482e-06   1.5388757613830472e-06   1.9815755745193842e-05
-9.004283348487482e-06   1.5388757613830472e-06   1.9815755745193842e-05
-9.004283348487482e-06   1.5388757613830472e-06   1.9815755745193842e-05
-1.4476227403169957e-05   2.2718526425731696e-06   2.8495876374283545e-05
-1.4476227403169957e-05   2.2718526425731696e-06   2.8495876374283545e-05
-1.4476227403169957e-05   2.2718526425731696e-06   2.8495876374283545e-05
-1.4476227403169957e-05   2.2718526425731696e-06   2.8495876374283545e-05
-1.9095005320105528e-05   6.778686692386563e-06   3.4010893824718566e-05
-1.9095005320105528e-05   6.778686692386563e-06   3.4010893824718566e-05
-1.9095005320105528e-05   6.778686692386563e-06   3.4010893824718566e-05
-1.9095005320105528e-05   6.778686692386563e-06   3.4010893824718566e-05
-3.06400189269973e-05   5.534203079286641e-06   1.4022514312039174e-05
-3.06400189269973e-05   5.534203079286641e-06   1.4022514312039174e-05
-3.06400189269973e-05   5.534203079286641e-06   1.4022514312039174e-05
-3.06400189269973e-05   5.534203079286641e-06   1.4022514312039174e-05
-3.121396851141022e-05   6.063164613857863e-06   3.338301017525723e-05
-3.121396851141022e-05   6.063164613857863e-06   3.338301017525723e-05
-3.121396851141022e-05   6.063164613857863e-06   3.338301017525723e-05
-3.121396851141022e-05   6.063164613857863e-06   3.338301017525723e-05
-1.9621738242777386e-05   4.785075293942511e-06   1.4829479986151956e-05
-1.9621738242777386e-05   4.785075293942511e-06   1.4829479986151956e-05
-1.9621738242777386e-05   4.785075293942511e-06   1.4829479986151956e-05
-1.9621738242777386e-05   4.785075293942511e-06   1.4829479986151956e-05
-2.5082125869015407e-05   5.69668637095456e-06   2.3383159383676046e-05
-2.5082125869015407e-05   5.69668637095456e-06   2.3383159383676046e-05
-2.5082125869015407e-05   5.69668637095456e-06   2.3383159383676046e-05
-2.5082125869015407e-05   5.69668637095456e-06   2.3383159383676046e-05
-1.962173824277745e-05   6.063164613857567e-06   3.414986376720644e-05
-1.962173824277745e-05   6.063164613857567e-06   3.414986376720644e-05
-1.962173824277745e-05   6.063164613857567e-06   3.414986376720644e-05
-1.962173824277745e-05   6.063164613857567e-06   3.414986376720644e-05
-3.1213968511410164e-05   4.7850752939427275e-06   1.4062626394202907e-05
-3.1213968511410164e-05   4.7850752939427275e-06   1.4062626394202907e-05
-3.1213968511410164e-05   4.7850752939427275e-06   1.4062626394202907e-05
-3.1213968511410164e-05   4.7850752939427275e-06   1.4062626394202907e-05
-3.1893901634386036e-05   5.401454824287971e-06   3.448174674045815e-05
-3.1893901634386036e-05   5.401454824287971e-06   3.448174674045815e-05
-3.1893901634386036e-05   5.401454824287971e-06   3.448174674045815e-05
-3.1893901634386036e-05   5.401454824287971e-06   3.448174674045815e-05
-2.0165802125340237e-05   4.104331656835675e-06   1.5713188125853427e-05
-2.0165802125340237e-05   4.104331656835675e-06   1.5713188125853427e-05
-2.0165802125340237e-05   4.104331656835675e-06   1.5713188125853427e-05
-2.0165802125340237e-05   4.104331656835675e-06   1.5713188125853427e-05
-2.5454620074385657e-05   5.166657018460278e-06   2.3890489490620932e-05
-2.5454620074385657e-05   5.166657018460278e-06   2.3890489490620932e-05
-2.5454620074385657e-05   5.166657018460278e-06   2.3890489490620932e-05
-2.5454620074385657e-05   5.166657018460278e-06   2.3890489490620932e-05
-2.0165802125340264e-05   5.401454824287789e-06   3.526002064092957e-05
-2.0165802125340264e-05   5.401454824287789e-06   3.526002064092957e-05
-2.0165802125340264e-05   5.401454824287789e-06   3.526002064092957e-05
-2.0165802125340264e-05   5.401454824287789e-06   3.526002064092957e-05
-3.189390163438598e-05   4.104331656835675e-06   1.4934914225382223e-05
-3.189390163438598e-05   4.104331656835675e-06   1.4934914225382223e-05
-3.189390163438598e-05   4.104331656835675e-06   1.4934914225382223e-05
-3.189390163438598e-05   4.104331656835675e-06   1.4934914225382223e-05
-3.2477640036622925e-05   4.662104810224197e-06   3.554425303421097e-05
-3.2477640036622925e-05   4.662104810224197e-06   3.554425303421097e-05
-3.2477640036622925e-05   4.662104810224197e-06   3.554425303421097e-05
-3.2477640036622925e-05   4.662104810224197e-06   3.554425303421097e-05
-2.0701410147824524e-05   3.3772057412779014e-06   1.6688142660914874e-05
-2.0701410147824524e-05   3.3772057412779014e-06   1.6688142660914874e-05
-2.0701410147824524e-05   3.3772057412779014e-06   1.6688142660914874e-05
-2.0701410147824524e-05   3.3772057412779014e-06   1.6688142660914874e-05
-2.6094061331649575e-05   4.63625195240157e-06   2.4920466907282367e-05
-2.6094061331649575e-05   4.63625195240157e-06   2.4920466907282367e-05
-2.6094061331649575e-05   4.63625195240157e-06   2.4920466907282367e-05
-2.6094061331649575e-05   4.63625195240157e-06   2.4920466907282367e-05
-3.064001892699736e-05   8.886271242609603e-06   1.5881581015339064e-05
-3.064001892699736e-05   8.886271242609603e-06   1.5881581015339064e-05
-3.064001892699736e-05   8.886271242609603e-06   1.5881581015339064e-05
-3.064001892699736e-05   8.886271242609603e-06   1.5881581015339064e-05
-4.1040910586879445e-05   6.803177555803931e-06   -2.7030946298812466e-06
-4.1040910586879445e-05   6.803177555803931e-06   -2.7030946298812466e-06
-4.1040910586879445e-05   6.803177555803931e-06   -2.7030946298812466e-06
-4.1040910586879445e-05   6.803177555803931e-06   -2.7030946298812466e-06
-4.251180179803309e-05   8.655775417778806e-06   1.9576156793591013e-05
-4.251180179803309e-05   8.655775417778806e-06   1.9576156793591013e-05
-4.251180179803309e-05   8.655775417778806e-06   1.9576156793591013e-05
-4.251180179803309e-05   8.655775417778806e-06   1.9576156793591013e-05
-3.121396851141012e-05   6.418581126665891e-06   2.0887512238871577e-06
-3.121396851141012e-05   6.418581126665891e-06   2.0887512238871577e-06
-3.121396851141012e-05   6.418581126665891e-06   2.0887512238871577e-06
-3.121396851141012e-05   6.418581126665891e-06   2.0887512238871577e-06
-3.502812356541638e-05   7.550428709020372e-06   7.766567764486555e-06
-3.502812356541638e-05   7.550428709020372e-06   7.766567764486555e-06
-3.502812356541638e-05   7.550428709020372e-06   7.766567764486555e-06
-3.502812356541638e-05   7.550428709020372e-06   7.766567764486555e-06
-3.1213968511410164e-05   8.655775417778736e-06   2.0918473368258632e-05
-3.1213968511410164e-05   8.655775417778736e-06   2.0918473368258632e-05
-3.1213968511410164e-05   8.655775417778736e-06   2.0918473368258632e-05
-3.1213968511410164e-05   8.655775417778736e-06   2.0918473368258632e-05
-4.251180179803331e-05   6.418581126665891e-06   7.464346492197559e-07
-4.251180179803331e-05   6.418581126665891e-06   7.464346492197559e-07
-4.251180179803331e-05   6.418581126665891e-06   7.464346492197559e-07
-4.251180179803331e-05   6.418581126665891e-06   7.464346492197559e-07
-4.377869654690106e-05   8.375336095499657e-06   2.3163556739613485e-05
-4.377869654690106e-05   8.375336095499657e-06   2.3163556739613485e-05
-4.377869654690106e-05   8.375336095499657e-06   2.3163556739613485e-05
-4.377869654690106e-05   8.375336095499657e-06   2.3163556739613485e-05
-3.189390163438595e-05   6.097949590523448e-06   4.7219971217406015e-06
-3.189390163438595e-05   6.097949590523448e-06   4.7219971217406015e-06
-3.189390163438595e-05   6.097949590523448e-06   4.7219971217406015e-06
-3.189390163438595e-05   6.097949590523448e-06   4.7219971217406015e-06
-3.643929905221763e-05   7.4502544634962725e-06   1.1486276561010426e-05
-3.643929905221763e-05   7.4502544634962725e-06   1.1486276561010426e-05
-3.643929905221763e-05   7.4502544634962725e-06   1.1486276561010426e-05
-3.643929905221763e-05   7.4502544634962725e-06   1.1486276561010426e-05
-3.189390163438598e-05   8.375336095499212e-06   2.4529988642598907e-05
-3.189390163438598e-05   8.375336095499212e-06   2.4529988642598907e-05
-3.189390163438598e-05   8.375336095499212e-06   2.4529988642598907e-05
-3.189390163438598e-05   8.375336095499212e-06   2.4529988642598907e-05
-4.377869654690117e-05   6.097949590523665e-06   3.355565218755125e-06
-4.377869654690117e-05   6.097949590523665e-06   3.355565218755125e-06
-4.377869654690117e-05   6.097949590523665e-06   3.355565218755125e-06
-4.377869654690117e-05   6.097949590523665e-06   3.355565218755125e-06
-4.529549762175564e-05   7.4352660459423014e-06   2.951314470801868e-05
-4.529549762175564e-05   7.4352660459423014e-06   2.951314470801868e-05
-4.529549762175564e-05   7.4352660459423014e-06   2.951314470801868e-05
-4.529549762175564e-05   7.4352660459423014e-06   2.951314470801868e-05
-3.247764003662277e-05   5.227016284627519e-06   9.474998589586222e-06
-3.247764003662277e-05   5.227016284627519e-06   9.474998589586222e-06
-3.247764003662277e-05   5.227016284627519e-06   9.474998589586222e-06
-3.247764003662277e-05   5.227016284627519e-06   9.474998589586222e-06
-3.679335999020234e-05   7.05420990893533e-06   1.557154900429995e-05
-3.679335999020234e-05   7.05420990893533e-06   1.557154900429995e-05
-3.679335999020234e-05   7.05420990893533e-06   1.557154900429995e-05
-3.679335999020234e-05   7.05420990893533e-06   1.557154900429995e-05
3.492183307630766e-06   5.552847028969504e-08   1.8845280784264844e-05
3.492183307630766e-06   5.552847028969504e-08   1.8845280784264844e-05
3.492183307630766e-06   5.552847028969504e-08   1.8845280784264844e-05
3.492183307630766e-06   5.552847028969504e-08   1.8845280784264844e-05
-4.00005630494258e-06   2.0630601046979762e-06   7.5627337439540705e-06
-4.00005630494258e-06   2.0630601046979762e-06   7.5627337439540705e-06
-4.00005630494258e-06   2.0630601046979762e-06   7.5627337439540705e-06
-4.00005630494258e-06   2.0630601046979762e-06   7.5627337439540705e-06
-4.441895537697621e-06   -6.563107802712298e-07   1.8596389636203682e-05
-4.441895537697621e-06   -6.563107802712298e-07   1.8596389636203682e-05
-4.441895537697621e-06   -6.563107802712298e-07   1.8596389636203682e-05
-4.441895537697621e-06   -6.563107802712298e-07   1.8596389636203682e-05
2.14665854227172e-06   1.3990736789078282e-06   6.382235494080678e-06
2.14665854227172e-06   1.3990736789078282e-06   6.382235494080678e-06
2.14665854227172e-06   1.3990736789078282e-06   6.382235494080678e-06
2.14665854227172e-06   1.3990736789078282e-06   6.382235494080678e-06
-8.743534382459054e-07   6.019143416594909e-07   1.189555106395891e-05
-8.743534382459054e-07   6.019143416594909e-07   1.189555106395891e-05
-8.743534382459054e-07   6.019143416594909e-07   1.189555106395891e-05
-8.743534382459054e-07   6.019143416594909e-07   1.189555106395891e-05
2.1466585422717153e-06   -6.563107802712939e-07   1.7363158960696226e-05
2.1466585422717153e-06   -6.563107802712939e-07   1.7363158960696226e-05
2.1466585422717153e-06   -6.563107802712939e-07   1.7363158960696226e-05
2.1466585422717153e-06   -6.563107802712939e-07   1.7363158960696226e-05
-4.441895537697621e-06   1.3990736789078282e-06   7.615466169588162e-06
-4.441895537697621e-06   1.3990736789078282e-06   7.615466169588162e-06
-4.441895537697621e-06   1.3990736789078282e-06   7.615466169588162e-06
-4.441895537697621e-06   1.3990736789078282e-06   7.615466169588162e-06
-4.98753770487922e-06   -9.636860907515782e-07   1.8115452366222794e-05
-4.98753770487922e-06   -9.636860907515782e-07   1.8115452366222794e-05
-4.98753770487922e-06   -9.636860907515782e-07   1.8115452366222794e-05
-4.98753770487922e-06   -9.636860907515782e-07   1.8115452366222794e-05
9.79532374827939e-07   1.0329105243273625e-06   6.972377597663559e-06
9.79532374827939e-07   1.0329105243273625e-06   6.972377597663559e-06
9.79532374827939e-07   1.0329105243273625e-06   6.972377597663559e-06
9.79532374827939e-07   1.0329105243273625e-06   6.972377597663559e-06
-1.6011683740769297e-06   3.189371601305512e-07   1.1701929531022976e-05
-1.6011683740769297e-06   3.189371601305512e-07   1.1701929531022976e-05
-1.6011683740769297e-06   3.189371601305512e-07   1.1701929531022976e-05
-1.6011683740769297e-06   3.189371601305512e-07   1.1701929531022976e-05
9.795323748279294e-07   -9.636860907515327e-07   1.691749439717519e-05
9.795323748279294e-07   -9.636860907515327e-07   1.691749439717519e-05
9.795323748279294e-07   -9.636860907515327e-07   1.691749439717519e-05
9.795323748279294e-07   -9.636860907515327e-07   1.691749439717519e-05
-4.98753770487921e-06   1.0329105243273625e-06   8.170335566710756e-06
-4.98753770487921e-06   1.0329105243273625e-06   8.170335566710756e-06
-4.98753770487921e-06   1.0329105243273625e-06   8.170335566710756e-06
-4.98753770487921e-06   1.0329105243273625e-06   8.170335566710756e-06
-5.443275193162144e-06   -1.4765554314805779e-06   1.7952632693015174e-05
-5.443275193162144e-06   -1.4765554314805779e-06   1.7952632693015174e-05
-5.443275193162144e-06   -1.4765554314805779e-06   1.7952632693015174e-05
-5.443275193162144e-06   -1.4765554314805779e-06   1.7952632693015174e-05
-4.843523207906352e-07   2.556520456746189e-07   8.648436752769763e-06
-4.843523207906352e-07   2.556520456746189e-07   8.648436752769763e-06
-4.843523207906352e-07   2.556520456746189e-07   8.648436752769763e-06
-4.843523207906352e-07   2.556520456746189e-07   8.648436752769763e-06
-2.3816600049834092e-06   5.857391824045169e-08   1.1928863102884856e-05
-2.3816600049834092e-06   5.857391824045169e-08   1.1928863102884856e-05
-2.3816600049834092e-06   5.857391824045169e-08   1.1928863102884856e-05
-2.3816600049834092e-06   5.857391824045169e-08   1.1928863102884856e-05
-4.00005630494258e-06   2.0009267557909314e-06   3.026732885984501e-05
-4.00005630494258e-06   2.0009267557909314e-06   3.026732885984501e-05
-4.00005630494258e-06   2.0009267557909314e-06   3.026732885984501e-05
-4.00005630494258e-06   2.0009267557909314e-06   3.026732885984501e-05
-1.0272468269490376e-05   2.3957447067234593e-06   2.0050199689491586e-05
-1.0272468269490376e-05   2.3957447067234593e-06   2.0050199689491586e-05
-1.0272468269490376e-05   2.3957447067234593e-06   2.0050199689491586e-05
-1.0272468269490376e-05   2.3957447067234593e-06   2.0050199689491586e-05
-1.0605324744565424e-05   1.195933589080234e-06   3.0186207367195218e-05
-1.0605324744565424e-05   1.195933589080234e-06   3.0186207367195218e-05
-1.0605324744565424e-05   1.195933589080234e-06   3.0186207367195218e-05
-1.0605324744565424e-05   1.195933589080234e-06   3.0186207367195218e-05
-4.44189553769762e-06   1.6538843769519935e-06   1.9639054883025668e-05
-4.44189553769762e-06   1.6538843769519935e-06   1.9639054883025668e-05
-4.44189553769762e-06   1.6538843769519935e-06   1.9639054883025668e-05
-4.44189553769762e-06   1.6538843769519935e-06   1.9639054883025668e-05
-7.372932398966564e-06   1.7259452458177633e-06   2.4480879797154545e-05
-7.372932398966564e-06   1.7259452458177633e-06   2.4480879797154545e-05
-7.372932398966564e-06   1.7259452458177633e-06   2.4480879797154545e-05
-7.372932398966564e-06   1.7259452458177633e-06   2.4480879797154545e-05
-4.4418955376976045e-06   1.1959335890802033e-06   2.9911436894471967e-05
-4.4418955376976045e-06   1.1959335890802033e-06   2.9911436894471967e-05
-4.4418955376976045e-06   1.1959335890802033e-06   2.9911436894471967e-05
-4.4418955376976045e-06   1.1959335890802033e-06   2.9911436894471967e-05
-1.0605324744565424e-05   1.6538843769519935e-06   1.99138253557489e-05
-1.0605324744565424e-05   1.6538843769519935e-06   1.99138253557489e-05
-1.0605324744565424e-05   1.6538843769519935e-06   1.99138253557489e-05
-1.0605324744565424e-05   1.6538843769519935e-06   1.99138253557489e-05
-1.0948595885930623e-05   5.132548975177523e-07   3.024794417088683e-05
-1.0948595885930623e-05   5.132548975177523e-07   3.024794417088683e-05
-1.0948595885930623e-05   5.132548975177523e-07   3.024794417088683e-05
-1.0948595885930623e-05   5.132548975177523e-07   3.024794417088683e-05
-4.987537704879212e-06   9.684655113112017e-07   2.003972083419186e-05
-4.987537704879212e-06   9.684655113112017e-07   2.003972083419186e-05
-4.987537704879212e-06   9.684655113112017e-07   2.003972083419186e-05
-4.987537704879212e-06   9.684655113112017e-07   2.003972083419186e-05
-7.712679051151324e-06   1.1834429162480356e-06   2.4452636635016923e-05
-7.712679051151324e-06   1.1834429162480356e-06   2.4452636635016923e-05
-7.712679051151324e-06   1.1834429162480356e-06   2.4452636635016923e-05
-7.712679051151324e-06   1.1834429162480356e-06   2.4452636635016923e-05
-4.98753770487921e-06   5.132548975177478e-07   2.9974817802610673e-05
-4.98753770487921e-06   5.132548975177478e-07   2.9974817802610673e-05
-4.98753770487921e-06   5.132548975177478e-07   2.9974817802610673e-05
-4.98753770487921e-06   5.132548975177478e-07   2.9974817802610673e-05
-1.0948595885930623e-05   9.684655113112017e-07   2.031284720246788e-05
-1.0948595885930623e-05   9.684655113112017e-07   2.031284720246788e-05
-1.0948595885930623e-05   9.684655113112017e-07   2.031284720246788e-05
-1.0948595885930623e-05   9.684655113112017e-07   2.031284720246788e-05
-1.1285190212365997e-05   -1.849381411670424e-07   3.0837755647190575e-05
-1.1285190212365997e-05   -1.849381411670424e-07   3.0837755647190575e-05
-1.1285190212365997e-05   -1.849381411670424e-07   3.0837755647190575e-05
-1.1285190212365997e-05   -1.849381411670424e-07   3.0837755647190575e-05
-5.443275193162138e-06   2.25243393280972e-07   2.0855121694515457e-05
-5.443275193162138e-06   2.25243393280972e-07   2.0855121694515457e-05
-5.443275193162138e-06   2.25243393280972e-07   2.0855121694515457e-05
-5.443275193162138e-06   2.25243393280972e-07   2.0855121694515457e-05
-8.052257975303337e-06   6.496455172162047e-07   2.494878505705626e-05
-8.052257975303337e-06   6.496455172162047e-07   2.494878505705626e-05
-8.052257975303337e-06   6.496455172162047e-07   2.494878505705626e-05
-8.052257975303337e-06   6.496455172162047e-07   2.494878505705626e-05
-1.0272468269490376e-05   3.727857254619588e-06   3.407067304458478e-05
-1.0272468269490376e-05   3.727857254619588e-06   3.407067304458478e-05
-1.0272468269490376e-05   3.727857254619588e-06   3.407067304458478e-05
-1.0272468269490376e-05   3.727857254619588e-06   3.407067304458478e-05
-1.652680823568595e-05   2.8689209500302668e-06   2.313141131817187e-05
-1.652680823568595e-05   2.8689209500302668e-06   2.313141131817187e-05
-1.652680823568595e-05   2.8689209500302668e-06   2.313141131817187e-05
-1.652680823568595e-05   2.8689209500302668e-06   2.313141131817187e-05
-1.6808283190698097e-05   2.98525197102331e-06   3.3439528938359817e-05
-1.6808283190698097e-05   2.98525197102331e-06   3.3439528938359817e-05
-1.6808283190698097e-05   2.98525197102331e-06   3.3439528938359817e-05
-1.6808283190698097e-05   2.98525197102331e-06   3.3439528938359817e-05
-1.0605324744565416e-05   2.1809549375271207e-06   2.358384308156976e-05
-1.0605324744565416e-05   2.1809549375271207e-06   2.358384308156976e-05
-1.0605324744565416e-05   2.1809549375271207e-06   2.358384308156976e-05
-1.0605324744565416e-05   2.1809549375271207e-06   2.358384308156976e-05
-1.3559783691182153e-05   2.8845121939891343e-06   2.8085806972053754e-05
-1.3559783691182153e-05   2.8845121939891343e-06   2.8085806972053754e-05
-1.3559783691182153e-05   2.8845121939891343e-06   2.8085806972053754e-05
-1.3559783691182153e-05   2.8845121939891343e-06   2.8085806972053754e-05
-1.0605324744565424e-05   2.9852519710234175e-06   3.3922107158457595e-05
-1.0605324744565424e-05   2.9852519710234175e-06   3.3922107158457595e-05
-1.0605324744565424e-05   2.9852519710234175e-06   3.3922107158457595e-05
-1.0605324744565424e-05   2.9852519710234175e-06   3.3922107158457595e-05
-1.6808283190698097e-05   2.1809549375271207e-06   2.3101264861472037e-05
-1.6808283190698097e-05   2.1809549375271207e-06   2.3101264861472037e-05
-1.6808283190698097e-05   2.1809549375271207e-06   2.3101264861472037e-05
-1.6808283190698097e-05   2.1809549375271207e-06   2.3101264861472037e-05
-1.71099942795122e-05   2.2464355503850567e-06   3.3774436216413555e-05
-1.71099942795122e-05   2.2464355503850567e-06   3.3774436216413555e-05
-1.71099942795122e-05   2.2464355503850567e-06   3.3774436216413555e-05
-1.71099942795122e-05   2.2464355503850567e-06   3.3774436216413555e-05
-1.0948595885930615e-05   1.4816917460549767e-06   2.3964285176375857e-05
-1.0948595885930615e-05   1.4816917460549767e-06   2.3964285176375857e-05
-1.0948595885930615e-05   1.4816917460549767e-06   2.3964285176375857e-05
-1.0948595885930615e-05   1.4816917460549767e-06   2.3964285176375857e-05
-1.3800261290317318e-05   2.3333451375524145e-06   2.8206068815455146e-05
-1.3800261290317318e-05   2.3333451375524145e-06   2.8206068815455146e-05
-1.3800261290317318e-05   2.3333451375524145e-06   2.8206068815455146e-05
-1.3800261290317318e-05   2.3333451375524145e-06   2.8206068815455146e-05
-1.0948595885930623e-05   2.2464355503850677e-06   3.4233282499011647e-05
-1.0948595885930623e-05   2.2464355503850677e-06   3.4233282499011647e-05
-1.0948595885930623e-05   2.2464355503850677e-06   3.4233282499011647e-05
-1.0948595885930623e-05   2.2464355503850677e-06   3.4233282499011647e-05
-1.71099942795122e-05   1.4816917460549767e-06   2.350543889377771e-05
-1.71099942795122e-05   1.4816917460549767e-06   2.350543889377771e-05
-1.71099942795122e-05   1.4816917460549767e-06   2.350543889377771e-05
-1.71099942795122e-05   1.4816917460549767e-06   2.350543889377771e-05
-1.740546998326174e-05   1.5388757613828304e-06   3.44732619167508e-05
-1.740546998326174e-05   1.5388757613828304e-06   3.44732619167508e-05
-1.740546998326174e-05   1.5388757613828304e-06   3.44732619167508e-05
-1.740546998326174e-05   1.5388757613828304e-06   3.44732619167508e-05
-1.1285190212366043e-05   8.185481614152168e-07   2.4704992191905092e-05
-1.1285190212366043e-05   8.185481614152168e-07   2.4704992191905092e-05
-1.1285190212366043e-05   8.185481614152168e-07   2.4704992191905092e-05
-1.1285190212366043e-05   8.185481614152168e-07   2.4704992191905092e-05
-1.4068217600852252e-05   1.7903736880444786e-06   2.876027585673786e-05
-1.4068217600852252e-05   1.7903736880444786e-06   2.876027585673786e-05
-1.4068217600852252e-05   1.7903736880444786e-06   2.876027585673786e-05
-1.4068217600852252e-05   1.7903736880444786e-06   2.876027585673786e-05
-1.6526808235686004e-05   5.5342030792866175e-06   2.945040547490472e-05
-1.6526808235686004e-05   5.5342030792866175e-06   2.945040547490472e-05
-1.6526808235686004e-05   5.5342030792866175e-06   2.945040547490472e-05
-1.6526808235686004e-05   5.5342030792866175e-06   2.945040547490472e-05
-2.2676568035989676e-05   3.875875883262159e-06   1.8205809490117115e-05
-2.2676568035989676e-05   3.875875883262159e-06   1.8205809490117115e-05
-2.2676568035989676e-05   3.875875883262159e-06   1.8205809490117115e-05
-2.2676568035989676e-05   3.875875883262159e-06   1.8205809490117115e-05
-2.2985765396058488e-05   4.785075293942511e-06   2.8581991315758393e-05
-2.2985765396058488e-05   4.785075293942511e-06   2.8581991315758393e-05
-2.2985765396058488e-05   4.785075293942511e-06   2.8581991315758393e-05
-2.2985765396058488e-05   4.785075293942511e-06   2.8581991315758393e-05
-1.680828319069809e-05   3.1520184735961063e-06   1.9266021732365678e-05
-1.680828319069809e-05   3.1520184735961063e-06   1.9266021732365678e-05
-1.680828319069809e-05   3.1520184735961063e-06   1.9266021732365678e-05
-1.680828319069809e-05   3.1520184735961063e-06   1.9266021732365678e-05
-1.9707534100000246e-05   4.300536509903828e-06   2.340899575941789e-05
-1.9707534100000246e-05   4.300536509903828e-06   2.340899575941789e-05
-1.9707534100000246e-05   4.300536509903828e-06   2.340899575941789e-05
-1.9707534100000246e-05   4.300536509903828e-06   2.340899575941789e-05
-1.6808283190698097e-05   4.785075293942689e-06   2.956182540796615e-05
-1.6808283190698097e-05   4.785075293942689e-06   2.956182540796615e-05
-1.6808283190698097e-05   4.785075293942689e-06   2.956182540796615e-05
-1.6808283190698097e-05   4.785075293942689e-06   2.956182540796615e-05
-2.298576539605838e-05   3.1520184735961063e-06   1.8286187640157624e-05
-2.298576539605838e-05   3.1520184735961063e-06   1.8286187640157624e-05
-2.298576539605838e-05   3.1520184735961063e-06   1.8286187640157624e-05
-2.298576539605838e-05   3.1520184735961063e-06   1.8286187640157624e-05
-2.34135367837287e-05   4.104331656835675e-06   2.9532011059931482e-05
-2.34135367837287e-05   4.104331656835675e-06   2.9532011059931482e-05
-2.34135367837287e-05   4.104331656835675e-06   2.9532011059931482e-05
-2.34135367837287e-05   4.104331656835675e-06   2.9532011059931482e-05
-1.7109994279512193e-05   2.5083121563099393e-06   1.998371858655273e-05
-1.7109994279512193e-05   2.5083121563099393e-06   1.998371858655273e-05
-1.7109994279512193e-05   2.5083121563099393e-06   1.998371858655273e-05
-1.7109994279512193e-05   2.5083121563099393e-06   1.998371858655273e-05
-1.987564474322382e-05   3.7663436187225507e-06   2.383831714862462e-05
-1.987564474322382e-05   3.7663436187225507e-06   2.383831714862462e-05
-1.987564474322382e-05   3.7663436187225507e-06   2.383831714862462e-05
-1.987564474322382e-05   3.7663436187225507e-06   2.383831714862462e-05
-1.71099942795122e-05   4.104331656835717e-06   3.0489622760246663e-05
-1.71099942795122e-05   4.104331656835717e-06   3.0489622760246663e-05
-1.71099942795122e-05   4.104331656835717e-06   3.0489622760246663e-05
-1.71099942795122e-05   4.104331656835717e-06   3.0489622760246663e-05
-2.3413536783728592e-05   2.5083121563099393e-06   1.902610688623736e-05
-2.3413536783728592e-05   2.5083121563099393e-06   1.902610688623736e-05
-2.3413536783728592e-05   2.5083121563099393e-06   1.902610688623736e-05
-2.3413536783728592e-05   2.5083121563099393e-06   1.902610688623736e-05
-2.375657957109299e-05   3.3772057412779014e-06   3.058976274820241e-05
-2.375657957109299e-05   3.3772057412779014e-06   3.058976274820241e-05
-2.375657957109299e-05   3.3772057412779014e-06   3.058976274820241e-05
-2.375657957109299e-05   3.3772057412779014e-06   3.058976274820241e-05
-1.7405469983261727e-05   1.8528449666874343e-06   2.091919656657112e-05
-1.7405469983261727e-05   1.8528449666874343e-06   2.091919656657112e-05
-1.7405469983261727e-05   1.8528449666874343e-06   2.091919656657112e-05
-1.7405469983261727e-05   1.8528449666874343e-06   2.091919656657112e-05
-2.022969236584689e-05   3.2586782460872384e-06   2.4782733903239932e-05
-2.022969236584689e-05   3.2586782460872384e-06   2.4782733903239932e-05
-2.022969236584689e-05   3.2586782460872384e-06   2.4782733903239932e-05
-2.022969236584689e-05   3.2586782460872384e-06   2.4782733903239932e-05
-2.2676568035989676e-05   6.8031775558039625e-06   1.2979656427452961e-05
-2.2676568035989676e-05   6.8031775558039625e-06   1.2979656427452961e-05
-2.2676568035989676e-05   6.8031775558039625e-06   1.2979656427452961e-05
-2.2676568035989676e-05   6.8031775558039625e-06   1.2979656427452961e-05
-2.749178591348212e-05   4.574674699413771e-06   3.6171915844649057e-06
-2.749178591348212e-05   4.574674699413771e-06   3.6171915844649057e-06
-2.749178591348212e-05   4.574674699413771e-06   3.6171915844649057e-06
-2.749178591348212e-05   4.574674699413771e-06   3.6171915844649057e-06
-2.866667734315368e-05   6.418581126665891e-06   1.521272586790974e-05
-2.866667734315368e-05   6.418581126665891e-06   1.521272586790974e-05
-2.866667734315368e-05   6.418581126665891e-06   1.521272586790974e-05
-2.866667734315368e-05   6.418581126665891e-06   1.521272586790974e-05
-2.2985765396058427e-05   4.0929306641109085e-06   7.139929566950514e-06
-2.2985765396058427e-05   4.0929306641109085e-06   7.139929566950514e-06
-2.2985765396058427e-05   4.0929306641109085e-06   7.139929566950514e-06
-2.2985765396058427e-05   4.0929306641109085e-06   7.139929566950514e-06
-2.4572306705843294e-05   5.418115031258913e-06   8.98905446296977e-06
-2.4572306705843294e-05   5.418115031258913e-06   8.98905446296977e-06
-2.4572306705843294e-05   5.418115031258913e-06   8.98905446296977e-06
-2.4572306705843294e-05   5.418115031258913e-06   8.98905446296977e-06
-2.298576539605838e-05   6.418581126665893e-06   1.6608116145442318e-05
-2.298576539605838e-05   6.418581126665893e-06   1.6608116145442318e-05
-2.298576539605838e-05   6.418581126665893e-06   1.6608116145442318e-05
-2.298576539605838e-05   6.418581126665893e-06   1.6608116145442318e-05
-2.866667734315368e-05   4.0929306641109085e-06   5.744539289417466e-06
-2.866667734315368e-05   4.0929306641109085e-06   5.744539289417466e-06
-2.866667734315368e-05   4.0929306641109085e-06   5.744539289417466e-06
-2.866667734315368e-05   4.0929306641109085e-06   5.744539289417466e-06
-2.967573118222626e-05   6.097949590523665e-06   1.7917740205756387e-05
-2.967573118222626e-05   6.097949590523665e-06   1.7917740205756387e-05
-2.967573118222626e-05   6.097949590523665e-06   1.7917740205756387e-05
-2.967573118222626e-05   6.097949590523665e-06   1.7917740205756387e-05
-2.341353678372864e-05   3.7623600063012817e-06   8.8821032921269e-06
-2.341353678372864e-05   3.7623600063012817e-06   8.8821032921269e-06
-2.341353678372864e-05   3.7623600063012817e-06   8.8821032921269e-06
-2.341353678372864e-05   3.7623600063012817e-06   8.8821032921269e-06
-2.556719562515041e-05   5.228639119990355e-06   1.1591767226283838e-05
-2.556719562515041e-05   5.228639119990355e-06   1.1591767226283838e-05
-2.556719562515041e-05   5.228639119990355e-06   1.1591767226283838e-05
-2.556719562515041e-05   5.228639119990355e-06   1.1591767226283838e-05
-2.3413536783728646e-05   6.097949590523666e-06   1.9319093956289644e-05
-2.3413536783728646e-05   6.097949590523666e-06   1.9319093956289644e-05
-2.3413536783728646e-05   6.097949590523666e-06   1.9319093956289644e-05
-2.3413536783728646e-05   6.097949590523666e-06   1.9319093956289644e-05
-2.9675731182226476e-05   3.7623600063012817e-06   7.480749541593595e-06
-2.9675731182226476e-05   3.7623600063012817e-06   7.480749541593595e-06
-2.9675731182226476e-05   3.7623600063012817e-06   7.480749541593595e-06
-2.9675731182226476e-05   3.7623600063012817e-06   7.480749541593595e-06
-3.096138951294146e-05   5.2270162846277356e-06   2.2814134362611873e-05
-3.096138951294146e-05   5.2270162846277356e-06   2.2814134362611873e-05
-3.096138951294146e-05   5.2270162846277356e-06   2.2814134362611873e-05
-3.096138951294146e-05   5.2270162846277356e-06   2.2814134362611873e-05
-2.375657957109296e-05   3.0046433585788953e-06   1.2139541548493644e-05
-2.375657957109296e-05   3.0046433585788953e-06   1.2139541548493644e-05
-2.375657957109296e-05   3.0046433585788953e-06   1.2139541548493644e-05
-2.375657957109296e-05   3.0046433585788953e-06   1.2139541548493644e-05
-2.5852654846775366e-05   4.867215771844381e-06   1.45154568933375e-05
-2.5852654846775366e-05   4.867215771844381e-06   1.45154568933375e-05
-2.5852654846775366e-05   4.867215771844381e-06   1.45154568933375e-05
-2.5852654846775366e-05   4.867215771844381e-06   1.45154568933375e-05
-1.1379272940084055e-05   2.0630601046979724e-06   1.3422973362060245e-05
-1.1379272940084055e-05   2.0630601046979724e-06   1.3422973362060245e-05
-1.1379272940084055e-05   2.0630601046979724e-06   1.3422973362060245e-05
-1.1379272940084055e-05   2.0630601046979724e-06   1.3422973362060245e-05
-1.238981598767083e-05   3.886753514773943e-06   1.2832950995461147e-05
-1.238981598767083e-05   3.886753514773943e-06   1.2832950995461147e-05
-1.238981598767083e-05   3.886753514773943e-06   1.2832950995461147e-05
-1.238981598767083e-05   3.886753514773943e-06   1.2832950995461147e-05
-1.2705721820590002e-05   1.3990736789078282e-06   1.4434136635370354e-05
-1.2705721820590002e-05   1.3990736789078282e-06   1.4434136635370354e-05
-1.2705721820590002e-05   1.3990736789078282e-06   1.4434136635370354e-05
-1.2705721820590002e-05   1.3990736789078282e-06   1.4434136635370354e-05
-1.2714119761152539e-05   3.0385693822344156e-06   1.3464435780978447e-05
-1.2714119761152539e-05   3.0385693822344156e-06   1.3464435780978447e-05
-1.2714119761152539e-05   3.0385693822344156e-06   1.3464435780978447e-05
-1.2714119761152539e-05   3.0385693822344156e-06   1.3464435780978447e-05
-1.1990151937247504e-05   2.4282989443125125e-06   1.2623985003889933e-05
-1.1990151937247504e-05   2.4282989443125125e-06   1.2623985003889933e-05
-1.1990151937247504e-05   2.4282989443125125e-06   1.2623985003889933e-05
-1.1990151937247504e-05   2.4282989443125125e-06   1.2623985003889933e-05
-1.271411976115256e-05   1.3990736789076677e-06   1.3450439213374358e-05
-1.271411976115256e-05   1.3990736789076677e-06   1.3450439213374358e-05
-1.271411976115256e-05   1.3990736789076677e-06   1.3450439213374358e-05
-1.271411976115256e-05   1.3990736789076677e-06   1.3450439213374358e-05
-1.2705721820590002e-05   3.0385693822344156e-06   1.4448133202974497e-05
-1.2705721820590002e-05   3.0385693822344156e-06   1.4448133202974497e-05
-1.2705721820590002e-05   3.0385693822344156e-06   1.4448133202974497e-05
-1.2705721820590002e-05   3.0385693822344156e-06   1.4448133202974497e-05
-1.3115841427633677e-05   1.0329105243273625e-06   1.4899296464937527e-05
-1.3115841427633677e-05   1.0329105243273625e-06   1.4899296464937527e-05
-1.3115841427633677e-05   1.0329105243273625e-06   1.4899296464937527e-05
-1.3115841427633677e-05   1.0329105243273625e-06   1.4899296464937527e-05
-1.4011749943180236e-05   2.4514433244772742e-06   1.5541357644091797e-05
-1.4011749943180236e-05   2.4514433244772742e-06   1.5541357644091797e-05
-1.4011749943180236e-05   2.4514433244772742e-06   1.5541357644091797e-05
-1.4011749943180236e-05   2.4514433244772742e-06   1.5541357644091797e-05
-1.2784967387035219e-05   2.0622253463704106e-06   1.3730250837380874e-05
-1.2784967387035219e-05   2.0622253463704106e-06   1.3730250837380874e-05
-1.2784967387035219e-05   2.0622253463704106e-06   1.3730250837380874e-05
-1.2784967387035219e-05   2.0622253463704106e-06   1.3730250837380874e-05
-1.401174994318024e-05   1.0329105243273373e-06   1.404817678484719e-05
-1.401174994318024e-05   1.0329105243273373e-06   1.404817678484719e-05
-1.401174994318024e-05   1.0329105243273373e-06   1.404817678484719e-05
-1.401174994318024e-05   1.0329105243273373e-06   1.404817678484719e-05
-1.3115841427633677e-05   2.4514433244772742e-06   1.6392477324181755e-05
-1.3115841427633677e-05   2.4514433244772742e-06   1.6392477324181755e-05
-1.3115841427633677e-05   2.4514433244772742e-06   1.6392477324181755e-05
-1.3115841427633677e-05   2.4514433244772742e-06   1.6392477324181755e-05
-1.3375874984400757e-05   2.556520456746189e-07   1.6390352205694755e-05
-1.3375874984400757e-05   2.556520456746189e-07   1.6390352205694755e-05
-1.3375874984400757e-05   2.556520456746189e-07   1.6390352205694755e-05
-1.3375874984400757e-05   2.556520456746189e-07   1.6390352205694755e-05
-1.5392969459046438e-05   1.0069227436113482e-06   1.9301413911341884e-05
-1.5392969459046438e-05   1.0069227436113482e-06   1.9301413911341884e-05
-1.5392969459046438e-05   1.0069227436113482e-06   1.9301413911341884e-05
-1.5392969459046438e-05   1.0069227436113482e-06   1.9301413911341884e-05
-1.3339527455938967e-05   1.61196911389579e-06   1.551598275065811e-05
-1.3339527455938967e-05   1.61196911389579e-06   1.551598275065811e-05
-1.3339527455938967e-05   1.61196911389579e-06   1.551598275065811e-05
-1.3339527455938967e-05   1.61196911389579e-06   1.551598275065811e-05
-1.238981598767083e-05   2.3957447067235414e-06   2.6767764583083826e-05
-1.238981598767083e-05   2.3957447067235414e-06   2.6767764583083826e-05
-1.238981598767083e-05   2.3957447067235414e-06   2.6767764583083826e-05
-1.238981598767083e-05   2.3957447067235414e-06   2.6767764583083826e-05
-1.2525473503266916e-05   1.0055431340735181e-06   2.570754778016696e-05
-1.2525473503266916e-05   1.0055431340735181e-06   2.570754778016696e-05
-1.2525473503266916e-05   1.0055431340735181e-06   2.570754778016696e-05
-1.2525473503266916e-05   1.0055431340735181e-06   2.570754778016696e-05
-1.262165367438254e-05   1.6538843769519935e-06   2.5755441105060166e-05
-1.262165367438254e-05   1.6538843769519935e-06   2.5755441105060166e-05
-1.262165367438254e-05   1.6538843769519935e-06   2.5755441105060166e-05
-1.262165367438254e-05   1.6538843769519935e-06   2.5755441105060166e-05
-1.2705721820590003e-05   4.834106373724284e-07   2.6597838925820376e-05
-1.2705721820590003e-05   4.834106373724284e-07   2.6597838925820376e-05
-1.2705721820590003e-05   4.834106373724284e-07   2.6597838925820376e-05
-1.2705721820590003e-05   4.834106373724284e-07   2.6597838925820376e-05
-1.2521485326399282e-05   1.2249630195197876e-06   2.5845846672880847e-05
-1.2521485326399282e-05   1.2249630195197876e-06   2.5845846672880847e-05
-1.2521485326399282e-05   1.2249630195197876e-06   2.5845846672880847e-05
-1.2521485326399282e-05   1.2249630195197876e-06   2.5845846672880847e-05
-1.2705721820590015e-05   1.6538843769521241e-06   2.645772534880784e-05
-1.2705721820590015e-05   1.6538843769521241e-06   2.645772534880784e-05
-1.2705721820590015e-05   1.6538843769521241e-06   2.645772534880784e-05
-1.2705721820590015e-05   1.6538843769521241e-06   2.645772534880784e-05
-1.262165367438254e-05   4.834106373724284e-07   2.589555468207258e-05
-1.262165367438254e-05   4.834106373724284e-07   2.589555468207258e-05
-1.262165367438254e-05   4.834106373724284e-07   2.589555468207258e-05
-1.262165367438254e-05   4.834106373724284e-07   2.589555468207258e-05
-1.2741111871597576e-05   9.684655113112017e-07   2.6113681638282953e-05
-1.2741111871597576e-05   9.684655113112017e-07   2.6113681638282953e-05
-1.2741111871597576e-05   9.684655113112017e-07   2.6113681638282953e-05
-1.2741111871597576e-05   9.684655113112017e-07   2.6113681638282953e-05
-1.3115841427633675e-05   -1.2320131224810658e-07   2.7393230992478685e-05
-1.3115841427633675e-05   -1.2320131224810658e-07   2.7393230992478685e-05
-1.3115841427633675e-05   -1.2320131224810658e-07   2.7393230992478685e-05
-1.3115841427633675e-05   -1.2320131224810658e-07   2.7393230992478685e-05
-1.2639664672522791e-05   7.918269254417361e-07   2.605058612468043e-05
-1.2639664672522791e-05   7.918269254417361e-07   2.605058612468043e-05
-1.2639664672522791e-05   7.918269254417361e-07   2.605058612468043e-05
-1.2639664672522791e-05   7.918269254417361e-07   2.605058612468043e-05
-1.3115841427633677e-05   9.684655113112211e-07   2.676868173241817e-05
-1.3115841427633677e-05   9.684655113112211e-07   2.676868173241817e-05
-1.3115841427633677e-05   9.684655113112211e-07   2.676868173241817e-05
-1.3115841427633677e-05   9.684655113112211e-07   2.676868173241817e-05
-1.2741111871597522e-05   -1.2320131224810658e-07   2.673823089834309e-05
-1.2741111871597522e-05   -1.2320131224810658e-07   2.673823089834309e-05
-1.2741111871597522e-05   -1.2320131224810658e-07   2.673823089834309e-05
-1.2741111871597522e-05   -1.2320131224810658e-07   2.673823089834309e-05
-1.2827179260057025e-05   2.25243393280972e-07   2.686993337217469e-05
-1.2827179260057025e-05   2.25243393280972e-07   2.686993337217469e-05
-1.2827179260057025e-05   2.25243393280972e-07   2.686993337217469e-05
-1.2827179260057025e-05   2.25243393280972e-07   2.686993337217469e-05
-1.3375874984400723e-05   -9.210554216736253e-07   2.8472205535053442e-05
-1.3375874984400723e-05   -9.210554216736253e-07   2.8472205535053442e-05
-1.3375874984400723e-05   -9.210554216736253e-07   2.8472205535053442e-05
-1.3375874984400723e-05   -9.210554216736253e-07   2.8472205535053442e-05
-1.2827832779602322e-05   2.8212647363873994e-07   2.6836892723200998e-05
-1.2827832779602322e-05   2.8212647363873994e-07   2.6836892723200998e-05
-1.2827832779602322e-05   2.8212647363873994e-07   2.6836892723200998e-05
-1.2827832779602322e-05   2.8212647363873994e-07   2.6836892723200998e-05
-1.2525473503266943e-05   2.8689209500302896e-06   2.953021705092763e-05
-1.2525473503266943e-05   2.8689209500302896e-06   2.953021705092763e-05
-1.2525473503266943e-05   2.8689209500302896e-06   2.953021705092763e-05
-1.2525473503266943e-05   2.8689209500302896e-06   2.953021705092763e-05
-1.3462025942189153e-05   2.7904816337482024e-07   2.641537264739738e-05
-1.3462025942189153e-05   2.7904816337482024e-07   2.641537264739738e-05
-1.3462025942189153e-05   2.7904816337482024e-07   2.641537264739738e-05
-1.3462025942189153e-05   2.7904816337482024e-07   2.641537264739738e-05
-1.3492813915610784e-05   2.1809549375271207e-06   2.8019253975504477e-05
-1.3492813915610784e-05   2.1809549375271207e-06   2.8019253975504477e-05
-1.3492813915610784e-05   2.1809549375271207e-06   2.8019253975504477e-05
-1.3492813915610784e-05   2.1809549375271207e-06   2.8019253975504477e-05
-1.2621653674382548e-05   -1.627198214340696e-07   2.7973525095500594e-05
-1.2621653674382548e-05   -1.627198214340696e-07   2.7973525095500594e-05
-1.2621653674382548e-05   -1.627198214340696e-07   2.7973525095500594e-05
-1.2621653674382548e-05   -1.627198214340696e-07   2.7973525095500594e-05
-1.3002860910495313e-05   1.2483498283049135e-06   2.7762228699178488e-05
-1.3002860910495313e-05   1.2483498283049135e-06   2.7762228699178488e-05
-1.3002860910495313e-05   1.2483498283049135e-06   2.7762228699178488e-05
-1.3002860910495313e-05   1.2483498283049135e-06   2.7762228699178488e-05
-1.262165367438254e-05   2.1809549375272148e-06   2.9425458830881083e-05
-1.262165367438254e-05   2.1809549375272148e-06   2.9425458830881083e-05
-1.262165367438254e-05   2.1809549375272148e-06   2.9425458830881083e-05
-1.262165367438254e-05   2.1809549375272148e-06   2.9425458830881083e-05
-1.3492813915610784e-05   -1.627198214340696e-07   2.656732024012396e-05
-1.3492813915610784e-05   -1.627198214340696e-07   2.656732024012396e-05
-1.3492813915610784e-05   -1.627198214340696e-07   2.656732024012396e-05
-1.3492813915610784e-05   -1.627198214340696e-07   2.656732024012396e-05
-1.3550542390365562e-05   1.4816917460549767e-06   2.8461038036741966e-05
-1.3550542390365562e-05   1.4816917460549767e-06   2.8461038036741966e-05
-1.3550542390365562e-05   1.4816917460549767e-06   2.8461038036741966e-05
-1.3550542390365562e-05   1.4816917460549767e-06   2.8461038036741966e-05
-1.274111187159753e-05   -6.917775463601266e-07   2.841606874757753e-05
-1.274111187159753e-05   -6.917775463601266e-07   2.841606874757753e-05
-1.274111187159753e-05   -6.917775463601266e-07   2.841606874757753e-05
-1.274111187159753e-05   -6.917775463601266e-07   2.841606874757753e-05
-1.3007919784377046e-05   8.104775466833639e-07   2.795939554638404e-05
-1.3007919784377046e-05   8.104775466833639e-07   2.795939554638404e-05
-1.3007919784377046e-05   8.104775466833639e-07   2.795939554638404e-05
-1.3007919784377046e-05   8.104775466833639e-07   2.795939554638404e-05
-1.2741111871597522e-05   1.4816917460548389e-06   2.976511961219055e-05
-1.2741111871597522e-05   1.4816917460548389e-06   2.976511961219055e-05
-1.2741111871597522e-05   1.4816917460548389e-06   2.976511961219055e-05
-1.2741111871597522e-05   1.4816917460548389e-06   2.976511961219055e-05
-1.3550542390365562e-05   -6.917775463601266e-07   2.7111987172128593e-05
-1.3550542390365562e-05   -6.917775463601266e-07   2.7111987172128593e-05
-1.3550542390365562e-05   -6.917775463601266e-07   2.7111987172128593e-05
-1.3550542390365562e-05   -6.917775463601266e-07   2.7111987172128593e-05
-1.3586601804020735e-05   8.185481614152168e-07   2.9248475026742065e-05
-1.3586601804020735e-05   8.185481614152168e-07   2.9248475026742065e-05
-1.3586601804020735e-05   8.185481614152168e-07   2.9248475026742065e-05
-1.3586601804020735e-05   8.185481614152168e-07   2.9248475026742065e-05
-1.2827179260057007e-05   -1.2234850421739179e-06   2.9207990708955797e-05
-1.2827179260057007e-05   -1.2234850421739179e-06   2.9207990708955797e-05
-1.2827179260057007e-05   -1.2234850421739179e-06   2.9207990708955797e-05
-1.2827179260057007e-05   -1.2234850421739179e-06   2.9207990708955797e-05
-1.3034482192722252e-05   3.6020878506261983e-07   2.860327930038787e-05
-1.3034482192722252e-05   3.6020878506261983e-07   2.860327930038787e-05
-1.3034482192722252e-05   3.6020878506261983e-07   2.860327930038787e-05
-1.3034482192722252e-05   3.6020878506261983e-07   2.860327930038787e-05
-1.3462025942189153e-05   3.87587588326218e-06   2.4045687868494252e-05
-1.3462025942189153e-05   3.87587588326218e-06   2.4045687868494252e-05
-1.3462025942189153e-05   3.87587588326218e-06   2.4045687868494252e-05
-1.3462025942189153e-05   3.87587588326218e-06   2.4045687868494252e-05
-1.4826986629258175e-05   1.271521534753706e-06   2.020814078094092e-05
-1.4826986629258175e-05   1.271521534753706e-06   2.020814078094092e-05
-1.4826986629258175e-05   1.271521534753706e-06   2.020814078094092e-05
-1.4826986629258175e-05   1.271521534753706e-06   2.020814078094092e-05
-1.4849055524221227e-05   3.1520184735961063e-06   2.270664911965467e-05
-1.4849055524221227e-05   3.1520184735961063e-06   2.270664911965467e-05
-1.4849055524221227e-05   3.1520184735961063e-06   2.270664911965467e-05
-1.4849055524221227e-05   3.1520184735961063e-06   2.270664911965467e-05
-1.3492813915610782e-05   6.897489290237299e-07   2.192360816538055e-05
-1.3492813915610782e-05   6.897489290237299e-07   2.192360816538055e-05
-1.3492813915610782e-05   6.897489290237299e-07   2.192360816538055e-05
-1.3492813915610782e-05   6.897489290237299e-07   2.192360816538055e-05
-1.4120649219861544e-05   2.301160683996833e-06   2.200315328614792e-05
-1.4120649219861544e-05   2.301160683996833e-06   2.200315328614792e-05
-1.4120649219861544e-05   2.301160683996833e-06   2.200315328614792e-05
-1.4120649219861544e-05   2.301160683996833e-06   2.200315328614792e-05
-1.3492813915610784e-05   3.152018473596141e-06   2.41840108463979e-05
-1.3492813915610784e-05   3.152018473596141e-06   2.41840108463979e-05
-1.3492813915610784e-05   3.152018473596141e-06   2.41840108463979e-05
-1.3492813915610784e-05   3.152018473596141e-06   2.41840108463979e-05
-1.4849055524221227e-05   6.897489290236215e-07   2.0446246438637187e-05
-1.4849055524221227e-05   6.897489290236215e-07   2.0446246438637187e-05
-1.4849055524221227e-05   6.897489290236215e-07   2.0446246438637187e-05
-1.4849055524221227e-05   6.897489290236215e-07   2.0446246438637187e-05
-1.5008218639604633e-05   2.508312156310156e-06   2.3549370300364903e-05
-1.5008218639604633e-05   2.508312156310156e-06   2.3549370300364903e-05
-1.5008218639604633e-05   2.508312156310156e-06   2.3549370300364903e-05
-1.5008218639604633e-05   2.508312156310156e-06   2.3549370300364903e-05
-1.3550542390365547e-05   1.917331077228284e-07   2.2509857314118552e-05
-1.3550542390365547e-05   1.917331077228284e-07   2.2509857314118552e-05
-1.3550542390365547e-05   1.917331077228284e-07   2.2509857314118552e-05
-1.3550542390365547e-05   1.917331077228284e-07   2.2509857314118552e-05
-1.407828118304622e-05   1.8228673750323235e-06   2.2410741408200618e-05
-1.407828118304622e-05   1.8228673750323235e-06   2.2410741408200618e-05
-1.407828118304622e-05   1.8228673750323235e-06   2.2410741408200618e-05
-1.407828118304622e-05   1.8228673750323235e-06   2.2410741408200618e-05
-1.3550542390365562e-05   2.5083121563100503e-06   2.4939317729516714e-05
-1.3550542390365562e-05   2.5083121563100503e-06   2.4939317729516714e-05
-1.3550542390365562e-05   2.5083121563100503e-06   2.4939317729516714e-05
-1.3550542390365562e-05   2.5083121563100503e-06   2.4939317729516714e-05
-1.5008218639604633e-05   1.917331077228284e-07   2.1119909884966256e-05
-1.5008218639604633e-05   1.917331077228284e-07   2.1119909884966256e-05
-1.5008218639604633e-05   1.917331077228284e-07   2.1119909884966256e-05
-1.5008218639604633e-05   1.917331077228284e-07   2.1119909884966256e-05
-1.5102481127655097e-05   1.8528449666874343e-06   2.4597046729880716e-05
-1.5102481127655097e-05   1.8528449666874343e-06   2.4597046729880716e-05
-1.5102481127655097e-05   1.8528449666874343e-06   2.4597046729880716e-05
-1.5102481127655097e-05   1.8528449666874343e-06   2.4597046729880716e-05
-1.3586601804020676e-05   -3.10203752492094e-07   2.3368410421997885e-05
-1.3586601804020676e-05   -3.10203752492094e-07   2.3368410421997885e-05
-1.3586601804020676e-05   -3.10203752492094e-07   2.3368410421997885e-05
-1.3586601804020676e-05   -3.10203752492094e-07   2.3368410421997885e-05
-1.4146700741362029e-05   1.3958776794440516e-06   2.3278259791736575e-05
-1.4146700741362029e-05   1.3958776794440516e-06   2.3278259791736575e-05
-1.4146700741362029e-05   1.3958776794440516e-06   2.3278259791736575e-05
-1.4146700741362029e-05   1.3958776794440516e-06   2.3278259791736575e-05
-1.4826986629258175e-05   4.574674699413733e-06   9.231559067571162e-06
-1.4826986629258175e-05   4.574674699413733e-06   9.231559067571162e-06
-1.4826986629258175e-05   4.574674699413733e-06   9.231559067571162e-06
-1.4826986629258175e-05   4.574674699413733e-06   9.231559067571162e-06
-1.4611606526147435e-05   2.0919511344443887e-06   8.100891767107323e-06
-1.4611606526147435e-05   2.0919511344443887e-06   8.100891767107323e-06
-1.4611606526147435e-05   2.0919511344443887e-06   8.100891767107323e-06
-1.4611606526147435e-05   2.0919511344443887e-06   8.100891767107323e-06
-1.5362808371690868e-05   4.092930664110692e-06   1.0113056402329818e-05
-1.5362808371690868e-05   4.092930664110692e-06   1.0113056402329818e-05
-1.5362808371690868e-05   4.092930664110692e-06   1.0113056402329818e-05
-1.5362808371690868e-05   4.092930664110692e-06   1.0113056402329818e-05
-1.4849055524221225e-05   1.6807062572483196e-06   1.07041363006646e-05
-1.4849055524221225e-05   1.6807062572483196e-06   1.07041363006646e-05
-1.4849055524221225e-05   1.6807062572483196e-06   1.07041363006646e-05
-1.4849055524221225e-05   1.6807062572483196e-06   1.07041363006646e-05
-1.4428428551547571e-05   3.217081158153135e-06   9.081266405665733e-06
-1.4428428551547571e-05   3.217081158153135e-06   9.081266405665733e-06
-1.4428428551547571e-05   3.217081158153135e-06   9.081266405665733e-06
-1.4428428551547571e-05   3.217081158153135e-06   9.081266405665733e-06
-1.4849055524221227e-05   4.092930664110739e-06   1.1560391046447154e-05
-1.4849055524221227e-05   4.092930664110739e-06   1.1560391046447154e-05
-1.4849055524221227e-05   4.092930664110739e-06   1.1560391046447154e-05
-1.4849055524221227e-05   4.092930664110739e-06   1.1560391046447154e-05
-1.5362808371690868e-05   1.6807062572483196e-06   9.256801656547155e-06
-1.5362808371690868e-05   1.6807062572483196e-06   9.256801656547155e-06
-1.5362808371690868e-05   1.6807062572483196e-06   9.256801656547155e-06
-1.5362808371690868e-05   1.6807062572483196e-06   9.256801656547155e-06
-1.6022672343226317e-05   3.7623600063014986e-06   1.1994960935900927e-05
-1.6022672343226317e-05   3.7623600063014986e-06   1.1994960935900927e-05
-1.6022672343226317e-05   3.7623600063014986e-06   1.1994960935900927e-05
-1.6022672343226317e-05   3.7623600063014986e-06   1.1994960935900927e-05
-1.5008218639604638e-05   1.4116837223789426e-06   1.1714610533551575e-05
-1.5008218639604638e-05   1.4116837223789426e-06   1.1714610533551575e-05
-1.5008218639604638e-05   1.4116837223789426e-06   1.1714610533551575e-05
-1.5008218639604638e-05   1.4116837223789426e-06   1.1714610533551575e-05
-1.496295249543297e-05   2.9761440256102518e-06   1.0700490777993863e-05
-1.496295249543297e-05   2.9761440256102518e-06   1.0700490777993863e-05
-1.496295249543297e-05   2.9761440256102518e-06   1.0700490777993863e-05
-1.496295249543297e-05   2.9761440256102518e-06   1.0700490777993863e-05
-1.5008218639604633e-05   3.7623600063012673e-06   1.3405366706253875e-05
-1.5008218639604633e-05   3.7623600063012673e-06   1.3405366706253875e-05
-1.5008218639604633e-05   3.7623600063012673e-06   1.3405366706253875e-05
-1.5008218639604633e-05   3.7623600063012673e-06   1.3405366706253875e-05
-1.6022672343226317e-05   1.4116837223789426e-06   1.0304204763198193e-05
-1.6022672343226317e-05   1.4116837223789426e-06   1.0304204763198193e-05
-1.6022672343226317e-05   1.4116837223789426e-06   1.0304204763198193e-05
-1.6022672343226317e-05   1.4116837223789426e-06   1.0304204763198193e-05
-1.7005739730650707e-05   3.0046433585788953e-06   1.5452415026437913e-05
-1.7005739730650707e-05   3.0046433585788953e-06   1.5452415026437913e-05
-1.7005739730650707e-05   3.0046433585788953e-06   1.5452415026437913e-05
-1.7005739730650707e-05   3.0046433585788953e-06   1.5452415026437913e-05
-1.5102481127655048e-05   8.719881083791344e-07   1.3559910504897725e-05
-1.5102481127655048e-05   8.719881083791344e-07   1.3559910504897725e-05
-1.5102481127655048e-05   8.719881083791344e-07   1.3559910504897725e-05
-1.5102481127655048e-05   8.719881083791344e-07   1.3559910504897725e-05
-1.5143478655243476e-05   2.6907626995791283e-06   1.2536974962822664e-05
-1.5143478655243476e-05   2.6907626995791283e-06   1.2536974962822664e-05
-1.5143478655243476e-05   2.6907626995791283e-06   1.2536974962822664e-05
-1.5143478655243476e-05   2.6907626995791283e-06   1.2536974962822664e-05
-2.9357719824200907e-05   3.8867535147739005e-06   1.1207327449929696e-05
-2.9357719824200907e-05   3.8867535147739005e-06   1.1207327449929696e-05
-2.9357719824200907e-05   3.8867535147739005e-06   1.1207327449929696e-05
-2.9357719824200907e-05   3.8867535147739005e-06   1.1207327449929696e-05
-1.979089174883163e-05   5.385480123545905e-06   2.8051276874141798e-05
-1.979089174883163e-05   5.385480123545905e-06   2.8051276874141798e-05
-1.979089174883163e-05   5.385480123545905e-06   2.8051276874141798e-05
-1.979089174883163e-05   5.385480123545905e-06   2.8051276874141798e-05
-1.9779381276793464e-05   3.0385693822344156e-06   1.275866895984149e-05
-1.9779381276793464e-05   3.0385693822344156e-06   1.275866895984149e-05
-1.9779381276793464e-05   3.0385693822344156e-06   1.275866895984149e-05
-1.9779381276793464e-05   3.0385693822344156e-06   1.275866895984149e-05
-3.232120569456593e-05   2.196745340929862e-06   3.41668040809117e-05
-3.232120569456593e-05   2.196745340929862e-06   3.41668040809117e-05
-3.232120569456593e-05   2.196745340929862e-06   3.41668040809117e-05
-3.232120569456593e-05   2.196745340929862e-06   3.41668040809117e-05
-2.4006734613333038e-05   3.1948462146412027e-06   1.9710491754630054e-05
-2.4006734613333038e-05   3.1948462146412027e-06   1.9710491754630054e-05
-2.4006734613333038e-05   3.1948462146412027e-06   1.9710491754630054e-05
-2.4006734613333038e-05   3.1948462146412027e-06   1.9710491754630054e-05
-3.2321205694565985e-05   3.038569382234408e-06   1.3263763384624026e-05
-3.2321205694565985e-05   3.038569382234408e-06   1.3263763384624026e-05
-3.2321205694565985e-05   3.038569382234408e-06   1.3263763384624026e-05
-3.2321205694565985e-05   3.038569382234408e-06   1.3263763384624026e-05
-1.977938127679343e-05   2.196745340929862e-06   3.366170965612899e-05
-1.977938127679343e-05   2.196745340929862e-06   3.366170965612899e-05
-1.977938127679343e-05   2.196745340929862e-06   3.366170965612899e-05
-1.977938127679343e-05   2.196745340929862e-06   3.366170965612899e-05
-2.004399014171202e-05   2.451443324477166e-06   1.4284115839960007e-05
-2.004399014171202e-05   2.451443324477166e-06   1.4284115839960007e-05
-2.004399014171202e-05   2.451443324477166e-06   1.4284115839960007e-05
-2.004399014171202e-05   2.451443324477166e-06   1.4284115839960007e-05
-3.243023722229751e-05   1.5816826992353706e-06   3.544971734941436e-05
-3.243023722229751e-05   1.5816826992353706e-06   3.544971734941436e-05
-3.243023722229751e-05   1.5816826992353706e-06   3.544971734941436e-05
-3.243023722229751e-05   1.5816826992353706e-06   3.544971734941436e-05
-2.560882942328908e-05   2.0014986915524186e-06   2.3828814755676564e-05
-2.560882942328908e-05   2.0014986915524186e-06   2.3828814755676564e-05
-2.560882942328908e-05   2.0014986915524186e-06   2.3828814755676564e-05
-2.560882942328908e-05   2.0014986915524186e-06   2.3828814755676564e-05
-3.243023722229756e-05   2.451443324477221e-06   1.4805972215105356e-05
-3.243023722229756e-05   2.451443324477221e-06   1.4805972215105356e-05
-3.243023722229756e-05   2.451443324477221e-06   1.4805972215105356e-05
-3.243023722229756e-05   2.451443324477221e-06   1.4805972215105356e-05
-2.004399014171198e-05   1.5816826992353706e-06   3.492786097426923e-05
-2.004399014171198e-05   1.5816826992353706e-06   3.492786097426923e-05
-2.004399014171198e-05   1.5816826992353706e-06   3.492786097426923e-05
-2.004399014171198e-05   1.5816826992353706e-06   3.492786097426923e-05
-1.9824894973650113e-05   1.0069227436113482e-06   1.6953278776528282e-05
-1.9824894973650113e-05   1.0069227436113482e-06   1.6953278776528282e-05
-1.9824894973650113e-05   1.0069227436113482e-06   1.6953278776528282e-05
-1.9824894973650113e-05   1.0069227436113482e-06   1.6953278776528282e-05
-3.277307446978089e-05   -1.0307901566141927e-06   3.975620567688136e-05
-3.277307446978089e-05   -1.0307901566141927e-06   3.975620567688136e-05
-3.277307446978089e-05   -1.0307901566141927e-06   3.975620567688136e-05
-3.277307446978089e-05   -1.0307901566141927e-06   3.975620567688136e-05
-2.521268811057275e-05   9.772774257825294e-07   2.595072119542981e-05
-2.521268811057275e-05   9.772774257825294e-07   2.595072119542981e-05
-2.521268811057275e-05   9.772774257825294e-07   2.595072119542981e-05
-2.521268811057275e-05   9.772774257825294e-07   2.595072119542981e-05
-1.9790891748831663e-05   1.005543134073629e-06   2.581528114348864e-05
-1.9790891748831663e-05   1.005543134073629e-06   2.581528114348864e-05
-1.9790891748831663e-05   1.005543134073629e-06   2.581528114348864e-05
-1.9790891748831663e-05   1.005543134073629e-06   2.581528114348864e-05
-1.2129584419858148e-05   -6.032974915852203e-06   3.436101586182241e-05
-1.2129584419858148e-05   -6.032974915852203e-06   3.436101586182241e-05
-1.2129584419858148e-05   -6.032974915852203e-06   3.436101586182241e-05
-1.2129584419858148e-05   -6.032974915852203e-06   3.436101586182241e-05
-1.2150897649122348e-05   4.834106373725368e-07   2.1656556465220688e-05
-1.2150897649122348e-05   4.834106373725368e-07   2.1656556465220688e-05
-1.2150897649122348e-05   4.834106373725368e-07   2.1656556465220688e-05
-1.2150897649122348e-05   4.834106373725368e-07   2.1656556465220688e-05
-1.977938127679343e-05   -4.936286391738702e-06   3.7622514062139156e-05
-1.977938127679343e-05   -4.936286391738702e-06   3.7622514062139156e-05
-1.977938127679343e-05   -4.936286391738702e-06   3.7622514062139156e-05
-1.977938127679343e-05   -4.936286391738702e-06   3.7622514062139156e-05
-1.5876782363447785e-05   -2.9825501670816034e-06   2.994594080510209e-05
-1.5876782363447785e-05   -2.9825501670816034e-06   2.994594080510209e-05
-1.5876782363447785e-05   -2.9825501670816034e-06   2.994594080510209e-05
-1.5876782363447785e-05   -2.9825501670816034e-06   2.994594080510209e-05
-1.977938127679345e-05   4.834106373724433e-07   2.490837468268692e-05
-1.977938127679345e-05   4.834106373724433e-07   2.490837468268692e-05
-1.977938127679345e-05   4.834106373724433e-07   2.490837468268692e-05
-1.977938127679345e-05   4.834106373724433e-07   2.490837468268692e-05
-1.2150897649122294e-05   -4.936286391738702e-06   3.43706958446725e-05
-1.2150897649122294e-05   -4.936286391738702e-06   3.43706958446725e-05
-1.2150897649122294e-05   -4.936286391738702e-06   3.43706958446725e-05
-1.2150897649122294e-05   -4.936286391738702e-06   3.43706958446725e-05
-1.219400702898453e-05   -1.2320131224799816e-07   2.2329115269800618e-05
-1.219400702898453e-05   -1.2320131224799816e-07   2.2329115269800618e-05
-1.219400702898453e-05   -1.2320131224799816e-07   2.2329115269800618e-05
-1.219400702898453e-05   -1.2320131224799816e-07   2.2329115269800618e-05
-2.0043990141711986e-05   -5.0494583763420085e-06   3.836817469613609e-05
-2.0043990141711986e-05   -5.0494583763420085e-06   3.836817469613609e-05
-2.0043990141711986e-05   -5.0494583763420085e-06   3.836817469613609e-05
-2.0043990141711986e-05   -5.0494583763420085e-06   3.836817469613609e-05
-1.575761127440366e-05   -2.6056195106358582e-06   2.9757906597865268e-05
-1.575761127440366e-05   -2.6056195106358582e-06   2.9757906597865268e-05
-1.575761127440366e-05   -2.6056195106358582e-06   2.9757906597865268e-05
-1.575761127440366e-05   -2.6056195106358582e-06   2.9757906597865268e-05
-2.004399014171202e-05   -1.232013122480804e-07   2.5284869508257208e-05
-2.004399014171202e-05   -1.232013122480804e-07   2.5284869508257208e-05
-2.004399014171202e-05   -1.232013122480804e-07   2.5284869508257208e-05
-2.004399014171202e-05   -1.232013122480804e-07   2.5284869508257208e-05
-1.2194007028984503e-05   -5.0494583763420085e-06   3.541242045767973e-05
-1.2194007028984503e-05   -5.0494583763420085e-06   3.541242045767973e-05
-1.2194007028984503e-05   -5.0494583763420085e-06   3.541242045767973e-05
-1.2194007028984503e-05   -5.0494583763420085e-06   3.541242045767973e-05
-1.2069437073301917e-05   -9.210554216736253e-07   2.3166700752088763e-05
-1.2069437073301917e-05   -9.210554216736253e-07   2.3166700752088763e-05
-1.2069437073301917e-05   -9.210554216736253e-07   2.3166700752088763e-05
-1.2069437073301917e-05   -9.210554216736253e-07   2.3166700752088763e-05
-1.9824894973650062e-05   -5.098734137321773e-06   3.8599071148724486e-05
-1.9824894973650062e-05   -5.098734137321773e-06   3.8599071148724486e-05
-1.9824894973650062e-05   -5.098734137321773e-06   3.8599071148724486e-05
-1.9824894973650062e-05   -5.098734137321773e-06   3.8599071148724486e-05
-1.5826052959110137e-05   -2.9279930204256614e-06   3.0631889787686956e-05
-1.5826052959110137e-05   -2.9279930204256614e-06   3.0631889787686956e-05
-1.5826052959110137e-05   -2.9279930204256614e-06   3.0631889787686956e-05
-1.5826052959110137e-05   -2.9279930204256614e-06   3.0631889787686956e-05
-1.2129584419858148e-05   2.7904816337481553e-07   2.385391885275685e-05
-1.2129584419858148e-05   2.7904816337481553e-07   2.385391885275685e-05
-1.2129584419858148e-05   2.7904816337481553e-07   2.385391885275685e-05
-1.2129584419858148e-05   2.7904816337481553e-07   2.385391885275685e-05
-8.91035111340641e-06   -4.712529634200624e-06   2.6224361018297903e-05
-8.91035111340641e-06   -4.712529634200624e-06   2.6224361018297903e-05
-8.91035111340641e-06   -4.712529634200624e-06   2.6224361018297903e-05
-8.91035111340641e-06   -4.712529634200624e-06   2.6224361018297903e-05
-8.82730449836477e-06   -1.627198214340696e-07   2.105521651394899e-05
-8.82730449836477e-06   -1.627198214340696e-07   2.105521651394899e-05
-8.82730449836477e-06   -1.627198214340696e-07   2.105521651394899e-05
-8.82730449836477e-06   -1.627198214340696e-07   2.105521651394899e-05
-1.2150897649122306e-05   -4.628237095933446e-06   2.9273848796577907e-05
-1.2150897649122306e-05   -4.628237095933446e-06   2.9273848796577907e-05
-1.2150897649122306e-05   -4.628237095933446e-06   2.9273848796577907e-05
-1.2150897649122306e-05   -4.628237095933446e-06   2.9273848796577907e-05
-1.0439465561320916e-05   -2.382362494120975e-06   2.5073937222488117e-05
-1.0439465561320916e-05   -2.382362494120975e-06   2.5073937222488117e-05
-1.0439465561320916e-05   -2.382362494120975e-06   2.5073937222488117e-05
-1.0439465561320916e-05   -2.382362494120975e-06   2.5073937222488117e-05
-1.2150897649122294e-05   -1.6271982143405351e-07   2.3734526878648485e-05
-1.2150897649122294e-05   -1.6271982143405351e-07   2.3734526878648485e-05
-1.2150897649122294e-05   -1.6271982143405351e-07   2.3734526878648485e-05
-1.2150897649122294e-05   -1.6271982143405351e-07   2.3734526878648485e-05
-8.82730449836477e-06   -4.628237095933446e-06   2.6594538431878188e-05
-8.82730449836477e-06   -4.628237095933446e-06   2.6594538431878188e-05
-8.82730449836477e-06   -4.628237095933446e-06   2.6594538431878188e-05
-8.82730449836477e-06   -4.628237095933446e-06   2.6594538431878188e-05
-8.754911351349182e-06   -6.917775463601266e-07   2.1559862289542817e-05
-8.754911351349182e-06   -6.917775463601266e-07   2.1559862289542817e-05
-8.754911351349182e-06   -6.917775463601266e-07   2.1559862289542817e-05
-8.754911351349182e-06   -6.917775463601266e-07   2.1559862289542817e-05
-1.2194007028984507e-05   -4.770262262180584e-06   2.9738779248427198e-05
-1.2194007028984507e-05   -4.770262262180584e-06   2.9738779248427198e-05
-1.2194007028984507e-05   -4.770262262180584e-06   2.9738779248427198e-05
-1.2194007028984507e-05   -4.770262262180584e-06   2.9738779248427198e-05
-1.034386139100864e-05   -2.542366700449862e-06   2.531846584809521e-05
-1.034386139100864e-05   -2.542366700449862e-06   2.531846584809521e-05
-1.034386139100864e-05   -2.542366700449862e-06   2.531846584809521e-05
-1.034386139100864e-05   -2.542366700449862e-06   2.531846584809521e-05
-1.2194007028984503e-05   -6.917775463601373e-07   2.4006953119035167e-05
-1.2194007028984503e-05   -6.917775463601373e-07   2.4006953119035167e-05
-1.2194007028984503e-05   -6.917775463601373e-07   2.4006953119035167e-05
-1.2194007028984503e-05   -6.917775463601373e-07   2.4006953119035167e-05
-8.754911351349182e-06   -4.770262262180584e-06   2.729168841893486e-05
-8.754911351349182e-06   -4.770262262180584e-06   2.729168841893486e-05
-8.754911351349182e-06   -4.770262262180584e-06   2.729168841893486e-05
-8.754911351349182e-06   -4.770262262180584e-06   2.729168841893486e-05
-8.5784267418423e-06   -1.2234850421739179e-06   2.2340787577786983e-05
-8.5784267418423e-06   -1.2234850421739179e-06   2.2340787577786983e-05
-8.5784267418423e-06   -1.2234850421739179e-06   2.2340787577786983e-05
-8.5784267418423e-06   -1.2234850421739179e-06   2.2340787577786983e-05
-1.2069437073301895e-05   -4.972614437468684e-06   3.040861576739627e-05
-1.2069437073301895e-05   -4.972614437468684e-06   3.040861576739627e-05
-1.2069437073301895e-05   -4.972614437468684e-06   3.040861576739627e-05
-1.2069437073301895e-05   -4.972614437468684e-06   3.040861576739627e-05
-1.023183825292442e-05   -2.774932113332358e-06   2.602734167228538e-05
-1.023183825292442e-05   -2.774932113332358e-06   2.602734167228538e-05
-1.023183825292442e-05   -2.774932113332358e-06   2.602734167228538e-05
-1.023183825292442e-05   -2.774932113332358e-06   2.602734167228538e-05
-8.91035111340641e-06   1.2715215347537162e-06   1.6214352916860304e-05
-8.91035111340641e-06   1.2715215347537162e-06   1.6214352916860304e-05
-8.91035111340641e-06   1.2715215347537162e-06   1.6214352916860304e-05
-8.91035111340641e-06   1.2715215347537162e-06   1.6214352916860304e-05
-7.41328516373909e-06   -1.932365400308272e-06   1.6787130671935227e-05
-7.41328516373909e-06   -1.932365400308272e-06   1.6787130671935227e-05
-7.41328516373909e-06   -1.932365400308272e-06   1.6787130671935227e-05
-7.41328516373909e-06   -1.932365400308272e-06   1.6787130671935227e-05
-7.250102128010137e-06   6.897489290237299e-07   1.4639688989003322e-05
-7.250102128010137e-06   6.897489290237299e-07   1.4639688989003322e-05
-7.250102128010137e-06   6.897489290237299e-07   1.4639688989003322e-05
-7.250102128010137e-06   6.897489290237299e-07   1.4639688989003322e-05
-8.827304498364774e-06   -2.2632768213135543e-06   1.9040175056463365e-05
-8.827304498364774e-06   -2.2632768213135543e-06   1.9040175056463365e-05
-8.827304498364774e-06   -2.2632768213135543e-06   1.9040175056463365e-05
-8.827304498364774e-06   -2.2632768213135543e-06   1.9040175056463365e-05
-8.040975568135369e-06   -4.406154095836336e-07   1.6636029992376416e-05
-8.040975568135369e-06   -4.406154095836336e-07   1.6636029992376416e-05
-8.040975568135369e-06   -4.406154095836336e-07   1.6636029992376416e-05
-8.040975568135369e-06   -4.406154095836336e-07   1.6636029992376416e-05
-8.82730449836477e-06   6.897489290236879e-07   1.6411504439205443e-05
-8.82730449836477e-06   6.897489290236879e-07   1.6411504439205443e-05
-8.82730449836477e-06   6.897489290236879e-07   1.6411504439205443e-05
-8.82730449836477e-06   6.897489290236879e-07   1.6411504439205443e-05
-7.250102128010191e-06   -2.2632768213135543e-06   1.7268359606261027e-05
-7.250102128010191e-06   -2.2632768213135543e-06   1.7268359606261027e-05
-7.250102128010191e-06   -2.2632768213135543e-06   1.7268359606261027e-05
-7.250102128010191e-06   -2.2632768213135543e-06   1.7268359606261027e-05
-7.174310924475331e-06   1.917331077228284e-07   1.5332937187989603e-05
-7.174310924475331e-06   1.917331077228284e-07   1.5332937187989603e-05
-7.174310924475331e-06   1.917331077228284e-07   1.5332937187989603e-05
-7.174310924475331e-06   1.917331077228284e-07   1.5332937187989603e-05
-8.754911351349202e-06   -2.5162589648487386e-06   1.959206647632252e-05
-8.754911351349202e-06   -2.5162589648487386e-06   1.959206647632252e-05
-8.754911351349202e-06   -2.5162589648487386e-06   1.959206647632252e-05
-8.754911351349202e-06   -2.5162589648487386e-06   1.959206647632252e-05
-7.87928993717288e-06   -7.95614397215553e-07   1.7100310712115036e-05
-7.87928993717288e-06   -7.95614397215553e-07   1.7100310712115036e-05
-7.87928993717288e-06   -7.95614397215553e-07   1.7100310712115036e-05
-7.87928993717288e-06   -7.95614397215553e-07   1.7100310712115036e-05
-8.754911351349236e-06   1.9173310772285475e-07   1.695773243153291e-05
-8.754911351349236e-06   1.9173310772285475e-07   1.695773243153291e-05
-8.754911351349236e-06   1.9173310772285475e-07   1.695773243153291e-05
-8.754911351349236e-06   1.9173310772285475e-07   1.695773243153291e-05
-7.174310924475331e-06   -2.5162589648487386e-06   1.7967271232779698e-05
-7.174310924475331e-06   -2.5162589648487386e-06   1.7967271232779698e-05
-7.174310924475331e-06   -2.5162589648487386e-06   1.7967271232779698e-05
-7.174310924475331e-06   -2.5162589648487386e-06   1.7967271232779698e-05
-7.051627121402494e-06   -3.10203752492094e-07   1.6203530723724957e-05
-7.051627121402494e-06   -3.10203752492094e-07   1.6203530723724957e-05
-7.051627121402494e-06   -3.10203752492094e-07   1.6203530723724957e-05
-7.051627121402494e-06   -3.10203752492094e-07   1.6203530723724957e-05
-8.578426741842316e-06   -2.84836456792111e-06   2.027109324704863e-05
-8.578426741842316e-06   -2.84836456792111e-06   2.027109324704863e-05
-8.578426741842316e-06   -2.84836456792111e-06   2.027109324704863e-05
-8.578426741842316e-06   -2.84836456792111e-06   2.027109324704863e-05
-7.752559755925195e-06   -1.1063741912541126e-06   1.7849454044519984e-05
-7.752559755925195e-06   -1.1063741912541126e-06   1.7849454044519984e-05
-7.752559755925195e-06   -1.1063741912541126e-06   1.7849454044519984e-05
-7.752559755925195e-06   -1.1063741912541126e-06   1.7849454044519984e-05
-7.413285163739036e-06   2.09195113444439e-06   3.674405880971037e-06
-7.413285163739036e-06   2.09195113444439e-06   3.674405880971037e-06
-7.413285163739036e-06   2.09195113444439e-06   3.674405880971037e-06
-7.413285163739036e-06   2.09195113444439e-06   3.674405880971037e-06
-4.263126435590306e-06   -2.184510842192025e-07   7.5384290966875114e-06
-4.263126435590306e-06   -2.184510842192025e-07   7.5384290966875114e-06
-4.263126435590306e-06   -2.184510842192025e-07   7.5384290966875114e-06
-4.263126435590306e-06   -2.184510842192025e-07   7.5384290966875114e-06
-4.502164188316675e-06   1.6807062572483196e-06   3.706966797550025e-06
-4.502164188316675e-06   1.6807062572483196e-06   3.706966797550025e-06
-4.502164188316675e-06   1.6807062572483196e-06   3.706966797550025e-06
-4.502164188316675e-06   1.6807062572483196e-06   3.706966797550025e-06
-7.250102128010153e-06   -3.036471652195804e-07   9.477475417186444e-06
-7.250102128010153e-06   -3.036471652195804e-07   9.477475417186444e-06
-7.250102128010153e-06   -3.036471652195804e-07   9.477475417186444e-06
-7.250102128010153e-06   -3.036471652195804e-07   9.477475417186444e-06
-5.655822202391143e-06   1.0748448106710686e-06   5.993247022286993e-06
-5.655822202391143e-06   1.0748448106710686e-06   5.993247022286993e-06
-5.655822202391143e-06   1.0748448106710686e-06   5.993247022286993e-06
-5.655822202391143e-06   1.0748448106710686e-06   5.993247022286993e-06
-7.250102128010191e-06   1.6807062572483808e-06   4.897578851030277e-06
-7.250102128010191e-06   1.6807062572483808e-06   4.897578851030277e-06
-7.250102128010191e-06   1.6807062572483808e-06   4.897578851030277e-06
-7.250102128010191e-06   1.6807062572483808e-06   4.897578851030277e-06
-4.5021641883167835e-06   -3.036471652196346e-07   8.286863363705758e-06
-4.5021641883167835e-06   -3.036471652196346e-07   8.286863363705758e-06
-4.5021641883167835e-06   -3.036471652196346e-07   8.286863363705758e-06
-4.5021641883167835e-06   -3.036471652196346e-07   8.286863363705758e-06
-4.6978519433699215e-06   1.4116837223789426e-06   4.82905451402115e-06
-4.6978519433699215e-06   1.4116837223789426e-06   4.82905451402115e-06
-4.6978519433699215e-06   1.4116837223789426e-06   4.82905451402115e-06
-4.6978519433699215e-06   1.4116837223789426e-06   4.82905451402115e-06
-7.1743109244753095e-06   -4.1928848187769256e-07   1.0055069471750751e-05
-7.1743109244753095e-06   -4.1928848187769256e-07   1.0055069471750751e-05
-7.1743109244753095e-06   -4.1928848187769256e-07   1.0055069471750751e-05
-7.1743109244753095e-06   -4.1928848187769256e-07   1.0055069471750751e-05
-5.751416025475245e-06   8.70866347265015e-07   6.9094850759317174e-06
-5.751416025475245e-06   8.70866347265015e-07   6.9094850759317174e-06
-5.751416025475245e-06   8.70866347265015e-07   6.9094850759317174e-06
-5.751416025475245e-06   8.70866347265015e-07   6.9094850759317174e-06
-7.174310924475331e-06   1.411683722378979e-06   5.92763783657525e-06
-7.174310924475331e-06   1.411683722378979e-06   5.92763783657525e-06
-7.174310924475331e-06   1.411683722378979e-06   5.92763783657525e-06
-7.174310924475331e-06   1.411683722378979e-06   5.92763783657525e-06
-4.6978519433699215e-06   -4.1928848187763835e-07   8.956486149196813e-06
-4.6978519433699215e-06   -4.1928848187763835e-07   8.956486149196813e-06
-4.6978519433699215e-06   -4.1928848187763835e-07   8.956486149196813e-06
-4.6978519433699215e-06   -4.1928848187763835e-07   8.956486149196813e-06
-5.18616899572433e-06   8.719881083791344e-07   6.834523954057491e-06
-5.18616899572433e-06   8.719881083791344e-07   6.834523954057491e-06
-5.18616899572433e-06   8.719881083791344e-07   6.834523954057491e-06
-5.18616899572433e-06   8.719881083791344e-07   6.834523954057491e-06
-7.051627121402486e-06   -5.585720317467357e-07   1.080195691426295e-05
-7.051627121402486e-06   -5.585720317467357e-07   1.080195691426295e-05
-7.051627121402486e-06   -5.585720317467357e-07   1.080195691426295e-05
-7.051627121402486e-06   -5.585720317467357e-07   1.080195691426295e-05
-5.761141879902654e-06   7.33413012732353e-07   7.87595715174194e-06
-5.761141879902654e-06   7.33413012732353e-07   7.87595715174194e-06
-5.761141879902654e-06   7.33413012732353e-07   7.87595715174194e-06
-5.761141879902654e-06   7.33413012732353e-07   7.87595715174194e-06
-6.860549968425738e-05   5.385480123545988e-06   2.9197395315710137e-05
-6.860549968425738e-05   5.385480123545988e-06   2.9197395315710137e-05
-6.860549968425738e-05   5.385480123545988e-06   2.9197395315710137e-05
-6.860549968425738e-05   5.385480123545988e-06   2.9197395315710137e-05
-1.615168414930641e-05   -3.327655797846986e-05   9.342319834608568e-05
-1.615168414930641e-05   -3.327655797846986e-05   9.342319834608568e-05
-1.615168414930641e-05   -3.327655797846986e-05   9.342319834608568e-05
-1.615168414930641e-05   -3.327655797846986e-05   9.342319834608568e-05
-1.8942036214434184e-05   2.1967453409298078e-06   1.6047697979563108e-05
-1.8942036214434184e-05   2.1967453409298078e-06   1.6047697979563108e-05
-1.8942036214434184e-05   2.1967453409298078e-06   1.6047697979563108e-05
-1.8942036214434184e-05   2.1967453409298078e-06   1.6047697979563108e-05
-6.257003711331582e-05   -2.5826765224344776e-05   0.00010557513915019715
-6.257003711331582e-05   -2.5826765224344776e-05   0.00010557513915019715
-6.257003711331582e-05   -2.5826765224344776e-05   0.00010557513915019715
-6.257003711331582e-05   -2.5826765224344776e-05   0.00010557513915019715
-4.1724453840979936e-05   -1.2859507571122983e-05   6.305214577103761e-05
-4.1724453840979936e-05   -1.2859507571122983e-05   6.305214577103761e-05
-4.1724453840979936e-05   -1.2859507571122983e-05   6.305214577103761e-05
-4.1724453840979936e-05   -1.2859507571122983e-05   6.305214577103761e-05
-6.257003711331571e-05   2.1967453409298345e-06   3.2861804318727855e-05
-6.257003711331571e-05   2.1967453409298345e-06   3.2861804318727855e-05
-6.257003711331571e-05   2.1967453409298345e-06   3.2861804318727855e-05
-6.257003711331571e-05   2.1967453409298345e-06   3.2861804318727855e-05
-1.894203621443421e-05   -2.5826765224344776e-05   8.876103281103237e-05
-1.894203621443421e-05   -2.5826765224344776e-05   8.876103281103237e-05
-1.894203621443421e-05   -2.5826765224344776e-05   8.876103281103237e-05
-1.894203621443421e-05   -2.5826765224344776e-05   8.876103281103237e-05
-1.936239720516147e-05   1.5816826992353706e-06   1.7633097662305216e-05
-1.936239720516147e-05   1.5816826992353706e-06   1.7633097662305216e-05
-1.936239720516147e-05   1.5816826992353706e-06   1.7633097662305216e-05
-1.936239720516147e-05   1.5816826992353706e-06   1.7633097662305216e-05
-5.903480867812238e-05   -2.223205150201669e-05   9.804202397132451e-05
-5.903480867812238e-05   -2.223205150201669e-05   9.804202397132451e-05
-5.903480867812238e-05   -2.223205150201669e-05   9.804202397132451e-05
-5.903480867812238e-05   -2.223205150201669e-05   9.804202397132451e-05
-4.0470237332982155e-05   -1.217909659987081e-05   6.106929878813666e-05
-4.0470237332982155e-05   -1.217909659987081e-05   6.106929878813666e-05
-4.0470237332982155e-05   -1.217909659987081e-05   6.106929878813666e-05
-4.0470237332982155e-05   -1.217909659987081e-05   6.106929878813666e-05
-5.903480867812228e-05   1.581682699235367e-06   3.192133818305645e-05
-5.903480867812228e-05   1.581682699235367e-06   3.192133818305645e-05
-5.903480867812228e-05   1.581682699235367e-06   3.192133818305645e-05
-5.903480867812228e-05   1.581682699235367e-06   3.192133818305645e-05
-1.9362397205161498e-05   -2.223205150201669e-05   8.375378345057328e-05
-1.9362397205161498e-05   -2.223205150201669e-05   8.375378345057328e-05
-1.9362397205161498e-05   -2.223205150201669e-05   8.375378345057328e-05
-1.9362397205161498e-05   -2.223205150201669e-05   8.375378345057328e-05
-2.119311759726965e-05   -1.0307901566141927e-06   2.2088186469327876e-05
-2.119311759726965e-05   -1.0307901566141927e-06   2.2088186469327876e-05
-2.119311759726965e-05   -1.0307901566141927e-06   2.2088186469327876e-05
-2.119311759726965e-05   -1.0307901566141927e-06   2.2088186469327876e-05
-5.4505877639108286e-05   -1.7461496437408364e-05   8.746787697420198e-05
-5.4505877639108286e-05   -1.7461496437408364e-05   8.746787697420198e-05
-5.4505877639108286e-05   -1.7461496437408364e-05   8.746787697420198e-05
-5.4505877639108286e-05   -1.7461496437408364e-05   8.746787697420198e-05
-3.891811894252221e-05   -1.1240636254501404e-05   5.77557630368144e-05
-3.891811894252221e-05   -1.1240636254501404e-05   5.77557630368144e-05
-3.891811894252221e-05   -1.1240636254501404e-05   5.77557630368144e-05
-3.891811894252221e-05   -1.1240636254501404e-05   5.77557630368144e-05
-1.6151684149306382e-05   -6.0329749158521815e-06   1.653302227213669e-05
-1.6151684149306382e-05   -6.0329749158521815e-06   1.653302227213669e-05
-1.6151684149306382e-05   -6.0329749158521815e-06   1.653302227213669e-05
-1.6151684149306382e-05   -6.0329749158521815e-06   1.653302227213669e-05
-5.6331045745468896e-06   -1.0247235595556917e-05   3.153543182224635e-05
-5.6331045745468896e-06   -1.0247235595556917e-05   3.153543182224635e-05
-5.6331045745468896e-06   -1.0247235595556917e-05   3.153543182224635e-05
-5.6331045745468896e-06   -1.0247235595556917e-05   3.153543182224635e-05
-6.283398522256937e-06   -4.936286391738702e-06   1.480147231254416e-05
-6.283398522256937e-06   -4.936286391738702e-06   1.480147231254416e-05
-6.283398522256937e-06   -4.936286391738702e-06   1.480147231254416e-05
-6.283398522256937e-06   -4.936286391738702e-06   1.480147231254416e-05
-1.894203621443421e-05   -1.3614669846787317e-05   4.1106231872535355e-05
-1.894203621443421e-05   -1.3614669846787317e-05   4.1106231872535355e-05
-1.894203621443421e-05   -1.3614669846787317e-05   4.1106231872535355e-05
-1.894203621443421e-05   -1.3614669846787317e-05   4.1106231872535355e-05
-1.1139840850903633e-05   -7.143423633672747e-06   2.4219825205448888e-05
-1.1139840850903633e-05   -7.143423633672747e-06   2.4219825205448888e-05
-1.1139840850903633e-05   -7.143423633672747e-06   2.4219825205448888e-05
-1.1139840850903633e-05   -7.143423633672747e-06   2.4219825205448888e-05
-1.894203621443417e-05   -4.936286391738713e-06   2.0008502385573154e-05
-1.894203621443417e-05   -4.936286391738713e-06   2.0008502385573154e-05
-1.894203621443417e-05   -4.936286391738713e-06   2.0008502385573154e-05
-1.894203621443417e-05   -4.936286391738713e-06   2.0008502385573154e-05
-6.283398522256964e-06   -1.3614669846787317e-05   3.589920179950624e-05
-6.283398522256964e-06   -1.3614669846787317e-05   3.589920179950624e-05
-6.283398522256964e-06   -1.3614669846787317e-05   3.589920179950624e-05
-6.283398522256964e-06   -1.3614669846787317e-05   3.589920179950624e-05
-6.839819951100608e-06   -5.0494583763420085e-06   1.6641635720877706e-05
-6.839819951100608e-06   -5.0494583763420085e-06   1.6641635720877706e-05
-6.839819951100608e-06   -5.0494583763420085e-06   1.6641635720877706e-05
-6.839819951100608e-06   -5.0494583763420085e-06   1.6641635720877706e-05
-1.9362397205161495e-05   -1.2435751148499434e-05   4.194437347427347e-05
-1.9362397205161495e-05   -1.2435751148499434e-05   4.194437347427347e-05
-1.9362397205161495e-05   -1.2435751148499434e-05   4.194437347427347e-05
-1.9362397205161495e-05   -1.2435751148499434e-05   4.194437347427347e-05
-1.2551095461753881e-05   -8.742574107435208e-06   2.837629767728911e-05
-1.2551095461753881e-05   -8.742574107435208e-06   2.837629767728911e-05
-1.2551095461753881e-05   -8.742574107435208e-06   2.837629767728911e-05
-1.2551095461753881e-05   -8.742574107435208e-06   2.837629767728911e-05
-1.9362397205161498e-05   -5.049458376342032e-06   2.107341138417215e-05
-1.9362397205161498e-05   -5.049458376342032e-06   2.107341138417215e-05
-1.9362397205161498e-05   -5.049458376342032e-06   2.107341138417215e-05
-1.9362397205161498e-05   -5.049458376342032e-06   2.107341138417215e-05
-6.839819951100608e-06   -1.2435751148499434e-05   3.751259781097905e-05
-6.839819951100608e-06   -1.2435751148499434e-05   3.751259781097905e-05
-6.839819951100608e-06   -1.2435751148499434e-05   3.751259781097905e-05
-6.839819951100608e-06   -1.2435751148499434e-05   3.751259781097905e-05
-7.743369323393316e-06   -5.098734137321773e-06   1.8196609556204665e-05
-7.743369323393316e-06   -5.098734137321773e-06   1.8196609556204665e-05
-7.743369323393316e-06   -5.098734137321773e-06   1.8196609556204665e-05
-7.743369323393316e-06   -5.098734137321773e-06   1.8196609556204665e-05
-2.119311759726963e-05   -1.1693851012491059e-05   4.456992680443329e-05
-2.119311759726963e-05   -1.1693851012491059e-05   4.456992680443329e-05
-2.119311759726963e-05   -1.1693851012491059e-05   4.456992680443329e-05
-2.119311759726963e-05   -1.1693851012491059e-05   4.456992680443329e-05
-1.3369485222070189e-05   -7.980870119602497e-06   2.9302750976701165e-05
-1.3369485222070189e-05   -7.980870119602497e-06   2.9302750976701165e-05
-1.3369485222070189e-05   -7.980870119602497e-06   2.9302750976701165e-05
-1.3369485222070189e-05   -7.980870119602497e-06   2.9302750976701165e-05
-5.6331045745468896e-06   -4.712529634200601e-06   8.86275769933456e-06
-5.6331045745468896e-06   -4.712529634200601e-06   8.86275769933456e-06
-5.6331045745468896e-06   -4.712529634200601e-06   8.86275769933456e-06
-5.6331045745468896e-06   -4.712529634200601e-06   8.86275769933456e-06
-3.13863982642136e-06   -2.8241939180605766e-06   1.415320037589441e-05
-3.13863982642136e-06   -2.8241939180605766e-06   1.415320037589441e-05
-3.13863982642136e-06   -2.8241939180605766e-06   1.415320037589441e-05
-3.13863982642136e-06   -2.8241939180605766e-06   1.415320037589441e-05
-3.0120467450698825e-06   -4.628237095933446e-06   1.025589034489929e-05
-3.0120467450698825e-06   -4.628237095933446e-06   1.025589034489929e-05
-3.0120467450698825e-06   -4.628237095933446e-06   1.025589034489929e-05
-3.0120467450698825e-06   -4.628237095933446e-06   1.025589034489929e-05
-6.283398522256951e-06   -3.7094619618508135e-06   1.5156878226428052e-05
-6.283398522256951e-06   -3.7094619618508135e-06   1.5156878226428052e-05
-6.283398522256951e-06   -3.7094619618508135e-06   1.5156878226428052e-05
-6.283398522256951e-06   -3.7094619618508135e-06   1.5156878226428052e-05
-4.231416839864933e-06   -3.7626584380506464e-06   1.1768826641494405e-05
-4.231416839864933e-06   -3.7626584380506464e-06   1.1768826641494405e-05
-4.231416839864933e-06   -3.7626584380506464e-06   1.1768826641494405e-05
-4.231416839864933e-06   -3.7626584380506464e-06   1.1768826641494405e-05
-6.283398522256937e-06   -4.628237095933423e-06   9.704625264449673e-06
-6.283398522256937e-06   -4.628237095933423e-06   9.704625264449673e-06
-6.283398522256937e-06   -4.628237095933423e-06   9.704625264449673e-06
-6.283398522256937e-06   -4.628237095933423e-06   9.704625264449673e-06
-3.0120467450698825e-06   -3.7094619618508e-06   1.5708143306877452e-05
-3.0120467450698825e-06   -3.7094619618508e-06   1.5708143306877452e-05
-3.0120467450698825e-06   -3.7094619618508e-06   1.5708143306877452e-05
-3.0120467450698825e-06   -3.7094619618508e-06   1.5708143306877452e-05
-3.0126524772129833e-06   -4.770262262180638e-06   1.0962615582832858e-05
-3.0126524772129833e-06   -4.770262262180638e-06   1.0962615582832858e-05
-3.0126524772129833e-06   -4.770262262180638e-06   1.0962615582832858e-05
-3.0126524772129833e-06   -4.770262262180638e-06   1.0962615582832858e-05
-6.8398199511006065e-06   -4.779227143501039e-06   1.7346606968104365e-05
-6.8398199511006065e-06   -4.779227143501039e-06   1.7346606968104365e-05
-6.8398199511006065e-06   -4.779227143501039e-06   1.7346606968104365e-05
-6.8398199511006065e-06   -4.779227143501039e-06   1.7346606968104365e-05
-4.48123112706892e-06   -4.1142421155878e-06   1.301663457797033e-05
-4.48123112706892e-06   -4.1142421155878e-06   1.301663457797033e-05
-4.48123112706892e-06   -4.1142421155878e-06   1.301663457797033e-05
-4.48123112706892e-06   -4.1142421155878e-06   1.301663457797033e-05
-6.839819951100608e-06   -4.770262262180605e-06   1.0967994511625116e-05
-6.839819951100608e-06   -4.770262262180605e-06   1.0967994511625116e-05
-6.839819951100608e-06   -4.770262262180605e-06   1.0967994511625116e-05
-6.839819951100608e-06   -4.770262262180605e-06   1.0967994511625116e-05
-3.0126524772129833e-06   -4.779227143501039e-06   1.7341228039312133e-05
-3.0126524772129833e-06   -4.779227143501039e-06   1.7341228039312133e-05
-3.0126524772129833e-06   -4.779227143501039e-06   1.7341228039312133e-05
-3.0126524772129833e-06   -4.779227143501039e-06   1.7341228039312133e-05
-3.0503804350742237e-06   -4.972614437468684e-06   1.2018386429236299e-05
-3.0503804350742237e-06   -4.972614437468684e-06   1.2018386429236299e-05
-3.0503804350742237e-06   -4.972614437468684e-06   1.2018386429236299e-05
-3.0503804350742237e-06   -4.972614437468684e-06   1.2018386429236299e-05
-7.743369323393323e-06   -5.796572729184093e-06   2.033440955146376e-05
-7.743369323393323e-06   -5.796572729184093e-06   2.033440955146376e-05
-7.743369323393323e-06   -5.796572729184093e-06   2.033440955146376e-05
-7.743369323393323e-06   -5.796572729184093e-06   2.033440955146376e-05
-4.764764233686219e-06   -4.497044972374248e-06   1.4590351081199466e-05
-4.764764233686219e-06   -4.497044972374248e-06   1.4590351081199466e-05
-4.764764233686219e-06   -4.497044972374248e-06   1.4590351081199466e-05
-4.764764233686219e-06   -4.497044972374248e-06   1.4590351081199466e-05
-3.13863982642136e-06   -1.9323654003083375e-06   2.4808609436931988e-06
-3.13863982642136e-06   -1.9323654003083375e-06   2.4808609436931988e-06
-3.13863982642136e-06   -1.9323654003083375e-06   2.4808609436931988e-06
-3.13863982642136e-06   -1.9323654003083375e-06   2.4808609436931988e-06
-2.3221545413467564e-06   5.301604186095044e-07   5.319185243501685e-06
-2.3221545413467564e-06   5.301604186095044e-07   5.319185243501685e-06
-2.3221545413467564e-06   5.301604186095044e-07   5.319185243501685e-06
-2.3221545413467564e-06   5.301604186095044e-07   5.319185243501685e-06
-1.8754908933606065e-06   -2.2632768213135543e-06   4.189243628944855e-06
-1.8754908933606065e-06   -2.2632768213135543e-06   4.189243628944855e-06
-1.8754908933606065e-06   -2.2632768213135543e-06   4.189243628944855e-06
-1.8754908933606065e-06   -2.2632768213135543e-06   4.189243628944855e-06
-3.012046745069871e-06   2.1625094445401123e-07   4.5957867223328204e-06
-3.012046745069871e-06   2.1625094445401123e-07   4.5957867223328204e-06
-3.012046745069871e-06   2.1625094445401123e-07   4.5957867223328204e-06
-3.012046745069871e-06   2.1625094445401123e-07   4.5957867223328204e-06
-2.4277460969744394e-06   -8.945001589808095e-07   4.288402970900975e-06
-2.4277460969744394e-06   -8.945001589808095e-07   4.288402970900975e-06
-2.4277460969744394e-06   -8.945001589808095e-07   4.288402970900975e-06
-2.4277460969744394e-06   -8.945001589808095e-07   4.288402970900975e-06
-3.0120467450698825e-06   -2.263276821313522e-06   2.701526969484298e-06
-3.0120467450698825e-06   -2.263276821313522e-06   2.701526969484298e-06
-3.0120467450698825e-06   -2.263276821313522e-06   2.701526969484298e-06
-3.0120467450698825e-06   -2.263276821313522e-06   2.701526969484298e-06
-1.8754908933606065e-06   2.1625094445401123e-07   6.083503381793432e-06
-1.8754908933606065e-06   2.1625094445401123e-07   6.083503381793432e-06
-1.8754908933606065e-06   2.1625094445401123e-07   6.083503381793432e-06
-1.8754908933606065e-06   2.1625094445401123e-07   6.083503381793432e-06
-1.6289246021284677e-06   -2.5162589648487386e-06   4.601706026524806e-06
-1.6289246021284677e-06   -2.5162589648487386e-06   4.601706026524806e-06
-1.6289246021284677e-06   -2.5162589648487386e-06   4.601706026524806e-06
-1.6289246021284677e-06   -2.5162589648487386e-06   4.601706026524806e-06
-3.012652477212963e-06   -2.8507165434164133e-07   5.569206765361099e-06
-3.012652477212963e-06   -2.8507165434164133e-07   5.569206765361099e-06
-3.012652477212963e-06   -2.8507165434164133e-07   5.569206765361099e-06
-3.012652477212963e-06   -2.8507165434164133e-07   5.569206765361099e-06
-2.1972688710923287e-06   -1.148554241399679e-06   4.728323640728325e-06
-2.1972688710923287e-06   -1.148554241399679e-06   4.728323640728325e-06
-2.1972688710923287e-06   -1.148554241399679e-06   4.728323640728325e-06
-2.1972688710923287e-06   -1.148554241399679e-06   4.728323640728325e-06
-3.0126524772129833e-06   -2.5162589648487386e-06   3.2629936402204748e-06
-3.0126524772129833e-06   -2.5162589648487386e-06   3.2629936402204748e-06
-3.0126524772129833e-06   -2.5162589648487386e-06   3.2629936402204748e-06
-3.0126524772129833e-06   -2.5162589648487386e-06   3.2629936402204748e-06
-1.6289246021284134e-06   -2.8507165434164133e-07   6.907919151665377e-06
-1.6289246021284134e-06   -2.8507165434164133e-07   6.907919151665377e-06
-1.6289246021284134e-06   -2.8507165434164133e-07   6.907919151665377e-06
-1.6289246021284134e-06   -2.8507165434164133e-07   6.907919151665377e-06
-1.2505092768780508e-06   -2.848364567921164e-06   5.047749146298158e-06
-1.2505092768780508e-06   -2.848364567921164e-06   5.047749146298158e-06
-1.2505092768780508e-06   -2.848364567921164e-06   5.047749146298158e-06
-1.2505092768780508e-06   -2.848364567921164e-06   5.047749146298158e-06
-3.050380435074199e-06   -1.3193519008665385e-06   7.130126809725529e-06
-3.050380435074199e-06   -1.3193519008665385e-06   7.130126809725529e-06
-3.050380435074199e-06   -1.3193519008665385e-06   7.130126809725529e-06
-3.050380435074199e-06   -1.3193519008665385e-06   7.130126809725529e-06
-2.007771799811834e-06   -1.5389296147470355e-06   5.524192379283209e-06
-2.007771799811834e-06   -1.5389296147470355e-06   5.524192379283209e-06
-2.007771799811834e-06   -1.5389296147470355e-06   5.524192379283209e-06
-2.007771799811834e-06   -1.5389296147470355e-06   5.524192379283209e-06
-2.3221545413467564e-06   -2.1845108421921447e-07   -3.904083809005683e-06
-2.3221545413467564e-06   -2.1845108421921447e-07   -3.904083809005683e-06
-2.3221545413467564e-06   -2.1845108421921447e-07   -3.904083809005683e-06
-2.3221545413467564e-06   -2.1845108421921447e-07   -3.904083809005683e-06
-4.228593426984853e-07   3.36157820938411e-07   -4.0582646816417645e-07
-4.228593426984853e-07   3.36157820938411e-07   -4.0582646816417645e-07
-4.228593426984853e-07   3.36157820938411e-07   -4.0582646816417645e-07
-4.228593426984853e-07   3.36157820938411e-07   -4.0582646816417645e-07
1.6088206273700417e-08   -3.036471652195804e-07   -3.069647319226725e-06
1.6088206273700417e-08   -3.036471652195804e-07   -3.069647319226725e-06
1.6088206273700417e-08   -3.036471652195804e-07   -3.069647319226725e-06
1.6088206273700417e-08   -3.036471652195804e-07   -3.069647319226725e-06
-1.8754908933606264e-06   5.830082362856203e-07   -4.490087274060814e-07
-1.8754908933606264e-06   5.830082362856203e-07   -4.490087274060814e-07
-1.8754908933606264e-06   5.830082362856203e-07   -4.490087274060814e-07
-1.8754908933606264e-06   5.830082362856203e-07   -4.490087274060814e-07
-1.0522410881274207e-06   1.543366184044142e-07   -1.5638887653994906e-06
-1.0522410881274207e-06   1.543366184044142e-07   -1.5638887653994906e-06
-1.0522410881274207e-06   1.543366184044142e-07   -1.5638887653994906e-06
-1.0522410881274207e-06   1.543366184044142e-07   -1.5638887653994906e-06
-1.8754908933606065e-06   -3.036471652196352e-07   -3.60164056012989e-06
-1.8754908933606065e-06   -3.036471652196352e-07   -3.60164056012989e-06
-1.8754908933606065e-06   -3.036471652196352e-07   -3.60164056012989e-06
-1.8754908933606065e-06   -3.036471652196352e-07   -3.60164056012989e-06
1.6088206273591997e-08   5.830082362856203e-07   8.298451349719217e-08
1.6088206273591997e-08   5.830082362856203e-07   8.298451349719217e-08
1.6088206273591997e-08   5.830082362856203e-07   8.298451349719217e-08
1.6088206273591997e-08   5.830082362856203e-07   8.298451349719217e-08
2.475516601701134e-07   -4.1928848187769256e-07   -2.757148804561054e-06
2.475516601701134e-07   -4.1928848187769256e-07   -2.757148804561054e-06
2.475516601701134e-07   -4.1928848187769256e-07   -2.757148804561054e-06
2.475516601701134e-07   -4.1928848187769256e-07   -2.757148804561054e-06
-1.6289246021284262e-06   5.029564013605495e-07   -1.8303529733998316e-07
-1.6289246021284262e-06   5.029564013605495e-07   -1.8303529733998316e-07
-1.6289246021284262e-06   5.029564013605495e-07   -1.8303529733998316e-07
-1.6289246021284262e-06   5.029564013605495e-07   -1.8303529733998316e-07
-7.2714808567447e-07   1.0110438686817256e-07   -1.4448849494007278e-06
-7.2714808567447e-07   1.0110438686817256e-07   -1.4448849494007278e-06
-7.2714808567447e-07   1.0110438686817256e-07   -1.4448849494007278e-06
-7.2714808567447e-07   1.0110438686817256e-07   -1.4448849494007278e-06
-1.6289246021284134e-06   -4.192884818776785e-07   -3.310495734504086e-06
-1.6289246021284134e-06   -4.192884818776785e-07   -3.310495734504086e-06
-1.6289246021284134e-06   -4.192884818776785e-07   -3.310495734504086e-06
-1.6289246021284134e-06   -4.192884818776785e-07   -3.310495734504086e-06
2.4755166017000497e-07   5.029564013605495e-07   3.703116326029404e-07
2.4755166017000497e-07   5.029564013605495e-07   3.703116326029404e-07
2.4755166017000497e-07   5.029564013605495e-07   3.703116326029404e-07
2.4755166017000497e-07   5.029564013605495e-07   3.703116326029404e-07
5.365898728008694e-07   -5.585720317467357e-07   -2.3002299727821387e-06
5.365898728008694e-07   -5.585720317467357e-07   -2.3002299727821387e-06
5.365898728008694e-07   -5.585720317467357e-07   -2.3002299727821387e-06
5.365898728008694e-07   -5.585720317467357e-07   -2.3002299727821387e-06
-1.2505092768780258e-06   4.385291756664529e-07   8.00078855676999e-08
-1.2505092768780258e-06   4.385291756664529e-07   8.00078855676999e-08
-1.2505092768780258e-06   4.385291756664529e-07   8.00078855676999e-08
-1.2505092768780258e-06   4.385291756664529e-07   8.00078855676999e-08
-4.325697121802148e-07   3.740884327877109e-08   -1.0425525228296073e-06
-4.325697121802148e-07   3.740884327877109e-08   -1.0425525228296073e-06
-4.325697121802148e-07   3.740884327877109e-08   -1.0425525228296073e-06
-4.325697121802148e-07   3.740884327877109e-08   -1.0425525228296073e-06
              </DataArray>   
             <DataArray type="Float64" NumberOfComponents="3" Name="Stress" format="ascii">   
-3.5579101935232558   -0.8894775483808139   -0.8894775483808139
-3.5579101935232558   -0.8894775483808139   -0.8894775483808139
-3.5579101935232558   -0.8894775483808139   -0.8894775483808139
-3.5579101935232558   -0.8894775483808139   -0.8894775483808139
-2.0589855200237293   -0.06511718938284072   -0.04123599112378047
-2.0589855200237293   -0.06511718938284072   -0.04123599112378047
-2.0589855200237293   -0.06511718938284072   -0.04123599112378047
-2.0589855200237293   -0.06511718938284072   -0.04123599112378047
-2.219468033457005   -0.5548670083642513   -0.5548670083642513
-2.219468033457005   -0.5548670083642513   -0.5548670083642513
-2.219468033457005   -0.5548670083642513   -0.5548670083642513
-2.219468033457005   -0.5548670083642513   -0.5548670083642513
-3.4291288897804897   -0.2815137033436715   -0.10763057411819969
-3.4291288897804897   -0.2815137033436715   -0.10763057411819969
-3.4291288897804897   -0.2815137033436715   -0.10763057411819969
-3.4291288897804897   -0.2815137033436715   -0.10763057411819969
-2.689478159715892   -0.44086966581331377   -0.007420122060582495
-2.689478159715892   -0.44086966581331377   -0.007420122060582495
-2.689478159715892   -0.44086966581331377   -0.007420122060582495
-2.689478159715892   -0.44086966581331377   -0.007420122060582495
-3.723666704764579   -0.9309166761911447   -0.9309166761911447
-3.723666704764579   -0.9309166761911447   -0.9309166761911447
-3.723666704764579   -0.9309166761911447   -0.9309166761911447
-3.723666704764579   -0.9309166761911447   -0.9309166761911447
-1.9947710044028384   0.024695178553304664   -0.01094405001097376
-1.9947710044028384   0.024695178553304664   -0.01094405001097376
-1.9947710044028384   0.024695178553304664   -0.01094405001097376
-1.9947710044028384   0.024695178553304664   -0.01094405001097376
-2.2258543848061216   -0.5564635962015304   -0.5564635962015304
-2.2258543848061216   -0.5564635962015304   -0.5564635962015304
-2.2258543848061216   -0.5564635962015304   -0.5564635962015304
-2.2258543848061216   -0.5564635962015304   -0.5564635962015304
-3.544518053426326   -0.2842538577524969   -0.1577324705520981
-3.544518053426326   -0.2842538577524969   -0.1577324705520981
-3.544518053426326   -0.2842538577524969   -0.1577324705520981
-3.544518053426326   -0.2842538577524969   -0.1577324705520981
-2.7899258695509817   -0.415131458901723   -0.14807543731913234
-2.7899258695509817   -0.415131458901723   -0.14807543731913234
-2.7899258695509817   -0.415131458901723   -0.14807543731913234
-2.7899258695509817   -0.415131458901723   -0.14807543731913234
-3.8401342086282364   -0.9600335521570591   -0.9600335521570591
-3.8401342086282364   -0.9600335521570591   -0.9600335521570591
-3.8401342086282364   -0.9600335521570591   -0.9600335521570591
-3.8401342086282364   -0.9600335521570591   -0.9600335521570591
-1.989091713046495   0.06046261476074971   0.010423551634303932
-1.989091713046495   0.06046261476074971   0.010423551634303932
-1.989091713046495   0.06046261476074971   0.010423551634303932
-1.989091713046495   0.06046261476074971   0.010423551634303932
-2.2248276572764865   -0.5562069143191216   -0.5562069143191216
-2.2248276572764865   -0.5562069143191216   -0.5562069143191216
-2.2248276572764865   -0.5562069143191216   -0.5562069143191216
-2.2248276572764865   -0.5562069143191216   -0.5562069143191216
-3.7506160482806448   -0.2494140118429543   -0.09456580270066497
-3.7506160482806448   -0.2494140118429543   -0.09456580270066497
-3.7506160482806448   -0.2494140118429543   -0.09456580270066497
-3.7506160482806448   -0.2494140118429543   -0.09456580270066497
-2.864503489416101   -0.4087102575724855   -0.26764299122241514
-2.864503489416101   -0.4087102575724855   -0.26764299122241514
-2.864503489416101   -0.4087102575724855   -0.26764299122241514
-2.864503489416101   -0.4087102575724855   -0.26764299122241514
-2.2641276488026763   -0.5660319122006691   -0.5660319122006691
-2.2641276488026763   -0.5660319122006691   -0.5660319122006691
-2.2641276488026763   -0.5660319122006691   -0.5660319122006691
-2.2641276488026763   -0.5660319122006691   -0.5660319122006691
-0.9444890731932183   -0.06276838907299492   -0.020406294432433338
-0.9444890731932183   -0.06276838907299492   -0.020406294432433338
-0.9444890731932183   -0.06276838907299492   -0.020406294432433338
-0.9444890731932183   -0.06276838907299492   -0.020406294432433338
-0.9916760384323859   -0.24791900960809649   -0.24791900960809649
-0.9916760384323859   -0.24791900960809649   -0.24791900960809649
-0.9916760384323859   -0.24791900960809649   -0.24791900960809649
-0.9916760384323859   -0.24791900960809649   -0.24791900960809649
-2.0614401400675595   -0.242409227104413   -0.07718532267686057
-2.0614401400675595   -0.242409227104413   -0.07718532267686057
-2.0614401400675595   -0.242409227104413   -0.07718532267686057
-2.0614401400675595   -0.242409227104413   -0.07718532267686057
-1.5203276196140663   -0.2879809312001812   0.01190112940873149
-1.5203276196140663   -0.2879809312001812   0.01190112940873149
-1.5203276196140663   -0.2879809312001812   0.01190112940873149
-1.5203276196140663   -0.2879809312001812   0.01190112940873149
-2.219468033457003   -0.5548670083642507   -0.5548670083642507
-2.219468033457003   -0.5548670083642507   -0.5548670083642507
-2.219468033457003   -0.5548670083642507   -0.5548670083642507
-2.219468033457003   -0.5548670083642507   -0.5548670083642507
-0.8912116797221625   0.006975236972519061   -0.0004914626375950581
-0.8912116797221625   0.006975236972519061   -0.0004914626375950581
-0.8912116797221625   0.006975236972519061   -0.0004914626375950581
-0.8912116797221625   0.006975236972519061   -0.0004914626375950581
-0.9696710496639792   -0.2424177624159948   -0.2424177624159948
-0.9696710496639792   -0.2424177624159948   -0.2424177624159948
-0.9696710496639792   -0.2424177624159948   -0.2424177624159948
-0.9696710496639792   -0.2424177624159948   -0.2424177624159948
-2.056379097487077   -0.19778837622446238   -0.0677623795833748
-2.056379097487077   -0.19778837622446238   -0.0677623795833748
-2.056379097487077   -0.19778837622446238   -0.0677623795833748
-2.056379097487077   -0.19778837622446238   -0.0677623795833748
-1.499286723644364   -0.24246817801642745   -0.07840250318317647
-1.499286723644364   -0.24246817801642745   -0.07840250318317647
-1.499286723644364   -0.24246817801642745   -0.07840250318317647
-1.499286723644364   -0.24246817801642745   -0.07840250318317647
-2.2258543848061216   -0.5564635962015304   -0.5564635962015304
-2.2258543848061216   -0.5564635962015304   -0.5564635962015304
-2.2258543848061216   -0.5564635962015304   -0.5564635962015304
-2.2258543848061216   -0.5564635962015304   -0.5564635962015304
-0.8559488209195318   0.06050439898647714   0.023271219903777743
-0.8559488209195318   0.06050439898647714   0.023271219903777743
-0.8559488209195318   0.06050439898647714   0.023271219903777743
-0.8559488209195318   0.06050439898647714   0.023271219903777743
-0.949654773169918   -0.2374136932924795   -0.2374136932924795
-0.949654773169918   -0.2374136932924795   -0.2374136932924795
-0.949654773169918   -0.2374136932924795   -0.2374136932924795
-0.949654773169918   -0.2374136932924795   -0.2374136932924795
-2.0414082987124815   -0.1526539561393344   -0.04266307967891027
-2.0414082987124815   -0.1526539561393344   -0.04266307967891027
-2.0414082987124815   -0.1526539561393344   -0.04266307967891027
-2.0414082987124815   -0.1526539561393344   -0.04266307967891027
-1.5068395660664065   -0.21460606948947888   -0.1746961553964673
-1.5068395660664065   -0.21460606948947888   -0.1746961553964673
-1.5068395660664065   -0.21460606948947888   -0.1746961553964673
-1.5068395660664065   -0.21460606948947888   -0.1746961553964673
-1.0309490405468158   -0.25773726013670395   -0.25773726013670395
-1.0309490405468158   -0.25773726013670395   -0.25773726013670395
-1.0309490405468158   -0.25773726013670395   -0.25773726013670395
-1.0309490405468158   -0.25773726013670395   -0.25773726013670395
0.12266950126481542   0.008080103716080339   0.0009998727994445563
0.12266950126481542   0.008080103716080339   0.0009998727994445563
0.12266950126481542   0.008080103716080339   0.0009998727994445563
0.12266950126481542   0.008080103716080339   0.0009998727994445563
0.15929066693978605   0.03982266673494651   0.03982266673494651
0.15929066693978605   0.03982266673494651   0.03982266673494651
0.15929066693978605   0.03982266673494651   0.03982266673494651
0.15929066693978605   0.03982266673494651   0.03982266673494651
-0.9322630632793077   -0.16113810734645811   -0.03763503610434388
-0.9322630632793077   -0.16113810734645811   -0.03763503610434388
-0.9322630632793077   -0.16113810734645811   -0.03763503610434388
-0.9322630632793077   -0.16113810734645811   -0.03763503610434388
-0.3989277411898929   -0.10120603368729564   0.06779866835364383
-0.3989277411898929   -0.10120603368729564   0.06779866835364383
-0.3989277411898929   -0.10120603368729564   0.06779866835364383
-0.3989277411898929   -0.10120603368729564   0.06779866835364383
-0.9916760384323877   -0.24791900960809693   -0.24791900960809693
-0.9916760384323877   -0.24791900960809693   -0.24791900960809693
-0.9916760384323877   -0.24791900960809693   -0.24791900960809693
-0.9916760384323877   -0.24791900960809693   -0.24791900960809693
0.16211201942077005   0.07001194632449045   0.023740149550321242
0.16211201942077005   0.07001194632449045   0.023740149550321242
0.16211201942077005   0.07001194632449045   0.023740149550321242
0.16211201942077005   0.07001194632449045   0.023740149550321242
0.1790125560888353   0.04475313902220882   0.04475313902220882
0.1790125560888353   0.04475313902220882   0.04475313902220882
0.1790125560888353   0.04475313902220882   0.04475313902220882
0.1790125560888353   0.04475313902220882   0.04475313902220882
-0.8994563919771116   -0.10852231992880851   -0.025239916468850356
-0.8994563919771116   -0.10852231992880851   -0.025239916468850356
-0.8994563919771116   -0.10852231992880851   -0.025239916468850356
-0.8994563919771116   -0.10852231992880851   -0.025239916468850356
-0.38283710005334515   -0.06257145625198257   -0.0231212087417541
-0.38283710005334515   -0.06257145625198257   -0.0231212087417541
-0.38283710005334515   -0.06257145625198257   -0.0231212087417541
-0.38283710005334515   -0.06257145625198257   -0.0231212087417541
-0.969671049663981   -0.24241776241599525   -0.24241776241599525
-0.969671049663981   -0.24241776241599525   -0.24241776241599525
-0.969671049663981   -0.24241776241599525   -0.24241776241599525
-0.969671049663981   -0.24241776241599525   -0.24241776241599525
0.19377433497681038   0.12319570271050387   0.04011946977378772
0.19377433497681038   0.12319570271050387   0.04011946977378772
0.19377433497681038   0.12319570271050387   0.04011946977378772
0.19377433497681038   0.12319570271050387   0.04011946977378772
0.2055906300924817   0.05139765752312043   0.05139765752312043
0.2055906300924817   0.05139765752312043   0.05139765752312043
0.2055906300924817   0.05139765752312043   0.05139765752312043
0.2055906300924817   0.05139765752312043   0.05139765752312043
-0.8637505237863763   -0.045763449333639405   0.00045730966638556775
-0.8637505237863763   -0.045763449333639405   0.00045730966638556775
-0.8637505237863763   -0.045763449333639405   0.00045730966638556775
-0.8637505237863763   -0.045763449333639405   0.00045730966638556775
-0.3715474229427577   -0.02532667230889528   -0.11322949836902363
-0.3715474229427577   -0.02532667230889528   -0.11322949836902363
-0.3715474229427577   -0.02532667230889528   -0.11322949836902363
-0.3715474229427577   -0.02532667230889528   -0.11322949836902363
0.1342816732907896   0.0335704183226974   0.0335704183226974
0.1342816732907896   0.0335704183226974   0.0335704183226974
0.1342816732907896   0.0335704183226974   0.0335704183226974
0.1342816732907896   0.0335704183226974   0.0335704183226974
1.2907386253582498   0.11841118535444572   0.03971946400527923
1.2907386253582498   0.11841118535444572   0.03971946400527923
1.2907386253582498   0.11841118535444572   0.03971946400527923
1.2907386253582498   0.11841118535444572   0.03971946400527923
1.401320575510379   0.35033014387759476   0.35033014387759476
1.401320575510379   0.35033014387759476   0.35033014387759476
1.401320575510379   0.35033014387759476   0.35033014387759476
1.401320575510379   0.35033014387759476   0.35033014387759476
0.12137017133125588   -0.09090094220189648   -0.01905620237086264
0.12137017133125588   -0.09090094220189648   -0.01905620237086264
0.12137017133125588   -0.09090094220189648   -0.01905620237086264
0.12137017133125588   -0.09090094220189648   -0.01905620237086264
0.7360992405107575   0.09163572923644625   0.13375541351471157
0.7360992405107575   0.09163572923644625   0.13375541351471157
0.7360992405107575   0.09163572923644625   0.13375541351471157
0.7360992405107575   0.09163572923644625   0.13375541351471157
0.15929066693978658   0.039822666734946645   0.039822666734946645
0.15929066693978658   0.039822666734946645   0.039822666734946645
0.15929066693978658   0.039822666734946645   0.039822666734946645
0.15929066693978658   0.039822666734946645   0.039822666734946645
1.3058797994361941   0.1620862544750993   0.061370152909177834
1.3058797994361941   0.1620862544750993   0.061370152909177834
1.3058797994361941   0.1620862544750993   0.061370152909177834
1.3058797994361941   0.1620862544750993   0.061370152909177834
1.3951629486060102   0.34879073715150255   0.34879073715150255
1.3951629486060102   0.34879073715150255   0.34879073715150255
1.3951629486060102   0.34879073715150255   0.34879073715150255
1.3951629486060102   0.34879073715150255   0.34879073715150255
0.15323402838510053   -0.03945710212712237   7.074165286493142e-05
0.15323402838510053   -0.03945710212712237   7.074165286493142e-05
0.15323402838510053   -0.03945710212712237   7.074165286493142e-05
0.15323402838510053   -0.03945710212712237   7.074165286493142e-05
0.7305080121900209   0.12020492400579971   0.0348145019662615
0.7305080121900209   0.12020492400579971   0.0348145019662615
0.7305080121900209   0.12020492400579971   0.0348145019662615
0.7305080121900209   0.12020492400579971   0.0348145019662615
0.1790125560888356   0.0447531390222089   0.0447531390222089
0.1790125560888356   0.0447531390222089   0.0447531390222089
0.1790125560888356   0.0447531390222089   0.0447531390222089
0.1790125560888356   0.0447531390222089   0.0447531390222089
1.312416044634189   0.2076121197340871   0.07623483470982376
1.312416044634189   0.2076121197340871   0.07623483470982376
1.312416044634189   0.2076121197340871   0.07623483470982376
1.312416044634189   0.2076121197340871   0.07623483470982376
1.4220331864117008   0.3555082966029252   0.3555082966029252
1.4220331864117008   0.3555082966029252   0.3555082966029252
1.4220331864117008   0.3555082966029252   0.3555082966029252
1.4220331864117008   0.3555082966029252   0.3555082966029252
0.19504644808692503   0.02861637763728834   0.021458027381167574
0.19504644808692503   0.02861637763728834   0.021458027381167574
0.19504644808692503   0.02861637763728834   0.021458027381167574
0.19504644808692503   0.02861637763728834   0.021458027381167574
0.741691432302949   0.16303093081950093   -0.0569266899309632
0.741691432302949   0.16303093081950093   -0.0569266899309632
0.741691432302949   0.16303093081950093   -0.0569266899309632
0.741691432302949   0.16303093081950093   -0.0569266899309632
1.3990138838736768   0.3497534709684192   0.3497534709684192
1.3990138838736768   0.3497534709684192   0.3497534709684192
1.3990138838736768   0.3497534709684192   0.3497534709684192
1.3990138838736768   0.3497534709684192   0.3497534709684192
2.9011114734092356   0.22109095813483026   0.07564147460035736
2.9011114734092356   0.22109095813483026   0.07564147460035736
2.9011114734092356   0.22109095813483026   0.07564147460035736
2.9011114734092356   0.22109095813483026   0.07564147460035736
2.9651825983533118   0.7412956495883279   0.7412956495883279
2.9651825983533118   0.7412956495883279   0.7412956495883279
2.9651825983533118   0.7412956495883279   0.7412956495883279
2.9651825983533118   0.7412956495883279   0.7412956495883279
1.2455894853072889   -0.07083546848703959   -0.007159694773210171
1.2455894853072889   -0.07083546848703959   -0.007159694773210171
1.2455894853072889   -0.07083546848703959   -0.007159694773210171
1.2455894853072889   -0.07083546848703959   -0.007159694773210171
2.069177167339289   0.2928070709987976   0.23363668068692506
2.069177167339289   0.2928070709987976   0.23363668068692506
2.069177167339289   0.2928070709987976   0.23363668068692506
2.069177167339289   0.2928070709987976   0.23363668068692506
1.401320575510378   0.3503301438775945   0.3503301438775945
1.401320575510378   0.3503301438775945   0.3503301438775945
1.401320575510378   0.3503301438775945   0.3503301438775945
1.401320575510378   0.3503301438775945   0.3503301438775945
2.747801678436253   0.2584802075097228   0.1372064920816392
2.747801678436253   0.2584802075097228   0.1372064920816392
2.747801678436253   0.2584802075097228   0.1372064920816392
2.747801678436253   0.2584802075097228   0.1372064920816392
2.87641922386871   0.7191048059671775   0.7191048059671775
2.87641922386871   0.7191048059671775   0.7191048059671775
2.87641922386871   0.7191048059671775   0.7191048059671775
2.87641922386871   0.7191048059671775   0.7191048059671775
1.2497989339871747   -0.03914610642959676   0.009907507638434718
1.2497989339871747   -0.03914610642959676   0.009907507638434718
1.2497989339871747   -0.03914610642959676   0.009907507638434718
1.2497989339871747   -0.03914610642959676   0.009907507638434718
2.0076334361696353   0.3012131712309537   0.11203946101427775
2.0076334361696353   0.3012131712309537   0.11203946101427775
2.0076334361696353   0.3012131712309537   0.11203946101427775
2.0076334361696353   0.3012131712309537   0.11203946101427775
1.3951629486060102   0.34879073715150255   0.34879073715150255
1.3951629486060102   0.34879073715150255   0.34879073715150255
1.3951629486060102   0.34879073715150255   0.34879073715150255
1.3951629486060102   0.34879073715150255   0.34879073715150255
2.659172857443005   0.2592856105792102   0.09269216922663892
2.659172857443005   0.2592856105792102   0.09269216922663892
2.659172857443005   0.2592856105792102   0.09269216922663892
2.659172857443005   0.2592856105792102   0.09269216922663892
2.744384543743748   0.686096135935937   0.686096135935937
2.744384543743748   0.686096135935937   0.686096135935937
2.744384543743748   0.686096135935937   0.686096135935937
2.744384543743748   0.686096135935937   0.686096135935937
1.2958909470217923   0.04074833751316492   0.03955705874316019
1.2958909470217923   0.04074833751316492   0.03955705874316019
1.2958909470217923   0.04074833751316492   0.03955705874316019
1.2958909470217923   0.04074833751316492   0.03955705874316019
1.9222316030844162   0.32653994228038363   -0.029363784645241607
1.9222316030844162   0.32653994228038363   -0.029363784645241607
1.9222316030844162   0.32653994228038363   -0.029363784645241607
1.9222316030844162   0.32653994228038363   -0.029363784645241607
-2.813353308163963   -0.20143551272017146   0.03154018032980478
-2.813353308163963   -0.20143551272017146   0.03154018032980478
-2.813353308163963   -0.20143551272017146   0.03154018032980478
-2.813353308163963   -0.20143551272017146   0.03154018032980478
-1.790613012967542   -0.04118414744872312   -0.011534219958611022
-1.790613012967542   -0.04118414744872312   -0.011534219958611022
-1.790613012967542   -0.04118414744872312   -0.011534219958611022
-1.790613012967542   -0.04118414744872312   -0.011534219958611022
-1.8028547328215738   0.07278121219832795   0.03756984663288383
-1.8028547328215738   0.07278121219832795   0.03756984663288383
-1.8028547328215738   0.07278121219832795   0.03756984663288383
-1.8028547328215738   0.07278121219832795   0.03756984663288383
-2.8552951320257898   -0.19470204644694694   -0.03375203788713725
-2.8552951320257898   -0.19470204644694694   -0.03375203788713725
-2.8552951320257898   -0.19470204644694694   -0.03375203788713725
-2.8552951320257898   -0.19470204644694694   -0.03375203788713725
-2.224397471487462   -0.07592530829204214   -0.00875036828172128
-2.224397471487462   -0.07592530829204214   -0.00875036828172128
-2.224397471487462   -0.07592530829204214   -0.00875036828172128
-2.224397471487462   -0.07592530829204214   -0.00875036828172128
-2.8345992109767115   -0.13839712381417868   0.013422644725487334
-2.8345992109767115   -0.13839712381417868   0.013422644725487334
-2.8345992109767115   -0.13839712381417868   0.013422644725487334
-2.8345992109767115   -0.13839712381417868   0.013422644725487334
-1.8265529384825014   0.01347400495371781   -0.02161397442711005
-1.8265529384825014   0.01347400495371781   -0.02161397442711005
-1.8265529384825014   0.01347400495371781   -0.02161397442711005
-1.8265529384825014   0.01347400495371781   -0.02161397442711005
-1.805086174418667   0.10373936272343115   0.042801752819884645
-1.805086174418667   0.10373936272343115   0.042801752819884645
-1.805086174418667   0.10373936272343115   0.042801752819884645
-1.805086174418667   0.10373936272343115   0.042801752819884645
-2.8727195480130665   -0.17152903095364203   -0.04456459185802725
-2.8727195480130665   -0.17152903095364203   -0.04456459185802725
-2.8727195480130665   -0.17152903095364203   -0.04456459185802725
-2.8727195480130665   -0.17152903095364203   -0.04456459185802725
-2.286966301938288   -0.05086178009881959   -0.021655541034558023
-2.286966301938288   -0.05086178009881959   -0.021655541034558023
-2.286966301938288   -0.05086178009881959   -0.021655541034558023
-2.286966301938288   -0.05086178009881959   -0.021655541034558023
-2.821213010398797   -0.08313211832053446   0.1245711835801874
-2.821213010398797   -0.08313211832053446   0.1245711835801874
-2.821213010398797   -0.08313211832053446   0.1245711835801874
-2.821213010398797   -0.08313211832053446   0.1245711835801874
-1.835119777991694   0.03681538413156488   -0.04044228645336531
-1.835119777991694   0.03681538413156488   -0.04044228645336531
-1.835119777991694   0.03681538413156488   -0.04044228645336531
-1.835119777991694   0.03681538413156488   -0.04044228645336531
-1.7723455414273257   0.1807180236135829   0.077823867728704
-1.7723455414273257   0.1807180236135829   0.077823867728704
-1.7723455414273257   0.1807180236135829   0.077823867728704
-1.7723455414273257   0.1807180236135829   0.077823867728704
-2.793501310199438   -0.1384743877339893   -0.07293563231792423
-2.793501310199438   -0.1384743877339893   -0.07293563231792423
-2.793501310199438   -0.1384743877339893   -0.07293563231792423
-2.793501310199438   -0.1384743877339893   -0.07293563231792423
-2.199633457101263   0.02043877181264242   0.04872241958937357
-2.199633457101263   0.02043877181264242   0.04872241958937357
-2.199633457101263   0.02043877181264242   0.04872241958937357
-2.199633457101263   0.02043877181264242   0.04872241958937357
-1.8351339229818424   -0.2432339030333335   -0.032089014445502
-1.8351339229818424   -0.2432339030333335   -0.032089014445502
-1.8351339229818424   -0.2432339030333335   -0.032089014445502
-1.8351339229818424   -0.2432339030333335   -0.032089014445502
-0.8452675121521089   -0.018707473195868296   0.008991639358972146
-0.8452675121521089   -0.018707473195868296   0.008991639358972146
-0.8452675121521089   -0.018707473195868296   0.008991639358972146
-0.8452675121521089   -0.018707473195868296   0.008991639358972146
-0.857728299174481   0.016323034632038574   0.012764145112320914
-0.857728299174481   0.016323034632038574   0.012764145112320914
-0.857728299174481   0.016323034632038574   0.012764145112320914
-0.857728299174481   0.016323034632038574   0.012764145112320914
-1.8715555906704997   -0.17805610366996538   -0.055097126743450256
-1.8715555906704997   -0.17805610366996538   -0.055097126743450256
-1.8715555906704997   -0.17805610366996538   -0.055097126743450256
-1.8715555906704997   -0.17805610366996538   -0.055097126743450256
-1.3523776519402428   -0.10976382630127393   -0.03096686710606495
-1.3523776519402428   -0.10976382630127393   -0.03096686710606495
-1.3523776519402428   -0.10976382630127393   -0.03096686710606495
-1.3523776519402428   -0.10976382630127393   -0.03096686710606495
-1.869809110485516   -0.19460843545861142   -0.029812394029893587
-1.869809110485516   -0.19460843545861142   -0.029812394029893587
-1.869809110485516   -0.19460843545861142   -0.029812394029893587
-1.869809110485516   -0.19460843545861142   -0.029812394029893587
-0.8561377848389438   0.036212360941202865   0.0008273904808351468
-0.8561377848389438   0.036212360941202865   0.0008273904808351468
-0.8561377848389438   0.036212360941202865   0.0008273904808351468
-0.8561377848389438   0.036212360941202865   0.0008273904808351468
-0.8545736723455128   0.05959729480122053   0.01736055040347552
-0.8545736723455128   0.05959729480122053   0.01736055040347552
-0.8545736723455128   0.05959729480122053   0.01736055040347552
-0.8545736723455128   0.05959729480122053   0.01736055040347552
-1.8724163618563325   -0.13052363462699273   -0.059586187018018946
-1.8724163618563325   -0.13052363462699273   -0.059586187018018946
-1.8724163618563325   -0.13052363462699273   -0.059586187018018946
-1.8724163618563325   -0.13052363462699273   -0.059586187018018946
-1.3498335554320327   -0.061103445901399406   -0.014719381587516338
-1.3498335554320327   -0.061103445901399406   -0.014719381587516338
-1.3498335554320327   -0.061103445901399406   -0.014719381587516338
-1.3498335554320327   -0.061103445901399406   -0.014719381587516338
-1.8651078610078444   -0.14724593041037987   -0.0063213869921923405
-1.8651078610078444   -0.14724593041037987   -0.0063213869921923405
-1.8651078610078444   -0.14724593041037987   -0.0063213869921923405
-1.8651078610078444   -0.14724593041037987   -0.0063213869921923405
-0.8556868093916677   0.08251495438694115   -0.011122794413014322
-0.8556868093916677   0.08251495438694115   -0.011122794413014322
-0.8556868093916677   0.08251495438694115   -0.011122794413014322
-0.8556868093916677   0.08251495438694115   -0.011122794413014322
-0.8403361094013615   0.1030746605632239   0.03490781452276119
-0.8403361094013615   0.1030746605632239   0.03490781452276119
-0.8403361094013615   0.1030746605632239   0.03490781452276119
-0.8403361094013615   0.1030746605632239   0.03490781452276119
-1.8524534513194295   -0.07560463347751101   -0.06639302464072824
-1.8524534513194295   -0.07560463347751101   -0.06639302464072824
-1.8524534513194295   -0.07560463347751101   -0.06639302464072824
-1.8524534513194295   -0.07560463347751101   -0.06639302464072824
-1.3442791528200797   -0.015057156137492034   0.00675241173185763
-1.3442791528200797   -0.015057156137492034   0.00675241173185763
-1.3442791528200797   -0.015057156137492034   0.00675241173185763
-1.3442791528200797   -0.015057156137492034   0.00675241173185763
-0.8913627651707987   -0.20247061993083487   -0.03772147899951761
-0.8913627651707987   -0.20247061993083487   -0.03772147899951761
-0.8913627651707987   -0.20247061993083487   -0.03772147899951761
-0.8913627651707987   -0.20247061993083487   -0.03772147899951761
0.0927805462417118   0.02109392504403835   0.03472513348751301
0.0927805462417118   0.02109392504403835   0.03472513348751301
0.0927805462417118   0.02109392504403835   0.03472513348751301
0.0927805462417118   0.02109392504403835   0.03472513348751301
0.08849842358178524   0.05109492140682643   0.002768620800987774
0.08849842358178524   0.05109492140682643   0.002768620800987774
0.08849842358178524   0.05109492140682643   0.002768620800987774
0.08849842358178524   0.05109492140682643   0.002768620800987774
-0.8951940850770632   -0.1341579743180954   -0.024083775450464216
-0.8951940850770632   -0.1341579743180954   -0.024083775450464216
-0.8951940850770632   -0.1341579743180954   -0.024083775450464216
-0.8951940850770632   -0.1341579743180954   -0.024083775450464216
-0.40519936532187134   -0.06710492667071434   -0.012801305280157712
-0.40519936532187134   -0.06710492667071434   -0.012801305280157712
-0.40519936532187134   -0.06710492667071434   -0.012801305280157712
-0.40519936532187134   -0.06710492667071434   -0.012801305280157712
-0.9013848894585555   -0.15439551641386945   -0.03480025526215154
-0.9013848894585555   -0.15439551641386945   -0.03480025526215154
-0.9013848894585555   -0.15439551641386945   -0.03480025526215154
-0.9013848894585555   -0.15439551641386945   -0.03480025526215154
0.09813430887452908   0.07477754441385077   0.027265424257682008
0.09813430887452908   0.07477754441385077   0.027265424257682008
0.09813430887452908   0.07477754441385077   0.027265424257682008
0.09813430887452908   0.07477754441385077   0.027265424257682008
0.09542893535520261   0.09873224742279826   0.016147592956869336
0.09542893535520261   0.09873224742279826   0.016147592956869336
0.09542893535520261   0.09873224742279826   0.016147592956869336
0.09542893535520261   0.09873224742279826   0.016147592956869336
-0.8923580277581329   -0.08192066797264155   -0.030043263885771367
-0.8923580277581329   -0.08192066797264155   -0.030043263885771367
-0.8923580277581329   -0.08192066797264155   -0.030043263885771367
-0.8923580277581329   -0.08192066797264155   -0.030043263885771367
-0.39891219522219673   -0.01647528505949472   0.00478320270227474
-0.39891219522219673   -0.01647528505949472   0.00478320270227474
-0.39891219522219673   -0.01647528505949472   0.00478320270227474
-0.39891219522219673   -0.01647528505949472   0.00478320270227474
-0.8947455331930639   -0.10609371390403517   -0.017807745129031664
-0.8947455331930639   -0.10609371390403517   -0.017807745129031664
-0.8947455331930639   -0.10609371390403517   -0.017807745129031664
-0.8947455331930639   -0.10609371390403517   -0.017807745129031664
0.10152280007772009   0.1266116526417786   0.018737511350476403
0.10152280007772009   0.1266116526417786   0.018737511350476403
0.10152280007772009   0.1266116526417786   0.018737511350476403
0.10152280007772009   0.1266116526417786   0.018737511350476403
0.09759491056790398   0.15173235882700034   0.026590916115305892
0.09759491056790398   0.15173235882700034   0.026590916115305892
0.09759491056790398   0.15173235882700034   0.026590916115305892
0.09759491056790398   0.15173235882700034   0.026590916115305892
-0.8807164822993717   -0.0260730579434367   -0.03784633146063122
-0.8807164822993717   -0.0260730579434367   -0.03784633146063122
-0.8807164822993717   -0.0260730579434367   -0.03784633146063122
-0.8807164822993717   -0.0260730579434367   -0.03784633146063122
-0.38896354794424404   0.036471870426928094   0.024033809972805822
-0.38896354794424404   0.036471870426928094   0.024033809972805822
-0.38896354794424404   0.036471870426928094   0.024033809972805822
-0.38896354794424404   0.036471870426928094   0.024033809972805822
0.0426767937296143   -0.14840417881510376   -0.04629552521383241
0.0426767937296143   -0.14840417881510376   -0.04629552521383241
0.0426767937296143   -0.14840417881510376   -0.04629552521383241
0.0426767937296143   -0.14840417881510376   -0.04629552521383241
1.0621976944137668   0.07334588561064195   0.06371178880030956
1.0621976944137668   0.07334588561064195   0.06371178880030956
1.0621976944137668   0.07334588561064195   0.06371178880030956
1.0621976944137668   0.07334588561064195   0.06371178880030956
1.0608850176130324   0.0987776756309386   -0.010177959488465817
1.0608850176130324   0.0987776756309386   -0.010177959488465817
1.0608850176130324   0.0987776756309386   -0.010177959488465817
1.0608850176130324   0.0987776756309386   -0.010177959488465817
0.061157074569332524   -0.0891873808322328   0.006344177977782708
0.061157074569332524   -0.0891873808322328   0.006344177977782708
0.061157074569332524   -0.0891873808322328   0.006344177977782708
0.061157074569332524   -0.0891873808322328   0.006344177977782708
0.5498719044910232   -0.01269546538309109   0.0011806450660214324
0.5498719044910232   -0.01269546538309109   0.0011806450660214324
0.5498719044910232   -0.01269546538309109   0.0011806450660214324
0.5498719044910232   -0.01269546538309109   0.0011806450660214324
0.049126244713384434   -0.10844829789844647   -0.0345490542357433
0.049126244713384434   -0.10844829789844647   -0.0345490542357433
0.049126244713384434   -0.10844829789844647   -0.0345490542357433
0.049126244713384434   -0.10844829789844647   -0.0345490542357433
1.0791046266240352   0.12422737185220566   0.05547038934528001
1.0791046266240352   0.12422737185220566   0.05547038934528001
1.0791046266240352   0.12422737185220566   0.05547038934528001
1.0791046266240352   0.12422737185220566   0.05547038934528001
1.0692385600727867   0.1458901944876429   0.010802693039004867
1.0692385600727867   0.1458901944876429   0.010802693039004867
1.0692385600727867   0.1458901944876429   0.010802693039004867
1.0692385600727867   0.1458901944876429   0.010802693039004867
0.06332154240294614   -0.04250373871850794   -0.0031533856631067864
0.06332154240294614   -0.04250373871850794   -0.0031533856631067864
0.06332154240294614   -0.04250373871850794   -0.0031533856631067864
0.06332154240294614   -0.04250373871850794   -0.0031533856631067864
0.5571933658008636   0.03233971914300175   0.0227917767123071
0.5571933658008636   0.03233971914300175   0.0227917767123071
0.5571933658008636   0.03233971914300175   0.0227917767123071
0.5571933658008636   0.03233971914300175   0.0227917767123071
0.054560909782968355   -0.06424827639535209   -0.025212011086151655
0.054560909782968355   -0.06424827639535209   -0.025212011086151655
0.054560909782968355   -0.06424827639535209   -0.025212011086151655
0.054560909782968355   -0.06424827639535209   -0.025212011086151655
1.0824771635251937   0.17211270299691483   0.05077320179176723
1.0824771635251937   0.17211270299691483   0.05077320179176723
1.0824771635251937   0.17211270299691483   0.05077320179176723
1.0824771635251937   0.17211270299691483   0.05077320179176723
1.0520581839586922   0.20026592402186422   0.02269402343227983
1.0520581839586922   0.20026592402186422   0.02269402343227983
1.0520581839586922   0.20026592402186422   0.02269402343227983
1.0520581839586922   0.20026592402186422   0.02269402343227983
0.06273859809502706   0.015319476793616251   -0.011277764215694703
0.06273859809502706   0.015319476793616251   -0.011277764215694703
0.06273859809502706   0.015319476793616251   -0.011277764215694703
0.06273859809502706   0.015319476793616251   -0.011277764215694703
0.565415216277594   0.08382688165675717   0.042793926808777354
0.565415216277594   0.08382688165675717   0.042793926808777354
0.565415216277594   0.08382688165675717   0.042793926808777354
0.565415216277594   0.08382688165675717   0.042793926808777354
0.9785484745894331   -0.19565635124278696   -0.08553207346793065
0.9785484745894331   -0.19565635124278696   -0.08553207346793065
0.9785484745894331   -0.19565635124278696   -0.08553207346793065
0.9785484745894331   -0.19565635124278696   -0.08553207346793065
2.014703732938507   0.13307191909937843   0.06201598349065873
2.014703732938507   0.13307191909937843   0.06201598349065873
2.014703732938507   0.13307191909937843   0.06201598349065873
2.014703732938507   0.13307191909937843   0.06201598349065873
2.0374700245290995   0.06324122599107962   -0.128656761604421
2.0374700245290995   0.06324122599107962   -0.128656761604421
2.0374700245290995   0.06324122599107962   -0.128656761604421
2.0374700245290995   0.06324122599107962   -0.128656761604421
1.0425350769002675   -0.04021672966403561   0.03706674224267352
1.0425350769002675   -0.04021672966403561   0.03706674224267352
1.0425350769002675   -0.04021672966403561   0.03706674224267352
1.0425350769002675   -0.04021672966403561   0.03706674224267352
1.4428416516318687   -0.025146493738404274   -0.03605179901748294
1.4428416516318687   -0.025146493738404274   -0.03605179901748294
1.4428416516318687   -0.025146493738404274   -0.03605179901748294
1.4428416516318687   -0.025146493738404274   -0.03605179901748294
1.0060877258531151   -0.12865102496221187   -0.05673571769489982
1.0060877258531151   -0.12865102496221187   -0.05673571769489982
1.0060877258531151   -0.12865102496221187   -0.05673571769489982
1.0060877258531151   -0.12865102496221187   -0.05673571769489982
2.0924067160172135   0.170164861730223   0.03910306009702079
2.0924067160172135   0.170164861730223   0.03910306009702079
2.0924067160172135   0.170164861730223   0.03910306009702079
2.0924067160172135   0.170164861730223   0.03910306009702079
2.0598725335232437   0.11507503778057221   -0.029060370846791812
2.0598725335232437   0.11507503778057221   -0.029060370846791812
2.0598725335232437   0.11507503778057221   -0.029060370846791812
2.0598725335232437   0.11507503778057221   -0.029060370846791812
1.0383271457531558   -0.016944669060141665   0.01908048498863449
1.0383271457531558   -0.016944669060141665   0.01908048498863449
1.0383271457531558   -0.016944669060141665   0.01908048498863449
1.0383271457531558   -0.016944669060141665   0.01908048498863449
1.5183168636312716   0.03792267415457734   0.02493788975473464
1.5183168636312716   0.03792267415457734   0.02493788975473464
1.5183168636312716   0.03792267415457734   0.02493788975473464
1.5183168636312716   0.03792267415457734   0.02493788975473464
1.0090949270420202   -0.09839455405979128   -0.04563072356738545
1.0090949270420202   -0.09839455405979128   -0.04563072356738545
1.0090949270420202   -0.09839455405979128   -0.04563072356738545
1.0090949270420202   -0.09839455405979128   -0.04563072356738545
2.0866511889417434   0.19407135948758697   0.025836584538690158
2.0866511889417434   0.19407135948758697   0.025836584538690158
2.0866511889417434   0.19407135948758697   0.025836584538690158
2.0866511889417434   0.19407135948758697   0.025836584538690158
2.056377766635303   0.1760307244552986   -0.04451782615968394
2.056377766635303   0.1760307244552986   -0.04451782615968394
2.056377766635303   0.1760307244552986   -0.04451782615968394
2.056377766635303   0.1760307244552986   -0.04451782615968394
1.0169255825156638   0.03671382937376705   0.010583110865231685
1.0169255825156638   0.03671382937376705   0.010583110865231685
1.0169255825156638   0.03671382937376705   0.010583110865231685
1.0169255825156638   0.03671382937376705   0.010583110865231685
1.4794592777375712   0.06644092196198292   0.018453608210733885
1.4794592777375712   0.06644092196198292   0.018453608210733885
1.4794592777375712   0.06644092196198292   0.018453608210733885
1.4794592777375712   0.06644092196198292   0.018453608210733885
-2.2122657860199775   -0.10046771869458798   0.11370069686449785
-2.2122657860199775   -0.10046771869458798   0.11370069686449785
-2.2122657860199775   -0.10046771869458798   0.11370069686449785
-2.2122657860199775   -0.10046771869458798   0.11370069686449785
-1.4689174881397449   -0.05568824092876601   -0.029585433381445037
-1.4689174881397449   -0.05568824092876601   -0.029585433381445037
-1.4689174881397449   -0.05568824092876601   -0.029585433381445037
-1.4689174881397449   -0.05568824092876601   -0.029585433381445037
-1.4160509687729106   0.11897937234902972   0.09541089283986628
-1.4160509687729106   0.11897937234902972   0.09541089283986628
-1.4160509687729106   0.11897937234902972   0.09541089283986628
-1.4160509687729106   0.11897937234902972   0.09541089283986628
-2.2224888907492226   -0.15862819458480681   -0.046369365499936865
-2.2224888907492226   -0.15862819458480681   -0.046369365499936865
-2.2224888907492226   -0.15862819458480681   -0.046369365499936865
-2.2224888907492226   -0.15862819458480681   -0.046369365499936865
-1.7556068433640517   -0.027147657860452423   -0.003155506047265
-1.7556068433640517   -0.027147657860452423   -0.003155506047265
-1.7556068433640517   -0.027147657860452423   -0.003155506047265
-1.7556068433640517   -0.027147657860452423   -0.003155506047265
-2.1607125009605954   -0.0235485290706684   0.1274329179290613
-2.1607125009605954   -0.0235485290706684   0.1274329179290613
-2.1607125009605954   -0.0235485290706684   0.1274329179290613
-2.1607125009605954   -0.0235485290706684   0.1274329179290613
-1.4680957312225618   -0.006368665826132824   -0.03946488123322785
-1.4680957312225618   -0.006368665826132824   -0.03946488123322785
-1.4680957312225618   -0.006368665826132824   -0.03946488123322785
-1.4680957312225618   -0.006368665826132824   -0.03946488123322785
-1.410299013161199   0.14755874616418552   0.08845375887924296
-1.410299013161199   0.14755874616418552   0.08845375887924296
-1.410299013161199   0.14755874616418552   0.08845375887924296
-1.410299013161199   0.14755874616418552   0.08845375887924296
-2.188129657704842   -0.13272480712865886   -0.06350050845547628
-2.188129657704842   -0.13272480712865886   -0.06350050845547628
-2.188129657704842   -0.13272480712865886   -0.06350050845547628
-2.188129657704842   -0.13272480712865886   -0.06350050845547628
-1.759395206762216   0.0064314040422088214   0.020319562863790205
-1.759395206762216   0.0064314040422088214   0.020319562863790205
-1.759395206762216   0.0064314040422088214   0.020319562863790205
-1.759395206762216   0.0064314040422088214   0.020319562863790205
-2.1305975205729784   0.0034128057675151813   0.08802256430766867
-2.1305975205729784   0.0034128057675151813   0.08802256430766867
-2.1305975205729784   0.0034128057675151813   0.08802256430766867
-2.1305975205729784   0.0034128057675151813   0.08802256430766867
-1.4646234826387807   0.014628800922296237   -0.05023864326676214
-1.4646234826387807   0.014628800922296237   -0.05023864326676214
-1.4646234826387807   0.014628800922296237   -0.05023864326676214
-1.4646234826387807   0.014628800922296237   -0.05023864326676214
-1.4116847721668229   0.16651288949289345   0.07018421578387425
-1.4116847721668229   0.16651288949289345   0.07018421578387425
-1.4116847721668229   0.16651288949289345   0.07018421578387425
-1.4116847721668229   0.16651288949289345   0.07018421578387425
-2.1435133124059873   -0.10521706209958293   -0.08098809041675709
-2.1435133124059873   -0.10521706209958293   -0.08098809041675709
-2.1435133124059873   -0.10521706209958293   -0.08098809041675709
-2.1435133124059873   -0.10521706209958293   -0.08098809041675709
-1.7088724443764376   0.036493607458693345   0.04221035780195602
-1.7088724443764376   0.036493607458693345   0.04221035780195602
-1.7088724443764376   0.036493607458693345   0.04221035780195602
-1.7088724443764376   0.036493607458693345   0.04221035780195602
-1.4733550276731693   -0.13967964880611755   0.03221827682878504
-1.4733550276731693   -0.13967964880611755   0.03221827682878504
-1.4733550276731693   -0.13967964880611755   0.03221827682878504
-1.4733550276731693   -0.13967964880611755   0.03221827682878504
-0.7437904682475115   -0.02682723898223338   0.0014385140292749038
-0.7437904682475115   -0.02682723898223338   0.0014385140292749038
-0.7437904682475115   -0.02682723898223338   0.0014385140292749038
-0.7437904682475115   -0.02682723898223338   0.0014385140292749038
-0.7227340494349503   0.07309957836890627   0.05185974221535869
-0.7227340494349503   0.07309957836890627   0.05185974221535869
-0.7227340494349503   0.07309957836890627   0.05185974221535869
-0.7227340494349503   0.07309957836890627   0.05185974221535869
-1.4967934269104746   -0.1377492104575732   -0.051572815041352665
-1.4967934269104746   -0.1377492104575732   -0.051572815041352665
-1.4967934269104746   -0.1377492104575732   -0.051572815041352665
-1.4967934269104746   -0.1377492104575732   -0.051572815041352665
-1.10521932458149   -0.054234309663753394   -0.022356304807429624
-1.10521932458149   -0.054234309663753394   -0.022356304807429624
-1.10521932458149   -0.054234309663753394   -0.022356304807429624
-1.10521932458149   -0.054234309663753394   -0.022356304807429624
-1.4687332875420227   -0.08023040285576208   0.03120907419908871
-1.4687332875420227   -0.08023040285576208   0.03120907419908871
-1.4687332875420227   -0.08023040285576208   0.03120907419908871
-1.4687332875420227   -0.08023040285576208   0.03120907419908871
-0.7451048001668995   0.021270159403595196   -0.008164592479070268
-0.7451048001668995   0.021270159403595196   -0.008164592479070268
-0.7451048001668995   0.021270159403595196   -0.008164592479070268
-0.7451048001668995   0.021270159403595196   -0.008164592479070268
-0.7204584242438793   0.12075973789731587   0.04487273799107076
-0.7204584242438793   0.12075973789731587   0.04487273799107076
-0.7204584242438793   0.12075973789731587   0.04487273799107076
-0.7204584242438793   0.12075973789731587   0.04487273799107076
-1.488331259559095   -0.09325872767561949   -0.06088999927043186
-1.488331259559095   -0.09325872767561949   -0.06088999927043186
-1.488331259559095   -0.09325872767561949   -0.06088999927043186
-1.488331259559095   -0.09325872767561949   -0.06088999927043186
-1.0931687131617058   -0.006004728031973466   -5.9366651411131566e-05
-1.0931687131617058   -0.006004728031973466   -5.9366651411131566e-05
-1.0931687131617058   -0.006004728031973466   -5.9366651411131566e-05
-1.0931687131617058   -0.006004728031973466   -5.9366651411131566e-05
-1.4596973858925002   -0.0318820614610314   0.02090270284795393
-1.4596973858925002   -0.0318820614610314   0.02090270284795393
-1.4596973858925002   -0.0318820614610314   0.02090270284795393
-1.4596973858925002   -0.0318820614610314   0.02090270284795393
-0.744459353779426   0.0640160158137773   -0.01838818760311703
-0.744459353779426   0.0640160158137773   -0.01838818760311703
-0.744459353779426   0.0640160158137773   -0.01838818760311703
-0.744459353779426   0.0640160158137773   -0.01838818760311703
-0.7202579372520416   0.17083861676209913   0.03362771248994223
-0.7202579372520416   0.17083861676209913   0.03362771248994223
-0.7202579372520416   0.17083861676209913   0.03362771248994223
-0.7202579372520416   0.17083861676209913   0.03362771248994223
-1.4811810230156797   -0.045256864534103936   -0.06552728443342225
-1.4811810230156797   -0.045256864534103936   -0.06552728443342225
-1.4811810230156797   -0.045256864534103936   -0.06552728443342225
-1.4811810230156797   -0.045256864534103936   -0.06552728443342225
-1.0938959888121795   0.03821628570694299   0.016978680402166463
-1.0938959888121795   0.03821628570694299   0.016978680402166463
-1.0938959888121795   0.03821628570694299   0.016978680402166463
-1.0938959888121795   0.03821628570694299   0.016978680402166463
-0.7715198520835872   -0.15959859178766098   -0.004437052345682132
-0.7715198520835872   -0.15959859178766098   -0.004437052345682132
-0.7715198520835872   -0.15959859178766098   -0.004437052345682132
-0.7715198520835872   -0.15959859178766098   -0.004437052345682132
-0.025398335207460418   0.007980906386905282   0.03294974969837395
-0.025398335207460418   0.007980906386905282   0.03294974969837395
-0.025398335207460418   0.007980906386905282   0.03294974969837395
-0.025398335207460418   0.007980906386905282   0.03294974969837395
-0.028232856652184203   0.0471997500384984   0.015743617907625754
-0.028232856652184203   0.0471997500384984   0.015743617907625754
-0.028232856652184203   0.0471997500384984   0.015743617907625754
-0.028232856652184203   0.0471997500384984   0.015743617907625754
-0.7720513440190322   -0.10231578250630644   -0.019311369829844258
-0.7720513440190322   -0.10231578250630644   -0.019311369829844258
-0.7720513440190322   -0.10231578250630644   -0.019311369829844258
-0.7720513440190322   -0.10231578250630644   -0.019311369829844258
-0.4005236473094007   -0.05000903027221122   -0.012505479340363605
-0.4005236473094007   -0.05000903027221122   -0.012505479340363605
-0.4005236473094007   -0.05000903027221122   -0.012505479340363605
-0.4005236473094007   -0.05000903027221122   -0.012505479340363605
-0.7712204392109501   -0.10670084642827282   -0.01077178186746106
-0.7712204392109501   -0.10670084642827282   -0.01077178186746106
-0.7712204392109501   -0.10670084642827282   -0.01077178186746106
-0.7712204392109501   -0.10670084642827282   -0.01077178186746106
-0.024821925313573454   0.055826650107158114   0.024171374532019785
-0.024821925313573454   0.055826650107158114   0.024171374532019785
-0.024821925313573454   0.055826650107158114   0.024171374532019785
-0.024821925313573454   0.055826650107158114   0.024171374532019785
-0.024727247423356923   0.09912673093180868   0.007562950301696174
-0.024727247423356923   0.09912673093180868   0.007562950301696174
-0.024727247423356923   0.09912673093180868   0.007562950301696174
-0.024727247423356923   0.09912673093180868   0.007562950301696174
-0.7701229867661893   -0.054390062536263814   -0.028300274186899923
-0.7701229867661893   -0.054390062536263814   -0.028300274186899923
-0.7701229867661893   -0.054390062536263814   -0.028300274186899923
-0.7701229867661893   -0.054390062536263814   -0.028300274186899923
-0.3966459362786303   -0.00199086182049224   0.005509001620183827
-0.3966459362786303   -0.00199086182049224   0.005509001620183827
-0.3966459362786303   -0.00199086182049224   0.005509001620183827
-0.3966459362786303   -0.00199086182049224   0.005509001620183827
-0.7689634752061543   -0.055509717058073296   -0.021383061864915048
-0.7689634752061543   -0.055509717058073296   -0.021383061864915048
-0.7689634752061543   -0.055509717058073296   -0.021383061864915048
-0.7689634752061543   -0.055509717058073296   -0.021383061864915048
-0.022383996137515422   0.1037491482994945   0.014656789363217867
-0.022383996137515422   0.1037491482994945   0.014656789363217867
-0.022383996137515422   0.1037491482994945   0.014656789363217867
-0.022383996137515422   0.1037491482994945   0.014656789363217867
-0.0239923695292742   0.15260777112797388   -0.0011662988736835037
-0.0239923695292742   0.15260777112797388   -0.0011662988736835037
-0.0239923695292742   0.15260777112797388   -0.0011662988736835037
-0.0239923695292742   0.15260777112797388   -0.0011662988736835037
-0.769756688190687   -0.005647139827548192   -0.03738028561363397
-0.769756688190687   -0.005647139827548192   -0.03738028561363397
-0.769756688190687   -0.005647139827548192   -0.03738028561363397
-0.769756688190687   -0.005647139827548192   -0.03738028561363397
-0.39363742142436325   0.046072773814520226   0.022028404840617858
-0.39363742142436325   0.046072773814520226   0.022028404840617858
-0.39363742142436325   0.046072773814520226   0.022028404840617858
-0.39363742142436325   0.046072773814520226   0.022028404840617858
-0.0761732326388545   -0.17471618647856912   -0.038227644593121966
-0.0761732326388545   -0.17471618647856912   -0.038227644593121966
-0.0761732326388545   -0.17471618647856912   -0.038227644593121966
-0.0761732326388545   -0.17471618647856912   -0.038227644593121966
0.6903227953650122   0.048733848374686875   0.06263785002108822
0.6903227953650122   0.048733848374686875   0.06263785002108822
0.6903227953650122   0.048733848374686875   0.06263785002108822
0.6903227953650122   0.048733848374686875   0.06263785002108822
0.6677488480201751   0.025929902856531475   -0.024661177029230784
0.6677488480201751   0.025929902856531475   -0.024661177029230784
0.6677488480201751   0.025929902856531475   -0.024661177029230784
0.6677488480201751   0.025929902856531475   -0.024661177029230784
-0.05093386986535281   -0.06400679967427751   0.013445101554558588
-0.05093386986535281   -0.06400679967427751   0.013445101554558588
-0.05093386986535281   -0.06400679967427751   0.013445101554558588
-0.05093386986535281   -0.06400679967427751   0.013445101554558588
0.3033862210479864   -0.040392190232103956   -0.007047951696148965
0.3033862210479864   -0.040392190232103956   -0.007047951696148965
0.3033862210479864   -0.040392190232103956   -0.007047951696148965
0.3033862210479864   -0.040392190232103956   -0.007047951696148965
-0.07591408297424669   -0.1274691672244541   -0.04799359643973419
-0.07591408297424669   -0.1274691672244541   -0.04799359643973419
-0.07591408297424669   -0.1274691672244541   -0.04799359643973419
-0.07591408297424669   -0.1274691672244541   -0.04799359643973419
0.6975532569511547   0.09421646622879276   0.056074304253402485
0.6975532569511547   0.09421646622879276   0.056074304253402485
0.6975532569511547   0.09421646622879276   0.056074304253402485
0.6975532569511547   0.09421646622879276   0.056074304253402485
0.6785104507940635   0.07423535005635859   -0.034646850179883774
0.6785104507940635   0.07423535005635859   -0.034646850179883774
0.6785104507940635   0.07423535005635859   -0.034646850179883774
0.6785104507940635   0.07423535005635859   -0.034646850179883774
-0.04950791828837214   -0.021068765839332315   0.0038550927477614006
-0.04950791828837214   -0.021068765839332315   0.0038550927477614006
-0.04950791828837214   -0.021068765839332315   0.0038550927477614006
-0.04950791828837214   -0.021068765839332315   0.0038550927477614006
0.3060213479810265   0.003039496046342488   0.01084896342590137
0.3060213479810265   0.003039496046342488   0.01084896342590137
0.3060213479810265   0.003039496046342488   0.01084896342590137
0.3060213479810265   0.003039496046342488   0.01084896342590137
-0.07380207887225879   -0.08086223420260777   -0.05782224180839668
-0.07380207887225879   -0.08086223420260777   -0.05782224180839668
-0.07380207887225879   -0.08086223420260777   -0.05782224180839668
-0.07380207887225879   -0.08086223420260777   -0.05782224180839668
0.7080616046644383   0.13928581170612186   0.04805845752222176
0.7080616046644383   0.13928581170612186   0.04805845752222176
0.7080616046644383   0.13928581170612186   0.04805845752222176
0.7080616046644383   0.13928581170612186   0.04805845752222176
0.6851316628482677   0.13482286958208495   -0.036153865026584166
0.6851316628482677   0.13482286958208495   -0.036153865026584166
0.6851316628482677   0.13482286958208495   -0.036153865026584166
0.6851316628482677   0.13482286958208495   -0.036153865026584166
-0.04959828112409719   0.029123176311810783   -0.005711262031634839
-0.04959828112409719   0.029123176311810783   -0.005711262031634839
-0.04959828112409719   0.029123176311810783   -0.005711262031634839
-0.04959828112409719   0.029123176311810783   -0.005711262031634839
0.3165610745701446   0.05148533514802682   0.03210866447973809
0.3165610745701446   0.05148533514802682   0.03210866447973809
0.3165610745701446   0.05148533514802682   0.03210866447973809
0.3165610745701446   0.05148533514802682   0.03210866447973809
0.6184791309312206   -0.1734546022957057   -0.07439202147746911
0.6184791309312206   -0.1734546022957057   -0.07439202147746911
0.6184791309312206   -0.1734546022957057   -0.07439202147746911
0.6184791309312206   -0.1734546022957057   -0.07439202147746911
1.3593987946100552   0.10099349300599203   0.06959994670400009
1.3593987946100552   0.10099349300599203   0.06959994670400009
1.3593987946100552   0.10099349300599203   0.06959994670400009
1.3593987946100552   0.10099349300599203   0.06959994670400009
1.3487909130881945   -0.006182399723791032   -0.09901744424403813
1.3487909130881945   -0.006182399723791032   -0.09901744424403813
1.3487909130881945   -0.006182399723791032   -0.09901744424403813
1.3487909130881945   -0.006182399723791032   -0.09901744424403813
0.6739212553411793   -0.014566674924218342   0.046697437356540555
0.6739212553411793   -0.014566674924218342   0.046697437356540555
0.6739212553411793   -0.014566674924218342   0.046697437356540555
0.6739212553411793   -0.014566674924218342   0.046697437356540555
0.951602117632883   -0.0337841094252995   -0.03118213023195692
0.951602117632883   -0.0337841094252995   -0.03118213023195692
0.951602117632883   -0.0337841094252995   -0.03118213023195692
0.951602117632883   -0.0337841094252995   -0.03118213023195692
0.6190686965489622   -0.15062480040715306   -0.09150723112160652
0.6190686965489622   -0.15062480040715306   -0.09150723112160652
0.6190686965489622   -0.15062480040715306   -0.09150723112160652
0.6190686965489622   -0.15062480040715306   -0.09150723112160652
1.4075856346994904   0.13381788857822377   0.054955875510425016
1.4075856346994904   0.13381788857822377   0.054955875510425016
1.4075856346994904   0.13381788857822377   0.054955875510425016
1.4075856346994904   0.13381788857822377   0.054955875510425016
1.3817665117489761   0.021370329709126057   -0.13278388716084724
1.3817665117489761   0.021370329709126057   -0.13278388716084724
1.3817665117489761   0.021370329709126057   -0.13278388716084724
1.3817665117489761   0.021370329709126057   -0.13278388716084724
0.678838378458915   0.006450085742951833   0.034778052457786965
0.678838378458915   0.006450085742951833   0.034778052457786965
0.678838378458915   0.006450085742951833   0.034778052457786965
0.678838378458915   0.006450085742951833   0.034778052457786965
0.9945819675516315   -0.004007084072588041   -0.009534862103322772
0.9945819675516315   -0.004007084072588041   -0.009534862103322772
0.9945819675516315   -0.004007084072588041   -0.009534862103322772
0.9945819675516315   -0.004007084072588041   -0.009534862103322772
0.6260555657094224   -0.12312688931330096   -0.09955903623342985
0.6260555657094224   -0.12312688931330096   -0.09955903623342985
0.6260555657094224   -0.12312688931330096   -0.09955903623342985
0.6260555657094224   -0.12312688931330096   -0.09955903623342985
1.4432555290168947   0.15965350928380584   0.03637801960407737
1.4432555290168947   0.15965350928380584   0.03637801960407737
1.4432555290168947   0.15965350928380584   0.03637801960407737
1.4432555290168947   0.15965350928380584   0.03637801960407737
1.434132418038558   0.0930648812473002   -0.12486846529000428
1.434132418038558   0.0930648812473002   -0.12486846529000428
1.434132418038558   0.0930648812473002   -0.12486846529000428
1.434132418038558   0.0930648812473002   -0.12486846529000428
0.6810580811508399   0.0529170879917486   0.02538400807662701
0.6810580811508399   0.0529170879917486   0.02538400807662701
0.6810580811508399   0.0529170879917486   0.02538400807662701
0.6810580811508399   0.0529170879917486   0.02538400807662701
1.0018475190091216   0.030058063117348016   0.014402445759331153
1.0018475190091216   0.030058063117348016   0.014402445759331153
1.0018475190091216   0.030058063117348016   0.014402445759331153
1.0018475190091216   0.030058063117348016   0.014402445759331153
-1.5821227805221858   -0.051798243371332764   0.10306984678816533
-1.5821227805221858   -0.051798243371332764   0.10306984678816533
-1.5821227805221858   -0.051798243371332764   0.10306984678816533
-1.5821227805221858   -0.051798243371332764   0.10306984678816533
-1.106530536427748   -0.0738043558086911   -0.03895439561450357
-1.106530536427748   -0.0738043558086911   -0.03895439561450357
-1.106530536427748   -0.0738043558086911   -0.03895439561450357
-1.106530536427748   -0.0738043558086911   -0.03895439561450357
-1.0415761028898418   0.10440868172699422   0.08790222819968756
-1.0415761028898418   0.10440868172699422   0.08790222819968756
-1.0415761028898418   0.10440868172699422   0.08790222819968756
-1.0415761028898418   0.10440868172699422   0.08790222819968756
-1.5822509050313618   -0.13021441885294838   -0.056975505352351546
-1.5822509050313618   -0.13021441885294838   -0.056975505352351546
-1.5822509050313618   -0.13021441885294838   -0.056975505352351546
-1.5822509050313618   -0.13021441885294838   -0.056975505352351546
-1.2736865304598666   -0.020324377553528006   -0.002719086656391159
-1.2736865304598666   -0.020324377553528006   -0.002719086656391159
-1.2736865304598666   -0.020324377553528006   -0.002719086656391159
-1.2736865304598666   -0.020324377553528006   -0.002719086656391159
-1.5231771776624885   0.01011980305028548   0.09805890958878329
-1.5231771776624885   0.01011980305028548   0.09805890958878329
-1.5231771776624885   0.01011980305028548   0.09805890958878329
-1.5231771776624885   0.01011980305028548   0.09805890958878329
-1.095845717306596   -0.031121427224117648   -0.0479157349329636
-1.095845717306596   -0.031121427224117648   -0.0479157349329636
-1.095845717306596   -0.031121427224117648   -0.0479157349329636
-1.095845717306596   -0.031121427224117648   -0.0479157349329636
-1.0317708417248006   0.12610606637995295   0.07429504310754123
-1.0317708417248006   0.12610606637995295   0.07429504310754123
-1.0317708417248006   0.12610606637995295   0.07429504310754123
-1.0317708417248006   0.12610606637995295   0.07429504310754123
-1.5448608090930507   -0.10603111753409086   -0.07204033484944364
-1.5448608090930507   -0.10603111753409086   -0.07204033484944364
-1.5448608090930507   -0.10603111753409086   -0.07204033484944364
-1.5448608090930507   -0.10603111753409086   -0.07204033484944364
-1.2648255971386444   0.008299628938527759   0.013425304620082519
-1.2648255971386444   0.008299628938527759   0.013425304620082519
-1.2648255971386444   0.008299628938527759   0.013425304620082519
-1.2648255971386444   0.008299628938527759   0.013425304620082519
-1.486285239966004   0.036087880633786484   0.07871851261791352
-1.486285239966004   0.036087880633786484   0.07871851261791352
-1.486285239966004   0.036087880633786484   0.07871851261791352
-1.486285239966004   0.036087880633786484   0.07871851261791352
-1.086001363613524   -0.011667884549604213   -0.05908361540650661
-1.086001363613524   -0.011667884549604213   -0.05908361540650661
-1.086001363613524   -0.011667884549604213   -0.05908361540650661
-1.086001363613524   -0.011667884549604213   -0.05908361540650661
-1.0263396659488606   0.14720183047140573   0.06393272598104344
-1.0263396659488606   0.14720183047140573   0.06393272598104344
-1.0263396659488606   0.14720183047140573   0.06393272598104344
-1.0263396659488606   0.14720183047140573   0.06393272598104344
-1.4947651018434676   -0.0740734384508756   -0.08626122880416115
-1.4947651018434676   -0.0740734384508756   -0.08626122880416115
-1.4947651018434676   -0.0740734384508756   -0.08626122880416115
-1.4947651018434676   -0.0740734384508756   -0.08626122880416115
-1.2173932521540316   0.03510436914342607   0.03609380668697429
-1.2173932521540316   0.03510436914342607   0.03609380668697429
-1.2173932521540316   0.03510436914342607   0.03609380668697429
-1.2173932521540316   0.03510436914342607   0.03609380668697429
-1.0941489667440993   -0.08946401840699958   0.03861311540203712
-1.0941489667440993   -0.08946401840699958   0.03861311540203712
-1.0941489667440993   -0.08946401840699958   0.03861311540203712
-1.0941489667440993   -0.08946401840699958   0.03861311540203712
-0.634067721195795   -0.0478266900090699   -0.00628548902187355
-0.634067721195795   -0.0478266900090699   -0.00628548902187355
-0.634067721195795   -0.0478266900090699   -0.00628548902187355
-0.634067721195795   -0.0478266900090699   -0.00628548902187355
-0.6018599417006754   0.06103131564549155   0.04739633026418742
-0.6018599417006754   0.06103131564549155   0.04739633026418742
-0.6018599417006754   0.06103131564549155   0.04739633026418742
-0.6018599417006754   0.06103131564549155   0.04739633026418742
-1.1105846058411242   -0.10643938874524111   -0.04629221608448847
-1.1105846058411242   -0.10643938874524111   -0.04629221608448847
-1.1105846058411242   -0.10643938874524111   -0.04629221608448847
-1.1105846058411242   -0.10643938874524111   -0.04629221608448847
-0.8566933309231612   -0.04180106121125657   -0.017453305073001635
-0.8566933309231612   -0.04180106121125657   -0.017453305073001635
-0.8566933309231612   -0.04180106121125657   -0.017453305073001635
-0.8566933309231612   -0.04180106121125657   -0.017453305073001635
-1.0813336398309465   -0.0380317041576389   0.031554929378793964
-1.0813336398309465   -0.0380317041576389   0.031554929378793964
-1.0813336398309465   -0.0380317041576389   0.031554929378793964
-1.0813336398309465   -0.0380317041576389   0.031554929378793964
-0.6273595386292014   -0.0036249998604642175   -0.015445338872495995
-0.6273595386292014   -0.0036249998604642175   -0.015445338872495995
-0.6273595386292014   -0.0036249998604642175   -0.015445338872495995
-0.6273595386292014   -0.0036249998604642175   -0.015445338872495995
-0.5942033722736746   0.10551789779096055   0.038865240777047866
-0.5942033722736746   0.10551789779096055   0.038865240777047866
-0.5942033722736746   0.10551789779096055   0.038865240777047866
-0.5942033722736746   0.10551789779096055   0.038865240777047866
-1.0956477952589463   -0.0644431609205178   -0.054540497262713684
-1.0956477952589463   -0.0644431609205178   -0.054540497262713684
-1.0956477952589463   -0.0644431609205178   -0.054540497262713684
-1.0956477952589463   -0.0644431609205178   -0.054540497262713684
-0.8402456508177379   0.0019412102925547292   0.0013371495958156218
-0.8402456508177379   0.0019412102925547292   0.0013371495958156218
-0.8402456508177379   0.0019412102925547292   0.0013371495958156218
-0.8402456508177379   0.0019412102925547292   0.0013371495958156218
-1.0641828992562166   0.009514257170936846   0.02882656465947852
-1.0641828992562166   0.009514257170936846   0.02882656465947852
-1.0641828992562166   0.009514257170936846   0.02882656465947852
-1.0641828992562166   0.009514257170936846   0.02882656465947852
-0.6210096620087882   0.03621908596712051   -0.02586739607468016
-0.6210096620087882   0.03621908596712051   -0.02586739607468016
-0.6210096620087882   0.03621908596712051   -0.02586739607468016
-0.6210096620087882   0.03621908596712051   -0.02586739607468016
-0.5868061903109272   0.1529077159157255   0.030920785110972543
-0.5868061903109272   0.1529077159157255   0.030920785110972543
-0.5868061903109272   0.1529077159157255   0.030920785110972543
-0.5868061903109272   0.1529077159157255   0.030920785110972543
-1.0844628082401888   -0.019199022985231767   -0.060282132018965866
-1.0844628082401888   -0.019199022985231767   -0.060282132018965866
-1.0844628082401888   -0.019199022985231767   -0.060282132018965866
-1.0844628082401888   -0.019199022985231767   -0.060282132018965866
-0.8338800678298663   0.04308471611764467   0.0192244586401168
-0.8338800678298663   0.04308471611764467   0.0192244586401168
-0.8338800678298663   0.04308471611764467   0.0192244586401168
-0.8338800678298663   0.04308471611764467   0.0192244586401168
-0.6474856840540226   -0.12272242665541397   0.0015204333333361337
-0.6474856840540226   -0.12272242665541397   0.0015204333333361337
-0.6474856840540226   -0.12272242665541397   0.0015204333333361337
-0.6474856840540226   -0.12272242665541397   0.0015204333333361337
-0.16651818609251937   -0.01423355636046737   0.026407867166981337
-0.16651818609251937   -0.01423355636046737   0.026407867166981337
-0.16651818609251937   -0.01423355636046737   0.026407867166981337
-0.16651818609251937   -0.01423355636046737   0.026407867166981337
-0.16241332127676836   0.025275219009938905   0.009005615009118631
-0.16241332127676836   0.025275219009938905   0.009005615009118631
-0.16241332127676836   0.025275219009938905   0.009005615009118631
-0.16241332127676836   0.025275219009938905   0.009005615009118631
-0.6403816819832036   -0.07183176027119144   -0.012349295231779411
-0.6403816819832036   -0.07183176027119144   -0.012349295231779411
-0.6403816819832036   -0.07183176027119144   -0.012349295231779411
-0.6403816819832036   -0.07183176027119144   -0.012349295231779411
-0.40488697600458984   -0.0439205239475625   -0.012399645406289557
-0.40488697600458984   -0.0439205239475625   -0.012399645406289557
-0.40488697600458984   -0.0439205239475625   -0.012399645406289557
-0.40488697600458984   -0.0439205239475625   -0.012399645406289557
-0.6393396632203839   -0.07308780393198562   -0.005883157756883209
-0.6393396632203839   -0.07308780393198562   -0.005883157756883209
-0.6393396632203839   -0.07308780393198562   -0.005883157756883209
-0.6393396632203839   -0.07308780393198562   -0.005883157756883209
-0.15969459393133573   0.030292008778980015   0.017582461967240653
-0.15969459393133573   0.030292008778980015   0.017582461967240653
-0.15969459393133573   0.030292008778980015   0.017582461967240653
-0.15969459393133573   0.030292008778980015   0.017582461967240653
-0.1531687617317623   0.07513351328478293   0.002363379883906929
-0.1531687617317623   0.07513351328478293   0.002363379883906929
-0.1531687617317623   0.07513351328478293   0.002363379883906929
-0.1531687617317623   0.07513351328478293   0.002363379883906929
-0.632717939332542   -0.026998064737714364   -0.02119163198861394
-0.632717939332542   -0.026998064737714364   -0.02119163198861394
-0.632717939332542   -0.026998064737714364   -0.02119163198861394
-0.632717939332542   -0.026998064737714364   -0.02119163198861394
-0.39501358804964304   0.0008910874486828535   0.005306697458807845
-0.39501358804964304   0.0008910874486828535   0.005306697458807845
-0.39501358804964304   0.0008910874486828535   0.005306697458807845
-0.39501358804964304   0.0008910874486828535   0.005306697458807845
-0.6303680361957608   -0.02338921149440222   -0.013050969548020309
-0.6303680361957608   -0.02338921149440222   -0.013050969548020309
-0.6303680361957608   -0.02338921149440222   -0.013050969548020309
-0.6303680361957608   -0.02338921149440222   -0.013050969548020309
-0.1520464437117255   0.07499688119828878   0.008111602070585262
-0.1520464437117255   0.07499688119828878   0.008111602070585262
-0.1520464437117255   0.07499688119828878   0.008111602070585262
-0.1520464437117255   0.07499688119828878   0.008111602070585262
-0.14487800000551163   0.1257148819980808   -0.005448864670664286
-0.14487800000551163   0.1257148819980808   -0.005448864670664286
-0.14487800000551163   0.1257148819980808   -0.005448864670664286
-0.14487800000551163   0.1257148819980808   -0.005448864670664286
-0.6259876611845172   0.018356633134999578   -0.030435486476250093
-0.6259876611845172   0.018356633134999578   -0.030435486476250093
-0.6259876611845172   0.018356633134999578   -0.030435486476250093
-0.6259876611845172   0.018356633134999578   -0.030435486476250093
-0.3859985970792312   0.045917388208149335   0.022364953887056144
-0.3859985970792312   0.045917388208149335   0.022364953887056144
-0.3859985970792312   0.045917388208149335   0.022364953887056144
-0.3859985970792312   0.045917388208149335   0.022364953887056144
-0.2058992328487039   -0.14998692655596182   -0.0347439964184485
-0.2058992328487039   -0.14998692655596182   -0.0347439964184485
-0.2058992328487039   -0.14998692655596182   -0.0347439964184485
-0.2058992328487039   -0.14998692655596182   -0.0347439964184485
0.29493002538358   0.02344479573571285   0.05727130820814684
0.29493002538358   0.02344479573571285   0.05727130820814684
0.29493002538358   0.02344479573571285   0.05727130820814684
0.29493002538358   0.02344479573571285   0.05727130820814684
0.27447118035080015   -0.007990269243017697   -0.03187729650529532
0.27447118035080015   -0.007990269243017697   -0.03187729650529532
0.27447118035080015   -0.007990269243017697   -0.03187729650529532
0.27447118035080015   -0.007990269243017697   -0.03187729650529532
-0.1720022871787384   -0.03485146142718738   0.021187465936393153
-0.1720022871787384   -0.03485146142718738   0.021187465936393153
-0.1720022871787384   -0.03485146142718738   0.021187465936393153
-0.1720022871787384   -0.03485146142718738   0.021187465936393153
0.046007642542553795   -0.04117221727810978   -0.008822616682791174
0.046007642542553795   -0.04117221727810978   -0.008822616682791174
0.046007642542553795   -0.04117221727810978   -0.008822616682791174
0.046007642542553795   -0.04117221727810978   -0.008822616682791174
-0.1987823802114269   -0.10481534515437677   -0.04274911549985844
-0.1987823802114269   -0.10481534515437677   -0.04274911549985844
-0.1987823802114269   -0.10481534515437677   -0.04274911549985844
-0.1987823802114269   -0.10481534515437677   -0.04274911549985844
0.3057272895278603   0.06644963062854789   0.0499633495084401
0.3057272895278603   0.06644963062854789   0.0499633495084401
0.3057272895278603   0.06644963062854789   0.0499633495084401
0.3057272895278603   0.06644963062854789   0.0499633495084401
0.2916630251261111   0.0391718721068115   -0.036112660936002745
0.2916630251261111   0.0391718721068115   -0.036112660936002745
0.2916630251261111   0.0391718721068115   -0.036112660936002745
0.2916630251261111   0.0391718721068115   -0.036112660936002745
-0.16533032585006538   0.005243465624561523   0.011445606952611485
-0.16533032585006538   0.005243465624561523   0.011445606952611485
-0.16533032585006538   0.005243465624561523   0.011445606952611485
-0.16533032585006538   0.005243465624561523   0.011445606952611485
0.05514692715934969   -0.0005496637158125713   0.009186580012894175
0.05514692715934969   -0.0005496637158125713   0.009186580012894175
0.05514692715934969   -0.0005496637158125713   0.009186580012894175
0.05514692715934969   -0.0005496637158125713   0.009186580012894175
-0.19117416757288563   -0.06056588454431004   -0.05196425149261669
-0.19117416757288563   -0.06056588454431004   -0.05196425149261669
-0.19117416757288563   -0.06056588454431004   -0.05196425149261669
-0.19117416757288563   -0.06056588454431004   -0.05196425149261669
0.3213883499131443   0.10886270533989648   0.04282312976607648
0.3213883499131443   0.10886270533989648   0.04282312976607648
0.3213883499131443   0.10886270533989648   0.04282312976607648
0.3213883499131443   0.10886270533989648   0.04282312976607648
0.30550351685454197   0.09294137899757207   -0.041722046581467546
0.30550351685454197   0.09294137899757207   -0.041722046581467546
0.30550351685454197   0.09294137899757207   -0.041722046581467546
0.30550351685454197   0.09294137899757207   -0.041722046581467546
-0.1581988067825792   0.051483525187768026   0.0021784582543107125
-0.1581988067825792   0.051483525187768026   0.0021784582543107125
-0.1581988067825792   0.051483525187768026   0.0021784582543107125
-0.1581988067825792   0.051483525187768026   0.0021784582543107125
0.06928291762507635   0.043661897183065554   0.027842759801398227
0.06928291762507635   0.043661897183065554   0.027842759801398227
0.06928291762507635   0.043661897183065554   0.027842759801398227
0.06928291762507635   0.043661897183065554   0.027842759801398227
0.2347687456654335   -0.15155880421092194   -0.06853149043594935
0.2347687456654335   -0.15155880421092194   -0.06853149043594935
0.2347687456654335   -0.15155880421092194   -0.06853149043594935
0.2347687456654335   -0.15155880421092194   -0.06853149043594935
0.705380176737846   0.0694910672826217   0.07411260872591659
0.705380176737846   0.0694910672826217   0.07411260872591659
0.705380176737846   0.0694910672826217   0.07411260872591659
0.705380176737846   0.0694910672826217   0.07411260872591659
0.6983864596096889   -0.03705558887633223   -0.09021233667253843
0.6983864596096889   -0.03705558887633223   -0.09021233667253843
0.6983864596096889   -0.03705558887633223   -0.09021233667253843
0.6983864596096889   -0.03705558887633223   -0.09021233667253843
0.296003249717656   0.012496489298455565   0.05529629178751029
0.296003249717656   0.012496489298455565   0.05529629178751029
0.296003249717656   0.012496489298455565   0.05529629178751029
0.296003249717656   0.012496489298455565   0.05529629178751029
0.4584306167730725   -0.03128853867898246   -0.024164304756066957
0.4584306167730725   -0.03128853867898246   -0.024164304756066957
0.4584306167730725   -0.03128853867898246   -0.024164304756066957
0.4584306167730725   -0.03128853867898246   -0.024164304756066957
0.24133575559875076   -0.12627683353810237   -0.07926785597045749
0.24133575559875076   -0.12627683353810237   -0.07926785597045749
0.24133575559875076   -0.12627683353810237   -0.07926785597045749
0.24133575559875076   -0.12627683353810237   -0.07926785597045749
0.7576175962746509   0.10628137650628494   0.06260638126966236
0.7576175962746509   0.10628137650628494   0.06260638126966236
0.7576175962746509   0.10628137650628494   0.06260638126966236
0.7576175962746509   0.10628137650628494   0.06260638126966236
0.7363862446327182   -0.010630695372458199   -0.10817371929306642
0.7363862446327182   -0.010630695372458199   -0.10817371929306642
0.7363862446327182   -0.010630695372458199   -0.10817371929306642
0.7363862446327182   -0.010630695372458199   -0.10817371929306642
0.3060428762216552   0.031851604939198044   0.04310686170932913
0.3060428762216552   0.031851604939198044   0.04310686170932913
0.3060428762216552   0.031851604939198044   0.04310686170932913
0.3060428762216552   0.031851604939198044   0.04310686170932913
0.49685617939891796   -0.004653691618055594   -0.0029376662358075838
0.49685617939891796   -0.004653691618055594   -0.0029376662358075838
0.49685617939891796   -0.004653691618055594   -0.0029376662358075838
0.49685617939891796   -0.004653691618055594   -0.0029376662358075838
0.2518112514931997   -0.10429240128374853   -0.09190725570999969
0.2518112514931997   -0.10429240128374853   -0.09190725570999969
0.2518112514931997   -0.10429240128374853   -0.09190725570999969
0.2518112514931997   -0.10429240128374853   -0.09190725570999969
0.7953715169998289   0.13026695848914013   0.045854988680896505
0.7953715169998289   0.13026695848914013   0.045854988680896505
0.7953715169998289   0.13026695848914013   0.045854988680896505
0.7953715169998289   0.13026695848914013   0.045854988680896505
0.7947126257207634   0.04741556532086011   -0.11577814984773908
0.7947126257207634   0.04741556532086011   -0.11577814984773908
0.7947126257207634   0.04741556532086011   -0.11577814984773908
0.7947126257207634   0.04741556532086011   -0.11577814984773908
0.31631857474983527   0.07104832352260955   0.03424629836995722
0.31631857474983527   0.07104832352260955   0.03424629836995722
0.31631857474983527   0.07104832352260955   0.03424629836995722
0.31631857474983527   0.07104832352260955   0.03424629836995722
0.515956566758153   0.0247191095488266   0.01531353721900193
0.515956566758153   0.0247191095488266   0.01531353721900193
0.515956566758153   0.0247191095488266   0.01531353721900193
0.515956566758153   0.0247191095488266   0.01531353721900193
-0.9491963121713475   -0.016053096287978907   0.09246767773264444
-0.9491963121713475   -0.016053096287978907   0.09246767773264444
-0.9491963121713475   -0.016053096287978907   0.09246767773264444
-0.9491963121713475   -0.016053096287978907   0.09246767773264444
-0.739783163355577   -0.09379636683169577   -0.04579457064265077
-0.739783163355577   -0.09379636683169577   -0.04579457064265077
-0.739783163355577   -0.09379636683169577   -0.04579457064265077
-0.739783163355577   -0.09379636683169577   -0.04579457064265077
-0.6696590766725162   0.07951583478015323   0.07908393445431094
-0.6696590766725162   0.07951583478015323   0.07908393445431094
-0.6696590766725162   0.07951583478015323   0.07908393445431094
-0.6696590766725162   0.07951583478015323   0.07908393445431094
-0.9451570233070675   -0.10293475109209184   -0.06231277116668704
-0.9451570233070675   -0.10293475109209184   -0.06231277116668704
-0.9451570233070675   -0.10293475109209184   -0.06231277116668704
-0.9451570233070675   -0.10293475109209184   -0.06231277116668704
-0.7943090324023995   -0.021893154374983043   -0.011596437931894375
-0.7943090324023995   -0.021893154374983043   -0.011596437931894375
-0.7943090324023995   -0.021893154374983043   -0.011596437931894375
-0.7943090324023995   -0.021893154374983043   -0.011596437931894375
-0.8868503227004071   0.03793166236551668   0.0883543184090066
-0.8868503227004071   0.03793166236551668   0.0883543184090066
-0.8868503227004071   0.03793166236551668   0.0883543184090066
-0.8868503227004071   0.03793166236551668   0.0883543184090066
-0.7239203336629654   -0.057305135061245696   -0.05540138065652778
-0.7239203336629654   -0.057305135061245696   -0.05540138065652778
-0.7239203336629654   -0.057305135061245696   -0.05540138065652778
-0.7239203336629654   -0.057305135061245696   -0.05540138065652778
-0.6530125489704307   0.1001267065584732   0.06690052549078733
-0.6530125489704307   0.1001267065584732   0.06690052549078733
-0.6530125489704307   0.1001267065584732   0.06690052549078733
-0.6530125489704307   0.1001267065584732   0.06690052549078733
-0.9018086776470039   -0.07958032773760781   -0.07787133638580665
-0.9018086776470039   -0.07958032773760781   -0.07787133638580665
-0.9018086776470039   -0.07958032773760781   -0.07787133638580665
-0.9018086776470039   -0.07958032773760781   -0.07787133638580665
-0.7716495279189457   0.005092636806918627   0.005614419710361626
-0.7716495279189457   0.005092636806918627   0.005614419710361626
-0.7716495279189457   0.005092636806918627   0.005614419710361626
-0.7716495279189457   0.005092636806918627   0.005614419710361626
-0.8434493857722682   0.06294016095833457   0.07140463429191998
-0.8434493857722682   0.06294016095833457   0.07140463429191998
-0.8434493857722682   0.06294016095833457   0.07140463429191998
-0.8434493857722682   0.06294016095833457   0.07140463429191998
-0.707540451702018   -0.03856239299431913   -0.06704988861434913
-0.707540451702018   -0.03856239299431913   -0.06704988861434913
-0.707540451702018   -0.03856239299431913   -0.06704988861434913
-0.707540451702018   -0.03856239299431913   -0.06704988861434913
-0.6395189228041256   0.12576805526134366   0.05770006071756244
-0.6395189228041256   0.12576805526134366   0.05770006071756244
-0.6395189228041256   0.12576805526134366   0.05770006071756244
-0.6395189228041256   0.12576805526134366   0.05770006071756244
-0.8435666310501557   -0.04219641814599118   -0.09012483957522315
-0.8435666310501557   -0.04219641814599118   -0.09012483957522315
-0.8435666310501557   -0.04219641814599118   -0.09012483957522315
-0.8435666310501557   -0.04219641814599118   -0.09012483957522315
-0.7258904860550719   0.03168496013705041   0.02698119320682765
-0.7258904860550719   0.03168496013705041   0.02698119320682765
-0.7258904860550719   0.03168496013705041   0.02698119320682765
-0.7258904860550719   0.03168496013705041   0.02698119320682765
-0.7139176023821057   -0.05382682913612724   0.043563696529137226
-0.7139176023821057   -0.05382682913612724   0.043563696529137226
-0.7139176023821057   -0.05382682913612724   0.043563696529137226
-0.7139176023821057   -0.05382682913612724   0.043563696529137226
-0.5235836505079393   -0.0711227064919425   -0.013561893397376465
-0.5235836505079393   -0.0711227064919425   -0.013561893397376465
-0.5235836505079393   -0.0711227064919425   -0.013561893397376465
-0.5235836505079393   -0.0711227064919425   -0.013561893397376465
-0.48445868320795843   0.03612976074353248   0.04042760872621379
-0.48445868320795843   0.03612976074353248   0.04042760872621379
-0.48445868320795843   0.03612976074353248   0.04042760872621379
-0.48445868320795843   0.03612976074353248   0.04042760872621379
-0.7244124701197182   -0.07600503281032936   -0.039162165191204475
-0.7244124701197182   -0.07600503281032936   -0.039162165191204475
-0.7244124701197182   -0.07600503281032936   -0.039162165191204475
-0.7244124701197182   -0.07600503281032936   -0.039162165191204475
-0.6098905531854293   -0.037967152973445384   -0.0163944178775828
-0.6098905531854293   -0.037967152973445384   -0.0163944178775828
-0.6098905531854293   -0.037967152973445384   -0.0163944178775828
-0.6098905531854293   -0.037967152973445384   -0.0163944178775828
-0.6953062367957151   -0.006710398329638656   0.037074366948108374
-0.6953062367957151   -0.006710398329638656   0.037074366948108374
-0.6953062367957151   -0.006710398329638656   0.037074366948108374
-0.6953062367957151   -0.006710398329638656   0.037074366948108374
-0.510301909034701   -0.029901866239892952   -0.02275689342407034
-0.510301909034701   -0.029901866239892952   -0.02275689342407034
-0.510301909034701   -0.029901866239892952   -0.02275689342407034
-0.510301909034701   -0.029901866239892952   -0.02275689342407034
-0.47010062632928884   0.07804235523945031   0.03233991460746951
-0.47010062632928884   0.07804235523945031   0.03233991460746951
-0.47010062632928884   0.07804235523945031   0.03233991460746951
-0.47010062632928884   0.07804235523945031   0.03233991460746951
-0.7029324085771405   -0.03569108113097197   -0.04688098485330857
-0.7029324085771405   -0.03569108113097197   -0.04688098485330857
-0.7029324085771405   -0.03569108113097197   -0.04688098485330857
-0.7029324085771405   -0.03569108113097197   -0.04688098485330857
-0.5891457281780924   0.002462935546579559   0.0017139783229517883
-0.5891457281780924   0.002462935546579559   0.0017139783229517883
-0.5891457281780924   0.002462935546579559   0.0017139783229517883
-0.5891457281780924   0.002462935546579559   0.0017139783229517883
-0.6721186804753325   0.037891730328082934   0.03360484419666913
-0.6721186804753325   0.037891730328082934   0.03360484419666913
-0.6721186804753325   0.037891730328082934   0.03360484419666913
-0.6721186804753325   0.037891730328082934   0.03360484419666913
-0.497147268141093   0.00822663007039863   -0.033077569282502946
-0.497147268141093   0.00822663007039863   -0.033077569282502946
-0.497147268141093   0.00822663007039863   -0.033077569282502946
-0.497147268141093   0.00822663007039863   -0.033077569282502946
-0.45578896136169245   0.12351953975678903   0.024636834812672453
-0.45578896136169245   0.12351953975678903   0.024636834812672453
-0.45578896136169245   0.12351953975678903   0.024636834812672453
-0.45578896136169245   0.12351953975678903   0.024636834812672453
-0.6851881785268937   0.008323993954610864   -0.05320215658953833
-0.6851881785268937   0.008323993954610864   -0.05320215658953833
-0.6851881785268937   0.008323993954610864   -0.05320215658953833
-0.6851881785268937   0.008323993954610864   -0.05320215658953833
-0.5741384114442102   0.04207748573061168   0.019419107028535446
-0.5741384114442102   0.04207748573061168   0.019419107028535446
-0.5741384114442102   0.04207748573061168   0.019419107028535446
-0.5741384114442102   0.04207748573061168   0.019419107028535446
-0.5229736170768209   -0.08927758544789152   0.007643152714157109
-0.5229736170768209   -0.08927758544789152   0.007643152714157109
-0.5229736170768209   -0.08927758544789152   0.007643152714157109
-0.5229736170768209   -0.08927758544789152   0.007643152714157109
-0.31034341522103237   -0.037445438532017206   0.019229676835343303
-0.31034341522103237   -0.037445438532017206   0.019229676835343303
-0.31034341522103237   -0.037445438532017206   0.019229676835343303
-0.31034341522103237   -0.037445438532017206   0.019229676835343303
-0.2996420327566455   -0.0007166766232084287   0.002486473781608274
-0.2996420327566455   -0.0007166766232084287   0.002486473781608274
-0.2996420327566455   -0.0007166766232084287   0.002486473781608274
-0.2996420327566455   -0.0007166766232084287   0.002486473781608274
-0.5088278686597308   -0.04075196838314228   -0.004536589405974709
-0.5088278686597308   -0.04075196838314228   -0.004536589405974709
-0.5088278686597308   -0.04075196838314228   -0.004536589405974709
-0.5088278686597308   -0.04075196838314228   -0.004536589405974709
-0.41109847233002145   -0.040083129391035845   -0.011934012635050737
-0.41109847233002145   -0.040083129391035845   -0.011934012635050737
-0.41109847233002145   -0.040083129391035845   -0.011934012635050737
-0.41109847233002145   -0.040083129391035845   -0.011934012635050737
-0.5082262845584404   -0.04282245766368384   0.0005418203810124735
-0.5082262845584404   -0.04282245766368384   0.0005418203810124735
-0.5082262845584404   -0.04282245766368384   0.0005418203810124735
-0.5082262845584404   -0.04282245766368384   0.0005418203810124735
-0.29699906780376084   0.004598361711509014   0.010386260211311787
-0.29699906780376084   0.004598361711509014   0.010386260211311787
-0.29699906780376084   0.004598361711509014   0.010386260211311787
-0.29699906780376084   0.004598361711509014   0.010386260211311787
-0.28405100395071325   0.04615021289363329   -0.004117179213704383
-0.28405100395071325   0.04615021289363329   -0.004117179213704383
-0.28405100395071325   0.04615021289363329   -0.004117179213704383
-0.28405100395071325   0.04615021289363329   -0.004117179213704383
-0.49444419867102846   0.001891155201312028   -0.013226747063095165
-0.49444419867102846   0.001891155201312028   -0.013226747063095165
-0.49444419867102846   0.001891155201312028   -0.013226747063095165
-0.49444419867102846   0.001891155201312028   -0.013226747063095165
-0.39465546227768317   0.0020605912650257935   0.00562352180413855
-0.39465546227768317   0.0020605912650257935   0.00562352180413855
-0.39465546227768317   0.0020605912650257935   0.00562352180413855
-0.39465546227768317   0.0020605912650257935   0.00562352180413855
-0.49273159792625265   0.003902510261406117   -0.006675098399316633
-0.49273159792625265   0.003902510261406117   -0.006675098399316633
-0.49273159792625265   0.003902510261406117   -0.006675098399316633
-0.49273159792625265   0.003902510261406117   -0.006675098399316633
-0.282829653373691   0.047072809155338055   0.001066977409697415
-0.282829653373691   0.047072809155338055   0.001066977409697415
-0.282829653373691   0.047072809155338055   0.001066977409697415
-0.282829653373691   0.047072809155338055   0.001066977409697415
-0.2693255329461888   0.09344524757784194   -0.01165454250039745
-0.2693255329461888   0.09344524757784194   -0.01165454250039745
-0.2693255329461888   0.09344524757784194   -0.01165454250039745
-0.2693255329461888   0.09344524757784194   -0.01165454250039745
-0.48094963404336966   0.04486364969843401   -0.02251063853735106
-0.48094963404336966   0.04486364969843401   -0.02251063853735106
-0.48094963404336966   0.04486364969843401   -0.02251063853735106
-0.48094963404336966   0.04486364969843401   -0.02251063853735106
-0.37909937727525206   0.04435543052558802   0.02247481903596802
-0.37909937727525206   0.04435543052558802   0.02247481903596802
-0.37909937727525206   0.04435543052558802   0.02247481903596802
-0.37909937727525206   0.04435543052558802   0.02247481903596802
-0.33645508523662243   -0.12003442532073619   -0.028739686453893416
-0.33645508523662243   -0.12003442532073619   -0.028739686453893416
-0.33645508523662243   -0.12003442532073619   -0.028739686453893416
-0.33645508523662243   -0.12003442532073619   -0.028739686453893416
-0.10298802790202904   -0.001685833072932309   0.05042718262060248
-0.10298802790202904   -0.001685833072932309   0.05042718262060248
-0.10298802790202904   -0.001685833072932309   0.05042718262060248
-0.10298802790202904   -0.001685833072932309   0.05042718262060248
-0.11722531613678473   -0.03552427526529474   -0.03695357429612796
-0.11722531613678473   -0.03552427526529474   -0.03695357429612796
-0.11722531613678473   -0.03552427526529474   -0.03695357429612796
-0.11722531613678473   -0.03552427526529474   -0.03695357429612796
-0.29514503324312324   -0.004586371842766043   0.028841166568774678
-0.29514503324312324   -0.004586371842766043   0.028841166568774678
-0.29514503324312324   -0.004586371842766043   0.028841166568774678
-0.29514503324312324   -0.004586371842766043   0.028841166568774678
-0.21292740441078634   -0.03869072593267833   -0.008611028743861812
-0.21292740441078634   -0.03869072593267833   -0.008611028743861812
-0.21292740441078634   -0.03869072593267833   -0.008611028743861812
-0.21292740441078634   -0.03869072593267833   -0.008611028743861812
-0.3225581908150823   -0.07646861164040415   -0.036342381493385034
-0.3225581908150823   -0.07646861164040415   -0.036342381493385034
-0.3225581908150823   -0.07646861164040415   -0.036342381493385034
-0.3225581908150823   -0.07646861164040415   -0.036342381493385034
-0.08617600597327962   0.03999411712389507   0.0427745841322059
-0.08617600597327962   0.03999411712389507   0.0427745841322059
-0.08617600597327962   0.03999411712389507   0.0427745841322059
-0.08617600597327962   0.03999411712389507   0.0427745841322059
-0.09444766085322431   0.008811004056989691   -0.04159936588208875
-0.09444766085322431   0.008811004056989691   -0.04159936588208875
-0.09444766085322431   0.008811004056989691   -0.04159936588208875
-0.09444766085322431   0.008811004056989691   -0.04159936588208875
-0.28187015829405265   0.03370407682689771   0.01923318513633168
-0.28187015829405265   0.03370407682689771   0.01923318513633168
-0.28187015829405265   0.03370407682689771   0.01923318513633168
-0.28187015829405265   0.03370407682689771   0.01923318513633168
-0.1954453166423051   0.0005528526303261519   0.009279179187211679
-0.1954453166423051   0.0005528526303261519   0.009279179187211679
-0.1954453166423051   0.0005528526303261519   0.009279179187211679
-0.1954453166423051   0.0005528526303261519   0.009279179187211679
-0.3084134774359641   -0.034681794027008064   -0.04509753971932225
-0.3084134774359641   -0.034681794027008064   -0.04509753971932225
-0.3084134774359641   -0.034681794027008064   -0.04509753971932225
-0.3084134774359641   -0.034681794027008064   -0.04509753971932225
-0.064519722374288   0.08058149424791733   0.03626983632166514
-0.064519722374288   0.08058149424791733   0.03626983632166514
-0.064519722374288   0.08058149424791733   0.03626983632166514
-0.064519722374288   0.08058149424791733   0.03626983632166514
-0.07517873217142129   0.05833258637017514   -0.04659631044478093
-0.07517873217142129   0.05833258637017514   -0.04659631044478093
-0.07517873217142129   0.05833258637017514   -0.04659631044478093
-0.07517873217142129   0.05833258637017514   -0.04659631044478093
-0.26828051491867116   0.0770446266211661   0.00997116859386658
-0.26828051491867116   0.0770446266211661   0.00997116859386658
-0.26828051491867116   0.0770446266211661   0.00997116859386658
-0.26828051491867116   0.0770446266211661   0.00997116859386658
-0.177338536641231   0.041478374871085084   0.027177954442223786
-0.177338536641231   0.041478374871085084   0.027177954442223786
-0.177338536641231   0.041478374871085084   0.027177954442223786
-0.177338536641231   0.041478374871085084   0.027177954442223786
-0.1510434269644693   -0.12910275362994156   -0.06243289213459345
-0.1510434269644693   -0.12910275362994156   -0.06243289213459345
-0.1510434269644693   -0.12910275362994156   -0.06243289213459345
-0.1510434269644693   -0.12910275362994156   -0.06243289213459345
0.053988296173990376   0.03834289918074622   0.07683557713036605
0.053988296173990376   0.03834289918074622   0.07683557713036605
0.053988296173990376   0.03834289918074622   0.07683557713036605
0.053988296173990376   0.03834289918074622   0.07683557713036605
0.05442773668825389   -0.0634094689719149   -0.08265798653490915
0.05442773668825389   -0.0634094689719149   -0.08265798653490915
0.05442773668825389   -0.0634094689719149   -0.08265798653490915
0.05442773668825389   -0.0634094689719149   -0.08265798653490915
-0.08219204032053205   0.039804152306959044   0.06288437721288036
-0.08219204032053205   0.039804152306959044   0.06288437721288036
-0.08219204032053205   0.039804152306959044   0.06288437721288036
-0.08219204032053205   0.039804152306959044   0.06288437721288036
-0.032979186574443195   -0.027349556637525748   -0.01465429088873637
-0.032979186574443195   -0.027349556637525748   -0.01465429088873637
-0.032979186574443195   -0.027349556637525748   -0.01465429088873637
-0.032979186574443195   -0.027349556637525748   -0.01465429088873637
-0.13698734400650522   -0.09951540465490308   -0.07177258425512395
-0.13698734400650522   -0.09951540465490308   -0.07177258425512395
-0.13698734400650522   -0.09951540465490308   -0.07177258425512395
-0.13698734400650522   -0.09951540465490308   -0.07177258425512395
0.11311131677315509   0.07979836438887553   0.06755208052880632
0.11311131677315509   0.07979836438887553   0.06755208052880632
0.11311131677315509   0.07979836438887553   0.06755208052880632
0.11311131677315509   0.07979836438887553   0.06755208052880632
0.09800386838855196   -0.038012600928184946   -0.09817515979445196
0.09800386838855196   -0.038012600928184946   -0.09817515979445196
0.09800386838855196   -0.038012600928184946   -0.09817515979445196
0.09800386838855196   -0.038012600928184946   -0.09817515979445196
-0.06615846635359479   0.05823195170140377   0.05042565897164418
-0.06615846635359479   0.05823195170140377   0.05042565897164418
-0.06615846635359479   0.05823195170140377   0.05042565897164418
-0.06615846635359479   0.05823195170140377   0.05042565897164418
0.002887576196026318   -0.0012278009351418347   0.004742310323905171
0.002887576196026318   -0.0012278009351418347   0.004742310323905171
0.002887576196026318   -0.0012278009351418347   0.004742310323905171
0.002887576196026318   -0.0012278009351418347   0.004742310323905171
-0.1202126049678742   -0.07861956676686885   -0.08299351563147958
-0.1202126049678742   -0.07861956676686885   -0.08299351563147958
-0.1202126049678742   -0.07861956676686885   -0.08299351563147958
-0.1202126049678742   -0.07861956676686885   -0.08299351563147958
0.15594843010650103   0.10272934064376382   0.050805707223348553
0.15594843010650103   0.10272934064376382   0.050805707223348553
0.15594843010650103   0.10272934064376382   0.050805707223348553
0.15594843010650103   0.10272934064376382   0.050805707223348553
0.1590358856856725   0.011718146020652817   -0.10512190007563299
0.1590358856856725   0.011718146020652817   -0.10512190007563299
0.1590358856856725   0.011718146020652817   -0.10512190007563299
0.1590358856856725   0.011718146020652817   -0.10512190007563299
-0.051176801130909624   0.09076984117266226   0.04097608995528967
-0.051176801130909624   0.09076984117266226   0.04097608995528967
-0.051176801130909624   0.09076984117266226   0.04097608995528967
-0.051176801130909624   0.09076984117266226   0.04097608995528967
0.03514438475962717   0.02623338982220741   0.023688671774698383
0.03514438475962717   0.02623338982220741   0.023688671774698383
0.03514438475962717   0.02623338982220741   0.023688671774698383
0.03514438475962717   0.02623338982220741   0.023688671774698383
-0.3154398062967865   0.01778619083265305   0.08777486062031814
-0.3154398062967865   0.01778619083265305   0.08777486062031814
-0.3154398062967865   0.01778619083265305   0.08777486062031814
-0.3154398062967865   0.01778619083265305   0.08777486062031814
-0.37380383774024306   -0.11448721554911188   -0.05178619001526641
-0.37380383774024306   -0.11448721554911188   -0.05178619001526641
-0.37380383774024306   -0.11448721554911188   -0.05178619001526641
-0.37380383774024306   -0.11448721554911188   -0.05178619001526641
-0.29843425079078756   0.05324922363731737   0.07188432996410983
-0.29843425079078756   0.05324922363731737   0.07188432996410983
-0.29843425079078756   0.05324922363731737   0.07188432996410983
-0.29843425079078756   0.05324922363731737   0.07188432996410983
-0.30628160960860584   -0.07544897975227254   -0.06670800748498192
-0.30628160960860584   -0.07544897975227254   -0.06670800748498192
-0.30628160960860584   -0.07544897975227254   -0.06670800748498192
-0.30628160960860584   -0.07544897975227254   -0.06670800748498192
-0.3152737092311947   -0.024257286321537043   -0.023954481673231137
-0.3152737092311947   -0.024257286321537043   -0.023954481673231137
-0.3152737092311947   -0.024257286321537043   -0.023954481673231137
-0.3152737092311947   -0.024257286321537043   -0.023954481673231137
-0.2484542155974569   0.0652203010390506   0.08175968177943442
-0.2484542155974569   0.0652203010390506   0.08175968177943442
-0.2484542155974569   0.0652203010390506   0.08175968177943442
-0.2484542155974569   0.0652203010390506   0.08175968177943442
-0.3526459272695423   -0.08380433962160935   -0.06212048917072949
-0.3526459272695423   -0.08380433962160935   -0.06212048917072949
-0.3526459272695423   -0.08380433962160935   -0.06212048917072949
-0.3526459272695423   -0.08380433962160935   -0.06212048917072949
-0.27512409992280107   0.0734319101095258   0.060505275125658585
-0.27512409992280107   0.0734319101095258   0.060505275125658585
-0.27512409992280107   0.0734319101095258   0.060505275125658585
-0.27512409992280107   0.0734319101095258   0.060505275125658585
-0.25644033908190933   -0.052639923190921055   -0.08311626917779757
-0.25644033908190933   -0.052639923190921055   -0.08311626917779757
-0.25644033908190933   -0.052639923190921055   -0.08311626917779757
-0.25644033908190933   -0.052639923190921055   -0.08311626917779757
-0.2785022575324512   0.0015373211948106619   -0.004932978271903855
-0.2785022575324512   0.0015373211948106619   -0.004932978271903855
-0.2785022575324512   0.0015373211948106619   -0.004932978271903855
-0.2785022575324512   0.0015373211948106619   -0.004932978271903855
-0.19827026586102642   0.08976704720324175   0.06532712653244929
-0.19827026586102642   0.08976704720324175   0.06532712653244929
-0.19827026586102642   0.08976704720324175   0.06532712653244929
-0.19827026586102642   0.08976704720324175   0.06532712653244929
-0.32988179500161297   -0.06556268214256314   -0.07428860801630438
-0.32988179500161297   -0.06556268214256314   -0.07428860801630438
-0.32988179500161297   -0.06556268214256314   -0.07428860801630438
-0.32988179500161297   -0.06556268214256314   -0.07428860801630438
-0.2537899013423033   0.10423587054365563   0.05225987416518921
-0.2537899013423033   0.10423587054365563   0.05225987416518921
-0.2537899013423033   0.10423587054365563   0.05225987416518921
-0.2537899013423033   0.10423587054365563   0.05225987416518921
-0.18991567184506133   -0.009280878126960192   -0.09363873996725149
-0.18991567184506133   -0.009280878126960192   -0.09363873996725149
-0.18991567184506133   -0.009280878126960192   -0.09363873996725149
-0.18991567184506133   -0.009280878126960192   -0.09363873996725149
-0.23426950077576236   0.028472608549449233   0.015442911206089139
-0.23426950077576236   0.028472608549449233   0.015442911206089139
-0.23426950077576236   0.028472608549449233   0.015442911206089139
-0.23426950077576236   0.028472608549449233   0.015442911206089139
-0.33471358022931813   -0.020667281132251053   0.04984516312248967
-0.33471358022931813   -0.020667281132251053   0.04984516312248967
-0.33471358022931813   -0.020667281132251053   0.04984516312248967
-0.33471358022931813   -0.020667281132251053   0.04984516312248967
-0.41469727418774016   -0.0933807661177833   -0.020234615705287028
-0.41469727418774016   -0.0933807661177833   -0.020234615705287028
-0.41469727418774016   -0.0933807661177833   -0.020234615705287028
-0.41469727418774016   -0.0933807661177833   -0.020234615705287028
-0.3695929220037719   0.009461946428614587   0.033353182887568965
-0.3695929220037719   0.009461946428614587   0.033353182887568965
-0.3695929220037719   0.009461946428614587   0.033353182887568965
-0.3695929220037719   0.009461946428614587   0.033353182887568965
-0.33844165984257607   -0.044239316943000616   -0.030664174714510925
-0.33844165984257607   -0.044239316943000616   -0.030664174714510925
-0.33844165984257607   -0.044239316943000616   -0.030664174714510925
-0.33844165984257607   -0.044239316943000616   -0.030664174714510925
-0.36460797983090903   -0.03436182164469664   -0.016888523821504964
-0.36460797983090903   -0.03436182164469664   -0.016888523821504964
-0.36460797983090903   -0.03436182164469664   -0.016888523821504964
-0.36460797983090903   -0.03436182164469664   -0.016888523821504964
-0.31008062186225493   0.02339509127352292   0.04350660697056752
-0.31008062186225493   0.02339509127352292   0.04350660697056752
-0.31008062186225493   0.02339509127352292   0.04350660697056752
-0.31008062186225493   0.02339509127352292   0.04350660697056752
-0.3951229635845949   -0.05534146538840775   -0.029493613199527702
-0.3951229635845949   -0.05534146538840775   -0.029493613199527702
-0.3951229635845949   -0.05534146538840775   -0.029493613199527702
-0.3951229635845949   -0.05534146538840775   -0.029493613199527702
-0.3487738639657765   0.04960691930156373   0.025450472698005967
-0.3487738639657765   0.04960691930156373   0.025450472698005967
-0.3487738639657765   0.04960691930156373   0.025450472698005967
-0.3487738639657765   0.04960691930156373   0.025450472698005967
-0.3106289363645258   -0.00552564492335883   -0.03806135205007627
-0.3106289363645258   -0.00552564492335883   -0.03806135205007627
-0.3106289363645258   -0.00552564492335883   -0.03806135205007627
-0.3106289363645258   -0.00552564492335883   -0.03806135205007627
-0.33975175114187295   0.003117748143936838   0.0006744293931204501
-0.33975175114187295   0.003117748143936838   0.0006744293931204501
-0.33975175114187295   0.003117748143936838   0.0006744293931204501
-0.33975175114187295   0.003117748143936838   0.0006744293931204501
-0.28088996388869797   0.06592931488210022   0.03917855052359946
-0.28088996388869797   0.06592931488210022   0.03917855052359946
-0.28088996388869797   0.06592931488210022   0.03917855052359946
-0.28088996388869797   0.06592931488210022   0.03917855052359946
-0.37549557620962726   -0.018830780271912803   -0.039720388947775354
-0.37549557620962726   -0.018830780271912803   -0.039720388947775354
-0.37549557620962726   -0.018830780271912803   -0.039720388947775354
-0.37549557620962726   -0.018830780271912803   -0.039720388947775354
-0.32785524179355036   0.09401886938934612   0.017939283850794553
-0.32785524179355036   0.09401886938934612   0.017939283850794553
-0.32785524179355036   0.09401886938934612   0.017939283850794553
-0.32785524179355036   0.09401886938934612   0.017939283850794553
-0.2866127331561267   0.037419870715363276   -0.04503828507562162
-0.2866127331561267   0.037419870715363276   -0.04503828507562162
-0.2866127331561267   0.037419870715363276   -0.04503828507562162
-0.2866127331561267   0.037419870715363276   -0.04503828507562162
-0.3162539062771761   0.04179963268465964   0.018541443691755765
-0.3162539062771761   0.04179963268465964   0.018541443691755765
-0.3162539062771761   0.04179963268465964   0.018541443691755765
-0.3162539062771761   0.04179963268465964   0.018541443691755765
-0.4004833622624367   -0.056523773122230975   0.013977950925666373
-0.4004833622624367   -0.056523773122230975   0.013977950925666373
-0.4004833622624367   -0.056523773122230975   0.013977950925666373
-0.4004833622624367   -0.056523773122230975   0.013977950925666373
-0.4555026707532732   -0.05886085929596245   0.012250346280353371
-0.4555026707532732   -0.05886085929596245   0.012250346280353371
-0.4555026707532732   -0.05886085929596245   0.012250346280353371
-0.4555026707532732   -0.05886085929596245   0.012250346280353371
-0.43880085261639085   -0.026701866542442124   -0.004313096245813851
-0.43880085261639085   -0.026701866542442124   -0.004313096245813851
-0.43880085261639085   -0.026701866542442124   -0.004313096245813851
-0.43880085261639085   -0.026701866542442124   -0.004313096245813851
-0.3789658884624858   -0.008031264700591872   0.00398156172320145
-0.3789658884624858   -0.008031264700591872   0.00398156172320145
-0.3789658884624858   -0.008031264700591872   0.00398156172320145
-0.3789658884624858   -0.008031264700591872   0.00398156172320145
-0.41906556223219427   -0.03540135906587527   -0.011197137725429549
-0.41906556223219427   -0.03540135906587527   -0.011197137725429549
-0.41906556223219427   -0.03540135906587527   -0.011197137725429549
-0.41906556223219427   -0.03540135906587527   -0.011197137725429549
-0.3792830573908853   -0.012552331476715403   0.006916783857327982
-0.3792830573908853   -0.012552331476715403   0.006916783857327982
-0.3792830573908853   -0.012552331476715403   0.006916783857327982
-0.3792830573908853   -0.012552331476715403   0.006916783857327982
-0.43581571437665334   -0.01951283045498277   0.003423558865414523
-0.43581571437665334   -0.01951283045498277   0.003423558865414523
-0.43581571437665334   -0.01951283045498277   0.003423558865414523
-0.43581571437665334   -0.01951283045498277   0.003423558865414523
-0.41693659355836127   0.01784775227091928   -0.010951366827726156
-0.41693659355836127   0.01784775227091928   -0.010951366827726156
-0.41693659355836127   0.01784775227091928   -0.010951366827726156
-0.41693659355836127   0.01784775227091928   -0.010951366827726156
-0.3582171999543593   0.032404066210375046   -0.0045633541537231995
-0.3582171999543593   0.032404066210375046   -0.0045633541537231995
-0.3582171999543593   0.032404066210375046   -0.0045633541537231995
-0.3582171999543593   0.032404066210375046   -0.0045633541537231995
-0.3962280559618262   0.004429191344790653   0.006138818371187887
-0.3962280559618262   0.004429191344790653   0.006138818371187887
-0.3962280559618262   0.004429191344790653   0.006138818371187887
-0.3962280559618262   0.004429191344790653   0.006138818371187887
-0.3575026296619399   0.031839609266250624   -0.00042604574750178606
-0.3575026296619399   0.031839609266250624   -0.00042604574750178606
-0.3575026296619399   0.031839609266250624   -0.00042604574750178606
-0.3575026296619399   0.031839609266250624   -0.00042604574750178606
-0.4153247191805046   0.020738653885321007   -0.005782896552848103
-0.4153247191805046   0.020738653885321007   -0.005782896552848103
-0.4153247191805046   0.020738653885321007   -0.005782896552848103
-0.4153247191805046   0.020738653885321007   -0.005782896552848103
-0.39600163707756453   0.06266560475690647   -0.018448860210763286
-0.39600163707756453   0.06266560475690647   -0.018448860210763286
-0.39600163707756453   0.06266560475690647   -0.018448860210763286
-0.39600163707756453   0.06266560475690647   -0.018448860210763286
-0.3384340763885492   0.07300492766193369   -0.013940947396790242
-0.3384340763885492   0.07300492766193369   -0.013940947396790242
-0.3384340763885492   0.07300492766193369   -0.013940947396790242
-0.3384340763885492   0.07300492766193369   -0.013940947396790242
-0.3744424869758266   0.04433184185688108   0.022664062677299444
-0.3744424869758266   0.04433184185688108   0.022664062677299444
-0.3744424869758266   0.04433184185688108   0.022664062677299444
-0.3744424869758266   0.04433184185688108   0.022664062677299444
-0.46864124695313797   -0.08946882684188415   -0.022834567173051882
-0.46864124695313797   -0.08946882684188415   -0.022834567173051882
-0.46864124695313797   -0.08946882684188415   -0.022834567173051882
-0.46864124695313797   -0.08946882684188415   -0.022834567173051882
-0.49973088358667234   -0.025056002473720557   0.0433056605180476
-0.49973088358667234   -0.025056002473720557   0.0433056605180476
-0.49973088358667234   -0.025056002473720557   0.0433056605180476
-0.49973088358667234   -0.025056002473720557   0.0433056605180476
-0.5077162290869989   -0.06135948179755299   -0.042453187361315134
-0.5077162290869989   -0.06135948179755299   -0.042453187361315134
-0.5077162290869989   -0.06135948179755299   -0.042453187361315134
-0.5077162290869989   -0.06135948179755299   -0.042453187361315134
-0.4199284172764708   0.026841537563698933   0.036505676347645614
-0.4199284172764708   0.026841537563698933   0.036505676347645614
-0.4199284172764708   0.026841537563698933   0.036505676347645614
-0.4199284172764708   0.026841537563698933   0.036505676347645614
-0.47204329922165567   -0.03484315959168234   -0.007033135625479765
-0.47204329922165567   -0.03484315959168234   -0.007033135625479765
-0.47204329922165567   -0.03484315959168234   -0.007033135625479765
-0.47204329922165567   -0.03484315959168234   -0.007033135625479765
-0.44801406592030274   -0.04695384796126735   -0.030127181346552127
-0.44801406592030274   -0.04695384796126735   -0.030127181346552127
-0.44801406592030274   -0.04695384796126735   -0.030127181346552127
-0.44801406592030274   -0.04695384796126735   -0.030127181346552127
-0.47683285507509543   0.015233629095478915   0.0353705718051702
-0.47683285507509543   0.015233629095478915   0.0353705718051702
-0.47683285507509543   0.015233629095478915   0.0353705718051702
-0.47683285507509543   0.015233629095478915   0.0353705718051702
-0.4790908035270704   -0.019112634382956684   -0.047629725679922616
-0.4790908035270704   -0.019112634382956684   -0.047629725679922616
-0.4790908035270704   -0.019112634382956684   -0.047629725679922616
-0.4790908035270704   -0.019112634382956684   -0.047629725679922616
-0.40023210260986464   0.06331332739658663   0.027105512789086163
-0.40023210260986464   0.06331332739658663   0.027105512789086163
-0.40023210260986464   0.06331332739658663   0.027105512789086163
-0.40023210260986464   0.06331332739658663   0.027105512789086163
-0.44611511382109936   0.0035067446192981744   0.01085838795935745
-0.44611511382109936   0.0035067446192981744   0.01085838795935745
-0.44611511382109936   0.0035067446192981744   0.01085838795935745
-0.44611511382109936   0.0035067446192981744   0.01085838795935745
-0.4274482402433834   -0.006992121822180494   -0.03866972615974443
-0.4274482402433834   -0.006992121822180494   -0.03866972615974443
-0.4274482402433834   -0.006992121822180494   -0.03866972615974443
-0.4274482402433834   -0.006992121822180494   -0.03866972615974443
-0.4490471721509935   0.054020308578376613   0.02945548823913429
-0.4490471721509935   0.054020308578376613   0.02945548823913429
-0.4490471721509935   0.054020308578376613   0.02945548823913429
-0.4490471721509935   0.054020308578376613   0.02945548823913429
-0.4540371034070853   0.02744696610189004   -0.05226054551409959
-0.4540371034070853   0.02744696610189004   -0.05226054551409959
-0.4540371034070853   0.02744696610189004   -0.05226054551409959
-0.4540371034070853   0.02744696610189004   -0.05226054551409959
-0.38048124792706456   0.10398385281488927   0.017834837483753644
-0.38048124792706456   0.10398385281488927   0.017834837483753644
-0.38048124792706456   0.10398385281488927   0.017834837483753644
-0.38048124792706456   0.10398385281488927   0.017834837483753644
-0.4240669337912423   0.04158305757465301   0.02797277529300037
-0.4240669337912423   0.04158305757465301   0.02797277529300037
-0.4240669337912423   0.04158305757465301   0.02797277529300037
-0.4240669337912423   0.04158305757465301   0.02797277529300037
-0.5361064392907425   -0.1064739895278986   -0.057154130948133264
-0.5361064392907425   -0.1064739895278986   -0.057154130948133264
-0.5361064392907425   -0.1064739895278986   -0.057154130948133264
-0.5361064392907425   -0.1064739895278986   -0.057154130948133264
-0.592071186788884   0.008412104963186035   0.07783244409730113
-0.592071186788884   0.008412104963186035   0.07783244409730113
-0.592071186788884   0.008412104963186035   0.07783244409730113
-0.592071186788884   0.008412104963186035   0.07783244409730113
-0.5839765559560182   -0.08834877175945557   -0.07609572748367593
-0.5839765559560182   -0.08834877175945557   -0.07609572748367593
-0.5839765559560182   -0.08834877175945557   -0.07609572748367593
-0.5839765559560182   -0.08834877175945557   -0.07609572748367593
-0.4595794756071636   0.06710329635967549   0.0697678018806288
-0.4595794756071636   0.06710329635967549   0.0697678018806288
-0.4595794756071636   0.06710329635967549   0.0697678018806288
-0.4595794756071636   0.06710329635967549   0.0697678018806288
-0.5211948176604392   -0.022806181461765718   -0.0035475065189864152
-0.5211948176604392   -0.022806181461765718   -0.0035475065189864152
-0.5211948176604392   -0.022806181461765718   -0.0035475065189864152
-0.5211948176604392   -0.022806181461765718   -0.0035475065189864152
-0.5144828150528673   -0.07229999823310843   -0.06534560075511274
-0.5144828150528673   -0.07229999823310843   -0.06534560075511274
-0.5144828150528673   -0.07229999823310843   -0.06534560075511274
-0.5144828150528673   -0.07229999823310843   -0.06534560075511274
-0.5261153452356534   0.05401239410798679   0.07084916025070567
-0.5261153452356534   0.05401239410798679   0.07084916025070567
-0.5261153452356534   0.05401239410798679   0.07084916025070567
-0.5261153452356534   0.05401239410798679   0.07084916025070567
-0.5345961509531142   -0.06367763978299319   -0.09068461385082123
-0.5345961509531142   -0.06367763978299319   -0.09068461385082123
-0.5345961509531142   -0.06367763978299319   -0.09068461385082123
-0.5345961509531142   -0.06367763978299319   -0.09068461385082123
-0.4374260846040179   0.08448002872674448   0.05710120582563839
-0.4374260846040179   0.08448002872674448   0.05710120582563839
-0.4374260846040179   0.08448002872674448   0.05710120582563839
-0.4374260846040179   0.08448002872674448   0.05710120582563839
-0.4877102929999726   0.002968289471994276   0.013628460894247397
-0.4877102929999726   0.002968289471994276   0.013628460894247397
-0.4877102929999726   0.002968289471994276   0.013628460894247397
-0.4877102929999726   0.002968289471994276   0.013628460894247397
-0.49125925859256825   -0.05199188801566482   -0.07559274737470746
-0.49125925859256825   -0.05199188801566482   -0.07559274737470746
-0.49125925859256825   -0.05199188801566482   -0.07559274737470746
-0.49125925859256825   -0.05199188801566482   -0.07559274737470746
-0.47766382510674976   0.07589342881722212   0.05440594678078915
-0.47766382510674976   0.07589342881722212   0.05440594678078915
-0.47766382510674976   0.07589342881722212   0.05440594678078915
-0.47766382510674976   0.07589342881722212   0.05440594678078915
-0.46982647480155254   -0.02097327076034096   -0.0990897960390835
-0.46982647480155254   -0.02097327076034096   -0.0990897960390835
-0.46982647480155254   -0.02097327076034096   -0.0990897960390835
-0.46982647480155254   -0.02097327076034096   -0.0990897960390835
-0.4175792046608417   0.11044241191459585   0.047033502404408664
-0.4175792046608417   0.11044241191459585   0.047033502404408664
-0.4175792046608417   0.11044241191459585   0.047033502404408664
-0.4175792046608417   0.11044241191459585   0.047033502404408664
-0.4420287989271903   0.028738027780162184   0.03349718071450741
-0.4420287989271903   0.028738027780162184   0.03349718071450741
-0.4420287989271903   0.028738027780162184   0.03349718071450741
-0.4420287989271903   0.028738027780162184   0.03349718071450741
0.3242555172476097   0.05247889189464398   0.0849849922156445
0.3242555172476097   0.05247889189464398   0.0849849922156445
0.3242555172476097   0.05247889189464398   0.0849849922156445
0.3242555172476097   0.05247889189464398   0.0849849922156445
-0.00821015236604412   -0.13663525376083702   -0.05617562454487078
-0.00821015236604412   -0.13663525376083702   -0.05617562454487078
-0.00821015236604412   -0.13663525376083702   -0.05617562454487078
-0.00821015236604412   -0.13663525376083702   -0.05617562454487078
0.07226889444056564   0.026737377563230882   0.06567327504336368
0.07226889444056564   0.026737377563230882   0.06567327504336368
0.07226889444056564   0.026737377563230882   0.06567327504336368
0.07226889444056564   0.026737377563230882   0.06567327504336368
0.33846208552887863   -0.048054023866015594   -0.07028448906140886
0.33846208552887863   -0.048054023866015594   -0.07028448906140886
0.33846208552887863   -0.048054023866015594   -0.07028448906140886
0.33846208552887863   -0.048054023866015594   -0.07028448906140886
0.16543009495702815   -0.026618113421754002   -0.04044681646519868
0.16543009495702815   -0.026618113421754002   -0.04044681646519868
0.16543009495702815   -0.026618113421754002   -0.04044681646519868
0.16543009495702815   -0.026618113421754002   -0.04044681646519868
0.3962132998335187   0.09372926279358923   0.0766882958021893
0.3962132998335187   0.09372926279358923   0.0766882958021893
0.3962132998335187   0.09372926279358923   0.0766882958021893
0.3962132998335187   0.09372926279358923   0.0766882958021893
0.01806004388560063   -0.11150354534669628   -0.06713005482153428
0.01806004388560063   -0.11150354534669628   -0.06713005482153428
0.01806004388560063   -0.11150354534669628   -0.06713005482153428
0.01806004388560063   -0.11150354534669628   -0.06713005482153428
0.10168572784151872   0.04657279790050513   0.05482126935590526
0.10168572784151872   0.04657279790050513   0.05482126935590526
0.10168572784151872   0.04657279790050513   0.05482126935590526
0.10168572784151872   0.04657279790050513   0.05482126935590526
0.39468010361805683   -0.025643933300843857   -0.08795676076485312
0.39468010361805683   -0.025643933300843857   -0.08795676076485312
0.39468010361805683   -0.025643933300843857   -0.08795676076485312
0.39468010361805683   -0.025643933300843857   -0.08795676076485312
0.2161494451419425   -0.0018758218918883893   -0.018978233372827658
0.2161494451419425   -0.0018758218918883893   -0.018978233372827658
0.2161494451419425   -0.0018758218918883893   -0.018978233372827658
0.2161494451419425   -0.0018758218918883893   -0.018978233372827658
0.4530758161702676   0.1179684461951204   0.060409422500230424
0.4530758161702676   0.1179684461951204   0.060409422500230424
0.4530758161702676   0.1179684461951204   0.060409422500230424
0.4530758161702676   0.1179684461951204   0.060409422500230424
0.046759530906871453   -0.093570065977886   -0.0796668514389399
0.046759530906871453   -0.093570065977886   -0.0796668514389399
0.046759530906871453   -0.093570065977886   -0.0796668514389399
0.046759530906871453   -0.093570065977886   -0.0796668514389399
0.13023926114429907   0.08296612957566701   0.0474413655565241
0.13023926114429907   0.08296612957566701   0.0474413655565241
0.13023926114429907   0.08296612957566701   0.0474413655565241
0.13023926114429907   0.08296612957566701   0.0474413655565241
0.4692945518040724   0.024522239194655196   -0.09701132021403537
0.4692945518040724   0.024522239194655196   -0.09701132021403537
0.4692945518040724   0.024522239194655196   -0.09701132021403537
0.4692945518040724   0.024522239194655196   -0.09701132021403537
0.25878228418209465   0.025835494380707487   0.0013357258013276339
0.25878228418209465   0.025835494380707487   0.0013357258013276339
0.25878228418209465   0.025835494380707487   0.0013357258013276339
0.25878228418209465   0.025835494380707487   0.0013357258013276339
0.0446904793566157   0.014068469828046763   0.05762381047953691
0.0446904793566157   0.014068469828046763   0.05762381047953691
0.0446904793566157   0.014068469828046763   0.05762381047953691
0.0446904793566157   0.014068469828046763   0.05762381047953691
-0.30911636725988195   -0.11597719489167865   -0.025765054438562106
-0.30911636725988195   -0.11597719489167865   -0.025765054438562106
-0.30911636725988195   -0.11597719489167865   -0.025765054438562106
-0.30911636725988195   -0.11597719489167865   -0.025765054438562106
-0.258289386285783   -0.01680354611354972   0.02636240587595054
-0.258289386285783   -0.01680354611354972   0.02636240587595054
-0.258289386285783   -0.01680354611354972   0.02636240587595054
-0.258289386285783   -0.01680354611354972   0.02636240587595054
0.04699535868955399   -0.013457962139063726   -0.020499064009396918
0.04699535868955399   -0.013457962139063726   -0.020499064009396918
0.04699535868955399   -0.013457962139063726   -0.020499064009396918
0.04699535868955399   -0.013457962139063726   -0.020499064009396918
-0.12147123256994795   -0.03007214742745532   -0.0194595227115232
-0.12147123256994795   -0.03007214742745532   -0.0194595227115232
-0.12147123256994795   -0.03007214742745532   -0.0194595227115232
-0.12147123256994795   -0.03007214742745532   -0.0194595227115232
0.07497179718136147   0.05480103555567366   0.05112413075490768
0.07497179718136147   0.05480103555567366   0.05112413075490768
0.07497179718136147   0.05480103555567366   0.05112413075490768
0.07497179718136147   0.05480103555567366   0.05112413075490768
-0.283690200606751   -0.08248691963744356   -0.0349582922049912
-0.283690200606751   -0.08248691963744356   -0.0349582922049912
-0.283690200606751   -0.08248691963744356   -0.0349582922049912
-0.283690200606751   -0.08248691963744356   -0.0349582922049912
-0.23146067998992595   0.021647608417702108   0.0186366582806285
-0.23146067998992595   0.021647608417702108   0.0186366582806285
-0.23146067998992595   0.021647608417702108   0.0186366582806285
-0.23146067998992595   0.021647608417702108   0.0186366582806285
0.08047155272659484   0.023058529721488214   -0.02773533803969786
0.08047155272659484   0.023058529721488214   -0.02773533803969786
0.08047155272659484   0.023058529721488214   -0.02773533803969786
0.08047155272659484   0.023058529721488214   -0.02773533803969786
-0.09303790624135282   0.0038682649385024317   -0.0023486514650999267
-0.09303790624135282   0.0038682649385024317   -0.0023486514650999267
-0.09303790624135282   0.0038682649385024317   -0.0023486514650999267
-0.09303790624135282   0.0038682649385024317   -0.0023486514650999267
0.10962232159251173   0.09529357023361833   0.045783465777757076
0.10962232159251173   0.09529357023361833   0.045783465777757076
0.10962232159251173   0.09529357023361833   0.045783465777757076
0.10962232159251173   0.09529357023361833   0.045783465777757076
-0.25813409572215157   -0.04811007896072391   -0.044972733002073474
-0.25813409572215157   -0.04811007896072391   -0.044972733002073474
-0.25813409572215157   -0.04811007896072391   -0.044972733002073474
-0.25813409572215157   -0.04811007896072391   -0.044972733002073474
-0.20447496036424184   0.0651094378583347   0.01127177784735071
-0.20447496036424184   0.0651094378583347   0.01127177784735071
-0.20447496036424184   0.0651094378583347   0.01127177784735071
-0.20447496036424184   0.0651094378583347   0.01127177784735071
0.10996141494725839   0.06444227131856232   -0.035424007171573534
0.10996141494725839   0.06444227131856232   -0.035424007171573534
0.10996141494725839   0.06444227131856232   -0.035424007171573534
0.10996141494725839   0.06444227131856232   -0.035424007171573534
-0.06161638173360362   0.04131850347361171   0.0158849367841088
-0.06161638173360362   0.04131850347361171   0.0158849367841088
-0.06161638173360362   0.04131850347361171   0.0158849367841088
-0.06161638173360362   0.04131850347361171   0.0158849367841088
-0.28108363100580513   -0.022285695178761188   0.020707127118904482
-0.28108363100580513   -0.022285695178761188   0.020707127118904482
-0.28108363100580513   -0.022285695178761188   0.020707127118904482
-0.28108363100580513   -0.022285695178761188   0.020707127118904482
-0.6045884498265328   -0.08228811834060891   0.0053728601858701475
-0.6045884498265328   -0.08228811834060891   0.0053728601858701475
-0.6045884498265328   -0.08228811834060891   0.0053728601858701475
-0.6045884498265328   -0.08228811834060891   0.0053728601858701475
-0.5810756178000196   -0.051529101215305725   -0.011397891512864806
-0.5810756178000196   -0.051529101215305725   -0.011397891512864806
-0.5810756178000196   -0.051529101215305725   -0.011397891512864806
-0.5810756178000196   -0.051529101215305725   -0.011397891512864806
-0.25333493770645255   0.02145369350716514   0.012877409151893057
-0.25333493770645255   0.02145369350716514   0.012877409151893057
-0.25333493770645255   0.02145369350716514   0.012877409151893057
-0.25333493770645255   0.02145369350716514   0.012877409151893057
-0.4306498463511149   -0.030901838419078162   -0.01131402738918012
-0.4306498463511149   -0.030901838419078162   -0.01131402738918012
-0.4306498463511149   -0.030901838419078162   -0.01131402738918012
-0.4306498463511149   -0.030901838419078162   -0.01131402738918012
-0.25367771103075415   0.018961254707189276   0.01365598133035991
-0.25367771103075415   0.018961254707189276   0.01365598133035991
-0.25367771103075415   0.018961254707189276   0.01365598133035991
-0.25367771103075415   0.018961254707189276   0.01365598133035991
-0.5785263906007111   -0.046830208540336885   -0.003350648191297191
-0.5785263906007111   -0.046830208540336885   -0.003350648191297191
-0.5785263906007111   -0.046830208540336885   -0.003350648191297191
-0.5785263906007111   -0.046830208540336885   -0.003350648191297191
-0.5528700671988804   -0.009198734926449237   -0.017924492593323543
-0.5528700671988804   -0.009198734926449237   -0.017924492593323543
-0.5528700671988804   -0.009198734926449237   -0.017924492593323543
-0.5528700671988804   -0.009198734926449237   -0.017924492593323543
-0.22677090198784977   0.05900850438536212   0.004724652323349805
-0.22677090198784977   0.05900850438536212   0.004724652323349805
-0.22677090198784977   0.05900850438536212   0.004724652323349805
-0.22677090198784977   0.05900850438536212   0.004724652323349805
-0.40153216721594626   0.006287003433824434   0.005918893783451874
-0.40153216721594626   0.006287003433824434   0.005918893783451874
-0.40153216721594626   0.006287003433824434   0.005918893783451874
-0.40153216721594626   0.006287003433824434   0.005918893783451874
-0.226101409427179   0.06096334920747353   0.0061172703045917695
-0.226101409427179   0.06096334920747353   0.0061172703045917695
-0.226101409427179   0.06096334920747353   0.0061172703045917695
-0.226101409427179   0.06096334920747353   0.0061172703045917695
-0.5517783850848985   -0.009392405073909399   -0.012272411875959014
-0.5517783850848985   -0.009392405073909399   -0.012272411875959014
-0.5517783850848985   -0.009392405073909399   -0.012272411875959014
-0.5517783850848985   -0.009392405073909399   -0.012272411875959014
-0.5258041986249224   0.03324352921901874   -0.025377817374991715
-0.5258041986249224   0.03324352921901874   -0.025377817374991715
-0.5258041986249224   0.03324352921901874   -0.025377817374991715
-0.5258041986249224   0.03324352921901874   -0.025377817374991715
-0.2013481533612331   0.09667398288206477   -0.004658732161332203
-0.2013481533612331   0.09667398288206477   -0.004658732161332203
-0.2013481533612331   0.09667398288206477   -0.004658732161332203
-0.2013481533612331   0.09667398288206477   -0.004658732161332203
-0.37392805906833426   0.04337161918159796   0.022026752976901598
-0.37392805906833426   0.04337161918159796   0.022026752976901598
-0.37392805906833426   0.04337161918159796   0.022026752976901598
-0.37392805906833426   0.04337161918159796   0.022026752976901598
-0.6042970828755951   -0.058101715929272255   -0.0173567074707735
-0.6042970828755951   -0.058101715929272255   -0.0173567074707735
-0.6042970828755951   -0.058101715929272255   -0.0173567074707735
-0.6042970828755951   -0.058101715929272255   -0.0173567074707735
-0.8968346783178471   -0.050631083475995126   0.03595742672109659
-0.8968346783178471   -0.050631083475995126   0.03595742672109659
-0.8968346783178471   -0.050631083475995126   0.03595742672109659
-0.8968346783178471   -0.050631083475995126   0.03595742672109659
-0.8969879221268973   -0.08551917501558964   -0.04823838169837089
-0.8969879221268973   -0.08551917501558964   -0.04823838169837089
-0.8969879221268973   -0.08551917501558964   -0.04823838169837089
-0.8969879221268973   -0.08551917501558964   -0.04823838169837089
-0.5487562672956626   0.05472736619453486   0.04394239359907312
-0.5487562672956626   0.05472736619453486   0.04394239359907312
-0.5487562672956626   0.05472736619453486   0.04394239359907312
-0.5487562672956626   0.05472736619453486   0.04394239359907312
-0.7326060721143391   -0.03128120978980481   -0.004751115577245224
-0.7326060721143391   -0.03128120978980481   -0.004751115577245224
-0.7326060721143391   -0.03128120978980481   -0.004751115577245224
-0.7326060721143391   -0.03128120978980481   -0.004751115577245224
-0.5766515342878719   -0.01663794678466718   -0.024168628382765282
-0.5766515342878719   -0.01663794678466718   -0.024168628382765282
-0.5766515342878719   -0.01663794678466718   -0.024168628382765282
-0.5766515342878719   -0.01663794678466718   -0.024168628382765282
-0.8672724251782062   -0.012333632079906814   0.02715356010940826
-0.8672724251782062   -0.012333632079906814   0.02715356010940826
-0.8672724251782062   -0.012333632079906814   0.02715356010940826
-0.8672724251782062   -0.012333632079906814   0.02715356010940826
-0.8616803628080296   -0.04513183157599984   -0.053672021875711816
-0.8616803628080296   -0.04513183157599984   -0.053672021875711816
-0.8616803628080296   -0.04513183157599984   -0.053672021875711816
-0.8616803628080296   -0.04513183157599984   -0.053672021875711816
-0.5226692949342628   0.08891151762771271   0.03496911617560251
-0.5226692949342628   0.08891151762771271   0.03496911617560251
-0.5226692949342628   0.08891151762771271   0.03496911617560251
-0.5226692949342628   0.08891151762771271   0.03496911617560251
-0.6977179188894489   0.0062021249701356695   0.012999595941395114
-0.6977179188894489   0.0062021249701356695   0.012999595941395114
-0.6977179188894489   0.0062021249701356695   0.012999595941395114
-0.6977179188894489   0.0062021249701356695   0.012999595941395114
-0.5496413124757689   0.02151207673729169   -0.03249153064150673
-0.5496413124757689   0.02151207673729169   -0.03249153064150673
-0.5496413124757689   0.02151207673729169   -0.03249153064150673
-0.5496413124757689   0.02151207673729169   -0.03249153064150673
-0.8326604484834272   0.024315506097516176   0.021980212073784266
-0.8326604484834272   0.024315506097516176   0.021980212073784266
-0.8326604484834272   0.024315506097516176   0.021980212073784266
-0.8326604484834272   0.024315506097516176   0.021980212073784266
-0.8300895136018038   -0.0010585168439062043   -0.05776874513548442
-0.8300895136018038   -0.0010585168439062043   -0.05776874513548442
-0.8300895136018038   -0.0010585168439062043   -0.05776874513548442
-0.8300895136018038   -0.0010585168439062043   -0.05776874513548442
-0.4968525458510017   0.12669394894002398   0.02593002677360718
-0.4968525458510017   0.12669394894002398   0.02593002677360718
-0.4968525458510017   0.12669394894002398   0.02593002677360718
-0.4968525458510017   0.12669394894002398   0.02593002677360718
-0.6715489381205608   0.04118503617437591   0.028916188545594575
-0.6715489381205608   0.04118503617437591   0.028916188545594575
-0.6715489381205608   0.04118503617437591   0.028916188545594575
-0.6715489381205608   0.04118503617437591   0.028916188545594575
-0.9211324712877338   -0.08349930423075928   -0.052663317373572174
-0.9211324712877338   -0.08349930423075928   -0.052663317373572174
-0.9211324712877338   -0.08349930423075928   -0.052663317373572174
-0.9211324712877338   -0.08349930423075928   -0.052663317373572174
-1.2298216265943558   -0.021461850514970293   0.07775860783473669
-1.2298216265943558   -0.021461850514970293   0.07775860783473669
-1.2298216265943558   -0.021461850514970293   0.07775860783473669
-1.2298216265943558   -0.021461850514970293   0.07775860783473669
-1.2124893277182445   -0.11147807859886241   -0.07022922080098015
-1.2124893277182445   -0.11147807859886241   -0.07022922080098015
-1.2124893277182445   -0.11147807859886241   -0.07022922080098015
-1.2124893277182445   -0.11147807859886241   -0.07022922080098015
-0.8364170872640116   0.0924412133111703   0.07665540428929692
-0.8364170872640116   0.0924412133111703   0.07665540428929692
-0.8364170872640116   0.0924412133111703   0.07665540428929692
-0.8364170872640116   0.0924412133111703   0.07665540428929692
-1.004716810330832   -0.017806148085262152   0.008277554124892082
-1.004716810330832   -0.017806148085262152   0.008277554124892082
-1.004716810330832   -0.017806148085262152   0.008277554124892082
-1.004716810330832   -0.017806148085262152   0.008277554124892082
-0.8911637763973188   -0.04507874148974575   -0.059558086576319065
-0.8911637763973188   -0.04507874148974575   -0.059558086576319065
-0.8911637763973188   -0.04507874148974575   -0.059558086576319065
-0.8911637763973188   -0.04507874148974575   -0.059558086576319065
-1.1560933576407653   0.02769115714623177   0.07258139384129689
-1.1560933576407653   0.02769115714623177   0.07258139384129689
-1.1560933576407653   0.02769115714623177   0.07258139384129689
-1.1560933576407653   0.02769115714623177   0.07258139384129689
-1.1566952842567617   -0.08750824337912583   -0.08357095505093864
-1.1566952842567617   -0.08750824337912583   -0.08357095505093864
-1.1566952842567617   -0.08750824337912583   -0.08357095505093864
-1.1566952842567617   -0.08750824337912583   -0.08357095505093864
-0.8076425123117885   0.10819927494234607   0.06318612408714218
-0.8076425123117885   0.10819927494234607   0.06318612408714218
-0.8076425123117885   0.10819927494234607   0.06318612408714218
-0.8076425123117885   0.10819927494234607   0.06318612408714218
-0.9729805466646193   0.007337841000614992   0.022622310374805284
-0.9729805466646193   0.007337841000614992   0.022622310374805284
-0.9729805466646193   0.007337841000614992   0.022622310374805284
-0.9729805466646193   0.007337841000614992   0.022622310374805284
-0.860742361954077   -0.025355198120659228   -0.06875865106128942
-0.860742361954077   -0.025355198120659228   -0.06875865106128942
-0.860742361954077   -0.025355198120659228   -0.06875865106128942
-0.860742361954077   -0.025355198120659228   -0.06875865106128942
-1.1015756117960305   0.04806605250231982   0.056453111371252765
-1.1015756117960305   0.04806605250231982   0.056453111371252765
-1.1015756117960305   0.04806605250231982   0.056453111371252765
-1.1015756117960305   0.04806605250231982   0.056453111371252765
-1.0880040551044057   -0.05168480797023939   -0.09317774657623416
-1.0880040551044057   -0.05168480797023939   -0.09317774657623416
-1.0880040551044057   -0.05168480797023939   -0.09317774657623416
-1.0880040551044057   -0.05168480797023939   -0.09317774657623416
-0.7823420940961203   0.1272742115144013   0.05263562403462173
-0.7823420940961203   0.1272742115144013   0.05263562403462173
-0.7823420940961203   0.1272742115144013   0.05263562403462173
-0.7823420940961203   0.1272742115144013   0.05263562403462173
-0.9138092861374665   0.0309089320787429   0.04280646176905292
-0.9138092861374665   0.0309089320787429   0.04280646176905292
-0.9138092861374665   0.0309089320787429   0.04280646176905292
-0.9138092861374665   0.0309089320787429   0.04280646176905292
0.977946996741516   0.08882912558386732   0.08498912307109519
0.977946996741516   0.08882912558386732   0.08498912307109519
0.977946996741516   0.08882912558386732   0.08498912307109519
0.977946996741516   0.08882912558386732   0.08498912307109519
0.35835788073934804   -0.16288095314036055   -0.05595072160779399
0.35835788073934804   -0.16288095314036055   -0.05595072160779399
0.35835788073934804   -0.16288095314036055   -0.05595072160779399
0.35835788073934804   -0.16288095314036055   -0.05595072160779399
0.4427653695401149   -0.0009032949310090743   0.061165871602326095
0.4427653695401149   -0.0009032949310090743   0.061165871602326095
0.4427653695401149   -0.0009032949310090743   0.061165871602326095
0.4427653695401149   -0.0009032949310090743   0.061165871602326095
0.9958412510009766   -0.022830074275078216   -0.07142026936379191
0.9958412510009766   -0.022830074275078216   -0.07142026936379191
0.9958412510009766   -0.022830074275078216   -0.07142026936379191
0.9958412510009766   -0.022830074275078216   -0.07142026936379191
0.6510543983058406   -0.02954691238432669   -0.06293247527584293
0.6510543983058406   -0.02954691238432669   -0.06293247527584293
0.6510543983058406   -0.02954691238432669   -0.06293247527584293
0.6510543983058406   -0.02954691238432669   -0.06293247527584293
1.0542532613686697   0.12393587562845997   0.07387383257112946
1.0542532613686697   0.12393587562845997   0.07387383257112946
1.0542532613686697   0.12393587562845997   0.07387383257112946
1.0542532613686697   0.12393587562845997   0.07387383257112946
0.388481359799708   -0.1435412442072629   -0.06761622782344678
0.388481359799708   -0.1435412442072629   -0.06761622782344678
0.388481359799708   -0.1435412442072629   -0.06761622782344678
0.388481359799708   -0.1435412442072629   -0.06761622782344678
0.4761336353538475   0.01832833302873764   0.05045103914720226
0.4761336353538475   0.01832833302873764   0.05045103914720226
0.4761336353538475   0.01832833302873764   0.05045103914720226
0.4761336353538475   0.01832833302873764   0.05045103914720226
1.0565891698772587   -0.0009669061179518046   -0.09000195125195362
1.0565891698772587   -0.0009669061179518046   -0.09000195125195362
1.0565891698772587   -0.0009669061179518046   -0.09000195125195362
1.0565891698772587   -0.0009669061179518046   -0.09000195125195362
0.7144575130545261   -0.005922360603408838   -0.03809654084080506
0.7144575130545261   -0.005922360603408838   -0.03809654084080506
0.7144575130545261   -0.005922360603408838   -0.03809654084080506
0.7144575130545261   -0.005922360603408838   -0.03809654084080506
1.1156579125332533   0.1475149598476584   0.05685989606240144
1.1156579125332533   0.1475149598476584   0.05685989606240144
1.1156579125332533   0.1475149598476584   0.05685989606240144
1.1156579125332533   0.1475149598476584   0.05685989606240144
0.42146292181597167   -0.1257555038187547   -0.07881869169468084
0.42146292181597167   -0.1257555038187547   -0.07881869169468084
0.42146292181597167   -0.1257555038187547   -0.07881869169468084
0.42146292181597167   -0.1257555038187547   -0.07881869169468084
0.5094541638417562   0.060701711785126844   0.04372643070063901
0.5094541638417562   0.060701711785126844   0.04372643070063901
0.5094541638417562   0.060701711785126844   0.04372643070063901
0.5094541638417562   0.060701711785126844   0.04372643070063901
1.1363447261545165   0.056056392162769864   -0.09709806876342988
1.1363447261545165   0.056056392162769864   -0.09709806876342988
1.1363447261545165   0.056056392162769864   -0.09709806876342988
1.1363447261545165   0.056056392162769864   -0.09709806876342988
0.7536658259529897   0.022801997516820216   -0.01659355422445436
0.7536658259529897   0.022801997516820216   -0.01659355422445436
0.7536658259529897   0.022801997516820216   -0.01659355422445436
0.7536658259529897   0.022801997516820216   -0.01659355422445436
0.425635946912341   0.049698341711530876   0.06786031440527941
0.425635946912341   0.049698341711530876   0.06786031440527941
0.425635946912341   0.049698341711530876   0.06786031440527941
0.425635946912341   0.049698341711530876   0.06786031440527941
-0.20703433881398076   -0.15196363946939356   -0.02929808055593675
-0.20703433881398076   -0.15196363946939356   -0.02929808055593675
-0.20703433881398076   -0.15196363946939356   -0.02929808055593675
-0.20703433881398076   -0.15196363946939356   -0.02929808055593675
-0.14894078236617067   -0.04442945546316491   0.020579610425883216
-0.14894078236617067   -0.04442945546316491   0.020579610425883216
-0.14894078236617067   -0.04442945546316491   0.020579610425883216
-0.14894078236617067   -0.04442945546316491   0.020579610425883216
0.4291150348883298   0.001028336301929833   -0.009017432889539488
0.4291150348883298   0.001028336301929833   -0.009017432889539488
0.4291150348883298   0.001028336301929833   -0.009017432889539488
0.4291150348883298   0.001028336301929833   -0.009017432889539488
0.11909660414217951   -0.03218986220150824   -0.026839013888966104
0.11909660414217951   -0.03218986220150824   -0.026839013888966104
0.11909660414217951   -0.03218986220150824   -0.026839013888966104
0.11909660414217951   -0.03218986220150824   -0.026839013888966104
0.4599035670052749   0.08534517093781381   0.060608393059303274
0.4599035670052749   0.08534517093781381   0.060608393059303274
0.4599035670052749   0.08534517093781381   0.060608393059303274
0.4599035670052749   0.08534517093781381   0.060608393059303274
-0.17724803447930682   -0.12626501009523572   -0.03912109550773056
-0.17724803447930682   -0.12626501009523572   -0.03912109550773056
-0.17724803447930682   -0.12626501009523572   -0.03912109550773056
-0.17724803447930682   -0.12626501009523572   -0.03912109550773056
-0.11785011056743874   -0.0084555347742654   0.01301600277550627
-0.11785011056743874   -0.0084555347742654   0.01301600277550627
-0.11785011056743874   -0.0084555347742654   0.01301600277550627
-0.11785011056743874   -0.0084555347742654   0.01301600277550627
0.4656807908145124   0.03331936854858425   -0.016804219069315725
0.4656807908145124   0.03331936854858425   -0.016804219069315725
0.4656807908145124   0.03331936854858425   -0.016804219069315725
0.4656807908145124   0.03331936854858425   -0.016804219069315725
0.1491440865308506   -0.003756180347485597   -0.010676477033575753
0.1491440865308506   -0.003756180347485597   -0.010676477033575753
0.1491440865308506   -0.003756180347485597   -0.010676477033575753
0.1491440865308506   -0.003756180347485597   -0.010676477033575753
0.4976993294538928   0.12281060100843776   0.053797241667728424
0.4976993294538928   0.12281060100843776   0.053797241667728424
0.4976993294538928   0.12281060100843776   0.053797241667728424
0.4976993294538928   0.12281060100843776   0.053797241667728424
-0.1473809052179705   -0.09545902324527734   -0.047634482006140705
-0.1473809052179705   -0.09545902324527734   -0.047634482006140705
-0.1473809052179705   -0.09545902324527734   -0.047634482006140705
-0.1473809052179705   -0.09545902324527734   -0.047634482006140705
-0.08715431028499206   0.03320101633534113   0.005485443144570909
-0.08715431028499206   0.03320101633534113   0.005485443144570909
-0.08715431028499206   0.03320101633534113   0.005485443144570909
-0.08715431028499206   0.03320101633534113   0.005485443144570909
0.49812203088713314   0.0717527056911263   -0.023985227978472298
0.49812203088713314   0.0717527056911263   -0.023985227978472298
0.49812203088713314   0.0717527056911263   -0.023985227978472298
0.49812203088713314   0.0717527056911263   -0.023985227978472298
0.18622297201915503   0.03109742402872347   0.008187960119257244
0.18622297201915503   0.03109742402872347   0.008187960119257244
0.18622297201915503   0.03109742402872347   0.008187960119257244
0.18622297201915503   0.03109742402872347   0.008187960119257244
-0.16286647823788666   0.010747683759139075   0.02882989909600102
-0.16286647823788666   0.010747683759139075   0.02882989909600102
-0.16286647823788666   0.010747683759139075   0.02882989909600102
-0.16286647823788666   0.010747683759139075   0.02882989909600102
-0.7611950516631574   -0.13413946575244445   -0.0038464002623901095
-0.7611950516631574   -0.13413946575244445   -0.0038464002623901095
-0.7611950516631574   -0.13413946575244445   -0.0038464002623901095
-0.7611950516631574   -0.13413946575244445   -0.0038464002623901095
-0.7243112046096295   -0.07889568242123603   -0.017893203586874584
-0.7243112046096295   -0.07889568242123603   -0.017893203586874584
-0.7243112046096295   -0.07889568242123603   -0.017893203586874584
-0.7243112046096295   -0.07889568242123603   -0.017893203586874584
-0.13637230074823814   0.0198045900844062   0.019187972967972255
-0.13637230074823814   0.0198045900844062   0.019187972967972255
-0.13637230074823814   0.0198045900844062   0.019187972967972255
-0.13637230074823814   0.0198045900844062   0.019187972967972255
-0.44697328666134617   -0.04126066851293606   -0.016750234388800078
-0.44697328666134617   -0.04126066851293606   -0.016750234388800078
-0.44697328666134617   -0.04126066851293606   -0.016750234388800078
-0.44697328666134617   -0.04126066851293606   -0.016750234388800078
-0.1302391451035941   0.04785753204372724   0.021800809231873965
-0.1302391451035941   0.04785753204372724   0.021800809231873965
-0.1302391451035941   0.04785753204372724   0.021800809231873965
-0.1302391451035941   0.04785753204372724   0.021800809231873965
-0.7287919298780734   -0.10529619400435111   -0.01389631834597904
-0.7287919298780734   -0.10529619400435111   -0.01389631834597904
-0.7287919298780734   -0.10529619400435111   -0.01389631834597904
-0.7287919298780734   -0.10529619400435111   -0.01389631834597904
-0.6900479215741248   -0.03942667972098478   -0.024174248622109585
-0.6900479215741248   -0.03942667972098478   -0.024174248622109585
-0.6900479215741248   -0.03942667972098478   -0.024174248622109585
-0.6900479215741248   -0.03942667972098478   -0.024174248622109585
-0.10610900347767006   0.05242190894870254   0.010844094501384564
-0.10610900347767006   0.05242190894870254   0.010844094501384564
-0.10610900347767006   0.05242190894870254   0.010844094501384564
-0.10610900347767006   0.05242190894870254   0.010844094501384564
-0.41241771035665303   -0.00823518003127982   -0.0002596467543721538
-0.41241771035665303   -0.00823518003127982   -0.0002596467543721538
-0.41241771035665303   -0.00823518003127982   -0.0002596467543721538
-0.41241771035665303   -0.00823518003127982   -0.0002596467543721538
-0.09870971122721732   0.08644025417774487   0.013822210524606969
-0.09870971122721732   0.08644025417774487   0.013822210524606969
-0.09870971122721732   0.08644025417774487   0.013822210524606969
-0.09870971122721732   0.08644025417774487   0.013822210524606969
-0.695911347459546   -0.07190915858499132   -0.0210088991852088
-0.695911347459546   -0.07190915858499132   -0.0210088991852088
-0.695911347459546   -0.07190915858499132   -0.0210088991852088
-0.695911347459546   -0.07190915858499132   -0.0210088991852088
-0.6581560242067287   -9.347561653805236e-05   -0.03168815380885077
-0.6581560242067287   -9.347561653805236e-05   -0.03168815380885077
-0.6581560242067287   -9.347561653805236e-05   -0.03168815380885077
-0.6581560242067287   -9.347561653805236e-05   -0.03168815380885077
-0.07721608539266461   0.08573941444464678   0.0026381694969058525
-0.07721608539266461   0.08573941444464678   0.0026381694969058525
-0.07721608539266461   0.08573941444464678   0.0026381694969058525
-0.07721608539266461   0.08573941444464678   0.0026381694969058525
-0.38067050172426314   0.024664968055017666   0.015434384046420389
-0.38067050172426314   0.024664968055017666   0.015434384046420389
-0.38067050172426314   0.024664968055017666   0.015434384046420389
-0.38067050172426314   0.024664968055017666   0.015434384046420389
-0.7416941592161423   -0.029075621463185125   -0.011405782316566804
-0.7416941592161423   -0.029075621463185125   -0.011405782316566804
-0.7416941592161423   -0.029075621463185125   -0.011405782316566804
-0.7416941592161423   -0.029075621463185125   -0.011405782316566804
-1.3025559725250941   -0.10861011592337913   0.02524315364882987
-1.3025559725250941   -0.10861011592337913   0.02524315364882987
-1.3025559725250941   -0.10861011592337913   0.02524315364882987
-1.3025559725250941   -0.10861011592337913   0.02524315364882987
-1.2845316755384926   -0.11198681810355446   -0.05385311964854387
-1.2845316755384926   -0.11198681810355446   -0.05385311964854387
-1.2845316755384926   -0.11198681810355446   -0.05385311964854387
-1.2845316755384926   -0.11198681810355446   -0.05385311964854387
-0.6852162211573053   0.050423976886872446   0.04826205436664399
-0.6852162211573053   0.050423976886872446   0.04826205436664399
-0.6852162211573053   0.050423976886872446   0.04826205436664399
-0.6852162211573053   0.050423976886872446   0.04826205436664399
-0.9965563332810193   -0.043521400389065545   -0.005833730243849061
-0.9965563332810193   -0.043521400389065545   -0.005833730243849061
-0.9965563332810193   -0.043521400389065545   -0.005833730243849061
-0.9965563332810193   -0.043521400389065545   -0.005833730243849061
-0.7062230269614651   0.01097994665674798   -0.0173279444240309
-0.7062230269614651   0.01097994665674798   -0.0173279444240309
-0.7062230269614651   0.01097994665674798   -0.0173279444240309
-0.7062230269614651   0.01097994665674798   -0.0173279444240309
-1.2634539344628164   -0.07247185260191866   0.01202062022819992
-1.2634539344628164   -0.07247185260191866   0.01202062022819992
-1.2634539344628164   -0.07247185260191866   0.01202062022819992
-1.2634539344628164   -0.07247185260191866   0.01202062022819992
-1.2397777440108846   -0.07341682382391812   -0.05956414200592976
-1.2397777440108846   -0.07341682382391812   -0.05956414200592976
-1.2397777440108846   -0.07341682382391812   -0.05956414200592976
-1.2397777440108846   -0.07341682382391812   -0.05956414200592976
-0.6533078552325426   0.08153305665068789   0.03856634671413474
-0.6533078552325426   0.08153305665068789   0.03856634671413474
-0.6533078552325426   0.08153305665068789   0.03856634671413474
-0.6533078552325426   0.08153305665068789   0.03856634671413474
-0.9510481688333945   -0.007013775488075968   0.01069711111460609
-0.9510481688333945   -0.007013775488075968   0.01069711111460609
-0.9510481688333945   -0.007013775488075968   0.01069711111460609
-0.9510481688333945   -0.007013775488075968   0.01069711111460609
-0.6730271233574383   0.046788951046691174   -0.02528588830634671
-0.6730271233574383   0.046788951046691174   -0.02528588830634671
-0.6730271233574383   0.046788951046691174   -0.02528588830634671
-0.6730271233574383   0.046788951046691174   -0.02528588830634671
-1.219029599864351   -0.03764384219828068   0.008403597101100259
-1.219029599864351   -0.03764384219828068   0.008403597101100259
-1.219029599864351   -0.03764384219828068   0.008403597101100259
-1.219029599864351   -0.03764384219828068   0.008403597101100259
-1.1997577268298476   -0.03159745997236177   -0.0626218368094758
-1.1997577268298476   -0.03159745997236177   -0.0626218368094758
-1.1997577268298476   -0.03159745997236177   -0.0626218368094758
-1.1997577268298476   -0.03159745997236177   -0.0626218368094758
-0.6224033872319304   0.1157558590594136   0.031225696389195555
-0.6224033872319304   0.1157558590594136   0.031225696389195555
-0.6224033872319304   0.1157558590594136   0.031225696389195555
-0.6224033872319304   0.1157558590594136   0.031225696389195555
-0.920207237346252   0.024209479093211195   0.024961925167237928
-0.920207237346252   0.024209479093211195   0.024961925167237928
-0.920207237346252   0.024209479093211195   0.024961925167237928
-0.920207237346252   0.024209479093211195   0.024961925167237928
-1.3080913855455305   -0.06239694112291186   -0.048647086253818674
-1.3080913855455305   -0.06239694112291186   -0.048647086253818674
-1.3080913855455305   -0.06239694112291186   -0.048647086253818674
-1.3080913855455305   -0.06239694112291186   -0.048647086253818674
-1.8640397914208413   -0.06717290207897347   0.08432044777900555
-1.8640397914208413   -0.06717290207897347   0.08432044777900555
-1.8640397914208413   -0.06717290207897347   0.08432044777900555
-1.8640397914208413   -0.06717290207897347   0.08432044777900555
-1.827981172100749   -0.13408215702786058   -0.06439736256912008
-1.827981172100749   -0.13408215702786058   -0.06439736256912008
-1.827981172100749   -0.13408215702786058   -0.06439736256912008
-1.827981172100749   -0.13408215702786058   -0.06439736256912008
-1.2133528213321336   0.10437377183965557   0.08568056144002895
-1.2133528213321336   0.10437377183965557   0.08568056144002895
-1.2133528213321336   0.10437377183965557   0.08568056144002895
-1.2133528213321336   0.10437377183965557   0.08568056144002895
-1.484481723286658   -0.018355783541761428   0.017128773325051194
-1.484481723286658   -0.018355783541761428   0.017128773325051194
-1.484481723286658   -0.018355783541761428   0.017128773325051194
-1.484481723286658   -0.018355783541761428   0.017128773325051194
-1.266107341801428   -0.019642976889608976   -0.05407529217717291
-1.266107341801428   -0.019642976889608976   -0.05407529217717291
-1.266107341801428   -0.019642976889608976   -0.05407529217717291
-1.266107341801428   -0.019642976889608976   -0.05407529217717291
-1.774368484073898   -0.009207240741042066   0.07879116127830486
-1.774368484073898   -0.009207240741042066   0.07879116127830486
-1.774368484073898   -0.009207240741042066   0.07879116127830486
-1.774368484073898   -0.009207240741042066   0.07879116127830486
-1.7603169792370577   -0.11013870379331003   -0.07582930266586937
-1.7603169792370577   -0.11013870379331003   -0.07582930266586937
-1.7603169792370577   -0.11013870379331003   -0.07582930266586937
-1.7603169792370577   -0.11013870379331003   -0.07582930266586937
-1.175776971801495   0.11914375994687765   0.06787913527022313
-1.175776971801495   0.11914375994687765   0.06787913527022313
-1.175776971801495   0.11914375994687765   0.06787913527022313
-1.175776971801495   0.11914375994687765   0.06787913527022313
-1.4494463473877959   0.007773713238412028   0.030906449464458335
-1.4494463473877959   0.007773713238412028   0.030906449464458335
-1.4494463473877959   0.007773713238412028   0.030906449464458335
-1.4494463473877959   0.007773713238412028   0.030906449464458335
-1.2255517917337255   -0.0003250388735637211   -0.06152616557048847
-1.2255517917337255   -0.0003250388735637211   -0.06152616557048847
-1.2255517917337255   -0.0003250388735637211   -0.06152616557048847
-1.2255517917337255   -0.0003250388735637211   -0.06152616557048847
-1.7096893571649576   0.010182897166998772   0.056987206734291335
-1.7096893571649576   0.010182897166998772   0.056987206734291335
-1.7096893571649576   0.010182897166998772   0.056987206734291335
-1.7096893571649576   0.010182897166998772   0.056987206734291335
-1.6863970746103953   -0.0813424872227031   -0.08639288913662521
-1.6863970746103953   -0.0813424872227031   -0.08639288913662521
-1.6863970746103953   -0.0813424872227031   -0.08639288913662521
-1.6863970746103953   -0.0813424872227031   -0.08639288913662521
-1.1427359057641562   0.13308225348818348   0.057807555058431694
-1.1427359057641562   0.13308225348818348   0.057807555058431694
-1.1427359057641562   0.13308225348818348   0.057807555058431694
-1.1427359057641562   0.13308225348818348   0.057807555058431694
-1.374925459503658   0.029511424823677856   0.051693213210087754
-1.374925459503658   0.029511424823677856   0.051693213210087754
-1.374925459503658   0.029511424823677856   0.051693213210087754
-1.374925459503658   0.029511424823677856   0.051693213210087754
1.6434378218776486   0.12276894931476365   0.08721884952951009
1.6434378218776486   0.12276894931476365   0.08721884952951009
1.6434378218776486   0.12276894931476365   0.08721884952951009
1.6434378218776486   0.12276894931476365   0.08721884952951009
0.7251978431758959   -0.1938399361030763   -0.04001367244937594
0.7251978431758959   -0.1938399361030763   -0.04001367244937594
0.7251978431758959   -0.1938399361030763   -0.04001367244937594
0.7251978431758959   -0.1938399361030763   -0.04001367244937594
0.8088531546635294   -0.03395701552998581   0.05993312069911748
0.8088531546635294   -0.03395701552998581   0.05993312069911748
0.8088531546635294   -0.03395701552998581   0.05993312069911748
0.8088531546635294   -0.03395701552998581   0.05993312069911748
1.6617033424103629   -0.003344715636184492   -0.06276301481892174
1.6617033424103629   -0.003344715636184492   -0.06276301481892174
1.6617033424103629   -0.003344715636184492   -0.06276301481892174
1.6617033424103629   -0.003344715636184492   -0.06276301481892174
1.1389236846322384   -0.034649584629356495   -0.0891900222007336
1.1389236846322384   -0.034649584629356495   -0.0891900222007336
1.1389236846322384   -0.034649584629356495   -0.0891900222007336
1.1389236846322384   -0.034649584629356495   -0.0891900222007336
1.7196830220553403   0.15081705613542534   0.07297361163433809
1.7196830220553403   0.15081705613542534   0.07297361163433809
1.7196830220553403   0.15081705613542534   0.07297361163433809
1.7196830220553403   0.15081705613542534   0.07297361163433809
0.7564385943792211   -0.18255366794092395   -0.05354302831147744
0.7564385943792211   -0.18255366794092395   -0.05354302831147744
0.7564385943792211   -0.18255366794092395   -0.05354302831147744
0.7564385943792211   -0.18255366794092395   -0.05354302831147744
0.8416194954069091   -0.0162672095143144   0.04846620623658319
0.8416194954069091   -0.0162672095143144   0.04846620623658319
0.8416194954069091   -0.0162672095143144   0.04846620623658319
0.8416194954069091   -0.0162672095143144   0.04846620623658319
1.718885455421384   0.01616618016376853   -0.07845355632885966
1.718885455421384   0.01616618016376853   -0.07845355632885966
1.718885455421384   0.01616618016376853   -0.07845355632885966
1.718885455421384   0.01616618016376853   -0.07845355632885966
1.210678606900545   -0.013786248965820203   -0.06064915576516605
1.210678606900545   -0.013786248965820203   -0.06064915576516605
1.210678606900545   -0.013786248965820203   -0.06064915576516605
1.210678606900545   -0.013786248965820203   -0.06064915576516605
1.7765303000965857   0.17184089968207242   0.05409594752884523
1.7765303000965857   0.17184089968207242   0.05409594752884523
1.7765303000965857   0.17184089968207242   0.05409594752884523
1.7765303000965857   0.17184089968207242   0.05409594752884523
0.7888483845936427   -0.16706819517068364   -0.06458836217337927
0.7888483845936427   -0.16706819517068364   -0.06458836217337927
0.7888483845936427   -0.16706819517068364   -0.06458836217337927
0.7888483845936427   -0.16706819517068364   -0.06458836217337927
0.8712951767655741   0.03096444588485986   0.042491749235962585
0.8712951767655741   0.03096444588485986   0.042491749235962585
0.8712951767655741   0.03096444588485986   0.042491749235962585
0.8712951767655741   0.03096444588485986   0.042491749235962585
1.7892115145368184   0.07324334180088166   -0.08216844171796611
1.7892115145368184   0.07324334180088166   -0.08216844171796611
1.7892115145368184   0.07324334180088166   -0.08216844171796611
1.7892115145368184   0.07324334180088166   -0.08216844171796611
1.237613472065894   0.014282309031719342   -0.040875750181104814
1.237613472065894   0.014282309031719342   -0.040875750181104814
1.237613472065894   0.014282309031719342   -0.040875750181104814
1.237613472065894   0.014282309031719342   -0.040875750181104814
0.8022586102284865   0.07170384316032374   0.07974638355017066
0.8022586102284865   0.07170384316032374   0.07974638355017066
0.8022586102284865   0.07170384316032374   0.07974638355017066
0.8022586102284865   0.07170384316032374   0.07974638355017066
-0.09866921452050233   -0.23895524858892125   -0.022768157936168418
-0.09866921452050233   -0.23895524858892125   -0.022768157936168418
-0.09866921452050233   -0.23895524858892125   -0.022768157936168418
-0.09866921452050233   -0.23895524858892125   -0.022768157936168418
-0.02656590650240186   -0.0842361444148383   0.020341104917290114
-0.02656590650240186   -0.0842361444148383   0.020341104917290114
-0.02656590650240186   -0.0842361444148383   0.020341104917290114
-0.02656590650240186   -0.0842361444148383   0.020341104917290114
0.7955337279757022   -0.04453543333433804   0.003914405064333465
0.7955337279757022   -0.04453543333433804   0.003914405064333465
0.7955337279757022   -0.04453543333433804   0.003914405064333465
0.7955337279757022   -0.04453543333433804   0.003914405064333465
0.35816652832600115   -0.06674154439287679   -0.042564727994886746
0.35816652832600115   -0.06674154439287679   -0.042564727994886746
0.35816652832600115   -0.06674154439287679   -0.042564727994886746
0.35816652832600115   -0.06674154439287679   -0.042564727994886746
0.8375100831886255   0.09863581841568961   0.0706249293789272
0.8375100831886255   0.09863581841568961   0.0706249293789272
0.8375100831886255   0.09863581841568961   0.0706249293789272
0.8375100831886255   0.09863581841568961   0.0706249293789272
-0.06561505895888398   -0.2244801934084281   -0.03466060837153066
-0.06561505895888398   -0.2244801934084281   -0.03466060837153066
-0.06561505895888398   -0.2244801934084281   -0.03466060837153066
-0.06561505895888398   -0.2244801934084281   -0.03466060837153066
0.0068496938975197465   -0.05259970477459879   0.01243151123176179
0.0068496938975197465   -0.05259970477459879   0.01243151123176179
0.0068496938975197465   -0.05259970477459879   0.01243151123176179
0.0068496938975197465   -0.05259970477459879   0.01243151123176179
0.8297412752414202   -0.02068362129526813   -0.0065084828099068945
0.8297412752414202   -0.02068362129526813   -0.0065084828099068945
0.8297412752414202   -0.02068362129526813   -0.0065084828099068945
0.8297412752414202   -0.02068362129526813   -0.0065084828099068945
0.38721280386838375   -0.04732222361397613   -0.02760264376903121
0.38721280386838375   -0.04732222361397613   -0.02760264376903121
0.38721280386838375   -0.04732222361397613   -0.02760264376903121
0.38721280386838375   -0.04732222361397613   -0.02760264376903121
0.8739729619875692   0.13094326043514992   0.06302306919041964
0.8739729619875692   0.13094326043514992   0.06302306919041964
0.8739729619875692   0.13094326043514992   0.06302306919041964
0.8739729619875692   0.13094326043514992   0.06302306919041964
-0.03564569132361377   -0.20249028498000626   -0.05015483466850215
-0.03564569132361377   -0.20249028498000626   -0.05015483466850215
-0.03564569132361377   -0.20249028498000626   -0.05015483466850215
-0.03564569132361377   -0.20249028498000626   -0.05015483466850215
0.0330766857211543   -0.015572447479403095   0.004434351334859547
0.0330766857211543   -0.015572447479403095   0.004434351334859547
0.0330766857211543   -0.015572447479403095   0.004434351334859547
0.0330766857211543   -0.015572447479403095   0.004434351334859547
0.8553630295439971   0.00972271096841451   -0.015927251955489302
0.8553630295439971   0.00972271096841451   -0.015927251955489302
0.8553630295439971   0.00972271096841451   -0.015927251955489302
0.8553630295439971   0.00972271096841451   -0.015927251955489302
0.4227346228665392   -0.01828503641876969   -0.011565499785329971
0.4227346228665392   -0.01828503641876969   -0.011565499785329971
0.4227346228665392   -0.01828503641876969   -0.011565499785329971
0.4227346228665392   -0.01828503641876969   -0.011565499785329971
-0.03442438698014762   0.01990341122664627   0.03959731995003761
-0.03442438698014762   0.01990341122664627   0.03959731995003761
-0.03442438698014762   0.01990341122664627   0.03959731995003761
-0.03442438698014762   0.01990341122664627   0.03959731995003761
-0.9162003219488972   -0.3000155910468608   -0.01834417031171624
-0.9162003219488972   -0.3000155910468608   -0.01834417031171624
-0.9162003219488972   -0.3000155910468608   -0.01834417031171624
-0.9162003219488972   -0.3000155910468608   -0.01834417031171624
-0.8431967889832777   -0.12925174278270166   -0.019269203132466106
-0.8431967889832777   -0.12925174278270166   -0.019269203132466106
-0.8431967889832777   -0.12925174278270166   -0.019269203132466106
-0.8431967889832777   -0.12925174278270166   -0.019269203132466106
-0.030955514087063995   -0.10367392440763662   0.017830846986775912
-0.030955514087063995   -0.10367392440763662   0.017830846986775912
-0.030955514087063995   -0.10367392440763662   0.017830846986775912
-0.030955514087063995   -0.10367392440763662   0.017830846986775912
-0.458280438645031   -0.12138642352789067   -0.0380391363002082
-0.458280438645031   -0.12138642352789067   -0.0380391363002082
-0.458280438645031   -0.12138642352789067   -0.0380391363002082
-0.458280438645031   -0.12138642352789067   -0.0380391363002082
0.0026876040655711697   0.05021123260168722   0.032161280740629745
0.0026876040655711697   0.05021123260168722   0.032161280740629745
0.0026876040655711697   0.05021123260168722   0.032161280740629745
0.0026876040655711697   0.05021123260168722   0.032161280740629745
-0.8747280935829129   -0.28102508623902533   -0.025152382674318595
-0.8747280935829129   -0.28102508623902533   -0.025152382674318595
-0.8747280935829129   -0.28102508623902533   -0.025152382674318595
-0.8747280935829129   -0.28102508623902533   -0.025152382674318595
-0.8017553653316378   -0.09412722463494225   -0.02625521156281036
-0.8017553653316378   -0.09412722463494225   -0.02625521156281036
-0.8017553653316378   -0.09412722463494225   -0.02625521156281036
-0.8017553653316378   -0.09412722463494225   -0.02625521156281036
0.00018057069474891954   -0.08075697149797893   0.007243161941285825
0.00018057069474891954   -0.08075697149797893   0.007243161941285825
0.00018057069474891954   -0.08075697149797893   0.007243161941285825
0.00018057069474891954   -0.08075697149797893   0.007243161941285825
-0.418051014906031   -0.09614273690241706   -0.021143249831913433
-0.418051014906031   -0.09614273690241706   -0.021143249831913433
-0.418051014906031   -0.09614273690241706   -0.021143249831913433
-0.418051014906031   -0.09614273690241706   -0.021143249831913433
0.03665047912633681   0.08381011090789038   0.025025621693354094
0.03665047912633681   0.08381011090789038   0.025025621693354094
0.03665047912633681   0.08381011090789038   0.025025621693354094
0.03665047912633681   0.08381011090789038   0.025025621693354094
-0.8382504563887073   -0.2587194896662896   -0.04413840181681111
-0.8382504563887073   -0.2587194896662896   -0.04413840181681111
-0.8382504563887073   -0.2587194896662896   -0.04413840181681111
-0.8382504563887073   -0.2587194896662896   -0.04413840181681111
-0.7724729787709848   -0.06065362174635219   -0.03407011807976885
-0.7724729787709848   -0.06065362174635219   -0.03407011807976885
-0.7724729787709848   -0.06065362174635219   -0.03407011807976885
-0.7724729787709848   -0.06065362174635219   -0.03407011807976885
0.020632639576846027   -0.06246434614472916   -0.010893980721354992
0.020632639576846027   -0.06246434614472916   -0.010893980721354992
0.020632639576846027   -0.06246434614472916   -0.010893980721354992
0.020632639576846027   -0.06246434614472916   -0.010893980721354992
-0.38854096507931246   -0.07260920264906091   -0.010579861741768183
-0.38854096507931246   -0.07260920264906091   -0.010579861741768183
-0.38854096507931246   -0.07260920264906091   -0.010579861741768183
-0.38854096507931246   -0.07260920264906091   -0.010579861741768183
-0.8577890354544777   -0.02497168751359552   -0.0013316413728848703
-0.8577890354544777   -0.02497168751359552   -0.0013316413728848703
-0.8577890354544777   -0.02497168751359552   -0.0013316413728848703
-0.8577890354544777   -0.02497168751359552   -0.0013316413728848703
-1.7373895896608789   -0.32255271431132587   -0.014784383374497456
-1.7373895896608789   -0.32255271431132587   -0.014784383374497456
-1.7373895896608789   -0.32255271431132587   -0.014784383374497456
-1.7373895896608789   -0.32255271431132587   -0.014784383374497456
-1.6589240493011446   -0.16544967429121374   -0.057398373379947416
-1.6589240493011446   -0.16544967429121374   -0.057398373379947416
-1.6589240493011446   -0.16544967429121374   -0.057398373379947416
-1.6589240493011446   -0.16544967429121374   -0.057398373379947416
-0.8274559821720442   -0.10768727309335617   0.037870361234355235
-0.8274559821720442   -0.10768727309335617   0.037870361234355235
-0.8274559821720442   -0.10768727309335617   0.037870361234355235
-0.8274559821720442   -0.10768727309335617   0.037870361234355235
-1.2592451087502454   -0.1458618024596528   -0.026820200604639678
-1.2592451087502454   -0.1458618024596528   -0.026820200604639678
-1.2592451087502454   -0.1458618024596528   -0.026820200604639678
-1.2592451087502454   -0.1458618024596528   -0.026820200604639678
-0.8120095229237395   0.014079985447303961   -0.006664601064780652
-0.8120095229237395   0.014079985447303961   -0.006664601064780652
-0.8120095229237395   0.014079985447303961   -0.006664601064780652
-0.8120095229237395   0.014079985447303961   -0.006664601064780652
-1.6750588049722714   -0.2879052292546906   -0.01561659677208933
-1.6750588049722714   -0.2879052292546906   -0.01561659677208933
-1.6750588049722714   -0.2879052292546906   -0.01561659677208933
-1.6750588049722714   -0.2879052292546906   -0.01561659677208933
-1.599703187001331   -0.12875651145594613   -0.06648616205030843
-1.599703187001331   -0.12875651145594613   -0.06648616205030843
-1.599703187001331   -0.12875651145594613   -0.06648616205030843
-1.599703187001331   -0.12875651145594613   -0.06648616205030843
-0.7871970626698362   -0.08012480303736692   0.03253388014862891
-0.7871970626698362   -0.08012480303736692   0.03253388014862891
-0.7871970626698362   -0.08012480303736692   0.03253388014862891
-0.7871970626698362   -0.08012480303736692   0.03253388014862891
-1.198415073374748   -0.11065904163724294   -0.008852574926133665
-1.198415073374748   -0.11065904163724294   -0.008852574926133665
-1.198415073374748   -0.11065904163724294   -0.008852574926133665
-1.198415073374748   -0.11065904163724294   -0.008852574926133665
-0.7704663755528539   0.04800048815253216   -0.011937975456365428
-0.7704663755528539   0.04800048815253216   -0.011937975456365428
-0.7704663755528539   0.04800048815253216   -0.011937975456365428
-0.7704663755528539   0.04800048815253216   -0.011937975456365428
-1.6193038377012627   -0.25975176622879836   -0.033494160777101975
-1.6193038377012627   -0.25975176622879836   -0.033494160777101975
-1.6193038377012627   -0.25975176622879836   -0.033494160777101975
-1.6193038377012627   -0.25975176622879836   -0.033494160777101975
-1.5516246232120672   -0.09005297420855252   -0.06859723397049816
-1.5516246232120672   -0.09005297420855252   -0.06859723397049816
-1.5516246232120672   -0.09005297420855252   -0.06859723397049816
-1.5516246232120672   -0.09005297420855252   -0.06859723397049816
-0.7640641730714314   -0.06260205342354082   0.009922342095193439
-0.7640641730714314   -0.06260205342354082   0.009922342095193439
-0.7640641730714314   -0.06260205342354082   0.009922342095193439
-0.7640641730714314   -0.06260205342354082   0.009922342095193439
-1.164775561580854   -0.08919240997408928   -0.002997280684027534
-1.164775561580854   -0.08919240997408928   -0.002997280684027534
-1.164775561580854   -0.08919240997408928   -0.002997280684027534
-1.164775561580854   -0.08919240997408928   -0.002997280684027534
-1.6898448173630365   -0.057600536718780626   -0.042012699477830415
-1.6898448173630365   -0.057600536718780626   -0.042012699477830415
-1.6898448173630365   -0.057600536718780626   -0.042012699477830415
-1.6898448173630365   -0.057600536718780626   -0.042012699477830415
-2.548010913070506   -0.21781137358391928   0.09664169814264359
-2.548010913070506   -0.21781137358391928   0.09664169814264359
-2.548010913070506   -0.21781137358391928   0.09664169814264359
-2.548010913070506   -0.21781137358391928   0.09664169814264359
-2.4601941445375575   -0.1733601808074408   -0.05614787859002947
-2.4601941445375575   -0.1733601808074408   -0.05614787859002947
-2.4601941445375575   -0.1733601808074408   -0.05614787859002947
-2.4601941445375575   -0.1733601808074408   -0.05614787859002947
-1.5875222589804292   0.0453843985904554   0.08877650534194773
-1.5875222589804292   0.0453843985904554   0.08877650534194773
-1.5875222589804292   0.0453843985904554   0.08877650534194773
-1.5875222589804292   0.0453843985904554   0.08877650534194773
-1.978752748902035   -0.0684342068316493   0.009306354120188903
-1.978752748902035   -0.0684342068316493   0.009306354120188903
-1.978752748902035   -0.0684342068316493   0.009306354120188903
-1.978752748902035   -0.0684342068316493   0.009306354120188903
-1.624528821557898   -0.004309935237079454   -0.046561973717841265
-1.624528821557898   -0.004309935237079454   -0.046561973717841265
-1.624528821557898   -0.004309935237079454   -0.046561973717841265
-1.624528821557898   -0.004309935237079454   -0.046561973717841265
-2.4172178985935746   -0.1176961636133993   0.1030693339358192
-2.4172178985935746   -0.1176961636133993   0.1030693339358192
-2.4172178985935746   -0.1176961636133993   0.1030693339358192
-2.4172178985935746   -0.1176961636133993   0.1030693339358192
-2.3660097755865355   -0.14585183087435188   -0.06686601505088342
-2.3660097755865355   -0.14585183087435188   -0.06686601505088342
-2.3660097755865355   -0.14585183087435188   -0.06686601505088342
-2.3660097755865355   -0.14585183087435188   -0.06686601505088342
-1.528940704043995   0.07281806001326785   0.0857516812671571
-1.528940704043995   0.07281806001326785   0.0857516812671571
-1.528940704043995   0.07281806001326785   0.0857516812671571
-1.528940704043995   0.07281806001326785   0.0857516812671571
-1.923007519771963   -0.027607335612417905   0.03936620424977379
-1.923007519771963   -0.027607335612417905   0.03936620424977379
-1.923007519771963   -0.027607335612417905   0.03936620424977379
-1.923007519771963   -0.027607335612417905   0.03936620424977379
-1.5672658323426574   0.017215817285020862   -0.05027171749789415
-1.5672658323426574   0.017215817285020862   -0.05027171749789415
-1.5672658323426574   0.017215817285020862   -0.05027171749789415
-1.5672658323426574   0.017215817285020862   -0.05027171749789415
-2.3264870576765255   -0.089051998534742   0.07394774215957742
-2.3264870576765255   -0.089051998534742   0.07394774215957742
-2.3264870576765255   -0.089051998534742   0.07394774215957742
-2.3264870576765255   -0.089051998534742   0.07394774215957742
-2.2686196526690767   -0.1198157221504928   -0.0807985762300293
-2.2686196526690767   -0.1198157221504928   -0.0807985762300293
-2.2686196526690767   -0.1198157221504928   -0.0807985762300293
-2.2686196526690767   -0.1198157221504928   -0.0807985762300293
-1.4854745765768544   0.10573165025290093   0.06636837474412008
-1.4854745765768544   0.10573165025290093   0.06636837474412008
-1.4854745765768544   0.10573165025290093   0.06636837474412008
-1.4854745765768544   0.10573165025290093   0.06636837474412008
-1.8183745720820907   0.007312210514028472   0.06943236431346693
-1.8183745720820907   0.007312210514028472   0.06943236431346693
-1.8183745720820907   0.007312210514028472   0.06943236431346693
-1.8183745720820907   0.007312210514028472   0.06943236431346693
2.2454670858013652   0.13452956490541357   0.08156458996759833
2.2454670858013652   0.13452956490541357   0.08156458996759833
2.2454670858013652   0.13452956490541357   0.08156458996759833
2.2454670858013652   0.13452956490541357   0.08156458996759833
1.0707508006810944   -0.20072586457133862   0.018415684155408465
1.0707508006810944   -0.20072586457133862   0.018415684155408465
1.0707508006810944   -0.20072586457133862   0.018415684155408465
1.0707508006810944   -0.20072586457133862   0.018415684155408465
1.1299864227127312   -0.08457613591271368   0.06279680349606412
1.1299864227127312   -0.08457613591271368   0.06279680349606412
1.1299864227127312   -0.08457613591271368   0.06279680349606412
1.1299864227127312   -0.08457613591271368   0.06279680349606412
2.2573929647281177   0.018847496540016828   -0.018010067228389312
2.2573929647281177   0.018847496540016828   -0.018010067228389312
2.2573929647281177   0.018847496540016828   -0.018010067228389312
2.2573929647281177   0.018847496540016828   -0.018010067228389312
1.5788917512552596   -0.043213626542202954   -0.10502837376041126
1.5788917512552596   -0.043213626542202954   -0.10502837376041126
1.5788917512552596   -0.043213626542202954   -0.10502837376041126
1.5788917512552596   -0.043213626542202954   -0.10502837376041126
2.300084791906335   0.1497862418894506   0.06451032331326696
2.300084791906335   0.1497862418894506   0.06451032331326696
2.300084791906335   0.1497862418894506   0.06451032331326696
2.300084791906335   0.1497862418894506   0.06451032331326696
1.0975494406772885   -0.2052600361193695   0.021295793525508117
1.0975494406772885   -0.2052600361193695   0.021295793525508117
1.0975494406772885   -0.2052600361193695   0.021295793525508117
1.0975494406772885   -0.2052600361193695   0.021295793525508117
1.1524612460928618   -0.07186823261695513   0.04779858909604437
1.1524612460928618   -0.07186823261695513   0.04779858909604437
1.1524612460928618   -0.07186823261695513   0.04779858909604437
1.1524612460928618   -0.07186823261695513   0.04779858909604437
2.2970584919755663   0.03318097178713314   -0.005366883730321417
2.2970584919755663   0.03318097178713314   -0.005366883730321417
2.2970584919755663   0.03318097178713314   -0.005366883730321417
2.2970584919755663   0.03318097178713314   -0.005366883730321417
1.6441324273585367   -0.034197486594623405   -0.07171828929324525
1.6441324273585367   -0.034197486594623405   -0.07171828929324525
1.6441324273585367   -0.034197486594623405   -0.07171828929324525
1.6441324273585367   -0.034197486594623405   -0.07171828929324525
2.3331675235601588   0.1636542952110383   0.04470495076873322
2.3331675235601588   0.1636542952110383   0.04470495076873322
2.3331675235601588   0.1636542952110383   0.04470495076873322
2.3331675235601588   0.1636542952110383   0.04470495076873322
1.123486081192423   -0.19520768935670985   0.02626222133360652
1.123486081192423   -0.19520768935670985   0.02626222133360652
1.123486081192423   -0.19520768935670985   0.02626222133360652
1.123486081192423   -0.19520768935670985   0.02626222133360652
1.1855207347158714   -0.02232205879445187   0.043695335126313406
1.1855207347158714   -0.02232205879445187   0.043695335126313406
1.1855207347158714   -0.02232205879445187   0.043695335126313406
1.1855207347158714   -0.02232205879445187   0.043695335126313406
2.338286614775584   0.06596309818756307   -0.0007255208863637258
2.338286614775584   0.06596309818756307   -0.0007255208863637258
2.338286614775584   0.06596309818756307   -0.0007255208863637258
2.338286614775584   0.06596309818756307   -0.0007255208863637258
1.652334514175878   -0.01583718674801382   -0.053564851928976684
1.652334514175878   -0.01583718674801382   -0.053564851928976684
1.652334514175878   -0.01583718674801382   -0.053564851928976684
1.652334514175878   -0.01583718674801382   -0.053564851928976684
1.1299717553043318   0.02840457958610776   0.08539001311414854
1.1299717553043318   0.02840457958610776   0.08539001311414854
1.1299717553043318   0.02840457958610776   0.08539001311414854
1.1299717553043318   0.02840457958610776   0.08539001311414854
0.060199750596696966   -0.40023481467504185   0.04123833466044716
0.060199750596696966   -0.40023481467504185   0.04123833466044716
0.060199750596696966   -0.40023481467504185   0.04123833466044716
0.060199750596696966   -0.40023481467504185   0.04123833466044716
0.13745406388319392   -0.16925493507627412   0.03839656044709986
0.13745406388319392   -0.16925493507627412   0.03839656044709986
0.13745406388319392   -0.16925493507627412   0.03839656044709986
0.13745406388319392   -0.16925493507627412   0.03839656044709986
1.1009414497112453   -0.1930026535831622   0.025998456159073965
1.1009414497112453   -0.1930026535831622   0.025998456159073965
1.1009414497112453   -0.1930026535831622   0.025998456159073965
1.1009414497112453   -0.1930026535831622   0.025998456159073965
0.5874000397427122   -0.17964154817822853   -0.06726010502370748
0.5874000397427122   -0.17964154817822853   -0.06726010502370748
0.5874000397427122   -0.17964154817822853   -0.06726010502370748
0.5874000397427122   -0.17964154817822853   -0.06726010502370748
1.1568400231229903   0.04120056550766177   0.07128810412699313
1.1568400231229903   0.04120056550766177   0.07128810412699313
1.1568400231229903   0.04120056550766177   0.07128810412699313
1.1568400231229903   0.04120056550766177   0.07128810412699313
0.09631156177908375   -0.38870208285945174   0.052131197709726504
0.09631156177908375   -0.38870208285945174   0.052131197709726504
0.09631156177908375   -0.38870208285945174   0.052131197709726504
0.09631156177908375   -0.38870208285945174   0.052131197709726504
0.1685356018400101   -0.14605202804124412   0.027855156861684757
0.1685356018400101   -0.14605202804124412   0.027855156861684757
0.1685356018400101   -0.14605202804124412   0.027855156861684757
0.1685356018400101   -0.14605202804124412   0.027855156861684757
1.1275360384781203   -0.18086733492014   0.032171653325520966
1.1275360384781203   -0.18086733492014   0.032171653325520966
1.1275360384781203   -0.18086733492014   0.032171653325520966
1.1275360384781203   -0.18086733492014   0.032171653325520966
0.6138795918083215   -0.17077261716098213   -0.03362948005339158
0.6138795918083215   -0.17077261716098213   -0.03362948005339158
0.6138795918083215   -0.17077261716098213   -0.03362948005339158
0.6138795918083215   -0.17077261716098213   -0.03362948005339158
1.1818961442635059   0.06305834878131644   0.0600464985509936
1.1818961442635059   0.06305834878131644   0.0600464985509936
1.1818961442635059   0.06305834878131644   0.0600464985509936
1.1818961442635059   0.06305834878131644   0.0600464985509936
0.12837370603336684   -0.3757795017639577   0.05677315155118609
0.12837370603336684   -0.3757795017639577   0.05677315155118609
0.12837370603336684   -0.3757795017639577   0.05677315155118609
0.12837370603336684   -0.3757795017639577   0.05677315155118609
0.2162274441604717   -0.11122436024200986   0.018472977375914176
0.2162274441604717   -0.11122436024200986   0.018472977375914176
0.2162274441604717   -0.11122436024200986   0.018472977375914176
0.2162274441604717   -0.11122436024200986   0.018472977375914176
1.156654369964449   -0.16241330365384254   0.03945475622858438
1.156654369964449   -0.16241330365384254   0.03945475622858438
1.156654369964449   -0.16241330365384254   0.03945475622858438
1.156654369964449   -0.16241330365384254   0.03945475622858438
0.6602343365424357   -0.14926566755839557   0.005499636775687336
0.6602343365424357   -0.14926566755839557   0.005499636775687336
0.6602343365424357   -0.14926566755839557   0.005499636775687336
0.6602343365424357   -0.14926566755839557   0.005499636775687336
0.12767950791373345   -0.0765752747482292   0.054977581318816894
0.12767950791373345   -0.0765752747482292   0.054977581318816894
0.12767950791373345   -0.0765752747482292   0.054977581318816894
0.12767950791373345   -0.0765752747482292   0.054977581318816894
-0.9587855474483369   -0.6877806961216223   0.0596396583343366
-0.9587855474483369   -0.6877806961216223   0.0596396583343366
-0.9587855474483369   -0.6877806961216223   0.0596396583343366
-0.9587855474483369   -0.6877806961216223   0.0596396583343366
-0.8365966717495508   -0.26755457265624616   0.004068763406276432
-0.8365966717495508   -0.26755457265624616   0.004068763406276432
-0.8365966717495508   -0.26755457265624616   0.004068763406276432
-0.8365966717495508   -0.26755457265624616   0.004068763406276432
0.06792269469722861   -0.5011209224788008   0.022605701919801657
0.06792269469722861   -0.5011209224788008   0.022605701919801657
0.06792269469722861   -0.5011209224788008   0.022605701919801657
0.06792269469722861   -0.5011209224788008   0.022605701919801657
-0.4125329784912205   -0.3860117387385166   -0.08071353277086175
-0.4125329784912205   -0.3860117387385166   -0.08071353277086175
-0.4125329784912205   -0.3860117387385166   -0.08071353277086175
-0.4125329784912205   -0.3860117387385166   -0.08071353277086175
0.16022566843068362   -0.06033660639982859   0.043336254508102835
0.16022566843068362   -0.06033660639982859   0.043336254508102835
0.16022566843068362   -0.06033660639982859   0.043336254508102835
0.16022566843068362   -0.06033660639982859   0.043336254508102835
-0.9075611485485182   -0.6870003918007149   0.06869219855591621
-0.9075611485485182   -0.6870003918007149   0.06869219855591621
-0.9075611485485182   -0.6870003918007149   0.06869219855591621
-0.9075611485485182   -0.6870003918007149   0.06869219855591621
-0.7894684357407983   -0.2401192624426705   8.071365337513486e-05
-0.7894684357407983   -0.2401192624426705   8.071365337513486e-05
-0.7894684357407983   -0.2401192624426705   8.071365337513486e-05
-0.7894684357407983   -0.2401192624426705   8.071365337513486e-05
0.10068374362287016   -0.4901685107630234   0.032712348497768856
0.10068374362287016   -0.4901685107630234   0.032712348497768856
0.10068374362287016   -0.4901685107630234   0.032712348497768856
0.10068374362287016   -0.4901685107630234   0.032712348497768856
-0.36481461038026075   -0.3729012060309936   -0.03013845812509458
-0.36481461038026075   -0.3729012060309936   -0.03013845812509458
-0.36481461038026075   -0.3729012060309936   -0.03013845812509458
-0.36481461038026075   -0.3729012060309936   -0.03013845812509458
0.18998070746408868   -0.038699870953501476   0.027728527894339074
0.18998070746408868   -0.038699870953501476   0.027728527894339074
0.18998070746408868   -0.038699870953501476   0.027728527894339074
0.18998070746408868   -0.038699870953501476   0.027728527894339074
-0.859490177883489   -0.6723126805536536   0.0821654210509159
-0.859490177883489   -0.6723126805536536   0.0821654210509159
-0.859490177883489   -0.6723126805536536   0.0821654210509159
-0.859490177883489   -0.6723126805536536   0.0821654210509159
-0.7117025008734168   -0.20850995900688524   -0.008786904581872493
-0.7117025008734168   -0.20850995900688524   -0.008786904581872493
-0.7117025008734168   -0.20850995900688524   -0.008786904581872493
-0.7117025008734168   -0.20850995900688524   -0.008786904581872493
0.15182836730237484   -0.4594722927619679   0.04472552560538606
0.15182836730237484   -0.4594722927619679   0.04472552560538606
0.15182836730237484   -0.4594722927619679   0.04472552560538606
0.15182836730237484   -0.4594722927619679   0.04472552560538606
-0.302871627904667   -0.3434451748390586   0.022836743665759343
-0.302871627904667   -0.3434451748390586   0.022836743665759343
-0.302871627904667   -0.3434451748390586   0.022836743665759343
-0.302871627904667   -0.3434451748390586   0.022836743665759343
-0.8555134074945347   -0.1379805573390117   0.02620021932072677
-0.8555134074945347   -0.1379805573390117   0.02620021932072677
-0.8555134074945347   -0.1379805573390117   0.02620021932072677
-0.8555134074945347   -0.1379805573390117   0.02620021932072677
-2.134575906731594   -1.0710391416097496   -0.050732462219534064
-2.134575906731594   -1.0710391416097496   -0.050732462219534064
-2.134575906731594   -1.0710391416097496   -0.050732462219534064
-2.134575906731594   -1.0710391416097496   -0.050732462219534064
-1.932874026453807   -0.34814489559452444   -0.05899970698972337
-1.932874026453807   -0.34814489559452444   -0.05899970698972337
-1.932874026453807   -0.34814489559452444   -0.05899970698972337
-1.932874026453807   -0.34814489559452444   -0.05899970698972337
-0.9595232634401961   -0.8959725183862379   0.017853750683039987
-0.9595232634401961   -0.8959725183862379   0.017853750683039987
-0.9595232634401961   -0.8959725183862379   0.017853750683039987
-0.9595232634401961   -0.8959725183862379   0.017853750683039987
-1.4689499255854546   -0.6334815118547057   -0.08475538562593304
-1.4689499255854546   -0.6334815118547057   -0.08475538562593304
-1.4689499255854546   -0.6334815118547057   -0.08475538562593304
-1.4689499255854546   -0.6334815118547057   -0.08475538562593304
-0.7998249820038826   -0.10471718117576752   0.02508982065413875
-0.7998249820038826   -0.10471718117576752   0.02508982065413875
-0.7998249820038826   -0.10471718117576752   0.02508982065413875
-0.7998249820038826   -0.10471718117576752   0.02508982065413875
-2.0877842792191896   -1.1346122041340614   -0.047083662277084215
-2.0877842792191896   -1.1346122041340614   -0.047083662277084215
-2.0877842792191896   -1.1346122041340614   -0.047083662277084215
-2.0877842792191896   -1.1346122041340614   -0.047083662277084215
-1.8701676923926345   -0.31524705280489296   -0.06010673896620314
-1.8701676923926345   -0.31524705280489296   -0.06010673896620314
-1.8701676923926345   -0.31524705280489296   -0.06010673896620314
-1.8701676923926345   -0.31524705280489296   -0.06010673896620314
-0.9138544733013577   -0.8890019571313137   0.027033220539227437
-0.9138544733013577   -0.8890019571313137   0.027033220539227437
-0.9138544733013577   -0.8890019571313137   0.027033220539227437
-0.9138544733013577   -0.8890019571313137   0.027033220539227437
-1.4031967386375126   -0.6164351111850399   -0.05957701649472938
-1.4031967386375126   -0.6164351111850399   -0.05957701649472938
-1.4031967386375126   -0.6164351111850399   -0.05957701649472938
-1.4031967386375126   -0.6164351111850399   -0.05957701649472938
-0.7554943008529713   -0.07860383464479122   0.008435960294636129
-0.7554943008529713   -0.07860383464479122   0.008435960294636129
-0.7554943008529713   -0.07860383464479122   0.008435960294636129
-0.7554943008529713   -0.07860383464479122   0.008435960294636129
-2.0284774068314384   -1.1255947172818295   -0.041307646683271054
-2.0284774068314384   -1.1255947172818295   -0.041307646683271054
-2.0284774068314384   -1.1255947172818295   -0.041307646683271054
-2.0284774068314384   -1.1255947172818295   -0.041307646683271054
-1.772376895160039   -0.2798757813176256   -0.06813357528662277
-1.772376895160039   -0.2798757813176256   -0.06813357528662277
-1.772376895160039   -0.2798757813176256   -0.06813357528662277
-1.772376895160039   -0.2798757813176256   -0.06813357528662277
-0.8150550730061474   -0.7996455853245941   0.06558586107219572
-0.8150550730061474   -0.7996455853245941   0.06558586107219572
-0.8150550730061474   -0.7996455853245941   0.06558586107219572
-0.8150550730061474   -0.7996455853245941   0.06558586107219572
-1.3298045273660328   -0.5589013543392639   -0.03330099845402483
-1.3298045273660328   -0.5589013543392639   -0.03330099845402483
-1.3298045273660328   -0.5589013543392639   -0.03330099845402483
-1.3298045273660328   -0.5589013543392639   -0.03330099845402483
-1.936449943622596   -0.11754656414976444   -0.013595224134528822
-1.936449943622596   -0.11754656414976444   -0.013595224134528822
-1.936449943622596   -0.11754656414976444   -0.013595224134528822
-1.936449943622596   -0.11754656414976444   -0.013595224134528822
-3.418579509960245   -0.6767439169183509   0.03485992536849032
-3.418579509960245   -0.6767439169183509   0.03485992536849032
-3.418579509960245   -0.6767439169183509   0.03485992536849032
-3.418579509960245   -0.6767439169183509   0.03485992536849032
-3.2838045561913924   -0.3260607427844545   -0.07216690432163905
-3.2838045561913924   -0.3260607427844545   -0.07216690432163905
-3.2838045561913924   -0.3260607427844545   -0.07216690432163905
-3.2838045561913924   -0.3260607427844545   -0.07216690432163905
-1.8931638545275267   -0.3502929329133955   0.141699189960549
-1.8931638545275267   -0.3502929329133955   0.141699189960549
-1.8931638545275267   -0.3502929329133955   0.141699189960549
-1.8931638545275267   -0.3502929329133955   0.141699189960549
-2.5263116559965892   -0.3926313482431051   0.03633194752571568
-2.5263116559965892   -0.3926313482431051   0.03633194752571568
-2.5263116559965892   -0.3926313482431051   0.03633194752571568
-2.5263116559965892   -0.3926313482431051   0.03633194752571568
-1.8565751845434368   -0.026092971830837586   0.0004425787984484453
-1.8565751845434368   -0.026092971830837586   0.0004425787984484453
-1.8565751845434368   -0.026092971830837586   0.0004425787984484453
-1.8565751845434368   -0.026092971830837586   0.0004425787984484453
-3.333261004968635   -0.6631284826601617   0.017618591667826804
-3.333261004968635   -0.6631284826601617   0.017618591667826804
-3.333261004968635   -0.6631284826601617   0.017618591667826804
-3.333261004968635   -0.6631284826601617   0.017618591667826804
-3.2094669570109633   -0.29875601649847966   -0.09159244832467363
-3.2094669570109633   -0.29875601649847966   -0.09159244832467363
-3.2094669570109633   -0.29875601649847966   -0.09159244832467363
-3.2094669570109633   -0.29875601649847966   -0.09159244832467363
-1.8286089171555853   -0.33269480545690333   0.16513488987106875
-1.8286089171555853   -0.33269480545690333   0.16513488987106875
-1.8286089171555853   -0.33269480545690333   0.16513488987106875
-1.8286089171555853   -0.33269480545690333   0.16513488987106875
-2.486990886616   -0.3233169768689479   0.034896973848977685
-2.486990886616   -0.3233169768689479   0.034896973848977685
-2.486990886616   -0.3233169768689479   0.034896973848977685
-2.486990886616   -0.3233169768689479   0.034896973848977685
-1.7990596976600326   -0.001932365487478771   -0.01788145262059232
-1.7990596976600326   -0.001932365487478771   -0.01788145262059232
-1.7990596976600326   -0.001932365487478771   -0.01788145262059232
-1.7990596976600326   -0.001932365487478771   -0.01788145262059232
-3.2437689787179536   -0.6342712586793481   0.07241268532121344
-3.2437689787179536   -0.6342712586793481   0.07241268532121344
-3.2437689787179536   -0.6342712586793481   0.07241268532121344
-3.2437689787179536   -0.6342712586793481   0.07241268532121344
-3.055108989353314   -0.24193974598435586   -0.10235419366570409
-3.055108989353314   -0.24193974598435586   -0.10235419366570409
-3.055108989353314   -0.24193974598435586   -0.10235419366570409
-3.055108989353314   -0.24193974598435586   -0.10235419366570409
-1.728220365893717   -0.3092411793610578   0.1820144690884278
-1.728220365893717   -0.3092411793610578   0.1820144690884278
-1.728220365893717   -0.3092411793610578   0.1820144690884278
-1.728220365893717   -0.3092411793610578   0.1820144690884278
-2.3378638223834147   -0.2471387883815648   0.07140298041237317
-2.3378638223834147   -0.2471387883815648   0.07140298041237317
-2.3378638223834147   -0.2471387883815648   0.07140298041237317
-2.3378638223834147   -0.2471387883815648   0.07140298041237317
2.459442427957819   0.08026603049461878   0.034683532208471396
2.459442427957819   0.08026603049461878   0.034683532208471396
2.459442427957819   0.08026603049461878   0.034683532208471396
2.459442427957819   0.08026603049461878   0.034683532208471396
1.2562909119802397   -0.06596271250039826   0.025658509466652588
1.2562909119802397   -0.06596271250039826   0.025658509466652588
1.2562909119802397   -0.06596271250039826   0.025658509466652588
1.2562909119802397   -0.06596271250039826   0.025658509466652588
1.207045325299414   -0.17755840156393532   0.05030808168055337
1.207045325299414   -0.17755840156393532   0.05030808168055337
1.207045325299414   -0.17755840156393532   0.05030808168055337
1.207045325299414   -0.17755840156393532   0.05030808168055337
2.4415684518859826   0.13758893473354705   0.01861895256951647
2.4415684518859826   0.13758893473354705   0.01861895256951647
2.4415684518859826   0.13758893473354705   0.01861895256951647
2.4415684518859826   0.13758893473354705   0.01861895256951647
1.7429608394906264   -0.024838650370442028   -0.06433188141338399
1.7429608394906264   -0.024838650370442028   -0.06433188141338399
1.7429608394906264   -0.024838650370442028   -0.06433188141338399
1.7429608394906264   -0.024838650370442028   -0.06433188141338399
2.4280176772940822   0.0618877128063377   0.02656630153722271
2.4280176772940822   0.0618877128063377   0.02656630153722271
2.4280176772940822   0.0618877128063377   0.02656630153722271
2.4280176772940822   0.0618877128063377   0.02656630153722271
1.2165574934172996   -0.10589578611073652   0.026206306816781752
1.2165574934172996   -0.10589578611073652   0.026206306816781752
1.2165574934172996   -0.10589578611073652   0.026206306816781752
1.2165574934172996   -0.10589578611073652   0.026206306816781752
1.1756688422343398   -0.18169713041967644   0.04163225497685684
1.1756688422343398   -0.18169713041967644   0.04163225497685684
1.1756688422343398   -0.18169713041967644   0.04163225497685684
1.1756688422343398   -0.18169713041967644   0.04163225497685684
2.412872994465324   0.13158645937466557   0.032133654739821674
2.412872994465324   0.13158645937466557   0.032133654739821674
2.412872994465324   0.13158645937466557   0.032133654739821674
2.412872994465324   0.13158645937466557   0.032133654739821674
1.7376362194938708   -0.034270890574452095   -0.07455274510676702
1.7376362194938708   -0.034270890574452095   -0.07455274510676702
1.7376362194938708   -0.034270890574452095   -0.07455274510676702
1.7376362194938708   -0.034270890574452095   -0.07455274510676702
2.392717520341341   0.054978919087728284   0.007963824406820766
2.392717520341341   0.054978919087728284   0.007963824406820766
2.392717520341341   0.054978919087728284   0.007963824406820766
2.392717520341341   0.054978919087728284   0.007963824406820766
1.188582414518951   -0.11233149197210535   0.036834477952340086
1.188582414518951   -0.11233149197210535   0.036834477952340086
1.188582414518951   -0.11233149197210535   0.036834477952340086
1.188582414518951   -0.11233149197210535   0.036834477952340086
1.1425502775301313   -0.16584973478099657   0.03594665151629067
1.1425502775301313   -0.16584973478099657   0.03594665151629067
1.1425502775301313   -0.16584973478099657   0.03594665151629067
1.1425502775301313   -0.16584973478099657   0.03594665151629067
2.3686348641889845   0.13295407540049708   0.046141418091006164
2.3686348641889845   0.13295407540049708   0.046141418091006164
2.3686348641889845   0.13295407540049708   0.046141418091006164
2.3686348641889845   0.13295407540049708   0.046141418091006164
1.6722252311875325   -0.03458020411456614   -0.10073222878694264
1.6722252311875325   -0.03458020411456614   -0.10073222878694264
1.6722252311875325   -0.03458020411456614   -0.10073222878694264
1.6722252311875325   -0.03458020411456614   -0.10073222878694264
1.2448042432097073   -0.15925757705150473   0.06152003016509788
1.2448042432097073   -0.15925757705150473   0.06152003016509788
1.2448042432097073   -0.15925757705150473   0.06152003016509788
1.2448042432097073   -0.15925757705150473   0.06152003016509788
0.24299235667845462   -0.1482607605213135   0.013324360094141695
0.24299235667845462   -0.1482607605213135   0.013324360094141695
0.24299235667845462   -0.1482607605213135   0.013324360094141695
0.24299235667845462   -0.1482607605213135   0.013324360094141695
0.1580835783727801   -0.37354323588804517   0.066153415973063
0.1580835783727801   -0.37354323588804517   0.066153415973063
0.1580835783727801   -0.37354323588804517   0.066153415973063
0.1580835783727801   -0.37354323588804517   0.066153415973063
1.2516491037048818   0.048204901526911814   0.047563670617043335
1.2516491037048818   0.048204901526911814   0.047563670617043335
1.2516491037048818   0.048204901526911814   0.047563670617043335
1.2516491037048818   0.048204901526911814   0.047563670617043335
0.71325434570149   -0.158845649798211   -0.002714371477558028
0.71325434570149   -0.158845649798211   -0.002714371477558028
0.71325434570149   -0.158845649798211   -0.002714371477558028
0.71325434570149   -0.158845649798211   -0.002714371477558028
1.2095635652669632   -0.16617478809412511   0.0515156680484925
1.2095635652669632   -0.16617478809412511   0.0515156680484925
1.2095635652669632   -0.16617478809412511   0.0515156680484925
1.2095635652669632   -0.16617478809412511   0.0515156680484925
0.18954290592728812   -0.1697897571504206   0.01969657500797485
0.18954290592728812   -0.1697897571504206   0.01969657500797485
0.18954290592728812   -0.1697897571504206   0.01969657500797485
0.18954290592728812   -0.1697897571504206   0.01969657500797485
0.12007246631378166   -0.37694752185458397   0.059234290817639784
0.12007246631378166   -0.37694752185458397   0.059234290817639784
0.12007246631378166   -0.37694752185458397   0.059234290817639784
0.12007246631378166   -0.37694752185458397   0.059234290817639784
1.222711221411057   0.0387756756692374   0.056371344771528026
1.222711221411057   0.0387756756692374   0.056371344771528026
1.222711221411057   0.0387756756692374   0.056371344771528026
1.222711221411057   0.0387756756692374   0.056371344771528026
0.661648765981782   -0.16932221647753537   -0.0342579803475018
0.661648765981782   -0.16932221647753537   -0.0342579803475018
0.661648765981782   -0.16932221647753537   -0.0342579803475018
0.661648765981782   -0.16932221647753537   -0.0342579803475018
1.1784791497158915   -0.1685964257872588   0.04258308775218966
1.1784791497158915   -0.1685964257872588   0.04258308775218966
1.1784791497158915   -0.1685964257872588   0.04258308775218966
1.1784791497158915   -0.1685964257872588   0.04258308775218966
0.15275882268333557   -0.18112113572370617   0.02683968653453156
0.15275882268333557   -0.18112113572370617   0.02683968653453156
0.15275882268333557   -0.18112113572370617   0.02683968653453156
0.15275882268333557   -0.18112113572370617   0.02683968653453156
0.07753330532081407   -0.37685028487082606   0.046390914787301674
0.07753330532081407   -0.37685028487082606   0.046390914787301674
0.07753330532081407   -0.37685028487082606   0.046390914787301674
0.07753330532081407   -0.37685028487082606   0.046390914787301674
1.1898698041582514   0.03928024633438981   0.06741430354149931
1.1898698041582514   0.03928024633438981   0.06741430354149931
1.1898698041582514   0.03928024633438981   0.06741430354149931
1.1898698041582514   0.03928024633438981   0.06741430354149931
0.6300908172005212   -0.16809255494620182   -0.061105925383588104
0.6300908172005212   -0.16809255494620182   -0.061105925383588104
0.6300908172005212   -0.16809255494620182   -0.061105925383588104
0.6300908172005212   -0.16809255494620182   -0.061105925383588104
0.18922566006467909   -0.4590503024875845   0.05528041899153502
0.18922566006467909   -0.4590503024875845   0.05528041899153502
0.18922566006467909   -0.4590503024875845   0.05528041899153502
0.18922566006467909   -0.4590503024875845   0.05528041899153502
-0.7310497919271626   -0.2302381553211614   0.000951837019737431
-0.7310497919271626   -0.2302381553211614   0.000951837019737431
-0.7310497919271626   -0.2302381553211614   0.000951837019737431
-0.7310497919271626   -0.2302381553211614   0.000951837019737431
-0.8846640351520867   -0.680995196696906   0.07582106067852964
-0.8846640351520867   -0.680995196696906   0.07582106067852964
-0.8846640351520867   -0.680995196696906   0.07582106067852964
-0.8846640351520867   -0.680995196696906   0.07582106067852964
0.21768996978326854   -0.03939491473492652   0.03003705187238159
0.21768996978326854   -0.03939491473492652   0.03003705187238159
0.21768996978326854   -0.03939491473492652   0.03003705187238159
0.21768996978326854   -0.03939491473492652   0.03003705187238159
-0.2981318958228458   -0.3474612997963728   0.013036366885549558
-0.2981318958228458   -0.3474612997963728   0.013036366885549558
-0.2981318958228458   -0.3474612997963728   0.013036366885549558
-0.2981318958228458   -0.3474612997963728   0.013036366885549558
0.13045246376297168   -0.4852043230353483   0.039658930071324205
0.13045246376297168   -0.4852043230353483   0.039658930071324205
0.13045246376297168   -0.4852043230353483   0.039658930071324205
0.13045246376297168   -0.4852043230353483   0.039658930071324205
-0.8122848025589134   -0.2500440618236183   0.006766088771104597
-0.8122848025589134   -0.2500440618236183   0.006766088771104597
-0.8122848025589134   -0.2500440618236183   0.006766088771104597
-0.8122848025589134   -0.2500440618236183   0.006766088771104597
-0.93763235184936   -0.6920402003185759   0.061669996192175225
-0.93763235184936   -0.6920402003185759   0.061669996192175225
-0.93763235184936   -0.6920402003185759   0.061669996192175225
-0.93763235184936   -0.6920402003185759   0.061669996192175225
0.18207980746689112   -0.04986536001448041   0.04218883474308342
0.18207980746689112   -0.04986536001448041   0.04218883474308342
0.18207980746689112   -0.04986536001448041   0.04218883474308342
0.18207980746689112   -0.04986536001448041   0.04218883474308342
-0.364308617074854   -0.3686479174524987   -0.03118119306489201
-0.364308617074854   -0.3686479174524987   -0.03118119306489201
-0.364308617074854   -0.3686479174524987   -0.03118119306489201
-0.364308617074854   -0.3686479174524987   -0.03118119306489201
0.08996306433189849   -0.49375597042503694   0.02549572947867698
0.08996306433189849   -0.49375597042503694   0.02549572947867698
0.08996306433189849   -0.49375597042503694   0.02549572947867698
0.08996306433189849   -0.49375597042503694   0.02549572947867698
-0.8631706648552243   -0.2658046460488885   0.007742876893158446
-0.8631706648552243   -0.2658046460488885   0.007742876893158446
-0.8631706648552243   -0.2658046460488885   0.007742876893158446
-0.8631706648552243   -0.2658046460488885   0.007742876893158446
-0.9950089430724246   -0.6873750199304512   0.052049200137768536
-0.9950089430724246   -0.6873750199304512   0.052049200137768536
-0.9950089430724246   -0.6873750199304512   0.052049200137768536
-0.9950089430724246   -0.6873750199304512   0.052049200137768536
0.1424523042279327   -0.05572248794677126   0.049858112398838084
0.1424523042279327   -0.05572248794677126   0.049858112398838084
0.1424523042279327   -0.05572248794677126   0.049858112398838084
0.1424523042279327   -0.05572248794677126   0.049858112398838084
-0.4179799380248027   -0.3767257113311596   -0.07531011708415256
-0.4179799380248027   -0.3767257113311596   -0.07531011708415256
-0.4179799380248027   -0.3767257113311596   -0.07531011708415256
-0.4179799380248027   -0.3767257113311596   -0.07531011708415256
-0.8293874093996424   -0.7867081923601815   0.06573378669636282
-0.8293874093996424   -0.7867081923601815   0.06573378669636282
-0.8293874093996424   -0.7867081923601815   0.06573378669636282
-0.8293874093996424   -0.7867081923601815   0.06573378669636282
-1.8391111581852853   -0.28670338844614357   -0.04269079805874962
-1.8391111581852853   -0.28670338844614357   -0.04269079805874962
-1.8391111581852853   -0.28670338844614357   -0.04269079805874962
-1.8391111581852853   -0.28670338844614357   -0.04269079805874962
-2.1075073624712264   -1.1410023680605772   -0.05931139865762605
-2.1075073624712264   -1.1410023680605772   -0.05931139865762605
-2.1075073624712264   -1.1410023680605772   -0.05931139865762605
-2.1075073624712264   -1.1410023680605772   -0.05931139865762605
-0.7714127816710763   -0.0648706156237641   0.02595274701043448
-0.7714127816710763   -0.0648706156237641   0.02595274701043448
-0.7714127816710763   -0.0648706156237641   0.02595274701043448
-0.7714127816710763   -0.0648706156237641   0.02595274701043448
-1.37360263441005   -0.5478002030264097   -0.04741013475427034
-1.37360263441005   -0.5478002030264097   -0.04741013475427034
-1.37360263441005   -0.5478002030264097   -0.04741013475427034
-1.37360263441005   -0.5478002030264097   -0.04741013475427034
-0.9373752613896342   -0.8907164346282938   0.02198616742217613
-0.9373752613896342   -0.8907164346282938   0.02198616742217613
-0.9373752613896342   -0.8907164346282938   0.02198616742217613
-0.9373752613896342   -0.8907164346282938   0.02198616742217613
-1.937257068761784   -0.3108687350651612   -0.038193563105843445
-1.937257068761784   -0.3108687350651612   -0.038193563105843445
-1.937257068761784   -0.3108687350651612   -0.038193563105843445
-1.937257068761784   -0.3108687350651612   -0.038193563105843445
-2.1704858747742715   -1.1594533225479162   -0.06859220507087155
-2.1704858747742715   -1.1594533225479162   -0.06859220507087155
-2.1704858747742715   -1.1594533225479162   -0.06859220507087155
-2.1704858747742715   -1.1594533225479162   -0.06859220507087155
-0.8202062133824527   -0.08202510896915935   0.03878559717728848
-0.8202062133824527   -0.08202510896915935   0.03878559717728848
-0.8202062133824527   -0.08202510896915935   0.03878559717728848
-0.8202062133824527   -0.08202510896915935   0.03878559717728848
-1.4505374380908598   -0.6068302267061493   -0.06688503504279521
-1.4505374380908598   -0.6068302267061493   -0.06688503504279521
-1.4505374380908598   -0.6068302267061493   -0.06688503504279521
-1.4505374380908598   -0.6068302267061493   -0.06688503504279521
-0.9914847105380147   -0.9082175401670186   0.008585542597336598
-0.9914847105380147   -0.9082175401670186   0.008585542597336598
-0.9914847105380147   -0.9082175401670186   0.008585542597336598
-0.9914847105380147   -0.9082175401670186   0.008585542597336598
-1.9994139775387028   -0.3334674912700487   -0.039218550170908355
-1.9994139775387028   -0.3334674912700487   -0.039218550170908355
-1.9994139775387028   -0.3334674912700487   -0.039218550170908355
-1.9994139775387028   -0.3334674912700487   -0.039218550170908355
-2.2242316518036676   -1.1100687330654244   -0.07735329883443588
-2.2242316518036676   -1.1100687330654244   -0.07735329883443588
-2.2242316518036676   -1.1100687330654244   -0.07735329883443588
-2.2242316518036676   -1.1100687330654244   -0.07735329883443588
-0.8820139808914909   -0.10623845981974638   0.035887450931734385
-0.8820139808914909   -0.10623845981974638   0.035887450931734385
-0.8820139808914909   -0.10623845981974638   0.035887450931734385
-0.8820139808914909   -0.10623845981974638   0.035887450931734385
-1.5213368467469366   -0.6269995523123425   -0.08545066175124542
-1.5213368467469366   -0.6269995523123425   -0.08545066175124542
-1.5213368467469366   -0.6269995523123425   -0.08545066175124542
-1.5213368467469366   -0.6269995523123425   -0.08545066175124542
-1.8062607600245741   -0.32856715928765323   0.1634249635862872
-1.8062607600245741   -0.32856715928765323   0.1634249635862872
-1.8062607600245741   -0.32856715928765323   0.1634249635862872
-1.8062607600245741   -0.32856715928765323   0.1634249635862872
-3.1831592711877503   -0.23848138704301408   -0.0568046768488293
-3.1831592711877503   -0.23848138704301408   -0.0568046768488293
-3.1831592711877503   -0.23848138704301408   -0.0568046768488293
-3.1831592711877503   -0.23848138704301408   -0.0568046768488293
-3.378480793922243   -0.6667192379088503   0.04488460437799108
-3.378480793922243   -0.6667192379088503   0.04488460437799108
-3.378480793922243   -0.6667192379088503   0.04488460437799108
-3.378480793922243   -0.6667192379088503   0.04488460437799108
-1.8589333269761996   0.026559137403849076   0.015997273353065597
-1.8589333269761996   0.026559137403849076   0.015997273353065597
-1.8589333269761996   0.026559137403849076   0.015997273353065597
-1.8589333269761996   0.026559137403849076   0.015997273353065597
-2.4349457030224073   -0.23422295927537218   0.04899924971175734
-2.4349457030224073   -0.23422295927537218   0.04899924971175734
-2.4349457030224073   -0.23422295927537218   0.04899924971175734
-2.4349457030224073   -0.23422295927537218   0.04899924971175734
-1.9089952228102087   -0.3527913818705546   0.14503831345741305
-1.9089952228102087   -0.3527913818705546   0.14503831345741305
-1.9089952228102087   -0.3527913818705546   0.14503831345741305
-1.9089952228102087   -0.3527913818705546   0.14503831345741305
-3.3198239798295224   -0.2787738003757284   -0.04977676269149908
-3.3198239798295224   -0.2787738003757284   -0.04977676269149908
-3.3198239798295224   -0.2787738003757284   -0.04977676269149908
-3.3198239798295224   -0.2787738003757284   -0.04977676269149908
-3.4615311968734495   -0.6951960306363653   -0.014448956308376896
-3.4615311968734495   -0.6951960306363653   -0.014448956308376896
-3.4615311968734495   -0.6951960306363653   -0.014448956308376896
-3.4615311968734495   -0.6951960306363653   -0.014448956308376896
-1.9175274693956426   0.007350329578270143   0.029396169696071478
-1.9175274693956426   0.007350329578270143   0.029396169696071478
-1.9175274693956426   0.007350329578270143   0.029396169696071478
-1.9175274693956426   0.007350329578270143   0.029396169696071478
-2.581015190084189   -0.3093043315602749   0.02023993070810578
-2.581015190084189   -0.3093043315602749   0.02023993070810578
-2.581015190084189   -0.3093043315602749   0.02023993070810578
-2.581015190084189   -0.3093043315602749   0.02023993070810578
-1.975000083017405   -0.37093610864197524   0.12031953980750594
-1.975000083017405   -0.37093610864197524   0.12031953980750594
-1.975000083017405   -0.37093610864197524   0.12031953980750594
-1.975000083017405   -0.37093610864197524   0.12031953980750594
-3.3868499700690133   -0.2997009792334373   -0.03653787368909506
-3.3868499700690133   -0.2997009792334373   -0.03653787368909506
-3.3868499700690133   -0.2997009792334373   -0.03653787368909506
-3.3868499700690133   -0.2997009792334373   -0.03653787368909506
-3.533957225249756   -0.7068183203122986   -0.0001343763117373329
-3.533957225249756   -0.7068183203122986   -0.0001343763117373329
-3.533957225249756   -0.7068183203122986   -0.0001343763117373329
-3.533957225249756   -0.7068183203122986   -0.0001343763117373329
-1.9997735413995612   -0.07711209599189173   0.011980616112552536
-1.9997735413995612   -0.07711209599189173   0.011980616112552536
-1.9997735413995612   -0.07711209599189173   0.011980616112552536
-1.9997735413995612   -0.07711209599189173   0.011980616112552536
-2.6127228001998213   -0.3738229646268466   0.03197018580048723
-2.6127228001998213   -0.3738229646268466   0.03197018580048723
-2.6127228001998213   -0.3738229646268466   0.03197018580048723
-2.6127228001998213   -0.3738229646268466   0.03197018580048723
2.152568148520941   0.09877213948371472   -0.046944467153459145
2.152568148520941   0.09877213948371472   -0.046944467153459145
2.152568148520941   0.09877213948371472   -0.046944467153459145
2.152568148520941   0.09877213948371472   -0.046944467153459145
1.0839281495985542   -0.021549709032488013   0.023178796860608475
1.0839281495985542   -0.021549709032488013   0.023178796860608475
1.0839281495985542   -0.021549709032488013   0.023178796860608475
1.0839281495985542   -0.021549709032488013   0.023178796860608475
1.0147181859798347   -0.15978917459193281   -0.04142132815173484
1.0147181859798347   -0.15978917459193281   -0.04142132815173484
1.0147181859798347   -0.15978917459193281   -0.04142132815173484
1.0147181859798347   -0.15978917459193281   -0.04142132815173484
2.1275737558615564   0.15551925980662706   0.0271189686314441
2.1275737558615564   0.15551925980662706   0.0271189686314441
2.1275737558615564   0.15551925980662706   0.0271189686314441
2.1275737558615564   0.15551925980662706   0.0271189686314441
1.5111017004777967   0.0037013311351001277   -0.058378241910829784
1.5111017004777967   0.0037013311351001277   -0.058378241910829784
1.5111017004777967   0.0037013311351001277   -0.058378241910829784
1.5111017004777967   0.0037013311351001277   -0.058378241910829784
2.0924937940305632   0.05458158042099165   -0.047343161137865214
2.0924937940305632   0.05458158042099165   -0.047343161137865214
2.0924937940305632   0.05458158042099165   -0.047343161137865214
2.0924937940305632   0.05458158042099165   -0.047343161137865214
1.0478428482245759   -0.060806794792543695   0.025219603272570265
1.0478428482245759   -0.060806794792543695   0.025219603272570265
1.0478428482245759   -0.060806794792543695   0.025219603272570265
1.0478428482245759   -0.060806794792543695   0.025219603272570265
0.9774634995370622   -0.16875920573580694   -0.034185175884279564
0.9774634995370622   -0.16875920573580694   -0.034185175884279564
0.9774634995370622   -0.16875920573580694   -0.034185175884279564
0.9774634995370622   -0.16875920573580694   -0.034185175884279564
2.075800383114051   0.1428255938303693   0.03958867845088983
2.075800383114051   0.1428255938303693   0.03958867845088983
2.075800383114051   0.1428255938303693   0.03958867845088983
2.075800383114051   0.1428255938303693   0.03958867845088983
1.4906432300211283   -0.015203461959786835   -0.06977043387639227
1.4906432300211283   -0.015203461959786835   -0.06977043387639227
1.4906432300211283   -0.015203461959786835   -0.06977043387639227
1.4906432300211283   -0.015203461959786835   -0.06977043387639227
2.0404663539827608   0.04318935471262164   -0.03744522808781361
2.0404663539827608   0.04318935471262164   -0.03744522808781361
2.0404663539827608   0.04318935471262164   -0.03744522808781361
2.0404663539827608   0.04318935471262164   -0.03744522808781361
1.0100930879396524   -0.07182740734676304   0.03203096773962641
1.0100930879396524   -0.07182740734676304   0.03203096773962641
1.0100930879396524   -0.07182740734676304   0.03203096773962641
1.0100930879396524   -0.07182740734676304   0.03203096773962641
0.9413652103326011   -0.16641319988237746   -0.023425304466983737
0.9413652103326011   -0.16641319988237746   -0.023425304466983737
0.9413652103326011   -0.16641319988237746   -0.023425304466983737
0.9413652103326011   -0.16641319988237746   -0.023425304466983737
2.0116800692025247   0.1341046127420351   0.051459202394953316
2.0116800692025247   0.1341046127420351   0.051459202394953316
2.0116800692025247   0.1341046127420351   0.051459202394953316
2.0116800692025247   0.1341046127420351   0.051459202394953316
1.4167151556639341   -0.026551336223904654   -0.09169361691231367
1.4167151556639341   -0.026551336223904654   -0.09169361691231367
1.4167151556639341   -0.026551336223904654   -0.09169361691231367
1.4167151556639341   -0.026551336223904654   -0.09169361691231367
1.0895772482851565   0.02030521836117974   0.009569362899951854
1.0895772482851565   0.02030521836117974   0.009569362899951854
1.0895772482851565   0.02030521836117974   0.009569362899951854
1.0895772482851565   0.02030521836117974   0.009569362899951854
0.10569915481149118   -0.06511829339545157   -0.0023800222443436103
0.10569915481149118   -0.06511829339545157   -0.0023800222443436103
0.10569915481149118   -0.06511829339545157   -0.0023800222443436103
0.10569915481149118   -0.06511829339545157   -0.0023800222443436103
0.040484426885268585   -0.21150602365881882   -0.0398262784919966
0.040484426885268585   -0.21150602365881882   -0.0398262784919966
0.040484426885268585   -0.21150602365881882   -0.0398262784919966
0.040484426885268585   -0.21150602365881882   -0.0398262784919966
1.0909211641152123   0.12576420530230958   0.05404018263089991
1.0909211641152123   0.12576420530230958   0.05404018263089991
1.0909211641152123   0.12576420530230958   0.05404018263089991
1.0909211641152123   0.12576420530230958   0.05404018263089991
0.5709942832564171   -0.029851607501541588   -0.022704209270539347
0.5709942832564171   -0.029851607501541588   -0.022704209270539347
0.5709942832564171   -0.029851607501541588   -0.022704209270539347
0.5709942832564171   -0.029851607501541588   -0.022704209270539347
1.058965960592297   0.003467677370589728   0.016560692948046532
1.058965960592297   0.003467677370589728   0.016560692948046532
1.058965960592297   0.003467677370589728   0.016560692948046532
1.058965960592297   0.003467677370589728   0.016560692948046532
0.07364535525860876   -0.08800377087667835   0.0024761105925638384
0.07364535525860876   -0.08800377087667835   0.0024761105925638384
0.07364535525860876   -0.08800377087667835   0.0024761105925638384
0.07364535525860876   -0.08800377087667835   0.0024761105925638384
0.004563859066762682   -0.22166283577158752   -0.02767385008836376
0.004563859066762682   -0.22166283577158752   -0.02767385008836376
0.004563859066762682   -0.22166283577158752   -0.02767385008836376
0.004563859066762682   -0.22166283577158752   -0.02767385008836376
1.051483688299792   0.107539526622866   0.05961703557069539
1.051483688299792   0.107539526622866   0.05961703557069539
1.051483688299792   0.107539526622866   0.05961703557069539
1.051483688299792   0.107539526622866   0.05961703557069539
0.529686930199939   -0.046612191504251985   -0.03214749195160787
0.529686930199939   -0.046612191504251985   -0.03214749195160787
0.529686930199939   -0.046612191504251985   -0.03214749195160787
0.529686930199939   -0.046612191504251985   -0.03214749195160787
1.0213202664777825   -0.007924078045838556   0.024263531129360617
1.0213202664777825   -0.007924078045838556   0.024263531129360617
1.0213202664777825   -0.007924078045838556   0.024263531129360617
1.0213202664777825   -0.007924078045838556   0.024263531129360617
0.034552774119592275   -0.10637373787206142   0.006981627276258104
0.034552774119592275   -0.10637373787206142   0.006981627276258104
0.034552774119592275   -0.10637373787206142   0.006981627276258104
0.034552774119592275   -0.10637373787206142   0.006981627276258104
-0.03400818434957964   -0.22274594752181084   -0.018838677231672832
-0.03400818434957964   -0.22274594752181084   -0.018838677231672832
-0.03400818434957964   -0.22274594752181084   -0.018838677231672832
-0.03400818434957964   -0.22274594752181084   -0.018838677231672832
1.0116956106745167   0.09591378633689099   0.06589971102332962
1.0116956106745167   0.09591378633689099   0.06589971102332962
1.0116956106745167   0.09591378633689099   0.06589971102332962
1.0116956106745167   0.09591378633689099   0.06589971102332962
0.49731214408788826   -0.05334624769178546   -0.04028337259604579
0.49731214408788826   -0.05334624769178546   -0.04028337259604579
0.49731214408788826   -0.05334624769178546   -0.04028337259604579
0.49731214408788826   -0.05334624769178546   -0.04028337259604579
0.10748743007801119   -0.06202705515459542   0.00347011584739634
0.10748743007801119   -0.06202705515459542   0.00347011584739634
0.10748743007801119   -0.06202705515459542   0.00347011584739634
0.10748743007801119   -0.06202705515459542   0.00347011584739634
-0.839769589464223   -0.09711340770865141   -0.026439524859344043
-0.839769589464223   -0.09711340770865141   -0.026439524859344043
-0.839769589464223   -0.09711340770865141   -0.026439524859344043
-0.839769589464223   -0.09711340770865141   -0.026439524859344043
-0.912269584629244   -0.2804615980033406   -0.04533681005711475
-0.912269584629244   -0.2804615980033406   -0.04533681005711475
-0.912269584629244   -0.2804615980033406   -0.04533681005711475
-0.912269584629244   -0.2804615980033406   -0.04533681005711475
0.11535226537730751   0.09202719313455901   0.030979697174821928
0.11535226537730751   0.09202719313455901   0.030979697174821928
0.11535226537730751   0.09202719313455901   0.030979697174821928
0.11535226537730751   0.09202719313455901   0.030979697174821928
-0.3834440746152263   -0.08272879020634467   -0.02255678874987754
-0.3834440746152263   -0.08272879020634467   -0.02255678874987754
-0.3834440746152263   -0.08272879020634467   -0.02255678874987754
-0.3834440746152263   -0.08272879020634467   -0.02255678874987754
0.08050254873562909   -0.06924012324894997   0.017998430349937106
0.08050254873562909   -0.06924012324894997   0.017998430349937106
0.08050254873562909   -0.06924012324894997   0.017998430349937106
0.08050254873562909   -0.06924012324894997   0.017998430349937106
-0.8747582965874255   -0.11653271021968717   -0.0217092576316759
-0.8747582965874255   -0.11653271021968717   -0.0217092576316759
-0.8747582965874255   -0.11653271021968717   -0.0217092576316759
-0.8747582965874255   -0.11653271021968717   -0.0217092576316759
-0.9544017830380698   -0.2915928583917603   -0.029967066638355137
-0.9544017830380698   -0.2915928583917603   -0.029967066638355137
-0.9544017830380698   -0.2915928583917603   -0.029967066638355137
-0.9544017830380698   -0.2915928583917603   -0.029967066638355137
0.07594153884144375   0.07251300960748869   0.03503870340596428
0.07594153884144375   0.07251300960748869   0.03503870340596428
0.07594153884144375   0.07251300960748869   0.03503870340596428
0.07594153884144375   0.07251300960748869   0.03503870340596428
-0.41829152917511725   -0.0943682830791082   -0.02706334971615954
-0.41829152917511725   -0.0943682830791082   -0.02706334971615954
-0.41829152917511725   -0.0943682830791082   -0.02706334971615954
-0.41829152917511725   -0.0943682830791082   -0.02706334971615954
0.04319940156698462   -0.08109250234570356   0.024933528986862005
0.04319940156698462   -0.08109250234570356   0.024933528986862005
0.04319940156698462   -0.08109250234570356   0.024933528986862005
0.04319940156698462   -0.08109250234570356   0.024933528986862005
-0.9211052433566514   -0.1374329440316066   -0.017644282591416996
-0.9211052433566514   -0.1374329440316066   -0.017644282591416996
-0.9211052433566514   -0.1374329440316066   -0.017644282591416996
-0.9211052433566514   -0.1374329440316066   -0.017644282591416996
-1.0011596760919903   -0.2997451101243821   -0.026643018169293077
-1.0011596760919903   -0.2997451101243821   -0.026643018169293077
-1.0011596760919903   -0.2997451101243821   -0.026643018169293077
-1.0011596760919903   -0.2997451101243821   -0.026643018169293077
0.0333141256628114   0.055848566790964796   0.03917835851750731
0.0333141256628114   0.055848566790964796   0.03917835851750731
0.0333141256628114   0.055848566790964796   0.03917835851750731
0.0333141256628114   0.055848566790964796   0.03917835851750731
-0.46357441996616006   -0.10830465410518893   -0.03790927774705874
-0.46357441996616006   -0.10830465410518893   -0.03790927774705874
-0.46357441996616006   -0.10830465410518893   -0.03790927774705874
-0.46357441996616006   -0.10830465410518893   -0.03790927774705874
-0.827047106258449   -0.07311710146404123   0.013176584924903745
-0.827047106258449   -0.07311710146404123   0.013176584924903745
-0.827047106258449   -0.07311710146404123   0.013176584924903745
-0.827047106258449   -0.07311710146404123   0.013176584924903745
-1.7622598785145338   -0.11363878717248327   -0.046658355986848754
-1.7622598785145338   -0.11363878717248327   -0.046658355986848754
-1.7622598785145338   -0.11363878717248327   -0.046658355986848754
-1.7622598785145338   -0.11363878717248327   -0.046658355986848754
-1.844699526421759   -0.29376257581182347   -0.04522030917917973
-1.844699526421759   -0.29376257581182347   -0.04522030917917973
-1.844699526421759   -0.29376257581182347   -0.04522030917917973
-1.844699526421759   -0.29376257581182347   -0.04522030917917973
-0.8313242042104946   0.07021355025012718   0.008714943783156896
-0.8313242042104946   0.07021355025012718   0.008714943783156896
-0.8313242042104946   0.07021355025012718   0.008714943783156896
-0.8313242042104946   0.07021355025012718   0.008714943783156896
-1.3054737338425615   -0.09782013749635146   -0.018994638593238918
-1.3054737338425615   -0.09782013749635146   -0.018994638593238918
-1.3054737338425615   -0.09782013749635146   -0.018994638593238918
-1.3054737338425615   -0.09782013749635146   -0.018994638593238918
-0.8569406553090639   -0.08083124337112754   0.03167748191157259
-0.8569406553090639   -0.08083124337112754   0.03167748191157259
-0.8569406553090639   -0.08083124337112754   0.03167748191157259
-0.8569406553090639   -0.08083124337112754   0.03167748191157259
-1.8138558194798837   -0.13749052634725956   -0.047273823934387574
-1.8138558194798837   -0.13749052634725956   -0.047273823934387574
-1.8138558194798837   -0.13749052634725956   -0.047273823934387574
-1.8138558194798837   -0.13749052634725956   -0.047273823934387574
-1.9030074377923862   -0.31268380340248947   -0.03170665057942885
-1.9030074377923862   -0.31268380340248947   -0.03170665057942885
-1.9030074377923862   -0.31268380340248947   -0.03170665057942885
-1.9030074377923862   -0.31268380340248947   -0.03170665057942885
-0.8781858298667263   0.04884005255850013   0.01067978826810178
-0.8781858298667263   0.04884005255850013   0.01067978826810178
-0.8781858298667263   0.04884005255850013   0.01067978826810178
-0.8781858298667263   0.04884005255850013   0.01067978826810178
-1.3423927343850448   -0.10832963990134187   -0.01907127866479033
-1.3423927343850448   -0.10832963990134187   -0.01907127866479033
-1.3423927343850448   -0.10832963990134187   -0.01907127866479033
-1.3423927343850448   -0.10832963990134187   -0.01907127866479033
-0.9034895107728718   -0.0998655005196097   0.03286693681548477
-0.9034895107728718   -0.0998655005196097   0.03286693681548477
-0.9034895107728718   -0.0998655005196097   0.03286693681548477
-0.9034895107728718   -0.0998655005196097   0.03286693681548477
-1.8742022675073597   -0.16047676094550656   -0.0398878416112981
-1.8742022675073597   -0.16047676094550656   -0.0398878416112981
-1.8742022675073597   -0.16047676094550656   -0.0398878416112981
-1.8742022675073597   -0.16047676094550656   -0.0398878416112981
-1.9690024488181195   -0.337606450860378   -0.03396403634485639
-1.9690024488181195   -0.337606450860378   -0.03396403634485639
-1.9690024488181195   -0.337606450860378   -0.03396403634485639
-1.9690024488181195   -0.337606450860378   -0.03396403634485639
-0.9288268022219042   0.022481872179066525   0.012794368877667772
-0.9288268022219042   0.022481872179066525   0.012794368877667772
-0.9288268022219042   0.022481872179066525   0.012794368877667772
-0.9288268022219042   0.022481872179066525   0.012794368877667772
-1.4077852676937332   -0.13384761643457785   -0.030950699751194265
-1.4077852676937332   -0.13384761643457785   -0.030950699751194265
-1.4077852676937332   -0.13384761643457785   -0.030950699751194265
-1.4077852676937332   -0.13384761643457785   -0.030950699751194265
-1.7024495238052317   0.0806436865672418   0.058110943819936964
-1.7024495238052317   0.0806436865672418   0.058110943819936964
-1.7024495238052317   0.0806436865672418   0.058110943819936964
-1.7024495238052317   0.0806436865672418   0.058110943819936964
-2.6399274751483337   -0.13155305364318692   -0.03565594448137405
-2.6399274751483337   -0.13155305364318692   -0.03565594448137405
-2.6399274751483337   -0.13155305364318692   -0.03565594448137405
-2.6399274751483337   -0.13155305364318692   -0.03565594448137405
-2.705157302167201   -0.13394449315852874   0.05970309573217726
-2.705157302167201   -0.13394449315852874   0.05970309573217726
-2.705157302167201   -0.13394449315852874   0.05970309573217726
-2.705157302167201   -0.13394449315852874   0.05970309573217726
-1.7688398441576647   0.054635098342021515   -0.01431957201257282
-1.7688398441576647   0.054635098342021515   -0.01431957201257282
-1.7688398441576647   0.054635098342021515   -0.01431957201257282
-1.7688398441576647   0.054635098342021515   -0.01431957201257282
-2.101390269794881   0.001661369510461086   0.053299099632640845
-2.101390269794881   0.001661369510461086   0.053299099632640845
-2.101390269794881   0.001661369510461086   0.053299099632640845
-2.101390269794881   0.001661369510461086   0.053299099632640845
-1.7502871810850555   0.05975390020829202   0.07332494148419322
-1.7502871810850555   0.05975390020829202   0.07332494148419322
-1.7502871810850555   0.05975390020829202   0.07332494148419322
-1.7502871810850555   0.05975390020829202   0.07332494148419322
-2.7224982322779745   -0.13785156206297539   -0.023094485917247012
-2.7224982322779745   -0.13785156206297539   -0.023094485917247012
-2.7224982322779745   -0.13785156206297539   -0.023094485917247012
-2.7224982322779745   -0.13785156206297539   -0.023094485917247012
-2.787534954006645   -0.15629504247239623   0.0811767940537421
-2.787534954006645   -0.15629504247239623   0.0811767940537421
-2.787534954006645   -0.15629504247239623   0.0811767940537421
-2.787534954006645   -0.15629504247239623   0.0811767940537421
-1.8292306693764948   0.039453397284815395   -0.014960009187294732
-1.8292306693764948   0.039453397284815395   -0.014960009187294732
-1.8292306693764948   0.039453397284815395   -0.014960009187294732
-1.8292306693764948   0.039453397284815395   -0.014960009187294732
-2.207512661173904   -0.024513483239237133   0.02902077013820109
-2.207512661173904   -0.024513483239237133   0.02902077013820109
-2.207512661173904   -0.024513483239237133   0.02902077013820109
-2.207512661173904   -0.024513483239237133   0.02902077013820109
-1.812273070798604   0.036981876296543814   0.0722995046904311
-1.812273070798604   0.036981876296543814   0.0722995046904311
-1.812273070798604   0.036981876296543814   0.0722995046904311
-1.812273070798604   0.036981876296543814   0.0722995046904311
-2.8076857594483866   -0.1570167283479763   -0.018855547279361562
-2.8076857594483866   -0.1570167283479763   -0.018855547279361562
-2.8076857594483866   -0.1570167283479763   -0.018855547279361562
-2.8076857594483866   -0.1570167283479763   -0.018855547279361562
-2.9046062808486073   -0.2463589115665385   0.07057927768836475
-2.9046062808486073   -0.2463589115665385   0.07057927768836475
-2.9046062808486073   -0.2463589115665385   0.07057927768836475
-2.9046062808486073   -0.2463589115665385   0.07057927768836475
-1.8988565347853659   -0.006764645136396075   -0.01407627190507621
-1.8988565347853659   -0.006764645136396075   -0.01407627190507621
-1.8988565347853659   -0.006764645136396075   -0.01407627190507621
-1.8988565347853659   -0.006764645136396075   -0.01407627190507621
-2.25293235750131   -0.05743056674791813   0.007605641816064226
-2.25293235750131   -0.05743056674791813   0.007605641816064226
-2.25293235750131   -0.05743056674791813   0.007605641816064226
-2.25293235750131   -0.05743056674791813   0.007605641816064226
1.7426501377493535   0.09308854982822184   -0.062351896986677834
1.7426501377493535   0.09308854982822184   -0.062351896986677834
1.7426501377493535   0.09308854982822184   -0.062351896986677834
1.7426501377493535   0.09308854982822184   -0.062351896986677834
0.8642703953470702   -0.0006381045899559179   0.022656201568943442
0.8642703953470702   -0.0006381045899559179   0.022656201568943442
0.8642703953470702   -0.0006381045899559179   0.022656201568943442
0.8642703953470702   -0.0006381045899559179   0.022656201568943442
0.7896633444942845   -0.12891610485819321   -0.05714744332538595
0.7896633444942845   -0.12891610485819321   -0.05714744332538595
0.7896633444942845   -0.12891610485819321   -0.05714744332538595
0.7896633444942845   -0.12891610485819321   -0.05714744332538595
1.7097097504516323   0.1410298915009151   0.028405718212999073
1.7097097504516323   0.1410298915009151   0.028405718212999073
1.7097097504516323   0.1410298915009151   0.028405718212999073
1.7097097504516323   0.1410298915009151   0.028405718212999073
1.2105762803685465   0.010704180478243064   -0.0398342395631526
1.2105762803685465   0.010704180478243064   -0.0398342395631526
1.2105762803685465   0.010704180478243064   -0.0398342395631526
1.2105762803685465   0.010704180478243064   -0.0398342395631526
1.6732596422237305   0.04722471422305663   -0.06003964564863605
1.6732596422237305   0.04722471422305663   -0.06003964564863605
1.6732596422237305   0.04722471422305663   -0.06003964564863605
1.6732596422237305   0.04722471422305663   -0.06003964564863605
0.8245464581556082   -0.03667792214690366   0.025029942269929245
0.8245464581556082   -0.03667792214690366   0.025029942269929245
0.8245464581556082   -0.03667792214690366   0.025029942269929245
0.8245464581556082   -0.03667792214690366   0.025029942269929245
0.7523458124142659   -0.1397153593603773   -0.04966151680305825
0.7523458124142659   -0.1397153593603773   -0.04966151680305825
0.7523458124142659   -0.1397153593603773   -0.04966151680305825
0.7523458124142659   -0.1397153593603773   -0.04966151680305825
1.6538840664062735   0.12619808179871408   0.03880516246486335
1.6538840664062735   0.12619808179871408   0.03880516246486335
1.6538840664062735   0.12619808179871408   0.03880516246486335
1.6538840664062735   0.12619808179871408   0.03880516246486335
1.1812944428915462   -0.008734000444694356   -0.05239883346298533
1.1812944428915462   -0.008734000444694356   -0.05239883346298533
1.1812944428915462   -0.008734000444694356   -0.05239883346298533
1.1812944428915462   -0.008734000444694356   -0.05239883346298533
1.6182176993715645   0.033938002674755   -0.047266593584694754
1.6182176993715645   0.033938002674755   -0.047266593584694754
1.6182176993715645   0.033938002674755   -0.047266593584694754
1.6182176993715645   0.033938002674755   -0.047266593584694754
0.786610468270892   -0.04885699141449745   0.03080339453418706
0.786610468270892   -0.04885699141449745   0.03080339453418706
0.786610468270892   -0.04885699141449745   0.03080339453418706
0.786610468270892   -0.04885699141449745   0.03080339453418706
0.7182600318827608   -0.1429846537514461   -0.04056709275268862
0.7182600318827608   -0.1429846537514461   -0.04056709275268862
0.7182600318827608   -0.1429846537514461   -0.04056709275268862
0.7182600318827608   -0.1429846537514461   -0.04056709275268862
1.590949228589783   0.11314365864264045   0.048260973952140386
1.590949228589783   0.11314365864264045   0.048260973952140386
1.590949228589783   0.11314365864264045   0.048260973952140386
1.590949228589783   0.11314365864264045   0.048260973952140386
1.1133128639012122   -0.022141895341257573   -0.07119980836090549
1.1133128639012122   -0.022141895341257573   -0.07119980836090549
1.1133128639012122   -0.022141895341257573   -0.07119980836090549
1.1133128639012122   -0.022141895341257573   -0.07119980836090549
0.8789966924010016   0.09095594585087399   0.004693636397770647
0.8789966924010016   0.09095594585087399   0.004693636397770647
0.8789966924010016   0.09095594585087399   0.004693636397770647
0.8789966924010016   0.09095594585087399   0.004693636397770647
0.030589653751961605   -0.028622339447583144   -0.0035201824871569356
0.030589653751961605   -0.028622339447583144   -0.0035201824871569356
0.030589653751961605   -0.028622339447583144   -0.0035201824871569356
0.030589653751961605   -0.028622339447583144   -0.0035201824871569356
-0.025642986748389388   -0.11612668726253823   -0.03885012932973743
-0.025642986748389388   -0.11612668726253823   -0.03885012932973743
-0.025642986748389388   -0.11612668726253823   -0.03885012932973743
-0.025642986748389388   -0.11612668726253823   -0.03885012932973743
0.8619806246430574   0.12766415351178206   0.04785869904848847
0.8619806246430574   0.12766415351178206   0.04785869904848847
0.8619806246430574   0.12766415351178206   0.04785869904848847
0.8619806246430574   0.12766415351178206   0.04785869904848847
0.42968285349551816   0.01818180403263421   -0.004944889742507581
0.42968285349551816   0.01818180403263421   -0.004944889742507581
0.42968285349551816   0.01818180403263421   -0.004944889742507581
0.42968285349551816   0.01818180403263421   -0.004944889742507581
0.8422468180731272   0.06716005292486067   0.009693766785761327
0.8422468180731272   0.06716005292486067   0.009693766785761327
0.8422468180731272   0.06716005292486067   0.009693766785761327
0.8422468180731272   0.06716005292486067   0.009693766785761327
-0.0055607436624836495   -0.05527415015964439   0.0007085489968974186
-0.0055607436624836495   -0.05527415015964439   0.0007085489968974186
-0.0055607436624836495   -0.05527415015964439   0.0007085489968974186
-0.0055607436624836495   -0.05527415015964439   0.0007085489968974186
-0.060994524376957   -0.13359348464423507   -0.033569808088060794
-0.060994524376957   -0.13359348464423507   -0.033569808088060794
-0.060994524376957   -0.13359348464423507   -0.033569808088060794
-0.060994524376957   -0.13359348464423507   -0.033569808088060794
0.8219362155652016   0.1056097178416746   0.052965421749563604
0.8219362155652016   0.1056097178416746   0.052965421749563604
0.8219362155652016   0.1056097178416746   0.052965421749563604
0.8219362155652016   0.1056097178416746   0.052965421749563604
0.3865269259682941   -0.0035431392486234836   -0.01729387817544476
0.3865269259682941   -0.0035431392486234836   -0.01729387817544476
0.3865269259682941   -0.0035431392486234836   -0.01729387817544476
0.3865269259682941   -0.0035431392486234836   -0.01729387817544476
0.8029394344604543   0.04885459629530095   0.014736637772199891
0.8029394344604543   0.04885459629530095   0.014736637772199891
0.8029394344604543   0.04885459629530095   0.014736637772199891
0.8029394344604543   0.04885459629530095   0.014736637772199891
-0.04196298167972523   -0.07680360150537574   0.004798022259238751
-0.04196298167972523   -0.07680360150537574   0.004798022259238751
-0.04196298167972523   -0.07680360150537574   0.004798022259238751
-0.04196298167972523   -0.07680360150537574   0.004798022259238751
-0.09599182112733716   -0.14413974069573032   -0.026680492337861718
-0.09599182112733716   -0.14413974069573032   -0.026680492337861718
-0.09599182112733716   -0.14413974069573032   -0.026680492337861718
-0.09599182112733716   -0.14413974069573032   -0.026680492337861718
0.7838512607358487   0.08698453870934801   0.0574198590519473
0.7838512607358487   0.08698453870934801   0.0574198590519473
0.7838512607358487   0.08698453870934801   0.0574198590519473
0.7838512607358487   0.08698453870934801   0.0574198590519473
0.3545762955351574   -0.01747443476530966   -0.02640769249893903
0.3545762955351574   -0.01747443476530966   -0.02640769249893903
0.3545762955351574   -0.01747443476530966   -0.02640769249893903
0.3545762955351574   -0.01747443476530966   -0.02640769249893903
0.059362459217820324   0.09195434006545132   0.019767165329102183
0.059362459217820324   0.09195434006545132   0.019767165329102183
0.059362459217820324   0.09195434006545132   0.019767165329102183
0.059362459217820324   0.09195434006545132   0.019767165329102183
-0.7771550847996963   -0.050189378123335654   -0.026753908677495622
-0.7771550847996963   -0.050189378123335654   -0.026753908677495622
-0.7771550847996963   -0.050189378123335654   -0.026753908677495622
-0.7771550847996963   -0.050189378123335654   -0.026753908677495622
-0.821028056616182   -0.10635262296740039   -0.024539061341485646
-0.821028056616182   -0.10635262296740039   -0.024539061341485646
-0.821028056616182   -0.10635262296740039   -0.024539061341485646
-0.821028056616182   -0.10635262296740039   -0.024539061341485646
0.030891749644850953   0.10452680066082397   0.023170064713102394
0.030891749644850953   0.10452680066082397   0.023170064713102394
0.030891749644850953   0.10452680066082397   0.023170064713102394
0.030891749644850953   0.10452680066082397   0.023170064713102394
-0.37651167544184505   0.011768714926945104   0.001416316934498934
-0.37651167544184505   0.011768714926945104   0.001416316934498934
-0.37651167544184505   0.011768714926945104   0.001416316934498934
-0.37651167544184505   0.011768714926945104   0.001416316934498934
0.02486613906126942   0.07270649243965557   0.02486232001636279
0.02486613906126942   0.07270649243965557   0.02486232001636279
0.02486613906126942   0.07270649243965557   0.02486232001636279
0.02486613906126942   0.07270649243965557   0.02486232001636279
-0.814039454325186   -0.07356932303882091   -0.022379349815085083
-0.814039454325186   -0.07356932303882091   -0.022379349815085083
-0.814039454325186   -0.07356932303882091   -0.022379349815085083
-0.814039454325186   -0.07356932303882091   -0.022379349815085083
-0.8589685462542667   -0.12554760541361193   -0.02035428660382843
-0.8589685462542667   -0.12554760541361193   -0.02035428660382843
-0.8589685462542667   -0.12554760541361193   -0.02035428660382843
-0.8589685462542667   -0.12554760541361193   -0.02035428660382843
-0.005568496990907466   0.08183751319567377   0.02812933100227634
-0.005568496990907466   0.08183751319567377   0.02812933100227634
-0.005568496990907466   0.08183751319567377   0.02812933100227634
-0.005568496990907466   0.08183751319567377   0.02812933100227634
-0.41285866554655376   -0.007000970331821718   -0.007873633064848114
-0.41285866554655376   -0.007000970331821718   -0.007873633064848114
-0.41285866554655376   -0.007000970331821718   -0.007873633064848114
-0.41285866554655376   -0.007000970331821718   -0.007873633064848114
-0.010717967260343178   0.05418105523007485   0.030038437620698404
-0.010717967260343178   0.05418105523007485   0.030038437620698404
-0.010717967260343178   0.05418105523007485   0.030038437620698404
-0.010717967260343178   0.05418105523007485   0.030038437620698404
-0.8529899972634225   -0.09706206872660714   -0.018947078336613098
-0.8529899972634225   -0.09706206872660714   -0.018947078336613098
-0.8529899972634225   -0.09706206872660714   -0.018947078336613098
-0.8529899972634225   -0.09706206872660714   -0.018947078336613098
-0.8966558497227247   -0.14066110729302683   -0.013400036516914716
-0.8966558497227247   -0.14066110729302683   -0.013400036516914716
-0.8966558497227247   -0.14066110729302683   -0.013400036516914716
-0.8966558497227247   -0.14066110729302683   -0.013400036516914716
-0.043339853578372806   0.06046353044220383   0.0319760742690249
-0.043339853578372806   0.06046353044220383   0.0319760742690249
-0.043339853578372806   0.06046353044220383   0.0319760742690249
-0.043339853578372806   0.06046353044220383   0.0319760742690249
-0.45196620697879036   -0.026090989940197845   -0.018020803574433194
-0.45196620697879036   -0.026090989940197845   -0.018020803574433194
-0.45196620697879036   -0.026090989940197845   -0.018020803574433194
-0.45196620697879036   -0.026090989940197845   -0.018020803574433194
-0.7327732709597512   0.10881946834635697   0.036146314052552295
-0.7327732709597512   0.10881946834635697   0.036146314052552295
-0.7327732709597512   0.10881946834635697   0.036146314052552295
-0.7327732709597512   0.10881946834635697   0.036146314052552295
-1.557847268843827   -0.06906130359256868   -0.04387164934772794
-1.557847268843827   -0.06906130359256868   -0.04387164934772794
-1.557847268843827   -0.06906130359256868   -0.04387164934772794
-1.557847268843827   -0.06906130359256868   -0.04387164934772794
-1.5920618230156771   -0.08505745808130893   -0.006902479068841311
-1.5920618230156771   -0.08505745808130893   -0.006902479068841311
-1.5920618230156771   -0.08505745808130893   -0.006902479068841311
-1.5920618230156771   -0.08505745808130893   -0.006902479068841311
-0.7793139975281473   0.0790220222748467   -0.0013434111435490642
-0.7793139975281473   0.0790220222748467   -0.0013434111435490642
-0.7793139975281473   0.0790220222748467   -0.0013434111435490642
-0.7793139975281473   0.0790220222748467   -0.0013434111435490642
-1.1570842228084979   0.012027520179918316   0.008420034214189881
-1.1570842228084979   0.012027520179918316   0.008420034214189881
-1.1570842228084979   0.012027520179918316   0.008420034214189881
-1.1570842228084979   0.012027520179918316   0.008420034214189881
-0.7689207035978581   0.08906689814380753   0.04057818263893691
-0.7689207035978581   0.08906689814380753   0.04057818263893691
-0.7689207035978581   0.08906689814380753   0.04057818263893691
-0.7689207035978581   0.08906689814380753   0.04057818263893691
-1.6011413433075559   -0.09378856031186383   -0.043568978297693295
-1.6011413433075559   -0.09378856031186383   -0.043568978297693295
-1.6011413433075559   -0.09378856031186383   -0.043568978297693295
-1.6011413433075559   -0.09378856031186383   -0.043568978297693295
-1.638790512365582   -0.10663476358677754   -0.006089609959430767
-1.638790512365582   -0.10663476358677754   -0.006089609959430767
-1.638790512365582   -0.10663476358677754   -0.006089609959430767
-1.638790512365582   -0.10663476358677754   -0.006089609959430767
-0.8176988138934518   0.057370105756344464   0.0030766640302948567
-0.8176988138934518   0.057370105756344464   0.0030766640302948567
-0.8176988138934518   0.057370105756344464   0.0030766640302948567
-0.8176988138934518   0.057370105756344464   0.0030766640302948567
-1.1898373600998342   -0.0051635146010838295   0.0007959923488577436
-1.1898373600998342   -0.0051635146010838295   0.0007959923488577436
-1.1898373600998342   -0.0051635146010838295   0.0007959923488577436
-1.1898373600998342   -0.0051635146010838295   0.0007959923488577436
-0.8063189043440722   0.07045561959676544   0.04689069793677396
-0.8063189043440722   0.07045561959676544   0.04689069793677396
-0.8063189043440722   0.07045561959676544   0.04689069793677396
-0.8063189043440722   0.07045561959676544   0.04689069793677396
-1.6475099867110872   -0.11705984222332358   -0.03926190305041013
-1.6475099867110872   -0.11705984222332358   -0.03926190305041013
-1.6475099867110872   -0.11705984222332358   -0.03926190305041013
-1.6475099867110872   -0.11705984222332358   -0.03926190305041013
-1.6818243601694536   -0.12972905705927074   0.004737280633530613
-1.6818243601694536   -0.12972905705927074   0.004737280633530613
-1.6818243601694536   -0.12972905705927074   0.004737280633530613
-1.6818243601694536   -0.12972905705927074   0.004737280633530613
-0.8583760198485955   0.03162489555753048   0.005713110003180068
-0.8583760198485955   0.03162489555753048   0.005713110003180068
-0.8583760198485955   0.03162489555753048   0.005713110003180068
-0.8583760198485955   0.03162489555753048   0.005713110003180068
-1.2408624846064547   -0.02924159684960198   -0.009435865635195065
-1.2408624846064547   -0.02924159684960198   -0.009435865635195065
-1.2408624846064547   -0.02924159684960198   -0.009435865635195065
-1.2408624846064547   -0.02924159684960198   -0.009435865635195065
-1.5024882515527085   0.11319867222939195   0.050663461285892476
-1.5024882515527085   0.11319867222939195   0.050663461285892476
-1.5024882515527085   0.11319867222939195   0.050663461285892476
-1.5024882515527085   0.11319867222939195   0.050663461285892476
-2.299379125534932   -0.10632254495662208   -0.04056823522396885
-2.299379125534932   -0.10632254495662208   -0.04056823522396885
-2.299379125534932   -0.10632254495662208   -0.04056823522396885
-2.299379125534932   -0.10632254495662208   -0.04056823522396885
-2.3311190041115486   -0.04632661162012158   0.0431510381305959
-2.3311190041115486   -0.04632661162012158   0.0431510381305959
-2.3311190041115486   -0.04632661162012158   0.0431510381305959
-2.3311190041115486   -0.04632661162012158   0.0431510381305959
-1.5688070453059713   0.0471377461000167   -0.022823794701638797
-1.5688070453059713   0.0471377461000167   -0.022823794701638797
-1.5688070453059713   0.0471377461000167   -0.022823794701638797
-1.5688070453059713   0.0471377461000167   -0.022823794701638797
-1.8403919043689727   0.023629365535179636   0.04221278754355036
-1.8403919043689727   0.023629365535179636   0.04221278754355036
-1.8403919043689727   0.023629365535179636   0.04221278754355036
-1.8403919043689727   0.023629365535179636   0.04221278754355036
-1.5390046987598518   0.11510931554157211   0.058216368587384416
-1.5390046987598518   0.11510931554157211   0.058216368587384416
-1.5390046987598518   0.11510931554157211   0.058216368587384416
-1.5390046987598518   0.11510931554157211   0.058216368587384416
-2.359161490702797   -0.11253832110680734   -0.030849685338933605
-2.359161490702797   -0.11253832110680734   -0.030849685338933605
-2.359161490702797   -0.11253832110680734   -0.030849685338933605
-2.359161490702797   -0.11253832110680734   -0.030849685338933605
-2.3891499810938814   -0.057613924869539035   0.059622691758258795
-2.3891499810938814   -0.057613924869539035   0.059622691758258795
-2.3891499810938814   -0.057613924869539035   0.059622691758258795
-2.3891499810938814   -0.057613924869539035   0.059622691758258795
-1.613370822009038   0.03469270017677328   -0.020318621940261905
-1.613370822009038   0.03469270017677328   -0.020318621940261905
-1.613370822009038   0.03469270017677328   -0.020318621940261905
-1.613370822009038   0.03469270017677328   -0.020318621940261905
-1.9200676861021098   0.011642214331339051   0.027047948874927077
-1.9200676861021098   0.011642214331339051   0.027047948874927077
-1.9200676861021098   0.011642214331339051   0.027047948874927077
-1.9200676861021098   0.011642214331339051   0.027047948874927077
-1.5804564037634734   0.10665790511479484   0.0722882643495397
-1.5804564037634734   0.10665790511479484   0.0722882643495397
-1.5804564037634734   0.10665790511479484   0.0722882643495397
-1.5804564037634734   0.10665790511479484   0.0722882643495397
-2.420367655224878   -0.1278823856929895   -0.026197218073235273
-2.420367655224878   -0.1278823856929895   -0.026197218073235273
-2.420367655224878   -0.1278823856929895   -0.026197218073235273
-2.420367655224878   -0.1278823856929895   -0.026197218073235273
-2.467853994634223   -0.105881304640145   0.059337890425035844
-2.467853994634223   -0.105881304640145   0.059337890425035844
-2.467853994634223   -0.105881304640145   0.059337890425035844
-2.467853994634223   -0.105881304640145   0.059337890425035844
-1.6611439971649649   -0.0025110205889893877   -0.0190789408143187
-1.6611439971649649   -0.0025110205889893877   -0.0190789408143187
-1.6611439971649649   -0.0025110205889893877   -0.0190789408143187
-1.6611439971649649   -0.0025110205889893877   -0.0190789408143187
-1.943479366390846   -0.005560870306508203   0.02197913529584973
-1.943479366390846   -0.005560870306508203   0.02197913529584973
-1.943479366390846   -0.005560870306508203   0.02197913529584973
-1.943479366390846   -0.005560870306508203   0.02197913529584973
1.3193299416282618   0.07319512498137182   -0.06323719685558371
1.3193299416282618   0.07319512498137182   -0.06323719685558371
1.3193299416282618   0.07319512498137182   -0.06323719685558371
1.3193299416282618   0.07319512498137182   -0.06323719685558371
0.6276516621911259   0.012825366047984121   0.024166873531117544
0.6276516621911259   0.012825366047984121   0.024166873531117544
0.6276516621911259   0.012825366047984121   0.024166873531117544
0.6276516621911259   0.012825366047984121   0.024166873531117544
0.5573668894636249   -0.10712416674712186   -0.06002171203917848
0.5573668894636249   -0.10712416674712186   -0.06002171203917848
0.5573668894636249   -0.10712416674712186   -0.06002171203917848
0.5573668894636249   -0.10712416674712186   -0.06002171203917848
1.2906056288665535   0.12139376808341965   0.029875533277115666
1.2906056288665535   0.12139376808341965   0.029875533277115666
1.2906056288665535   0.12139376808341965   0.029875533277115666
1.2906056288665535   0.12139376808341965   0.029875533277115666
0.8997404123076395   0.012177443243839708   -0.026599384542966217
0.8997404123076395   0.012177443243839708   -0.026599384542966217
0.8997404123076395   0.012177443243839708   -0.026599384542966217
0.8997404123076395   0.012177443243839708   -0.026599384542966217
1.2548896124915667   0.03243547013619466   -0.059746250650580694
1.2548896124915667   0.03243547013619466   -0.059746250650580694
1.2548896124915667   0.03243547013619466   -0.059746250650580694
1.2548896124915667   0.03243547013619466   -0.059746250650580694
0.5923772764323245   -0.018871498206175896   0.02677755426336676
0.5923772764323245   -0.018871498206175896   0.02677755426336676
0.5923772764323245   -0.018871498206175896   0.02677755426336676
0.5923772764323245   -0.018871498206175896   0.02677755426336676
0.5245207626249473   -0.11767034784571688   -0.05117368197596535
0.5245207626249473   -0.11767034784571688   -0.05117368197596535
0.5245207626249473   -0.11767034784571688   -0.05117368197596535
0.5245207626249473   -0.11767034784571688   -0.05117368197596535
1.2395363067876524   0.10632844755841961   0.039263302678034386
1.2395363067876524   0.10632844755841961   0.039263302678034386
1.2395363067876524   0.10632844755841961   0.039263302678034386
1.2395363067876524   0.10632844755841961   0.039263302678034386
0.870260507621607   -0.006088489120868179   -0.037418684884432646
0.870260507621607   -0.006088489120868179   -0.037418684884432646
0.870260507621607   -0.006088489120868179   -0.037418684884432646
0.870260507621607   -0.006088489120868179   -0.037418684884432646
1.2046595720809945   0.01902813815110066   -0.04782006144792489
1.2046595720809945   0.01902813815110066   -0.04782006144792489
1.2046595720809945   0.01902813815110066   -0.04782006144792489
1.2046595720809945   0.01902813815110066   -0.04782006144792489
0.5585111697580254   -0.031256366011976705   0.03236437185567994
0.5585111697580254   -0.031256366011976705   0.03236437185567994
0.5585111697580254   -0.031256366011976705   0.03236437185567994
0.5585111697580254   -0.031256366011976705   0.03236437185567994
0.4949074784424725   -0.12423963250725961   -0.042613731650049294
0.4949074784424725   -0.12423963250725961   -0.042613731650049294
0.4949074784424725   -0.12423963250725961   -0.042613731650049294
0.4949074784424725   -0.12423963250725961   -0.042613731650049294
1.1819566822704508   0.08996487433284234   0.04661770205073906
1.1819566822704508   0.08996487433284234   0.04661770205073906
1.1819566822704508   0.08996487433284234   0.04661770205073906
1.1819566822704508   0.08996487433284234   0.04661770205073906
0.8122237323406303   -0.019916812914557797   -0.05338709433180704
0.8122237323406303   -0.019916812914557797   -0.05338709433180704
0.8122237323406303   -0.019916812914557797   -0.05338709433180704
0.8122237323406303   -0.019916812914557797   -0.05338709433180704
0.6380295463383867   0.09278833969184988   -0.003906679376431335
0.6380295463383867   0.09278833969184988   -0.003906679376431335
0.6380295463383867   0.09278833969184988   -0.003906679376431335
0.6380295463383867   0.09278833969184988   -0.003906679376431335
-0.041425613273055856   -0.008878986786722788   -0.0002586019188771572
-0.041425613273055856   -0.008878986786722788   -0.0002586019188771572
-0.041425613273055856   -0.008878986786722788   -0.0002586019188771572
-0.041425613273055856   -0.008878986786722788   -0.0002586019188771572
-0.09093592840369566   -0.08011569074272987   -0.03812396917731792
-0.09093592840369566   -0.08011569074272987   -0.03812396917731792
-0.09093592840369566   -0.08011569074272987   -0.03812396917731792
-0.09093592840369566   -0.08011569074272987   -0.03812396917731792
0.6213371424872152   0.11030540829242201   0.042399978039222894
0.6213371424872152   0.11030540829242201   0.042399978039222894
0.6213371424872152   0.11030540829242201   0.042399978039222894
0.6213371424872152   0.11030540829242201   0.042399978039222894
0.27741313259451933   0.027250558567929357   0.0019602372529370776
0.27741313259451933   0.027250558567929357   0.0019602372529370776
0.27741313259451933   0.027250558567929357   0.0019602372529370776
0.27741313259451933   0.027250558567929357   0.0019602372529370776
0.6045379957569954   0.06695484871747612   0.0017548039630830674
0.6045379957569954   0.06695484871747612   0.0017548039630830674
0.6045379957569954   0.06695484871747612   0.0017548039630830674
0.6045379957569954   0.06695484871747612   0.0017548039630830674
-0.07384786870700741   -0.03647621820132364   0.0036768567647171542
-0.07384786870700741   -0.03647621820132364   0.0036768567647171542
-0.07384786870700741   -0.03647621820132364   0.0036768567647171542
-0.07384786870700741   -0.03647621820132364   0.0036768567647171542
-0.1218768816103232   -0.10004787047447022   -0.03150942265563574
-0.1218768816103232   -0.10004787047447022   -0.03150942265563574
-0.1218768816103232   -0.10004787047447022   -0.03150942265563574
-0.1218768816103232   -0.10004787047447022   -0.03150942265563574
0.5848662961945433   0.08652831680770567   0.046355321218587014
0.5848662961945433   0.08652831680770567   0.046355321218587014
0.5848662961945433   0.08652831680770567   0.046355321218587014
0.5848662961945433   0.08652831680770567   0.046355321218587014
0.2393037271536246   0.003746671385705398   -0.009842377932031986
0.2393037271536246   0.003746671385705398   -0.009842377932031986
0.2393037271536246   0.003746671385705398   -0.009842377932031986
0.2393037271536246   0.003746671385705398   -0.009842377932031986
0.5686223233052141   0.045572174796417037   0.006091598783234578
0.5686223233052141   0.045572174796417037   0.006091598783234578
0.5686223233052141   0.045572174796417037   0.006091598783234578
0.5686223233052141   0.045572174796417037   0.006091598783234578
-0.10586647357934649   -0.059325293321528465   0.007820040346306125
-0.10586647357934649   -0.059325293321528465   0.007820040346306125
-0.10586647357934649   -0.059325293321528465   0.007820040346306125
-0.10586647357934649   -0.059325293321528465   0.007820040346306125
-0.15241651178278673   -0.11681185447586269   -0.02529433435547089
-0.15241651178278673   -0.11681185447586269   -0.02529433435547089
-0.15241651178278673   -0.11681185447586269   -0.02529433435547089
-0.15241651178278673   -0.11681185447586269   -0.02529433435547089
0.5511937870650385   0.06452167536336761   0.05005650359215135
0.5511937870650385   0.06452167536336761   0.05005650359215135
0.5511937870650385   0.06452167536336761   0.05005650359215135
0.5511937870650385   0.06452167536336761   0.05005650359215135
0.21003912760991247   -0.01409780506391798   -0.019684609875734647
0.21003912760991247   -0.01409780506391798   -0.019684609875734647
0.21003912760991247   -0.01409780506391798   -0.019684609875734647
0.21003912760991247   -0.01409780506391798   -0.019684609875734647
-0.01436489080657619   0.11079387261345518   0.015372151013343207
-0.01436489080657619   0.11079387261345518   0.015372151013343207
-0.01436489080657619   0.11079387261345518   0.015372151013343207
-0.01436489080657619   0.11079387261345518   0.015372151013343207
-0.6962379998126059   -0.030059498077108865   -0.0230951663930581
-0.6962379998126059   -0.030059498077108865   -0.0230951663930581
-0.6962379998126059   -0.030059498077108865   -0.0230951663930581
-0.6962379998126059   -0.030059498077108865   -0.0230951663930581
-0.7281497342194141   -0.05551927254375402   -0.0180188174455225
-0.7281497342194141   -0.05551927254375402   -0.0180188174455225
-0.7281497342194141   -0.05551927254375402   -0.0180188174455225
-0.7281497342194141   -0.05551927254375402   -0.0180188174455225
-0.045777349211532224   0.08908865649166459   0.018464579549105162
-0.045777349211532224   0.08908865649166459   0.018464579549105162
-0.045777349211532224   0.08908865649166459   0.018464579549105162
-0.045777349211532224   0.08908865649166459   0.018464579549105162
-0.37025402436786214   0.02877296716559688   0.007265722275835405
-0.37025402436786214   0.02877296716559688   0.007265722275835405
-0.37025402436786214   0.02877296716559688   0.007265722275835405
-0.37025402436786214   0.02877296716559688   0.007265722275835405
-0.045156116702273236   0.08901257847182993   0.021646820115234423
-0.045156116702273236   0.08901257847182993   0.021646820115234423
-0.045156116702273236   0.08901257847182993   0.021646820115234423
-0.045156116702273236   0.08901257847182993   0.021646820115234423
-0.7281724107528902   -0.054844638548132874   -0.018806834108524177
-0.7281724107528902   -0.054844638548132874   -0.018806834108524177
-0.7281724107528902   -0.054844638548132874   -0.018806834108524177
-0.7281724107528902   -0.054844638548132874   -0.018806834108524177
-0.759841610268775   -0.07709183222872398   -0.012244282841783541
-0.759841610268775   -0.07709183222872398   -0.012244282841783541
-0.759841610268775   -0.07709183222872398   -0.012244282841783541
-0.759841610268775   -0.07709183222872398   -0.012244282841783541
-0.07803325517350732   0.06460484661857623   0.023055992435397427
-0.07803325517350732   0.06460484661857623   0.023055992435397427
-0.07803325517350732   0.06460484661857623   0.023055992435397427
-0.07803325517350732   0.06460484661857623   0.023055992435397427
-0.4022719884552569   0.007500700418179296   -0.0023149231347198776
-0.4022719884552569   0.007500700418179296   -0.0023149231347198776
-0.4022719884552569   0.007500700418179296   -0.0023149231347198776
-0.4022719884552569   0.007500700418179296   -0.0023149231347198776
-0.07677361295765371   0.06730202819042795   0.026657021942813542
-0.07677361295765371   0.06730202819042795   0.026657021942813542
-0.07677361295765371   0.06730202819042795   0.026657021942813542
-0.07677361295765371   0.06730202819042795   0.026657021942813542
-0.7609237106428057   -0.07961147195874416   -0.01513514498190606
-0.7609237106428057   -0.07961147195874416   -0.01513514498190606
-0.7609237106428057   -0.07961147195874416   -0.01513514498190606
-0.7609237106428057   -0.07961147195874416   -0.01513514498190606
-0.79116371402611   -0.09680243551032751   -0.006529895045894574
-0.79116371402611   -0.09680243551032751   -0.006529895045894574
-0.79116371402611   -0.09680243551032751   -0.006529895045894574
-0.79116371402611   -0.09680243551032751   -0.006529895045894574
-0.11041839739221687   0.04092472406123451   0.026959659060284268
-0.11041839739221687   0.04092472406123451   0.026959659060284268
-0.11041839739221687   0.04092472406123451   0.026959659060284268
-0.11041839739221687   0.04092472406123451   0.026959659060284268
-0.43575413721102857   -0.013952254751807128   -0.012982368604590202
-0.43575413721102857   -0.013952254751807128   -0.012982368604590202
-0.43575413721102857   -0.013952254751807128   -0.012982368604590202
-0.43575413721102857   -0.013952254751807128   -0.012982368604590202
-0.6534530010337327   0.12728828810319226   0.03348204132100298
-0.6534530010337327   0.12728828810319226   0.03348204132100298
-0.6534530010337327   0.12728828810319226   0.03348204132100298
-0.6534530010337327   0.12728828810319226   0.03348204132100298
-1.3359067173362733   -0.05168430980882613   -0.04166778343899987
-1.3359067173362733   -0.05168430980882613   -0.04166778343899987
-1.3359067173362733   -0.05168430980882613   -0.04166778343899987
-1.3359067173362733   -0.05168430980882613   -0.04166778343899987
-1.3533535235829892   -0.034738883982105284   0.0038915836265326492
-1.3533535235829892   -0.034738883982105284   0.0038915836265326492
-1.3533535235829892   -0.034738883982105284   0.0038915836265326492
-1.3533535235829892   -0.034738883982105284   0.0038915836265326492
-0.7017295296987758   0.06395375447399113   -0.005390821860072011
-0.7017295296987758   0.06395375447399113   -0.005390821860072011
-0.7017295296987758   0.06395375447399113   -0.005390821860072011
-0.7017295296987758   0.06395375447399113   -0.005390821860072011
-1.0045522899169887   0.02749278793350099   0.012316261968837325
-1.0045522899169887   0.02749278793350099   0.012316261968837325
-1.0045522899169887   0.02749278793350099   0.012316261968837325
-1.0045522899169887   0.02749278793350099   0.012316261968837325
-0.6842979320053689   0.10619841818692319   0.03952250289402641
-0.6842979320053689   0.10619841818692319   0.03952250289402641
-0.6842979320053689   0.10619841818692319   0.03952250289402641
-0.6842979320053689   0.10619841818692319   0.03952250289402641
-1.370619632974304   -0.07681805939294228   -0.040359787919210965
-1.370619632974304   -0.07681805939294228   -0.040359787919210965
-1.370619632974304   -0.07681805939294228   -0.040359787919210965
-1.370619632974304   -0.07681805939294228   -0.040359787919210965
-1.3902550460477268   -0.056545077955458795   0.006056977625553545
-1.3902550460477268   -0.056545077955458795   0.006056977625553545
-1.3902550460477268   -0.056545077955458795   0.006056977625553545
-1.3902550460477268   -0.056545077955458795   0.006056977625553545
-0.733862702355188   0.041278657680664355   -0.0007202331832241379
-0.733862702355188   0.041278657680664355   -0.0007202331832241379
-0.733862702355188   0.041278657680664355   -0.0007202331832241379
-0.733862702355188   0.041278657680664355   -0.0007202331832241379
-1.031655077804405   0.008502258661418238   0.0033954774806966015
-1.031655077804405   0.008502258661418238   0.0033954774806966015
-1.031655077804405   0.008502258661418238   0.0033954774806966015
-1.031655077804405   0.008502258661418238   0.0033954774806966015
-0.7157054662300932   0.08618530292294865   0.04515930219996376
-0.7157054662300932   0.08618530292294865   0.04515930219996376
-0.7157054662300932   0.08618530292294865   0.04515930219996376
-0.7157054662300932   0.08618530292294865   0.04515930219996376
-1.407476218744619   -0.10051565976954185   -0.03607830404482422
-1.407476218744619   -0.10051565976954185   -0.03607830404482422
-1.407476218744619   -0.10051565976954185   -0.03607830404482422
-1.407476218744619   -0.10051565976954185   -0.03607830404482422
-1.4237344366341504   -0.0800087236648834   0.012903430676665606
-1.4237344366341504   -0.0800087236648834   0.012903430676665606
-1.4237344366341504   -0.0800087236648834   0.012903430676665606
-1.4237344366341504   -0.0800087236648834   0.012903430676665606
-0.7668947648629784   0.015349563911361025   0.0026628513480802807
-0.7668947648629784   0.015349563911361025   0.0026628513480802807
-0.7668947648629784   0.015349563911361025   0.0026628513480802807
-0.7668947648629784   0.015349563911361025   0.0026628513480802807
-1.0728672309606349   -0.015285364048647415   -0.00791956352179745
-1.0728672309606349   -0.015285364048647415   -0.00791956352179745
-1.0728672309606349   -0.015285364048647415   -0.00791956352179745
-1.0728672309606349   -0.015285364048647415   -0.00791956352179745
-1.2849356117811463   0.11415040978707242   0.04735302474073582
-1.2849356117811463   0.11415040978707242   0.04735302474073582
-1.2849356117811463   0.11415040978707242   0.04735302474073582
-1.2849356117811463   0.11415040978707242   0.04735302474073582
-1.9439027634368675   -0.08965086716578402   -0.04600078146877906
-1.9439027634368675   -0.08965086716578402   -0.04600078146877906
-1.9439027634368675   -0.08965086716578402   -0.04600078146877906
-1.9439027634368675   -0.08965086716578402   -0.04600078146877906
-1.9656353035631493   -0.01893139476952993   0.04365875920780621
-1.9656353035631493   -0.01893139476952993   0.04365875920780621
-1.9656353035631493   -0.01893139476952993   0.04365875920780621
-1.9656353035631493   -0.01893139476952993   0.04365875920780621
-1.3461501784491323   0.03212419917793391   -0.02695477386421888
-1.3461501784491323   0.03212419917793391   -0.02695477386421888
-1.3461501784491323   0.03212419917793391   -0.02695477386421888
-1.3461501784491323   0.03212419917793391   -0.02695477386421888
-1.5628418153325843   0.025731080312866583   0.03822719308045287
-1.5628418153325843   0.025731080312866583   0.03822719308045287
-1.5628418153325843   0.025731080312866583   0.03822719308045287
-1.5628418153325843   0.025731080312866583   0.03822719308045287
-1.313293149311047   0.11391349870013134   0.05554107230400792
-1.313293149311047   0.11391349870013134   0.05554107230400792
-1.313293149311047   0.11391349870013134   0.05554107230400792
-1.313293149311047   0.11391349870013134   0.05554107230400792
-1.9979338073229604   -0.10016216891345042   -0.03660298544731211
-1.9979338073229604   -0.10016216891345042   -0.03660298544731211
-1.9979338073229604   -0.10016216891345042   -0.03660298544731211
-1.9979338073229604   -0.10016216891345042   -0.03660298544731211
-2.0139337075439405   -0.030432755665940447   0.05461698438101049
-2.0139337075439405   -0.030432755665940447   0.05461698438101049
-2.0139337075439405   -0.030432755665940447   0.05461698438101049
-2.0139337075439405   -0.030432755665940447   0.05461698438101049
-1.3808394254763567   0.01969178088998924   -0.023101778363034967
-1.3808394254763567   0.01969178088998924   -0.023101778363034967
-1.3808394254763567   0.01969178088998924   -0.023101778363034967
-1.3808394254763567   0.01969178088998924   -0.023101778363034967
-1.6302023339770462   0.012887857653184065   0.023191790500522946
-1.6302023339770462   0.012887857653184065   0.023191790500522946
-1.6302023339770462   0.012887857653184065   0.023191790500522946
-1.6302023339770462   0.012887857653184065   0.023191790500522946
-1.3459852922844096   0.10533805350590947   0.06552261498077135
-1.3459852922844096   0.10533805350590947   0.06552261498077135
-1.3459852922844096   0.10533805350590947   0.06552261498077135
-1.3459852922844096   0.10533805350590947   0.06552261498077135
-2.0478701072473964   -0.11516129479337539   -0.030336475008818434
-2.0478701072473964   -0.11516129479337539   -0.030336475008818434
-2.0478701072473964   -0.11516129479337539   -0.030336475008818434
-2.0478701072473964   -0.11516129479337539   -0.030336475008818434
-2.0776758517554548   -0.07126883270040274   0.053663853219165704
-2.0776758517554548   -0.07126883270040274   0.053663853219165704
-2.0776758517554548   -0.07126883270040274   0.053663853219165704
-2.0776758517554548   -0.07126883270040274   0.053663853219165704
-1.4174599678853588   -0.014800856104334681   -0.020932093139930052
-1.4174599678853588   -0.014800856104334681   -0.020932093139930052
-1.4174599678853588   -0.014800856104334681   -0.020932093139930052
-1.4174599678853588   -0.014800856104334681   -0.020932093139930052
-1.6477124584045275   -0.0030624610251313578   0.018151622158654845
-1.6477124584045275   -0.0030624610251313578   0.018151622158654845
-1.6477124584045275   -0.0030624610251313578   0.018151622158654845
-1.6477124584045275   -0.0030624610251313578   0.018151622158654845
0.9046791497090552   0.05112477667825402   -0.06136356083541635
0.9046791497090552   0.05112477667825402   -0.06136356083541635
0.9046791497090552   0.05112477667825402   -0.06136356083541635
0.9046791497090552   0.05112477667825402   -0.06136356083541635
0.3864388660259081   0.024911505414605364   0.026377481809173233
0.3864388660259081   0.024911505414605364   0.026377481809173233
0.3864388660259081   0.024911505414605364   0.026377481809173233
0.3864388660259081   0.024911505414605364   0.026377481809173233
0.32315882700650655   -0.08951047113238904   -0.05719886094188109
0.32315882700650655   -0.08951047113238904   -0.05719886094188109
0.32315882700650655   -0.08951047113238904   -0.05719886094188109
0.32315882700650655   -0.08951047113238904   -0.05719886094188109
0.8833305197983441   0.10293036029946191   0.03204326280133542
0.8833305197983441   0.10293036029946191   0.03204326280133542
0.8833305197983441   0.10293036029946191   0.03204326280133542
0.8833305197983441   0.10293036029946191   0.03204326280133542
0.5913289473404076   0.013124729772191354   -0.016160538637721482
0.5913289473404076   0.013124729772191354   -0.016160538637721482
0.5913289473404076   0.013124729772191354   -0.016160538637721482
0.5913289473404076   0.013124729772191354   -0.016160538637721482
0.8479808522711824   0.015448969334937113   -0.057223683869955716
0.8479808522711824   0.015448969334937113   -0.057223683869955716
0.8479808522711824   0.015448969334937113   -0.057223683869955716
0.8479808522711824   0.015448969334937113   -0.057223683869955716
0.3578447173987757   -0.0026928573027523856   0.029412977189832313
0.3578447173987757   -0.0026928573027523856   0.029412977189832313
0.3578447173987757   -0.0026928573027523856   0.029412977189832313
0.3578447173987757   -0.0026928573027523856   0.029412977189832313
0.2961927357670932   -0.09992701877811244   -0.04867045798406662
0.2961927357670932   -0.09992701877811244   -0.04867045798406662
0.2961927357670932   -0.09992701877811244   -0.04867045798406662
0.2961927357670932   -0.09992701877811244   -0.04867045798406662
0.8389718774157845   0.08815264682637527   0.041273097290921705
0.8389718774157845   0.08815264682637527   0.041273097290921705
0.8389718774157845   0.08815264682637527   0.041273097290921705
0.8389718774157845   0.08815264682637527   0.041273097290921705
0.5633953768398905   -0.00404236768332096   -0.026375471071738092
0.5633953768398905   -0.00404236768332096   -0.026375471071738092
0.5633953768398905   -0.00404236768332096   -0.026375471071738092
0.5633953768398905   -0.00404236768332096   -0.026375471071738092
0.8042080085457414   0.002109506106537623   -0.04650310633946377
0.8042080085457414   0.002109506106537623   -0.04650310633946377
0.8042080085457414   0.002109506106537623   -0.04650310633946377
0.8042080085457414   0.002109506106537623   -0.04650310633946377
0.3299797195738576   -0.014860763121554293   0.03519820539320083
0.3299797195738576   -0.014860763121554293   0.03519820539320083
0.3299797195738576   -0.014860763121554293   0.03519820539320083
0.3299797195738576   -0.014860763121554293   0.03519820539320083
0.272080760263534   -0.10944576859047232   -0.04055959055891736
0.272080760263534   -0.10944576859047232   -0.04055959055891736
0.272080760263534   -0.10944576859047232   -0.04055959055891736
0.272080760263534   -0.10944576859047232   -0.04055959055891736
0.787201884008727   0.06868557507730251   0.047087877990900265
0.787201884008727   0.06868557507730251   0.047087877990900265
0.787201884008727   0.06868557507730251   0.047087877990900265
0.787201884008727   0.06868557507730251   0.047087877990900265
0.5162989772200945   -0.018150062527426333   -0.04037468307842148
0.5162989772200945   -0.018150062527426333   -0.04037468307842148
0.5162989772200945   -0.018150062527426333   -0.04037468307842148
0.5162989772200945   -0.018150062527426333   -0.04037468307842148
0.3889593329054396   0.07502332263087164   -0.011132001009442312
0.3889593329054396   0.07502332263087164   -0.011132001009442312
0.3889593329054396   0.07502332263087164   -0.011132001009442312
0.3889593329054396   0.07502332263087164   -0.011132001009442312
-0.11970303545031578   0.006620336198832465   0.003621808576292433
-0.11970303545031578   0.006620336198832465   0.003621808576292433
-0.11970303545031578   0.006620336198832465   0.003621808576292433
-0.11970303545031578   0.006620336198832465   0.003621808576292433
-0.16296314984954852   -0.06207573766473072   -0.035205459409777144
-0.16296314984954852   -0.06207573766473072   -0.035205459409777144
-0.16296314984954852   -0.06207573766473072   -0.035205459409777144
-0.16296314984954852   -0.06207573766473072   -0.035205459409777144
0.37810010295863805   0.09022468297799505   0.03777236470839699
0.37810010295863805   0.09022468297799505   0.03777236470839699
0.37810010295863805   0.09022468297799505   0.03777236470839699
0.37810010295863805   0.09022468297799505   0.03777236470839699
0.11843951607609512   0.026117113967354815   0.004535128117496935
0.11843951607609512   0.026117113967354815   0.004535128117496935
0.11843951607609512   0.026117113967354815   0.004535128117496935
0.11843951607609512   0.026117113967354815   0.004535128117496935
0.36101032124742316   0.04855806355224316   -0.00600992442192951
0.36101032124742316   0.04855806355224316   -0.00600992442192951
0.36101032124742316   0.04855806355224316   -0.00600992442192951
0.36101032124742316   0.04855806355224316   -0.00600992442192951
-0.1461239728329797   -0.020659722933617213   0.007574410941953463
-0.1461239728329797   -0.020659722933617213   0.007574410941953463
-0.1461239728329797   -0.020659722933617213   0.007574410941953463
-0.1461239728329797   -0.020659722933617213   0.007574410941953463
-0.18804667633527075   -0.08301966058969659   -0.028471593238610225
-0.18804667633527075   -0.08301966058969659   -0.028471593238610225
-0.18804667633527075   -0.08301966058969659   -0.028471593238610225
-0.18804667633527075   -0.08301966058969659   -0.028471593238610225
0.3473402504911064   0.06607453465753466   0.04106556220035587
0.3473402504911064   0.06607453465753466   0.04106556220035587
0.3473402504911064   0.06607453465753466   0.04106556220035587
0.3473402504911064   0.06607453465753466   0.04106556220035587
0.0875230120744821   0.002455552316037408   -0.006831573463458684
0.0875230120744821   0.002455552316037408   -0.006831573463458684
0.0875230120744821   0.002455552316037408   -0.006831573463458684
0.0875230120744821   0.002455552316037408   -0.006831573463458684
0.3307906469193522   0.026100448757310567   -0.001708369758197317
0.3307906469193522   0.026100448757310567   -0.001708369758197317
0.3307906469193522   0.026100448757310567   -0.001708369758197317
0.3307906469193522   0.026100448757310567   -0.001708369758197317
-0.17213353711967136   -0.043682039045618126   0.011756481295308312
-0.17213353711967136   -0.043682039045618126   0.011756481295308312
-0.17213353711967136   -0.043682039045618126   0.011756481295308312
-0.17213353711967136   -0.043682039045618126   0.011756481295308312
-0.21279907598521614   -0.10273800235337319   -0.022249021941236635
-0.21279907598521614   -0.10273800235337319   -0.022249021941236635
-0.21279907598521614   -0.10273800235337319   -0.022249021941236635
-0.21279907598521614   -0.10273800235337319   -0.022249021941236635
0.3195819812803254   0.042841612979807576   0.044659132954766756
0.3195819812803254   0.042841612979807576   0.044659132954766756
0.3195819812803254   0.042841612979807576   0.044659132954766756
0.3195819812803254   0.042841612979807576   0.044659132954766756
0.06267559147563198   -0.01721405915211474   -0.016880615717946305
0.06267559147563198   -0.01721405915211474   -0.016880615717946305
0.06267559147563198   -0.01721405915211474   -0.016880615717946305
0.06267559147563198   -0.01721405915211474   -0.016880615717946305
-0.10094344565673968   0.09535538731772572   0.008684706425275902
-0.10094344565673968   0.09535538731772572   0.008684706425275902
-0.10094344565673968   0.09535538731772572   0.008684706425275902
-0.10094344565673968   0.09535538731772572   0.008684706425275902
-0.6183621069795561   -0.01547279943191028   -0.01878681398971042
-0.6183621069795561   -0.01547279943191028   -0.01878681398971042
-0.6183621069795561   -0.01547279943191028   -0.01878681398971042
-0.6183621069795561   -0.01547279943191028   -0.01878681398971042
-0.6431008545659754   -0.03683346670281998   -0.013822531068874426
-0.6431008545659754   -0.03683346670281998   -0.013822531068874426
-0.6431008545659754   -0.03683346670281998   -0.013822531068874426
-0.6431008545659754   -0.03683346670281998   -0.013822531068874426
-0.12681971472351308   0.06880131089481722   0.014634667660849629
-0.12681971472351308   0.06880131089481722   0.014634667660849629
-0.12681971472351308   0.06880131089481722   0.014634667660849629
-0.12681971472351308   0.06880131089481722   0.014634667660849629
-0.37140159845808135   0.02753375177477997   0.007332207412354696
-0.37140159845808135   0.02753375177477997   0.007332207412354696
-0.37140159845808135   0.02753375177477997   0.007332207412354696
-0.37140159845808135   0.02753375177477997   0.007332207412354696
-0.12603743254668248   0.07234433483564634   0.015003054604176027
-0.12603743254668248   0.07234433483564634   0.015003054604176027
-0.12603743254668248   0.07234433483564634   0.015003054604176027
-0.12603743254668248   0.07234433483564634   0.015003054604176027
-0.6439514602323148   -0.04044481413315887   -0.01446421197022904
-0.6439514602323148   -0.04044481413315887   -0.01446421197022904
-0.6439514602323148   -0.04044481413315887   -0.01446421197022904
-0.6439514602323148   -0.04044481413315887   -0.01446421197022904
-0.6684419206271713   -0.059652548577069614   -0.007822318089167734
-0.6684419206271713   -0.059652548577069614   -0.007822318089167734
-0.6684419206271713   -0.059652548577069614   -0.007822318089167734
-0.6684419206271713   -0.059652548577069614   -0.007822318089167734
-0.15314045497854784   0.043947328213118635   0.019092524742187127
-0.15314045497854784   0.043947328213118635   0.019092524742187127
-0.15314045497854784   0.043947328213118635   0.019092524742187127
-0.15314045497854784   0.043947328213118635   0.019092524742187127
-0.3974561618538994   0.005324287083250043   -0.002443580486227479
-0.3974561618538994   0.005324287083250043   -0.002443580486227479
-0.3974561618538994   0.005324287083250043   -0.002443580486227479
-0.3974561618538994   0.005324287083250043   -0.002443580486227479
-0.15181528038493386   0.04930865689490316   0.0203570690284746
-0.15181528038493386   0.04930865689490316   0.0203570690284746
-0.15181528038493386   0.04930865689490316   0.0203570690284746
-0.15181528038493386   0.04930865689490316   0.0203570690284746
-0.6701686736986392   -0.06541545573670968   -0.01069317628686305
-0.6701686736986392   -0.06541545573670968   -0.01069317628686305
-0.6701686736986392   -0.06541545573670968   -0.01069317628686305
-0.6701686736986392   -0.06541545573670968   -0.01069317628686305
-0.6933588939382658   -0.08145342136446047   -0.0019905715221417153
-0.6933588939382658   -0.08145342136446047   -0.0019905715221417153
-0.6933588939382658   -0.08145342136446047   -0.0019905715221417153
-0.6933588939382658   -0.08145342136446047   -0.0019905715221417153
-0.17923614471763458   0.019796053715379625   0.023031578327915275
-0.17923614471763458   0.019796053715379625   0.023031578327915275
-0.17923614471763458   0.019796053715379625   0.023031578327915275
-0.17923614471763458   0.019796053715379625   0.023031578327915275
-0.42458153671372423   -0.016910931322088166   -0.013038540399393197
-0.42458153671372423   -0.016910931322088166   -0.013038540399393197
-0.42458153671372423   -0.016910931322088166   -0.013038540399393197
-0.42458153671372423   -0.016910931322088166   -0.013038540399393197
-0.5833460593471728   0.11277125285403805   0.028049371886257973
-0.5833460593471728   0.11277125285403805   0.028049371886257973
-0.5833460593471728   0.11277125285403805   0.028049371886257973
-0.5833460593471728   0.11277125285403805   0.028049371886257973
-1.1080907352510398   -0.03743621785902454   -0.03827452101675353
-1.1080907352510398   -0.03743621785902454   -0.03827452101675353
-1.1080907352510398   -0.03743621785902454   -0.03827452101675353
-1.1080907352510398   -0.03743621785902454   -0.03827452101675353
-1.1173950848511975   -0.016278032479711046   0.00911579852383898
-1.1173950848511975   -0.016278032479711046   0.00911579852383898
-1.1173950848511975   -0.016278032479711046   0.00911579852383898
-1.1173950848511975   -0.016278032479711046   0.00911579852383898
-0.6256419150504946   0.04482242960268268   -0.008183729796979705
-0.6256419150504946   0.04482242960268268   -0.008183729796979705
-0.6256419150504946   0.04482242960268268   -0.008183729796979705
-0.6256419150504946   0.04482242960268268   -0.008183729796979705
-0.8535351537396074   0.02622643831958557   0.01065431108712643
-0.8535351537396074   0.02622643831958557   0.01065431108712643
-0.8535351537396074   0.02622643831958557   0.01065431108712643
-0.8535351537396074   0.02622643831958557   0.01065431108712643
-0.6079733943080852   0.09064950552308068   0.03433179799467968
-0.6079733943080852   0.09064950552308068   0.03433179799467968
-0.6079733943080852   0.09064950552308068   0.03433179799467968
-0.6079733943080852   0.09064950552308068   0.03433179799467968
-1.1358320399749038   -0.06287354278141583   -0.036473466793001855
-1.1358320399749038   -0.06287354278141583   -0.036473466793001855
-1.1358320399749038   -0.06287354278141583   -0.036473466793001855
-1.1358320399749038   -0.06287354278141583   -0.036473466793001855
-1.1472636332156225   -0.03887758028391136   0.011899507854331907
-1.1472636332156225   -0.03887758028391136   0.011899507854331907
-1.1472636332156225   -0.03887758028391136   0.011899507854331907
-1.1472636332156225   -0.03887758028391136   0.011899507854331907
-0.6512532152070768   0.021920217143983595   -0.0034515567097531327
-0.6512532152070768   0.021920217143983595   -0.0034515567097531327
-0.6512532152070768   0.021920217143983595   -0.0034515567097531327
-0.6512532152070768   0.021920217143983595   -0.0034515567097531327
-0.8754887916180664   0.006076758791334069   0.0008504657194541923
-0.8754887916180664   0.006076758791334069   0.0008504657194541923
-0.8754887916180664   0.006076758791334069   0.0008504657194541923
-0.8754887916180664   0.006076758791334069   0.0008504657194541923
-0.6329501813469312   0.06966831205495863   0.04031551768000923
-0.6329501813469312   0.06966831205495863   0.04031551768000923
-0.6329501813469312   0.06966831205495863   0.04031551768000923
-0.6329501813469312   0.06966831205495863   0.04031551768000923
-1.1656318360540847   -0.08669084417320688   -0.032128242448697775
-1.1656318360540847   -0.08669084417320688   -0.032128242448697775
-1.1656318360540847   -0.08669084417320688   -0.032128242448697775
-1.1656318360540847   -0.08669084417320688   -0.032128242448697775
-1.1738653371332946   -0.06294554163128763   0.01815789590509203
-1.1738653371332946   -0.06294554163128763   0.01815789590509203
-1.1738653371332946   -0.06294554163128763   0.01815789590509203
-1.1738653371332946   -0.06294554163128763   0.01815789590509203
-0.6773108793650624   -0.003471161456488542   0.0002672414358957237
-0.6773108793650624   -0.003471161456488542   0.0002672414358957237
-0.6773108793650624   -0.003471161456488542   0.0002672414358957237
-0.6773108793650624   -0.003471161456488542   0.0002672414358957237
-0.9083879944077007   -0.01728875882054076   -0.010519782521817643
-0.9083879944077007   -0.01728875882054076   -0.010519782521817643
-0.9083879944077007   -0.01728875882054076   -0.010519782521817643
-0.9083879944077007   -0.01728875882054076   -0.010519782521817643
-1.0632261350272667   0.10450588938210204   0.04410637286098713
-1.0632261350272667   0.10450588938210204   0.04410637286098713
-1.0632261350272667   0.10450588938210204   0.04410637286098713
-1.0632261350272667   0.10450588938210204   0.04410637286098713
-1.5684834647388484   -0.07217194327527415   -0.0497836324668402
-1.5684834647388484   -0.07217194327527415   -0.0497836324668402
-1.5684834647388484   -0.07217194327527415   -0.0497836324668402
-1.5684834647388484   -0.07217194327527415   -0.0497836324668402
-1.5836971567611209   -0.0012501448455360387   0.043720484330419945
-1.5836971567611209   -0.0012501448455360387   0.043720484330419945
-1.5836971567611209   -0.0012501448455360387   0.043720484330419945
-1.5836971567611209   -0.0012501448455360387   0.043720484330419945
-1.1189058995310246   0.015195002454931161   -0.02991130980995925
-1.1189058995310246   0.015195002454931161   -0.02991130980995925
-1.1189058995310246   0.015195002454931161   -0.02991130980995925
-1.1189058995310246   0.015195002454931161   -0.02991130980995925
-1.2749168413498113   0.024303615563949443   0.0322378150236115
-1.2749168413498113   0.024303615563949443   0.0322378150236115
-1.2749168413498113   0.024303615563949443   0.0322378150236115
-1.2749168413498113   0.024303615563949443   0.0322378150236115
-1.0855493366792373   0.1000405197379422   0.05202598716597953
-1.0855493366792373   0.1000405197379422   0.05202598716597953
-1.0855493366792373   0.1000405197379422   0.05202598716597953
-1.0855493366792373   0.1000405197379422   0.05202598716597953
-1.6177086584672715   -0.08675060098290915   -0.0408365680629752
-1.6177086584672715   -0.08675060098290915   -0.0408365680629752
-1.6177086584672715   -0.08675060098290915   -0.0408365680629752
-1.6177086584672715   -0.08675060098290915   -0.0408365680629752
-1.6258845865395661   -0.013676080366285537   0.05510407641880022
-1.6258845865395661   -0.013676080366285537   0.05510407641880022
-1.6258845865395661   -0.013676080366285537   0.05510407641880022
-1.6258845865395661   -0.013676080366285537   0.05510407641880022
-1.1464395593494214   0.0026354658441866685   -0.025493168942785194
-1.1464395593494214   0.0026354658441866685   -0.025493168942785194
-1.1464395593494214   0.0026354658441866685   -0.025493168942785194
-1.1464395593494214   0.0026354658441866685   -0.025493168942785194
-1.3317455844669102   0.010014579832233195   0.016835369315993054
-1.3317455844669102   0.010014579832233195   0.016835369315993054
-1.3317455844669102   0.010014579832233195   0.016835369315993054
-1.3317455844669102   0.010014579832233195   0.016835369315993054
-1.1115199948897063   0.09043670543326757   0.06130341376672012
-1.1115199948897063   0.09043670543326757   0.06130341376672012
-1.1115199948897063   0.09043670543326757   0.06130341376672012
-1.1115199948897063   0.09043670543326757   0.06130341376672012
-1.6612777419079694   -0.10195091086404479   -0.0335868699254563
-1.6612777419079694   -0.10195091086404479   -0.0335868699254563
-1.6612777419079694   -0.10195091086404479   -0.0335868699254563
-1.6612777419079694   -0.10195091086404479   -0.0335868699254563
-1.6823229568789426   -0.05252707548996677   0.055299798925554554
-1.6823229568789426   -0.05252707548996677   0.055299798925554554
-1.6823229568789426   -0.05252707548996677   0.055299798925554554
-1.6823229568789426   -0.05252707548996677   0.055299798925554554
-1.175243585904247   -0.029138721664075357   -0.02254016791690395
-1.175243585904247   -0.029138721664075357   -0.02254016791690395
-1.175243585904247   -0.029138721664075357   -0.02254016791690395
-1.175243585904247   -0.029138721664075357   -0.02254016791690395
-1.3479172141635318   -0.006271924171111332   0.009491278940360615
-1.3479172141635318   -0.006271924171111332   0.009491278940360615
-1.3479172141635318   -0.006271924171111332   0.009491278940360615
-1.3479172141635318   -0.006271924171111332   0.009491278940360615
0.4964499106008641   0.029640033070993   -0.059990924483854374
0.4964499106008641   0.029640033070993   -0.059990924483854374
0.4964499106008641   0.029640033070993   -0.059990924483854374
0.4964499106008641   0.029640033070993   -0.059990924483854374
0.14396821183320513   0.03611047708059356   0.028726895023760017
0.14396821183320513   0.03611047708059356   0.028726895023760017
0.14396821183320513   0.03611047708059356   0.028726895023760017
0.14396821183320513   0.03611047708059356   0.028726895023760017
0.08810616627218618   -0.07310149459472419   -0.05289165814343726
0.08810616627218618   -0.07310149459472419   -0.05289165814343726
0.08810616627218618   -0.07310149459472419   -0.05289165814343726
0.08810616627218618   -0.07310149459472419   -0.05289165814343726
0.4826791944984794   0.08487532255338753   0.03456539367683726
0.4826791944984794   0.08487532255338753   0.03456539367683726
0.4826791944984794   0.08487532255338753   0.03456539367683726
0.4826791944984794   0.08487532255338753   0.03456539367683726
0.28509794463110005   0.014146604323074775   -0.006607481594933609
0.28509794463110005   0.014146604323074775   -0.006607481594933609
0.28509794463110005   0.014146604323074775   -0.006607481594933609
0.28509794463110005   0.014146604323074775   -0.006607481594933609
0.44746333367548924   -0.001649539218597798   -0.054989048666132356
0.44746333367548924   -0.001649539218597798   -0.054989048666132356
0.44746333367548924   -0.001649539218597798   -0.054989048666132356
0.44746333367548924   -0.001649539218597798   -0.054989048666132356
0.12222280056641582   0.012324140648504088   0.03226587808448363
0.12222280056641582   0.012324140648504088   0.03226587808448363
0.12222280056641582   0.012324140648504088   0.03226587808448363
0.12222280056641582   0.012324140648504088   0.03226587808448363
0.06701325224660551   -0.08347567348089077   -0.04490987907622957
0.06701325224660551   -0.08347567348089077   -0.04490987907622957
0.06701325224660551   -0.08347567348089077   -0.04490987907622957
0.06701325224660551   -0.08347567348089077   -0.04490987907622957
0.44476545890398855   0.07055825023899237   0.04438737413232162
0.44476545890398855   0.07055825023899237   0.04438737413232162
0.44476545890398855   0.07055825023899237   0.04438737413232162
0.44476545890398855   0.07055825023899237   0.04438737413232162
0.2585903214346979   -0.002050967435304356   -0.01712712833766243
0.2585903214346979   -0.002050967435304356   -0.01712712833766243
0.2585903214346979   -0.002050967435304356   -0.01712712833766243
0.2585903214346979   -0.002050967435304356   -0.01712712833766243
0.40975538171601045   -0.014971853404564028   -0.04513290816401637
0.40975538171601045   -0.014971853404564028   -0.04513290816401637
0.40975538171601045   -0.014971853404564028   -0.04513290816401637
0.40975538171601045   -0.014971853404564028   -0.04513290816401637
0.10055263206856072   0.00058373279664483   0.038727613756011754
0.10055263206856072   0.00058373279664483   0.038727613756011754
0.10055263206856072   0.00058373279664483   0.038727613756011754
0.10055263206856072   0.00058373279664483   0.038727613756011754
0.048149776030919494   -0.09602244609858537   -0.037400119910792944
0.048149776030919494   -0.09602244609858537   -0.037400119910792944
0.048149776030919494   -0.09602244609858537   -0.037400119910792944
0.048149776030919494   -0.09602244609858537   -0.037400119910792944
0.39782662399751595   0.047632255742099575   0.049267248267453045
0.39782662399751595   0.047632255742099575   0.049267248267453045
0.39782662399751595   0.047632255742099575   0.049267248267453045
0.39782662399751595   0.047632255742099575   0.049267248267453045
0.22203689520951733   -0.016490230978345233   -0.029972921550150536
0.22203689520951733   -0.016490230978345233   -0.029972921550150536
0.22203689520951733   -0.016490230978345233   -0.029972921550150536
0.22203689520951733   -0.016490230978345233   -0.029972921550150536
0.13831859409557146   0.054015130896666014   -0.017425847480481742
0.13831859409557146   0.054015130896666014   -0.017425847480481742
0.13831859409557146   0.054015130896666014   -0.017425847480481742
0.13831859409557146   0.054015130896666014   -0.017425847480481742
-0.20263708275697104   0.01749901285946743   0.007001011109900947
-0.20263708275697104   0.01749901285946743   0.007001011109900947
-0.20263708275697104   0.01749901285946743   0.007001011109900947
-0.20263708275697104   0.01749901285946743   0.007001011109900947
-0.23861721117580828   -0.04684403286696674   -0.030853900381965643
-0.23861721117580828   -0.04684403286696674   -0.030853900381965643
-0.23861721117580828   -0.04684403286696674   -0.030853900381965643
-0.23861721117580828   -0.04684403286696674   -0.030853900381965643
0.13327090696979   0.06705434342908362   0.03277620732077499
0.13327090696979   0.06705434342908362   0.03277620732077499
0.13327090696979   0.06705434342908362   0.03277620732077499
0.13327090696979   0.06705434342908362   0.03277620732077499
-0.043601104613083586   0.02196533159484443   0.005549097368379954
-0.043601104613083586   0.02196533159484443   0.005549097368379954
-0.043601104613083586   0.02196533159484443   0.005549097368379954
-0.043601104613083586   0.02196533159484443   0.005549097368379954
0.11629221719291513   0.027746711046894527   -0.0128096091814108
0.11629221719291513   0.027746711046894527   -0.0128096091814108
0.11629221719291513   0.027746711046894527   -0.0128096091814108
0.11629221719291513   0.027746711046894527   -0.0128096091814108
-0.22257452677406062   -0.008472405859900292   0.010987894619706066
-0.22257452677406062   -0.008472405859900292   0.010987894619706066
-0.22257452677406062   -0.008472405859900292   0.010987894619706066
-0.22257452677406062   -0.008472405859900292   0.010987894619706066
-0.25748751884857274   -0.06793479415140456   -0.02415331250472246
-0.25748751884857274   -0.06793479415140456   -0.02415331250472246
-0.25748751884857274   -0.06793479415140456   -0.02415331250472246
-0.25748751884857274   -0.06793479415140456   -0.02415331250472246
0.10851195957593776   0.04337425194404535   0.03573373214549637
0.10851195957593776   0.04337425194404535   0.03573373214549637
0.10851195957593776   0.04337425194404535   0.03573373214549637
0.10851195957593776   0.04337425194404535   0.03573373214549637
-0.06691042171843918   -0.0007720788409234999   -0.0053450578150765265
-0.06691042171843918   -0.0007720788409234999   -0.0053450578150765265
-0.06691042171843918   -0.0007720788409234999   -0.0053450578150765265
-0.06691042171843918   -0.0007720788409234999   -0.0053450578150765265
0.09203589923725074   0.0051217403715962   -0.008394057975490456
0.09203589923725074   0.0051217403715962   -0.008394057975490456
0.09203589923725074   0.0051217403715962   -0.008394057975490456
0.09203589923725074   0.0051217403715962   -0.008394057975490456
-0.24222279243604417   -0.030893616505122005   0.015129141911641527
-0.24222279243604417   -0.030893616505122005   0.015129141911641527
-0.24222279243604417   -0.030893616505122005   0.015129141911641527
-0.24222279243604417   -0.030893616505122005   0.015129141911641527
-0.27621441344100756   -0.08886890602852021   -0.018097067365539177
-0.27621441344100756   -0.08886890602852021   -0.018097067365539177
-0.27621441344100756   -0.08886890602852021   -0.018097067365539177
-0.27621441344100756   -0.08886890602852021   -0.018097067365539177
0.08683437453308807   0.020111009009897752   0.039889417491567894
0.08683437453308807   0.020111009009897752   0.039889417491567894
0.08683437453308807   0.020111009009897752   0.039889417491567894
0.08683437453308807   0.020111009009897752   0.039889417491567894
-0.08709451264730945   -0.021147231554251914   -0.015637307610595248
-0.08709451264730945   -0.021147231554251914   -0.015637307610595248
-0.08709451264730945   -0.021147231554251914   -0.015637307610595248
-0.08709451264730945   -0.021147231554251914   -0.015637307610595248
-0.19220917139301158   0.07403588886764909   0.002603691921516691
-0.19220917139301158   0.07403588886764909   0.002603691921516691
-0.19220917139301158   0.07403588886764909   0.002603691921516691
-0.19220917139301158   0.07403588886764909   0.002603691921516691
-0.5446641713832086   -0.006424995662609165   -0.014952608458501049
-0.5446641713832086   -0.006424995662609165   -0.014952608458501049
-0.5446641713832086   -0.006424995662609165   -0.014952608458501049
-0.5446641713832086   -0.006424995662609165   -0.014952608458501049
-0.5616561893006874   -0.02287826215239422   -0.008926722998033293
-0.5616561893006874   -0.02287826215239422   -0.008926722998033293
-0.5616561893006874   -0.02287826215239422   -0.008926722998033293
-0.5616561893006874   -0.02287826215239422   -0.008926722998033293
-0.21216645617631041   0.044133756578678816   0.01042208516987545
-0.21216645617631041   0.044133756578678816   0.01042208516987545
-0.21216645617631041   0.044133756578678816   0.01042208516987545
-0.21216645617631041   0.044133756578678816   0.01042208516987545
-0.3767802701540408   0.021752825962039507   0.005757737474214198
-0.3767802701540408   0.021752825962039507   0.005757737474214198
-0.3767802701540408   0.021752825962039507   0.005757737474214198
-0.3767802701540408   0.021752825962039507   0.005757737474214198
-0.21115028547262518   0.05077966855519266   0.008857026711786464
-0.21115028547262518   0.05077966855519266   0.008857026711786464
-0.21115028547262518   0.05077966855519266   0.008857026711786464
-0.21115028547262518   0.05077966855519266   0.008857026711786464
-0.5634916390742305   -0.030343453198762554   -0.010638780819380592
-0.5634916390742305   -0.030343453198762554   -0.010638780819380592
-0.5634916390742305   -0.030343453198762554   -0.010638780819380592
-0.5634916390742305   -0.030343453198762554   -0.010638780819380592
-0.5804435676181282   -0.04590263894519464   -0.002854198409798916
-0.5804435676181282   -0.04590263894519464   -0.002854198409798916
-0.5804435676181282   -0.04590263894519464   -0.002854198409798916
-0.5804435676181282   -0.04590263894519464   -0.002854198409798916
-0.23208560634638736   0.020117746647983062   0.014803709206817181
-0.23208560634638736   0.020117746647983062   0.014803709206817181
-0.23208560634638736   0.020117746647983062   0.014803709206817181
-0.23208560634638736   0.020117746647983062   0.014803709206817181
-0.39638280082718536   -0.00011257655089622065   -0.004010551488748765
-0.39638280082718536   -0.00011257655089622065   -0.004010551488748765
-0.39638280082718536   -0.00011257655089622065   -0.004010551488748765
-0.39638280082718536   -0.00011257655089622065   -0.004010551488748765
-0.23072307757795463   0.02746593223682675   0.014268167460140698
-0.23072307757795463   0.02746593223682675   0.014268167460140698
-0.23072307757795463   0.02746593223682675   0.014268167460140698
-0.23072307757795463   0.02746593223682675   0.014268167460140698
-0.5829709452205538   -0.05441567336803156   -0.006978051999089668
-0.5829709452205538   -0.05441567336803156   -0.006978051999089668
-0.5829709452205538   -0.05441567336803156   -0.006978051999089668
-0.5829709452205538   -0.05441567336803156   -0.006978051999089668
-0.5988719478167243   -0.06813288600275949   0.0030226828363095187
-0.5988719478167243   -0.06813288600275949   0.0030226828363095187
-0.5988719478167243   -0.06813288600275949   0.0030226828363095187
-0.5988719478167243   -0.06813288600275949   0.0030226828363095187
-0.2516617409171579   -0.0030189052427112006   0.01881629446790068
-0.2516617409171579   -0.0030189052427112006   0.01881629446790068
-0.2516617409171579   -0.0030189052427112006   0.01881629446790068
-0.2516617409171579   -0.0030189052427112006   0.01881629446790068
-0.4170065878245378   -0.02203103341242904   -0.014615728161710907
-0.4170065878245378   -0.02203103341242904   -0.014615728161710907
-0.4170065878245378   -0.02203103341242904   -0.014615728161710907
-0.4170065878245378   -0.02203103341242904   -0.014615728161710907
-0.517149333763562   0.09303856953104322   0.02315801444607932
-0.517149333763562   0.09303856953104322   0.02315801444607932
-0.517149333763562   0.09303856953104322   0.02315801444607932
-0.517149333763562   0.09303856953104322   0.02315801444607932
-0.8791502189401347   -0.026041483291938256   -0.034146933238616416
-0.8791502189401347   -0.026041483291938256   -0.034146933238616416
-0.8791502189401347   -0.026041483291938256   -0.034146933238616416
-0.8791502189401347   -0.026041483291938256   -0.034146933238616416
-0.8808341131428332   -0.001715056938594306   0.014321035588974108
-0.8808341131428332   -0.001715056938594306   0.014321035588974108
-0.8808341131428332   -0.001715056938594306   0.014321035588974108
-0.8808341131428332   -0.001715056938594306   0.014321035588974108
-0.5529160870314346   0.02267793220954295   -0.010782406013715932
-0.5529160870314346   0.02267793220954295   -0.010782406013715932
-0.5529160870314346   0.02267793220954295   -0.010782406013715932
-0.5529160870314346   0.02267793220954295   -0.010782406013715932
-0.7039161717283111   0.021950816930980582   0.007589134893143883
-0.7039161717283111   0.021950816930980582   0.007589134893143883
-0.7039161717283111   0.021950816930980582   0.007589134893143883
-0.7039161717283111   0.021950816930980582   0.007589134893143883
-0.5353272687798258   0.07040835692248339   0.02943126053139702
-0.5353272687798258   0.07040835692248339   0.02943126053139702
-0.5353272687798258   0.07040835692248339   0.02943126053139702
-0.5353272687798258   0.07040835692248339   0.02943126053139702
-0.8999967496491931   -0.051019299906287396   -0.032187903975139855
-0.8999967496491931   -0.051019299906287396   -0.032187903975139855
-0.8999967496491931   -0.051019299906287396   -0.032187903975139855
-0.8999967496491931   -0.051019299906287396   -0.032187903975139855
-0.9039613454796908   -0.0244125223292955   0.01759287619646529
-0.9039613454796908   -0.0244125223292955   0.01759287619646529
-0.9039613454796908   -0.0244125223292955   0.01759287619646529
-0.9039613454796908   -0.0244125223292955   0.01759287619646529
-0.5718022158513465   0.000568439178302127   -0.006118517699391028
-0.5718022158513465   0.000568439178302127   -0.006118517699391028
-0.5718022158513465   0.000568439178302127   -0.006118517699391028
-0.5718022158513465   0.000568439178302127   -0.006118517699391028
-0.7205825738344364   0.0015692109385136987   -0.0026533395851246755
-0.7205825738344364   0.0015692109385136987   -0.0026533395851246755
-0.7205825738344364   0.0015692109385136987   -0.0026533395851246755
-0.7205825738344364   0.0015692109385136987   -0.0026533395851246755
-0.5537455498502686   0.04921559321179293   0.03551765827251116
-0.5537455498502686   0.04921559321179293   0.03551765827251116
-0.5537455498502686   0.04921559321179293   0.03551765827251116
-0.5537455498502686   0.04921559321179293   0.03551765827251116
-0.922998954741565   -0.07404061962358749   -0.027967072818620604
-0.922998954741565   -0.07404061962358749   -0.027967072818620604
-0.922998954741565   -0.07404061962358749   -0.027967072818620604
-0.922998954741565   -0.07404061962358749   -0.027967072818620604
-0.9239430534498916   -0.04806407081174688   0.02393486874443325
-0.9239430534498916   -0.04806407081174688   0.02393486874443325
-0.9239430534498916   -0.04806407081174688   0.02393486874443325
-0.9239430534498916   -0.04806407081174688   0.02393486874443325
-0.5909237318158179   -0.02306970709781897   -0.0022994160641000745
-0.5909237318158179   -0.02306970709781897   -0.0022994160641000745
-0.5909237318158179   -0.02306970709781897   -0.0022994160641000745
-0.5909237318158179   -0.02306970709781897   -0.0022994160641000745
-0.7453494937125388   -0.0206262720969993   -0.01381151803727973
-0.7453494937125388   -0.0206262720969993   -0.01381151803727973
-0.7453494937125388   -0.0206262720969993   -0.01381151803727973
-0.7453494937125388   -0.0206262720969993   -0.01381151803727973
-0.8405938324347193   0.09156784406517823   0.04102567193135161
-0.8405938324347193   0.09156784406517823   0.04102567193135161
-0.8405938324347193   0.09156784406517823   0.04102567193135161
-0.8405938324347193   0.09156784406517823   0.04102567193135161
-1.182713577839293   -0.054390499141009824   -0.051888542012012505
-1.182713577839293   -0.054390499141009824   -0.051888542012012505
-1.182713577839293   -0.054390499141009824   -0.051888542012012505
-1.182713577839293   -0.054390499141009824   -0.051888542012012505
-1.191397241688395   0.015304787651168994   0.04312895832853887
-1.191397241688395   0.015304787651168994   0.04312895832853887
-1.191397241688395   0.015304787651168994   0.04312895832853887
-1.191397241688395   0.015304787651168994   0.04312895832853887
-0.8902455506664396   -0.002744588368480433   -0.031706620599186136
-0.8902455506664396   -0.002744588368480433   -0.031706620599186136
-0.8902455506664396   -0.002744588368480433   -0.031706620599186136
-0.8902455506664396   -0.002744588368480433   -0.031706620599186136
-0.9821451780584679   0.02199901308033228   0.02375458113374669
-0.9821451780584679   0.02199901308033228   0.02375458113374669
-0.9821451780584679   0.02199901308033228   0.02375458113374669
-0.9821451780584679   0.02199901308033228   0.02375458113374669
-0.8569986503917304   0.0832628106049744   0.04852048180091133
-0.8569986503917304   0.0832628106049744   0.04852048180091133
-0.8569986503917304   0.0832628106049744   0.04852048180091133
-0.8569986503917304   0.0832628106049744   0.04852048180091133
-1.2263185233485778   -0.07237699270775505   -0.043795669613421045
-1.2263185233485778   -0.07237699270775505   -0.043795669613421045
-1.2263185233485778   -0.07237699270775505   -0.043795669613421045
-1.2263185233485778   -0.07237699270775505   -0.043795669613421045
-1.2274086538276388   0.0025572826556449213   0.05508500959266184
-1.2274086538276388   0.0025572826556449213   0.05508500959266184
-1.2274086538276388   0.0025572826556449213   0.05508500959266184
-1.2274086538276388   0.0025572826556449213   0.05508500959266184
-0.9110562182402   -0.01508172685275333   -0.02721228308263455
-0.9110562182402   -0.01508172685275333   -0.02721228308263455
-0.9110562182402   -0.01508172685275333   -0.02721228308263455
-0.9110562182402   -0.01508172685275333   -0.02721228308263455
-1.0281434788218207   0.006918491590432119   0.008524930189258734
-1.0281434788218207   0.006918491590432119   0.008524930189258734
-1.0281434788218207   0.006918491590432119   0.008524930189258734
-1.0281434788218207   0.006918491590432119   0.008524930189258734
-0.8763975999758625   0.07328525648726344   0.057713824899041075
-0.8763975999758625   0.07328525648726344   0.057713824899041075
-0.8763975999758625   0.07328525648726344   0.057713824899041075
-0.8763975999758625   0.07328525648726344   0.057713824899041075
-1.2636530623396496   -0.08739549093204704   -0.0361842593796844
-1.2636530623396496   -0.08739549093204704   -0.0361842593796844
-1.2636530623396496   -0.08739549093204704   -0.0361842593796844
-1.2636530623396496   -0.08739549093204704   -0.0361842593796844
-1.277214844737118   -0.03364766824057483   0.05688635803340818
-1.277214844737118   -0.03364766824057483   0.05688635803340818
-1.277214844737118   -0.03364766824057483   0.05688635803340818
-1.277214844737118   -0.03364766824057483   0.05688635803340818
-0.9325287358989803   -0.043327257656160995   -0.02373035665661849
-0.9325287358989803   -0.043327257656160995   -0.02373035665661849
-0.9325287358989803   -0.043327257656160995   -0.02373035665661849
-0.9325287358989803   -0.043327257656160995   -0.02373035665661849
-1.0431829736884164   -0.009111116900419797   -0.0005433129280316695
-1.0431829736884164   -0.009111116900419797   -0.0005433129280316695
-1.0431829736884164   -0.009111116900419797   -0.0005433129280316695
-1.0431829736884164   -0.009111116900419797   -0.0005433129280316695
0.08831697122207358   0.007269194641446651   -0.05982827656083217
0.08831697122207358   0.007269194641446651   -0.05982827656083217
0.08831697122207358   0.007269194641446651   -0.05982827656083217
0.08831697122207358   0.007269194641446651   -0.05982827656083217
-0.09810158163961828   0.04488691368773816   0.03061314526354545
-0.09810158163961828   0.04488691368773816   0.03061314526354545
-0.09810158163961828   0.04488691368773816   0.03061314526354545
-0.09810158163961828   0.04488691368773816   0.03061314526354545
-0.14685694797445734   -0.05758024077848493   -0.04817628050958828
-0.14685694797445734   -0.05758024077848493   -0.04817628050958828
-0.14685694797445734   -0.05758024077848493   -0.04817628050958828
-0.14685694797445734   -0.05758024077848493   -0.04817628050958828
0.08092964429122823   0.06329910126356313   0.037596936461129674
0.08092964429122823   0.06329910126356313   0.037596936461129674
0.08092964429122823   0.06329910126356313   0.037596936461129674
0.08092964429122823   0.06329910126356313   0.037596936461129674
-0.020925360651188864   0.013889954491580064   0.005204253764271227
-0.020925360651188864   0.013889954491580064   0.005204253764271227
-0.020925360651188864   0.013889954491580064   0.005204253764271227
-0.020925360651188864   0.013889954491580064   0.005204253764271227
0.04604188450200165   -0.02006147535463766   -0.053481285866801856
0.04604188450200165   -0.02006147535463766   -0.053481285866801856
0.04604188450200165   -0.02006147535463766   -0.053481285866801856
0.04604188450200165   -0.02006147535463766   -0.053481285866801856
-0.11403286610263003   0.023716657922315174   0.03464723014874818
-0.11403286610263003   0.023716657922315174   0.03464723014874818
-0.11403286610263003   0.023716657922315174   0.03464723014874818
-0.11403286610263003   0.023716657922315174   0.03464723014874818
-0.16291808186641607   -0.0680222479665725   -0.0408315761250981
-0.16291808186641607   -0.0680222479665725   -0.0408315761250981
-0.16291808186641607   -0.0680222479665725   -0.0408315761250981
-0.16291808186641607   -0.0680222479665725   -0.0408315761250981
0.047855044256045996   0.0491138789484074   0.05155751129366922
0.047855044256045996   0.0491138789484074   0.05155751129366922
0.047855044256045996   0.0491138789484074   0.05155751129366922
0.047855044256045996   0.0491138789484074   0.05155751129366922
-0.047036006546927335   -0.0017535176985342491   -0.006861190104216903
-0.047036006546927335   -0.0017535176985342491   -0.006861190104216903
-0.047036006546927335   -0.0017535176985342491   -0.006861190104216903
-0.047036006546927335   -0.0017535176985342491   -0.006861190104216903
0.012162839106050882   -0.033664729707198096   -0.044124905800699506
0.012162839106050882   -0.033664729707198096   -0.044124905800699506
0.012162839106050882   -0.033664729707198096   -0.044124905800699506
0.012162839106050882   -0.033664729707198096   -0.044124905800699506
-0.1300889256907842   0.011893311714670798   0.04339864507181639
-0.1300889256907842   0.011893311714670798   0.04339864507181639
-0.1300889256907842   0.011893311714670798   0.04339864507181639
-0.1300889256907842   0.011893311714670798   0.04339864507181639
-0.1776291471649679   -0.08408067278531092   -0.03384162320708501
-0.1776291471649679   -0.08408067278531092   -0.03384162320708501
-0.1776291471649679   -0.08408067278531092   -0.03384162320708501
-0.1776291471649679   -0.08408067278531092   -0.03384162320708501
0.0019223859307962447   0.019374155573268485   0.05877362747258762
0.0019223859307962447   0.019374155573268485   0.05877362747258762
0.0019223859307962447   0.019374155573268485   0.05877362747258762
0.0019223859307962447   0.019374155573268485   0.05877362747258762
-0.07505640113524896   -0.017507551112552908   -0.02076956385853949
-0.07505640113524896   -0.017507551112552908   -0.02076956385853949
-0.07505640113524896   -0.017507551112552908   -0.02076956385853949
-0.07505640113524896   -0.017507551112552908   -0.02076956385853949
-0.11207471924711573   0.029448464601849585   -0.023814093688053154
-0.11207471924711573   0.029448464601849585   -0.023814093688053154
-0.11207471924711573   0.029448464601849585   -0.023814093688053154
-0.11207471924711573   0.029448464601849585   -0.023814093688053154
-0.2867001439231466   0.012058545432562975   0.007994995084592034
-0.2867001439231466   0.012058545432562975   0.007994995084592034
-0.2867001439231466   0.012058545432562975   0.007994995084592034
-0.2867001439231466   0.012058545432562975   0.007994995084592034
-0.3118470042845649   -0.03353399524942144   -0.02504757481739546
-0.3118470042845649   -0.03353399524942144   -0.02504757481739546
-0.3118470042845649   -0.03353399524942144   -0.02504757481739546
-0.3118470042845649   -0.03353399524942144   -0.02504757481739546
-0.11521154670714101   0.028547262946679034   0.0239232221018291
-0.11521154670714101   0.028547262946679034   0.0239232221018291
-0.11521154670714101   0.028547262946679034   0.0239232221018291
-0.11521154670714101   0.028547262946679034   0.0239232221018291
-0.20603442220119655   0.00854744225496716   0.004550381192818869
-0.20603442220119655   0.00854744225496716   0.004550381192818869
-0.20603442220119655   0.00854744225496716   0.004550381192818869
-0.20603442220119655   0.00854744225496716   0.004550381192818869
-0.12878365679302758   0.004175146780149047   -0.019565212161075964
-0.12878365679302758   0.004175146780149047   -0.019565212161075964
-0.12878365679302758   0.004175146780149047   -0.019565212161075964
-0.12878365679302758   0.004175146780149047   -0.019565212161075964
-0.2999682141120552   -0.0108551989962695   0.011667579792000648
-0.2999682141120552   -0.0108551989962695   0.011667579792000648
-0.2999682141120552   -0.0108551989962695   0.011667579792000648
-0.2999682141120552   -0.0108551989962695   0.011667579792000648
-0.32434962765030445   -0.05404098000731358   -0.018480840385025413
-0.32434962765030445   -0.05404098000731358   -0.018480840385025413
-0.32434962765030445   -0.05404098000731358   -0.018480840385025413
-0.32434962765030445   -0.05404098000731358   -0.018480840385025413
-0.13457533956594683   0.005887069615877087   0.02697281779479725
-0.13457533956594683   0.005887069615877087   0.02697281779479725
-0.13457533956594683   0.005887069615877087   0.02697281779479725
-0.13457533956594683   0.005887069615877087   0.02697281779479725
-0.22182889797847916   -0.012028688247310897   -0.005771715907172396
-0.22182889797847916   -0.012028688247310897   -0.005771715907172396
-0.22182889797847916   -0.012028688247310897   -0.005771715907172396
-0.22182889797847916   -0.012028688247310897   -0.005771715907172396
-0.1476566149471121   -0.017929589407250514   -0.014616900087901792
-0.1476566149471121   -0.017929589407250514   -0.014616900087901792
-0.1476566149471121   -0.017929589407250514   -0.014616900087901792
-0.1476566149471121   -0.017929589407250514   -0.014616900087901792
-0.3130858506667581   -0.03204181938180502   0.015838883907197957
-0.3130858506667581   -0.03204181938180502   0.015838883907197957
-0.3130858506667581   -0.03204181938180502   0.015838883907197957
-0.3130858506667581   -0.03204181938180502   0.015838883907197957
-0.3369346827041621   -0.0751537380250534   -0.012665260445968381
-0.3369346827041621   -0.0751537380250534   -0.012665260445968381
-0.3369346827041621   -0.0751537380250534   -0.012665260445968381
-0.3369346827041621   -0.0751537380250534   -0.012665260445968381
-0.1507684988802954   -0.017085935550012053   0.033466880980977595
-0.1507684988802954   -0.017085935550012053   0.033466880980977595
-0.1507684988802954   -0.017085935550012053   0.033466880980977595
-0.1507684988802954   -0.017085935550012053   0.033466880980977595
-0.2376117584569021   -0.03239186775831625   -0.01627242102077209
-0.2376117584569021   -0.03239186775831625   -0.01627242102077209
-0.2376117584569021   -0.03239186775831625   -0.01627242102077209
-0.2376117584569021   -0.03239186775831625   -0.01627242102077209
-0.28147678408643734   0.04869755952382265   -0.0025272198231211553
-0.28147678408643734   0.04869755952382265   -0.0025272198231211553
-0.28147678408643734   0.04869755952382265   -0.0025272198231211553
-0.28147678408643734   0.04869755952382265   -0.0025272198231211553
-0.4736253759289207   -0.016209429299113245   -0.013374084995928261
-0.4736253759289207   -0.016209429299113245   -0.013374084995928261
-0.4736253759289207   -0.016209429299113245   -0.013374084995928261
-0.4736253759289207   -0.016209429299113245   -0.013374084995928261
-0.4785971670712228   -0.011799629507293019   -0.002814134365040584
-0.4785971670712228   -0.011799629507293019   -0.002814134365040584
-0.4785971670712228   -0.011799629507293019   -0.002814134365040584
-0.4785971670712228   -0.011799629507293019   -0.002814134365040584
-0.29885511710279966   0.002687978733216023   0.003689887108792195
-0.29885511710279966   0.002687978733216023   0.003689887108792195
-0.29885511710279966   0.002687978733216023   0.003689887108792195
-0.29885511710279966   0.002687978733216023   0.003689887108792195
-0.3823389436213756   0.0054723676705806246   0.0015423065248162046
-0.3823389436213756   0.0054723676705806246   0.0015423065248162046
-0.3823389436213756   0.0054723676705806246   0.0015423065248162046
-0.3823389436213756   0.0054723676705806246   0.0015423065248162046
-0.2941230136550958   0.026388087220874337   0.0036502958596539396
-0.2941230136550958   0.026388087220874337   0.0036502958596539396
-0.2941230136550958   0.026388087220874337   0.0036502958596539396
-0.2941230136550958   0.026388087220874337   0.0036502958596539396
-0.4849578124403182   -0.03712827991634016   -0.009288710801470142
-0.4849578124403182   -0.03712827991634016   -0.009288710801470142
-0.4849578124403182   -0.03712827991634016   -0.009288710801470142
-0.4849578124403182   -0.03712827991634016   -0.009288710801470142
-0.4903191635360183   -0.03383002671427465   0.0032983995851594873
-0.4903191635360183   -0.03383002671427465   0.0032983995851594873
-0.4903191635360183   -0.03383002671427465   0.0032983995851594873
-0.4903191635360183   -0.03383002671427465   0.0032983995851594873
-0.31211580985009013   -0.018968193195763233   0.0076154618044946805
-0.31211580985009013   -0.018968193195763233   0.0076154618044946805
-0.31211580985009013   -0.018968193195763233   0.0076154618044946805
-0.31211580985009013   -0.018968193195763233   0.0076154618044946805
-0.39504768455964373   -0.014563466302382588   -0.007937983915935806
-0.39504768455964373   -0.014563466302382588   -0.007937983915935806
-0.39504768455964373   -0.014563466302382588   -0.007937983915935806
-0.39504768455964373   -0.014563466302382588   -0.007937983915935806
-0.30723736236432625   0.003945462342118816   0.009094043695433207
-0.30723736236432625   0.003945462342118816   0.009094043695433207
-0.30723736236432625   0.003945462342118816   0.009094043695433207
-0.30723736236432625   0.003945462342118816   0.009094043695433207
-0.4971607670245373   -0.058706838254911436   -0.006032806316799026
-0.4971607670245373   -0.058706838254911436   -0.006032806316799026
-0.4971607670245373   -0.058706838254911436   -0.006032806316799026
-0.4971607670245373   -0.058706838254911436   -0.006032806316799026
-0.501736040649852   -0.05496522017198422   0.009159019554260456
-0.501736040649852   -0.05496522017198422   0.009159019554260456
-0.501736040649852   -0.05496522017198422   0.009159019554260456
-0.501736040649852   -0.05496522017198422   0.009159019554260456
-0.3248483892096875   -0.0394018925613461   0.01201436156270383
-0.3248483892096875   -0.0394018925613461   0.01201436156270383
-0.3248483892096875   -0.0394018925613461   0.01201436156270383
-0.3248483892096875   -0.0394018925613461   0.01201436156270383
-0.4087233587759183   -0.03472491421277039   -0.018239089146227364
-0.4087233587759183   -0.03472491421277039   -0.018239089146227364
-0.4087233587759183   -0.03472491421277039   -0.018239089146227364
-0.4087233587759183   -0.03472491421277039   -0.018239089146227364
-0.4497087556069949   0.07056342790444278   0.01943615941015236
-0.4497087556069949   0.07056342790444278   0.01943615941015236
-0.4497087556069949   0.07056342790444278   0.01943615941015236
-0.4497087556069949   0.07056342790444278   0.01943615941015236
-0.6531373444661104   -0.026942208703754536   -0.030010136534257877
-0.6531373444661104   -0.026942208703754536   -0.030010136534257877
-0.6531373444661104   -0.026942208703754536   -0.030010136534257877
-0.6531373444661104   -0.026942208703754536   -0.030010136534257877
-0.644355445779847   0.010573547159343166   0.020135027483697585
-0.644355445779847   0.010573547159343166   0.020135027483697585
-0.644355445779847   0.010573547159343166   0.020135027483697585
-0.644355445779847   0.010573547159343166   0.020135027483697585
-0.4802507384262709   -0.009520290843332793   -0.013361329804242126
-0.4802507384262709   -0.009520290843332793   -0.013361329804242126
-0.4802507384262709   -0.009520290843332793   -0.013361329804242126
-0.4802507384262709   -0.009520290843332793   -0.013361329804242126
-0.5549412910461277   0.011249040837443353   0.002660579081952847
-0.5549412910461277   0.011249040837443353   0.002660579081952847
-0.5549412910461277   0.011249040837443353   0.002660579081952847
-0.5549412910461277   0.011249040837443353   0.002660579081952847
-0.46087549687034124   0.04836787405910398   0.025626713072970576
-0.46087549687034124   0.04836787405910398   0.025626713072970576
-0.46087549687034124   0.04836787405910398   0.025626713072970576
-0.46087549687034124   0.04836787405910398   0.025626713072970576
-0.6661086872146009   -0.049692617621915944   -0.028365014908827802
-0.6661086872146009   -0.049692617621915944   -0.028365014908827802
-0.6661086872146009   -0.049692617621915944   -0.028365014908827802
-0.6661086872146009   -0.049692617621915944   -0.028365014908827802
-0.6600679089149118   -0.011104844858268681   0.023780755181320355
-0.6600679089149118   -0.011104844858268681   0.023780755181320355
-0.6600679089149118   -0.011104844858268681   0.023780755181320355
-0.6600679089149118   -0.011104844858268681   0.023780755181320355
-0.49187155854092984   -0.029206498429457925   -0.009087103724216141
-0.49187155854092984   -0.029206498429457925   -0.009087103724216141
-0.49187155854092984   -0.029206498429457925   -0.009087103724216141
-0.49187155854092984   -0.029206498429457925   -0.009087103724216141
-0.5656157864392471   -0.00805889423667859   -0.007616306793386773
-0.5656157864392471   -0.00805889423667859   -0.007616306793386773
-0.5656157864392471   -0.00805889423667859   -0.007616306793386773
-0.5656157864392471   -0.00805889423667859   -0.007616306793386773
-0.47227763745380624   0.028026882545065454   0.03164912073687952
-0.47227763745380624   0.028026882545065454   0.03164912073687952
-0.47227763745380624   0.028026882545065454   0.03164912073687952
-0.47227763745380624   0.028026882545065454   0.03164912073687952
-0.6815396395845772   -0.07021603541533517   -0.024466707609955014
-0.6815396395845772   -0.07021603541533517   -0.024466707609955014
-0.6815396395845772   -0.07021603541533517   -0.024466707609955014
-0.6815396395845772   -0.07021603541533517   -0.024466707609955014
-0.6728414008097645   -0.03293629719301755   0.03028530245385362
-0.6728414008097645   -0.03293629719301755   0.03028530245385362
-0.6728414008097645   -0.03293629719301755   0.03028530245385362
-0.6728414008097645   -0.03293629719301755   0.03028530245385362
-0.5035341596691341   -0.04935889876616631   -0.005437896947969471
-0.5035341596691341   -0.04935889876616631   -0.005437896947969471
-0.5035341596691341   -0.04935889876616631   -0.005437896947969471
-0.5035341596691341   -0.04935889876616631   -0.005437896947969471
-0.5816783359323283   -0.027744262334215078   -0.01814594756009136
-0.5816783359323283   -0.027744262334215078   -0.01814594756009136
-0.5816783359323283   -0.027744262334215078   -0.01814594756009136
-0.5816783359323283   -0.027744262334215078   -0.01814594756009136
-0.6187683804547169   0.07646228641841638   0.03843018840053815
-0.6187683804547169   0.07646228641841638   0.03843018840053815
-0.6187683804547169   0.07646228641841638   0.03843018840053815
-0.6187683804547169   0.07646228641841638   0.03843018840053815
-0.7960216573543377   -0.03978762790020962   -0.05023295211375895
-0.7960216573543377   -0.03978762790020962   -0.05023295211375895
-0.7960216573543377   -0.03978762790020962   -0.05023295211375895
-0.7960216573543377   -0.03978762790020962   -0.05023295211375895
-0.7966360433267512   0.03079130225316032   0.04236332516932923
-0.7966360433267512   0.03079130225316032   0.04236332516932923
-0.7966360433267512   0.03079130225316032   0.04236332516932923
-0.7966360433267512   0.03079130225316032   0.04236332516932923
-0.6611535919277112   -0.022547676508717723   -0.030734479587570918
-0.6611535919277112   -0.022547676508717723   -0.030734479587570918
-0.6611535919277112   -0.022547676508717723   -0.030734479587570918
-0.6611535919277112   -0.022547676508717723   -0.030734479587570918
-0.6891015702804263   0.018172542352900833   0.013301005121794114
-0.6891015702804263   0.018172542352900833   0.013301005121794114
-0.6891015702804263   0.018172542352900833   0.013301005121794114
-0.6891015702804263   0.018172542352900833   0.013301005121794114
-0.6284243030592244   0.06502820243502305   0.04533608581111584
-0.6284243030592244   0.06502820243502305   0.04533608581111584
-0.6284243030592244   0.06502820243502305   0.04533608581111584
-0.6284243030592244   0.06502820243502305   0.04533608581111584
-0.8318343026711231   -0.059253547166466636   -0.043583122132903496
-0.8318343026711231   -0.059253547166466636   -0.043583122132903496
-0.8318343026711231   -0.059253547166466636   -0.043583122132903496
-0.8318343026711231   -0.059253547166466636   -0.043583122132903496
-0.8252159341162077   0.01844670410781138   0.05458958759616595
-0.8252159341162077   0.01844670410781138   0.05458958759616595
-0.8252159341162077   0.01844670410781138   0.05458958759616595
-0.8252159341162077   0.01844670410781138   0.05458958759616595
-0.6747617582448001   -0.033863525613261114   -0.02692981071313677
-0.6747617582448001   -0.033863525613261114   -0.02692981071313677
-0.6747617582448001   -0.033863525613261114   -0.02692981071313677
-0.6747617582448001   -0.033863525613261114   -0.02692981071313677
-0.7231092760612768   0.0031591600116262775   -0.0009473593592269972
-0.7231092760612768   0.0031591600116262775   -0.0009473593592269972
-0.7231092760612768   0.0031591600116262775   -0.0009473593592269972
-0.7231092760612768   0.0031591600116262775   -0.0009473593592269972
-0.6406665412366259   0.05531267908949117   0.054370069624983024
-0.6406665412366259   0.05531267908949117   0.054370069624983024
-0.6406665412366259   0.05531267908949117   0.054370069624983024
-0.6406665412366259   0.05531267908949117   0.054370069624983024
-0.8618287228054146   -0.07324707227596824   -0.036780579466058096
-0.8618287228054146   -0.07324707227596824   -0.036780579466058096
-0.8618287228054146   -0.07324707227596824   -0.036780579466058096
-0.8618287228054146   -0.07324707227596824   -0.036780579466058096
-0.8674664668709318   -0.014023230144924737   0.05772751187148345
-0.8674664668709318   -0.014023230144924737   0.05772751187148345
-0.8674664668709318   -0.014023230144924737   0.05772751187148345
-0.8674664668709318   -0.014023230144924737   0.05772751187148345
-0.6884247147249758   -0.05730587396688118   -0.02326169034834383
-0.6884247147249758   -0.05730587396688118   -0.02326169034834383
-0.6884247147249758   -0.05730587396688118   -0.02326169034834383
-0.6884247147249758   -0.05730587396688118   -0.02326169034834383
-0.7361853576352552   -0.011708408879472804   -0.011067718478088837
-0.7361853576352552   -0.011708408879472804   -0.011067718478088837
-0.7361853576352552   -0.011708408879472804   -0.011067718478088837
-0.7361853576352552   -0.011708408879472804   -0.011067718478088837
-0.3391660856956642   -0.022151064722888025   -0.06351224273353903
-0.3391660856956642   -0.022151064722888025   -0.06351224273353903
-0.3391660856956642   -0.022151064722888025   -0.06351224273353903
-0.3391660856956642   -0.022151064722888025   -0.06351224273353903
-0.3351807204835196   0.048675043615802965   0.028580316222021493
-0.3351807204835196   0.048675043615802965   0.028580316222021493
-0.3351807204835196   0.048675043615802965   0.028580316222021493
-0.3351807204835196   0.048675043615802965   0.028580316222021493
-0.37706606836771533   -0.04442797450455817   -0.043042729720533204
-0.37706606836771533   -0.04442797450455817   -0.043042729720533204
-0.37706606836771533   -0.04442797450455817   -0.043042729720533204
-0.37706606836771533   -0.04442797450455817   -0.043042729720533204
-0.3461447067153487   0.025356212249527027   0.04296820037681397
-0.3461447067153487   0.025356212249527027   0.04296820037681397
-0.3461447067153487   0.025356212249527027   0.04296820037681397
-0.3461447067153487   0.025356212249527027   0.04296820037681397
-0.3318534658426308   0.008181667447492921   0.029157502459874862
-0.3318534658426308   0.008181667447492921   0.029157502459874862
-0.3318534658426308   0.008181667447492921   0.029157502459874862
-0.3318534658426308   0.008181667447492921   0.029157502459874862
-0.3798557903323901   -0.047019645037636365   -0.053211360421226706
-0.3798557903323901   -0.047019645037636365   -0.053211360421226706
-0.3798557903323901   -0.047019645037636365   -0.053211360421226706
-0.3798557903323901   -0.047019645037636365   -0.053211360421226706
-0.3475480896618482   0.023754777871427657   0.03636441143281663
-0.3475480896618482   0.023754777871427657   0.03636441143281663
-0.3475480896618482   0.023754777871427657   0.03636441143281663
-0.3475480896618482   0.023754777871427657   0.03636441143281663
-0.3896587249957935   -0.05598399146204567   -0.03641807150675661
-0.3896587249957935   -0.05598399146204567   -0.03641807150675661
-0.3896587249957935   -0.05598399146204567   -0.03641807150675661
-0.3896587249957935   -0.05598399146204567   -0.03641807150675661
-0.37863823911086336   0.009618735451392899   0.07985268595429357
-0.37863823911086336   0.009618735451392899   0.07985268595429357
-0.37863823911086336   0.009618735451392899   0.07985268595429357
-0.37863823911086336   0.009618735451392899   0.07985268595429357
-0.36182029378092   -0.01167399848477052   0.01164541484565428
-0.36182029378092   -0.01167399848477052   0.01164541484565428
-0.36182029378092   -0.01167399848477052   0.01164541484565428
-0.36182029378092   -0.01167399848477052   0.01164541484565428
-0.4173290018216014   -0.06252575912954766   -0.04145663301845514
-0.4173290018216014   -0.06252575912954766   -0.04145663301845514
-0.4173290018216014   -0.06252575912954766   -0.04145663301845514
-0.4173290018216014   -0.06252575912954766   -0.04145663301845514
-0.3608843870450611   0.006244078358888822   0.045225548425970874
-0.3608843870450611   0.006244078358888822   0.045225548425970874
-0.3608843870450611   0.006244078358888822   0.045225548425970874
-0.3608843870450611   0.006244078358888822   0.045225548425970874
-0.3999656465207041   -0.07848880072809315   -0.028653121582720195
-0.3999656465207041   -0.07848880072809315   -0.028653121582720195
-0.3999656465207041   -0.07848880072809315   -0.028653121582720195
-0.3999656465207041   -0.07848880072809315   -0.028653121582720195
-0.42915173468509404   -0.04238761023908125   0.07473411526868204
-0.42915173468509404   -0.04238761023908125   0.07473411526868204
-0.42915173468509404   -0.04238761023908125   0.07473411526868204
-0.42915173468509404   -0.04238761023908125   0.07473411526868204
-0.3877558537106271   -0.03514972627202404   -0.01608640726574745
-0.3877558537106271   -0.03514972627202404   -0.01608640726574745
-0.3877558537106271   -0.03514972627202404   -0.01608640726574745
-0.3877558537106271   -0.03514972627202404   -0.01608640726574745
-0.3592976432639279   -0.010604836887793914   -0.03272441717642286
-0.3592976432639279   -0.010604836887793914   -0.03272441717642286
-0.3592976432639279   -0.010604836887793914   -0.03272441717642286
-0.3592976432639279   -0.010604836887793914   -0.03272441717642286
-0.36378733158872945   -0.0446808558914509   -0.001901301339927804
-0.36378733158872945   -0.0446808558914509   -0.001901301339927804
-0.36378733158872945   -0.0446808558914509   -0.001901301339927804
-0.36378733158872945   -0.0446808558914509   -0.001901301339927804
-0.366400820358237   -0.029736047980930956   -0.016304058885124775
-0.366400820358237   -0.029736047980930956   -0.016304058885124775
-0.366400820358237   -0.029736047980930956   -0.016304058885124775
-0.366400820358237   -0.029736047980930956   -0.016304058885124775
-0.3718682604048844   -0.060824553271270385   -0.000657111139666139
-0.3718682604048844   -0.060824553271270385   -0.000657111139666139
-0.3718682604048844   -0.060824553271270385   -0.000657111139666139
-0.3718682604048844   -0.060824553271270385   -0.000657111139666139
-0.362231153975128   -0.03804408048386992   -0.0013215157062715348
-0.362231153975128   -0.03804408048386992   -0.0013215157062715348
-0.362231153975128   -0.03804408048386992   -0.0013215157062715348
-0.362231153975128   -0.03804408048386992   -0.0013215157062715348
-0.37188119734395375   -0.03323381785191825   -0.028312531254363102
-0.37188119734395375   -0.03323381785191825   -0.028312531254363102
-0.37188119734395375   -0.03323381785191825   -0.028312531254363102
-0.37188119734395375   -0.03323381785191825   -0.028312531254363102
-0.36872339483917443   -0.0596622948202864   0.002009315549543797
-0.36872339483917443   -0.0596622948202864   0.002009315549543797
-0.36872339483917443   -0.0596622948202864   0.002009315549543797
-0.36872339483917443   -0.0596622948202864   0.002009315549543797
-0.3725150076336314   -0.049197474353366036   -0.01051023398373387
-0.3725150076336314   -0.049197474353366036   -0.01051023398373387
-0.3725150076336314   -0.049197474353366036   -0.01051023398373387
-0.3725150076336314   -0.049197474353366036   -0.01051023398373387
-0.3852991035982924   -0.07888934087711609   0.008285384895819033
-0.3852991035982924   -0.07888934087711609   0.008285384895819033
-0.3852991035982924   -0.07888934087711609   0.008285384895819033
-0.3852991035982924   -0.07888934087711609   0.008285384895819033
-0.3705199245305734   -0.05376058101190995   -0.010326490478982032
-0.3705199245305734   -0.05376058101190995   -0.010326490478982032
-0.3705199245305734   -0.05376058101190995   -0.010326490478982032
-0.3705199245305734   -0.05376058101190995   -0.010326490478982032
-0.3861855299363849   -0.054030624626267704   -0.021005463045491432
-0.3861855299363849   -0.054030624626267704   -0.021005463045491432
-0.3861855299363849   -0.054030624626267704   -0.021005463045491432
-0.3861855299363849   -0.054030624626267704   -0.021005463045491432
-0.3746158769426592   -0.07704348625133546   0.0068314313690889875
-0.3746158769426592   -0.07704348625133546   0.0068314313690889875
-0.3746158769426592   -0.07704348625133546   0.0068314313690889875
-0.3746158769426592   -0.07704348625133546   0.0068314313690889875
-0.3779994128588037   -0.07017977861758255   -0.0047714203783666
-0.3779994128588037   -0.07017977861758255   -0.0047714203783666
-0.3779994128588037   -0.07017977861758255   -0.0047714203783666
-0.3779994128588037   -0.07017977861758255   -0.0047714203783666
-0.3955725851400889   -0.10184642378577488   0.01666980837803255
-0.3955725851400889   -0.10184642378577488   0.01666980837803255
-0.3955725851400889   -0.10184642378577488   0.01666980837803255
-0.3955725851400889   -0.10184642378577488   0.01666980837803255
-0.38193722582841977   -0.0727606867728181   -0.021787104055552425
-0.38193722582841977   -0.0727606867728181   -0.021787104055552425
-0.38193722582841977   -0.0727606867728181   -0.021787104055552425
-0.38193722582841977   -0.0727606867728181   -0.021787104055552425
-0.3538249508059033   0.009226185051023114   -0.005996438368267118
-0.3538249508059033   0.009226185051023114   -0.005996438368267118
-0.3538249508059033   0.009226185051023114   -0.005996438368267118
-0.3538249508059033   0.009226185051023114   -0.005996438368267118
-0.3999948723982944   -0.07593454140874402   -0.019163149762962746
-0.3999948723982944   -0.07593454140874402   -0.019163149762962746
-0.3999948723982944   -0.07593454140874402   -0.019163149762962746
-0.3999948723982944   -0.07593454140874402   -0.019163149762962746
-0.3836312873515124   -0.013991571898343477   0.005068304199707422
-0.3836312873515124   -0.013991571898343477   0.005068304199707422
-0.3836312873515124   -0.013991571898343477   0.005068304199707422
-0.3836312873515124   -0.013991571898343477   0.005068304199707422
-0.3759955085362723   -0.08217231850423734   -0.011841229251993584
-0.3759955085362723   -0.08217231850423734   -0.011841229251993584
-0.3759955085362723   -0.08217231850423734   -0.011841229251993584
-0.3759955085362723   -0.08217231850423734   -0.011841229251993584
-0.37809747789713255   -0.04200642464042717   -0.008576146010148573
-0.37809747789713255   -0.04200642464042717   -0.008576146010148573
-0.37809747789713255   -0.04200642464042717   -0.008576146010148573
-0.37809747789713255   -0.04200642464042717   -0.008576146010148573
-0.3592271968873383   -0.01013234378979988   -3.964572176199527e-05
-0.3592271968873383   -0.01013234378979988   -3.964572176199527e-05
-0.3592271968873383   -0.01013234378979988   -3.964572176199527e-05
-0.3592271968873383   -0.01013234378979988   -3.964572176199527e-05
-0.40251937704498925   -0.08815132465732173   -0.015212391508698535
-0.40251937704498925   -0.08815132465732173   -0.015212391508698535
-0.40251937704498925   -0.08815132465732173   -0.015212391508698535
-0.40251937704498925   -0.08815132465732173   -0.015212391508698535
-0.38801694847393453   -0.033506760090016796   0.010823765957071355
-0.38801694847393453   -0.033506760090016796   0.010823765957071355
-0.38801694847393453   -0.033506760090016796   0.010823765957071355
-0.38801694847393453   -0.033506760090016796   0.010823765957071355
-0.3817179763737211   -0.09755450853687236   -0.008168043500682811
-0.3817179763737211   -0.09755450853687236   -0.008168043500682811
-0.3817179763737211   -0.09755450853687236   -0.008168043500682811
-0.3817179763737211   -0.09755450853687236   -0.008168043500682811
-0.38275860305643267   -0.05687473266559137   -0.016297633127220157
-0.38275860305643267   -0.05687473266559137   -0.016297633127220157
-0.38275860305643267   -0.05687473266559137   -0.016297633127220157
-0.38275860305643267   -0.05687473266559137   -0.016297633127220157
-0.36541599153738247   -0.029994872887747638   0.005782245031884616
-0.36541599153738247   -0.029994872887747638   0.005782245031884616
-0.36541599153738247   -0.029994872887747638   0.005782245031884616
-0.36541599153738247   -0.029994872887747638   0.005782245031884616
-0.40668683764498226   -0.10343430007385401   -0.01259813991432994
-0.40668683764498226   -0.10343430007385401   -0.01259813991432994
-0.40668683764498226   -0.10343430007385401   -0.01259813991432994
-0.40668683764498226   -0.10343430007385401   -0.01259813991432994
-0.391582693474446   -0.051861240122914806   0.016451928019618853
-0.391582693474446   -0.051861240122914806   0.016451928019618853
-0.391582693474446   -0.051861240122914806   0.016451928019618853
-0.391582693474446   -0.051861240122914806   0.016451928019618853
-0.3859716708122464   -0.11231788217383692   -0.0024946065893288287
-0.3859716708122464   -0.11231788217383692   -0.0024946065893288287
-0.3859716708122464   -0.11231788217383692   -0.0024946065893288287
-0.3859716708122464   -0.11231788217383692   -0.0024946065893288287
-0.38831740816227145   -0.07242594593617821   -0.02478186460498029
-0.38831740816227145   -0.07242594593617821   -0.02478186460498029
-0.38831740816227145   -0.07242594593617821   -0.02478186460498029
-0.38831740816227145   -0.07242594593617821   -0.02478186460498029
-0.3693392147527261   0.03954630329750121   0.018634293758633638
-0.3693392147527261   0.03954630329750121   0.018634293758633638
-0.3693392147527261   0.03954630329750121   0.018634293758633638
-0.3693392147527261   0.03954630329750121   0.018634293758633638
-0.4362636077649528   -0.05660712356367261   -0.026692307221059634
-0.4362636077649528   -0.05660712356367261   -0.026692307221059634
-0.4362636077649528   -0.05660712356367261   -0.026692307221059634
-0.4362636077649528   -0.05660712356367261   -0.026692307221059634
-0.41269588567759946   0.011829442770926   0.025832485518380407
-0.41269588567759946   0.011829442770926   0.025832485518380407
-0.41269588567759946   0.011829442770926   0.025832485518380407
-0.41269588567759946   0.011829442770926   0.025832485518380407
-0.3977344187659234   -0.06326231167995947   -0.016176613090731748
-0.3977344187659234   -0.06326231167995947   -0.016176613090731748
-0.3977344187659234   -0.06326231167995947   -0.016176613090731748
-0.3977344187659234   -0.06326231167995947   -0.016176613090731748
-0.4039782933199122   -0.01669727642058548   -0.0051223255685671105
-0.4039782933199122   -0.01669727642058548   -0.0051223255685671105
-0.4039782933199122   -0.01669727642058548   -0.0051223255685671105
-0.4039782933199122   -0.01669727642058548   -0.0051223255685671105
-0.3730710846595857   0.019469545852544262   0.024408199908453124
-0.3730710846595857   0.019469545852544262   0.024408199908453124
-0.3730710846595857   0.019469545852544262   0.024408199908453124
-0.3730710846595857   0.019469545852544262   0.024408199908453124
-0.44017319495024043   -0.07371638992788275   -0.026008228146015763
-0.44017319495024043   -0.07371638992788275   -0.026008228146015763
-0.44017319495024043   -0.07371638992788275   -0.026008228146015763
-0.44017319495024043   -0.07371638992788275   -0.026008228146015763
-0.420319408311442   -0.007221223707784885   0.029287119654630454
-0.420319408311442   -0.007221223707784885   0.029287119654630454
-0.420319408311442   -0.007221223707784885   0.029287119654630454
-0.420319408311442   -0.007221223707784885   0.029287119654630454
-0.40154822300251675   -0.07745955917259922   -0.012879807603259581
-0.40154822300251675   -0.07745955917259922   -0.012879807603259581
-0.40154822300251675   -0.07745955917259922   -0.012879807603259581
-0.40154822300251675   -0.07745955917259922   -0.012879807603259581
-0.4078129583686749   -0.032810871540655956   -0.014177132901678574
-0.4078129583686749   -0.032810871540655956   -0.014177132901678574
-0.4078129583686749   -0.032810871540655956   -0.014177132901678574
-0.4078129583686749   -0.032810871540655956   -0.014177132901678574
-0.3771654027296435   0.0015559169961230218   0.030018817592386494
-0.3771654027296435   0.0015559169961230218   0.030018817592386494
-0.3771654027296435   0.0015559169961230218   0.030018817592386494
-0.3771654027296435   0.0015559169961230218   0.030018817592386494
-0.44714085414349486   -0.08867532543568885   -0.023366007777729632
-0.44714085414349486   -0.08867532543568885   -0.023366007777729632
-0.44714085414349486   -0.08867532543568885   -0.023366007777729632
-0.44714085414349486   -0.08867532543568885   -0.023366007777729632
-0.42535581213979856   -0.025492705081553865   0.03571472394575731
-0.42535581213979856   -0.025492705081553865   0.03571472394575731
-0.42535581213979856   -0.025492705081553865   0.03571472394575731
-0.42535581213979856   -0.025492705081553865   0.03571472394575731
-0.4048211118836749   -0.09171939116845919   -0.009882012980989716
-0.4048211118836749   -0.09171939116845919   -0.009882012980989716
-0.4048211118836749   -0.09171939116845919   -0.009882012980989716
-0.4048211118836749   -0.09171939116845919   -0.009882012980989716
-0.41454029958895783   -0.047994491831614375   -0.0229488512104474
-0.41454029958895783   -0.047994491831614375   -0.0229488512104474
-0.41454029958895783   -0.047994491831614375   -0.0229488512104474
-0.41454029958895783   -0.047994491831614375   -0.0229488512104474
-0.4008182828719171   0.05673756346259534   0.037189630217850704
-0.4008182828719171   0.05673756346259534   0.037189630217850704
-0.4008182828719171   0.05673756346259534   0.037189630217850704
-0.4008182828719171   0.05673756346259534   0.037189630217850704
-0.42807696647423615   -0.03415139831194565   -0.038691110609373094
-0.42807696647423615   -0.03415139831194565   -0.038691110609373094
-0.42807696647423615   -0.03415139831194565   -0.038691110609373094
-0.42807696647423615   -0.03415139831194565   -0.038691110609373094
-0.41841974026220086   0.040411438665452576   0.04132724461780093
-0.41841974026220086   0.040411438665452576   0.04132724461780093
-0.41841974026220086   0.040411438665452576   0.04132724461780093
-0.41841974026220086   0.040411438665452576   0.04132724461780093
-0.4337409053380694   -0.043914023325079314   -0.02364914668796439
-0.4337409053380694   -0.043914023325079314   -0.02364914668796439
-0.4337409053380694   -0.043914023325079314   -0.02364914668796439
-0.4337409053380694   -0.043914023325079314   -0.02364914668796439
-0.40598273306251176   0.010157204257929889   0.001551770473492687
-0.40598273306251176   0.010157204257929889   0.001551770473492687
-0.40598273306251176   0.010157204257929889   0.001551770473492687
-0.40598273306251176   0.010157204257929889   0.001551770473492687
-0.4028577504136204   0.043857423861208486   0.042995180747993286
-0.4028577504136204   0.043857423861208486   0.042995180747993286
-0.4028577504136204   0.043857423861208486   0.042995180747993286
-0.4028577504136204   0.043857423861208486   0.042995180747993286
-0.45159375167633475   -0.04965086501051887   -0.03448050877689688
-0.45159375167633475   -0.04965086501051887   -0.03448050877689688
-0.45159375167633475   -0.04965086501051887   -0.03448050877689688
-0.45159375167633475   -0.04965086501051887   -0.03448050877689688
-0.4368492425667423   0.02974777034295535   0.05321415338985695
-0.4368492425667423   0.02974777034295535   0.05321415338985695
-0.4368492425667423   0.02974777034295535   0.05321415338985695
-0.4368492425667423   0.02974777034295535   0.05321415338985695
-0.43950278106397567   -0.05226675036052951   -0.021584217455292282
-0.43950278106397567   -0.05226675036052951   -0.021584217455292282
-0.43950278106397567   -0.05226675036052951   -0.021584217455292282
-0.43950278106397567   -0.05226675036052951   -0.021584217455292282
-0.4258300033347962   -0.002766310380193593   -0.00912592819002235
-0.4258300033347962   -0.002766310380193593   -0.00912592819002235
-0.4258300033347962   -0.002766310380193593   -0.00912592819002235
-0.4258300033347962   -0.002766310380193593   -0.00912592819002235
-0.4073808706763586   0.03529194238958891   0.051466641732673804
-0.4073808706763586   0.03529194238958891   0.051466641732673804
-0.4073808706763586   0.03529194238958891   0.051466641732673804
-0.4073808706763586   0.03529194238958891   0.051466641732673804
-0.47195826690402853   -0.06079803635683781   -0.031785161596780895
-0.47195826690402853   -0.06079803635683781   -0.031785161596780895
-0.47195826690402853   -0.06079803635683781   -0.031785161596780895
-0.47195826690402853   -0.06079803635683781   -0.031785161596780895
-0.4693843752532387   0.0025271592677594407   0.056863136353122165
-0.4693843752532387   0.0025271592677594407   0.056863136353122165
-0.4693843752532387   0.0025271592677594407   0.056863136353122165
-0.4693843752532387   0.0025271592677594407   0.056863136353122165
-0.444757325568143   -0.06802609275167021   -0.0187594555258556
-0.444757325568143   -0.06802609275167021   -0.0187594555258556
-0.444757325568143   -0.06802609275167021   -0.0187594555258556
-0.444757325568143   -0.06802609275167021   -0.0187594555258556
-0.4352435194255273   -0.014652660807627546   -0.018762706603057067
-0.4352435194255273   -0.014652660807627546   -0.018762706603057067
-0.4352435194255273   -0.014652660807627546   -0.018762706603057067
-0.4352435194255273   -0.014652660807627546   -0.018762706603057067
-0.8628257945448509   -0.07881029830069496   -0.08120131929913095
-0.8628257945448509   -0.07881029830069496   -0.08120131929913095
-0.8628257945448509   -0.07881029830069496   -0.08120131929913095
-0.8628257945448509   -0.07881029830069496   -0.08120131929913095
-0.5468777664720151   0.046865003518221704   0.0191573465813781
-0.5468777664720151   0.046865003518221704   0.0191573465813781
-0.5468777664720151   0.046865003518221704   0.0191573465813781
-0.5468777664720151   0.046865003518221704   0.0191573465813781
-0.574209165394506   -0.03608582901909842   -0.03617754728715597
-0.574209165394506   -0.03608582901909842   -0.03617754728715597
-0.574209165394506   -0.03608582901909842   -0.03617754728715597
-0.574209165394506   -0.03608582901909842   -0.03617754728715597
-0.9170722999839058   -0.10302395473013004   0.0911130605916801
-0.9170722999839058   -0.10302395473013004   0.0911130605916801
-0.9170722999839058   -0.10302395473013004   0.0911130605916801
-0.9170722999839058   -0.10302395473013004   0.0911130605916801
-0.6667861747181556   -0.02528222685842968   0.08830430105427703
-0.6667861747181556   -0.02528222685842968   0.08830430105427703
-0.6667861747181556   -0.02528222685842968   0.08830430105427703
-0.6667861747181556   -0.02528222685842968   0.08830430105427703
-0.9497534401170689   -0.11585207788919295   -0.05946451691506456
-0.9497534401170689   -0.11585207788919295   -0.05946451691506456
-0.9497534401170689   -0.11585207788919295   -0.05946451691506456
-0.9497534401170689   -0.11585207788919295   -0.05946451691506456
-0.5645050596636578   -0.04623474026235011   0.022491892610331708
-0.5645050596636578   -0.04623474026235011   0.022491892610331708
-0.5645050596636578   -0.04623474026235011   0.022491892610331708
-0.5645050596636578   -0.04623474026235011   0.022491892610331708
-0.5829113233800545   -0.05239401746909285   -0.02593799437892864
-0.5829113233800545   -0.05239401746909285   -0.02593799437892864
-0.5829113233800545   -0.05239401746909285   -0.02593799437892864
-0.5829113233800545   -0.05239401746909285   -0.02593799437892864
-0.9461082203477018   -0.14399377553155135   0.0023312407481402096
-0.9461082203477018   -0.14399377553155135   0.0023312407481402096
-0.9461082203477018   -0.14399377553155135   0.0023312407481402096
-0.9461082203477018   -0.14399377553155135   0.0023312407481402096
-0.7380327106388782   -0.08688913926386632   0.02037494946487948
-0.7380327106388782   -0.08688913926386632   0.02037494946487948
-0.7380327106388782   -0.08688913926386632   0.02037494946487948
-0.7380327106388782   -0.08688913926386632   0.02037494946487948
-0.9535236175632946   -0.13089731800185614   -0.047842202859512864
-0.9535236175632946   -0.13089731800185614   -0.047842202859512864
-0.9535236175632946   -0.13089731800185614   -0.047842202859512864
-0.9535236175632946   -0.13089731800185614   -0.047842202859512864
-0.5824671940255185   -0.07246174285984344   -0.003649622215503712
-0.5824671940255185   -0.07246174285984344   -0.003649622215503712
-0.5824671940255185   -0.07246174285984344   -0.003649622215503712
-0.5824671940255185   -0.07246174285984344   -0.003649622215503712
-0.5832023853360517   -0.09191868417063559   -0.018870603738132007
-0.5832023853360517   -0.09191868417063559   -0.018870603738132007
-0.5832023853360517   -0.09191868417063559   -0.018870603738132007
-0.5832023853360517   -0.09191868417063559   -0.018870603738132007
-0.9685615450235944   -0.2199726733047463   0.014554985660771264
-0.9685615450235944   -0.2199726733047463   0.014554985660771264
-0.9685615450235944   -0.2199726733047463   0.014554985660771264
-0.9685615450235944   -0.2199726733047463   0.014554985660771264
-0.7371134182421288   -0.11946673100975026   0.001495007445149678
-0.7371134182421288   -0.11946673100975026   0.001495007445149678
-0.7371134182421288   -0.11946673100975026   0.001495007445149678
-0.7371134182421288   -0.11946673100975026   0.001495007445149678
-0.5905529510216377   -0.10010369503312119   -0.05224987761538679
-0.5905529510216377   -0.10010369503312119   -0.05224987761538679
-0.5905529510216377   -0.10010369503312119   -0.05224987761538679
-0.5905529510216377   -0.10010369503312119   -0.05224987761538679
-0.4054067322330017   -0.26162835809686147   -0.04906910765821883
-0.4054067322330017   -0.26162835809686147   -0.04906910765821883
-0.4054067322330017   -0.26162835809686147   -0.04906910765821883
-0.4054067322330017   -0.26162835809686147   -0.04906910765821883
-0.3561135435241385   -0.05815443976763413   -0.0030612605022460977
-0.3561135435241385   -0.05815443976763413   -0.0030612605022460977
-0.3561135435241385   -0.05815443976763413   -0.0030612605022460977
-0.3561135435241385   -0.05815443976763413   -0.0030612605022460977
-0.6276563795130791   -0.2776067251405384   -0.06189272175858669
-0.6276563795130791   -0.2776067251405384   -0.06189272175858669
-0.6276563795130791   -0.2776067251405384   -0.06189272175858669
-0.6276563795130791   -0.2776067251405384   -0.06189272175858669
-0.48918125708446064   -0.18509228112015824   -0.014249299874283625
-0.48918125708446064   -0.18509228112015824   -0.014249299874283625
-0.48918125708446064   -0.18509228112015824   -0.014249299874283625
-0.48918125708446064   -0.18509228112015824   -0.014249299874283625
-0.5900617682512438   -0.11219759227549811   -0.03932879831444745
-0.5900617682512438   -0.11219759227549811   -0.03932879831444745
-0.5900617682512438   -0.11219759227549811   -0.03932879831444745
-0.5900617682512438   -0.11219759227549811   -0.03932879831444745
-0.39610225418701395   -0.22595767203371753   -0.03520158155054741
-0.39610225418701395   -0.22595767203371753   -0.03520158155054741
-0.39610225418701395   -0.22595767203371753   -0.03520158155054741
-0.39610225418701395   -0.22595767203371753   -0.03520158155054741
-0.3600449275933976   -0.07537509277369434   0.0006024494080176127
-0.3600449275933976   -0.07537509277369434   0.0006024494080176127
-0.3600449275933976   -0.07537509277369434   0.0006024494080176127
-0.3600449275933976   -0.07537509277369434   0.0006024494080176127
-0.6297887509713174   -0.27616771017134206   -0.03655143963299862
-0.6297887509713174   -0.27616771017134206   -0.03655143963299862
-0.6297887509713174   -0.27616771017134206   -0.03655143963299862
-0.6297887509713174   -0.27616771017134206   -0.03655143963299862
-0.4836679443246448   -0.17350013856245425   -0.01513758773265243
-0.4836679443246448   -0.17350013856245425   -0.01513758773265243
-0.4836679443246448   -0.17350013856245425   -0.01513758773265243
-0.4836679443246448   -0.17350013856245425   -0.01513758773265243
-0.5989757419486711   -0.12917713872047984   -0.029476965970624634
-0.5989757419486711   -0.12917713872047984   -0.029476965970624634
-0.5989757419486711   -0.12917713872047984   -0.029476965970624634
-0.5989757419486711   -0.12917713872047984   -0.029476965970624634
-0.3958064844954454   -0.22731421210395994   -0.026266215771960012
-0.3958064844954454   -0.22731421210395994   -0.026266215771960012
-0.3958064844954454   -0.22731421210395994   -0.026266215771960012
-0.3958064844954454   -0.22731421210395994   -0.026266215771960012
-0.3597674558675702   -0.09685145525000297   0.005839521784373303
-0.3597674558675702   -0.09685145525000297   0.005839521784373303
-0.3597674558675702   -0.09685145525000297   0.005839521784373303
-0.3597674558675702   -0.09685145525000297   0.005839521784373303
-0.6280933672060625   -0.2808014074826536   -0.05444278977617456
-0.6280933672060625   -0.2808014074826536   -0.05444278977617456
-0.6280933672060625   -0.2808014074826536   -0.05444278977617456
-0.6280933672060625   -0.2808014074826536   -0.05444278977617456
-0.49082854299651885   -0.18664929610920994   -0.028106925159299807
-0.49082854299651885   -0.18664929610920994   -0.028106925159299807
-0.49082854299651885   -0.18664929610920994   -0.028106925159299807
-0.49082854299651885   -0.18664929610920994   -0.028106925159299807
-0.35704987698564633   -0.06441295856440221   -0.004500230953901168
-0.35704987698564633   -0.06441295856440221   -0.004500230953901168
-0.35704987698564633   -0.06441295856440221   -0.004500230953901168
-0.35704987698564633   -0.06441295856440221   -0.004500230953901168
-0.29908959100650917   -0.20009096778857272   -0.034542304696966036
-0.29908959100650917   -0.20009096778857272   -0.034542304696966036
-0.29908959100650917   -0.20009096778857272   -0.034542304696966036
-0.29908959100650917   -0.20009096778857272   -0.034542304696966036
-0.2577314186563976   -0.05339163002544856   0.013798123262075624
-0.2577314186563976   -0.05339163002544856   0.013798123262075624
-0.2577314186563976   -0.05339163002544856   0.013798123262075624
-0.2577314186563976   -0.05339163002544856   0.013798123262075624
-0.3950341148021689   -0.21762470342279827   -0.038193853237239825
-0.3950341148021689   -0.21762470342279827   -0.038193853237239825
-0.3950341148021689   -0.21762470342279827   -0.038193853237239825
-0.3950341148021689   -0.21762470342279827   -0.038193853237239825
-0.3257788871642822   -0.13576553982948356   -0.015944519065017648
-0.3257788871642822   -0.13576553982948356   -0.015944519065017648
-0.3257788871642822   -0.13576553982948356   -0.015944519065017648
-0.3257788871642822   -0.13576553982948356   -0.015944519065017648
-0.3590000364849421   -0.07627884271529442   0.0006306776413885831
-0.3590000364849421   -0.07627884271529442   0.0006306776413885831
-0.3590000364849421   -0.07627884271529442   0.0006306776413885831
-0.3590000364849421   -0.07627884271529442   0.0006306776413885831
-0.29588399853582603   -0.196855992295154   -0.03350041386536131
-0.29588399853582603   -0.196855992295154   -0.03350041386536131
-0.29588399853582603   -0.196855992295154   -0.03350041386536131
-0.29588399853582603   -0.196855992295154   -0.03350041386536131
-0.2576976446397098   -0.06754207240538457   0.01787380542274487
-0.2576976446397098   -0.06754207240538457   0.01787380542274487
-0.2576976446397098   -0.06754207240538457   0.01787380542274487
-0.2576976446397098   -0.06754207240538457   0.01787380542274487
-0.39615267055754383   -0.221076023140418   -0.034235335045993576
-0.39615267055754383   -0.221076023140418   -0.034235335045993576
-0.39615267055754383   -0.221076023140418   -0.034235335045993576
-0.39615267055754383   -0.221076023140418   -0.034235335045993576
-0.3250897287675382   -0.14110447898186038   -0.02068777802810817
-0.3250897287675382   -0.14110447898186038   -0.02068777802810817
-0.3250897287675382   -0.14110447898186038   -0.02068777802810817
-0.3250897287675382   -0.14110447898186038   -0.02068777802810817
-0.3618821100653194   -0.09062119810009475   0.006662642374805042
-0.3618821100653194   -0.09062119810009475   0.006662642374805042
-0.3618821100653194   -0.09062119810009475   0.006662642374805042
-0.3618821100653194   -0.09062119810009475   0.006662642374805042
-0.2931314433258777   -0.19916013563965163   -0.02767712477382788
-0.2931314433258777   -0.19916013563965163   -0.02767712477382788
-0.2931314433258777   -0.19916013563965163   -0.02767712477382788
-0.2931314433258777   -0.19916013563965163   -0.02767712477382788
-0.25452123506684254   -0.08106719331632986   0.022308401952802672
-0.25452123506684254   -0.08106719331632986   0.022308401952802672
-0.25452123506684254   -0.08106719331632986   0.022308401952802672
-0.25452123506684254   -0.08106719331632986   0.022308401952802672
-0.39128537270283814   -0.22391863887443825   -0.024682878767534312
-0.39128537270283814   -0.22391863887443825   -0.024682878767534312
-0.39128537270283814   -0.22391863887443825   -0.024682878767534312
-0.39128537270283814   -0.22391863887443825   -0.024682878767534312
-0.32397706507379914   -0.1481183619484197   -0.02396185063177061
-0.32397706507379914   -0.1481183619484197   -0.02396185063177061
-0.32397706507379914   -0.1481183619484197   -0.02396185063177061
-0.32397706507379914   -0.1481183619484197   -0.02396185063177061
-0.2490680426682307   -0.00894554604912106   0.024420015254974572
-0.2490680426682307   -0.00894554604912106   0.024420015254974572
-0.2490680426682307   -0.00894554604912106   0.024420015254974572
-0.2490680426682307   -0.00894554604912106   0.024420015254974572
-0.23509036386287507   -0.10583200610863162   -0.020639962536662552
-0.23509036386287507   -0.10583200610863162   -0.020639962536662552
-0.23509036386287507   -0.10583200610863162   -0.020639962536662552
-0.23509036386287507   -0.10583200610863162   -0.020639962536662552
-0.2025860630985307   -0.015337909003481996   0.02829704462426292
-0.2025860630985307   -0.015337909003481996   0.02829704462426292
-0.2025860630985307   -0.015337909003481996   0.02829704462426292
-0.2025860630985307   -0.015337909003481996   0.02829704462426292
-0.27722438783222664   -0.12242273511510203   -0.014635617527415615
-0.27722438783222664   -0.12242273511510203   -0.014635617527415615
-0.27722438783222664   -0.12242273511510203   -0.014635617527415615
-0.27722438783222664   -0.12242273511510203   -0.014635617527415615
-0.24179994732346285   -0.06255812025095109   -0.008643573475208464
-0.24179994732346285   -0.06255812025095109   -0.008643573475208464
-0.24179994732346285   -0.06255812025095109   -0.008643573475208464
-0.24179994732346285   -0.06255812025095109   -0.008643573475208464
-0.2491136738032661   -0.024669830474021614   0.02816504797630617
-0.2491136738032661   -0.024669830474021614   0.02816504797630617
-0.2491136738032661   -0.024669830474021614   0.02816504797630617
-0.2491136738032661   -0.024669830474021614   0.02816504797630617
-0.23294595566347653   -0.11533999218054752   -0.023500335023393104
-0.23294595566347653   -0.11533999218054752   -0.023500335023393104
-0.23294595566347653   -0.11533999218054752   -0.023500335023393104
-0.23294595566347653   -0.11533999218054752   -0.023500335023393104
-0.20276007246456737   -0.02904420070522743   0.030408834195649968
-0.20276007246456737   -0.02904420070522743   0.030408834195649968
-0.20276007246456737   -0.02904420070522743   0.030408834195649968
-0.20276007246456737   -0.02904420070522743   0.030408834195649968
-0.2770051414936429   -0.12987692271200696   -0.016328828540295368
-0.2770051414936429   -0.12987692271200696   -0.016328828540295368
-0.2770051414936429   -0.12987692271200696   -0.016328828540295368
-0.2770051414936429   -0.12987692271200696   -0.016328828540295368
-0.24063110823729614   -0.0735744267533025   -0.014661588323215596
-0.24063110823729614   -0.0735744267533025   -0.014661588323215596
-0.24063110823729614   -0.0735744267533025   -0.014661588323215596
-0.24063110823729614   -0.0735744267533025   -0.014661588323215596
-0.2489455084429832   -0.03795380994986637   0.03204622395086739
-0.2489455084429832   -0.03795380994986637   0.03204622395086739
-0.2489455084429832   -0.03795380994986637   0.03204622395086739
-0.2489455084429832   -0.03795380994986637   0.03204622395086739
-0.2321812330991512   -0.12232884105129074   -0.023412328631205997
-0.2321812330991512   -0.12232884105129074   -0.023412328631205997
-0.2321812330991512   -0.12232884105129074   -0.023412328631205997
-0.2321812330991512   -0.12232884105129074   -0.023412328631205997
-0.20089603561116157   -0.04191080116102462   0.03523586078366976
-0.20089603561116157   -0.04191080116102462   0.03523586078366976
-0.20089603561116157   -0.04191080116102462   0.03523586078366976
-0.20089603561116157   -0.04191080116102462   0.03523586078366976
-0.2724737315081777   -0.13733976523986924   -0.01118150833033145
-0.2724737315081777   -0.13733976523986924   -0.01118150833033145
-0.2724737315081777   -0.13733976523986924   -0.01118150833033145
-0.2724737315081777   -0.13733976523986924   -0.01118150833033145
-0.2397698291553837   -0.08303061958855734   -0.01883132072494607
-0.2397698291553837   -0.08303061958855734   -0.01883132072494607
-0.2397698291553837   -0.08303061958855734   -0.01883132072494607
-0.2397698291553837   -0.08303061958855734   -0.01883132072494607
-0.19669439566272703   0.027470760369432107   0.03803711198600638
-0.19669439566272703   0.027470760369432107   0.03803711198600638
-0.19669439566272703   0.027470760369432107   0.03803711198600638
-0.19669439566272703   0.027470760369432107   0.03803711198600638
-0.13012805002674066   -0.0347411229902388   -0.01266673650743619
-0.13012805002674066   -0.0347411229902388   -0.01266673650743619
-0.13012805002674066   -0.0347411229902388   -0.01266673650743619
-0.13012805002674066   -0.0347411229902388   -0.01266673650743619
-0.11342401019151584   0.03238868448305863   0.037547497206171745
-0.11342401019151584   0.03238868448305863   0.037547497206171745
-0.11342401019151584   0.03238868448305863   0.037547497206171745
-0.11342401019151584   0.03238868448305863   0.037547497206171745
-0.21715562894689575   -0.05333506607441809   -0.006553627546624053
-0.21715562894689575   -0.05333506607441809   -0.006553627546624053
-0.21715562894689575   -0.05333506607441809   -0.006553627546624053
-0.21715562894689575   -0.05333506607441809   -0.006553627546624053
-0.16211766389772558   -0.003386100173008416   -0.0069033776772726985
-0.16211766389772558   -0.003386100173008416   -0.0069033776772726985
-0.16211766389772558   -0.003386100173008416   -0.0069033776772726985
-0.16211766389772558   -0.003386100173008416   -0.0069033776772726985
-0.19343830138361542   0.017179929702065895   0.04151801449329903
-0.19343830138361542   0.017179929702065895   0.04151801449329903
-0.19343830138361542   0.017179929702065895   0.04151801449329903
-0.19343830138361542   0.017179929702065895   0.04151801449329903
-0.13736315876652497   -0.03834813230515052   -0.01141142888064935
-0.13736315876652497   -0.03834813230515052   -0.01141142888064935
-0.13736315876652497   -0.03834813230515052   -0.01141142888064935
-0.13736315876652497   -0.03834813230515052   -0.01141142888064935
-0.11835493780157706   0.025728278315666993   0.047243082663291636
-0.11835493780157706   0.025728278315666993   0.047243082663291636
-0.11835493780157706   0.025728278315666993   0.047243082663291636
-0.11835493780157706   0.025728278315666993   0.047243082663291636
-0.21606694615064784   -0.05676100021272069   -0.008408734727262132
-0.21606694615064784   -0.05676100021272069   -0.008408734727262132
-0.21606694615064784   -0.05676100021272069   -0.008408734727262132
-0.21606694615064784   -0.05676100021272069   -0.008408734727262132
-0.16683796642789653   -0.010662473804105396   -0.009701990730630067
-0.16683796642789653   -0.010662473804105396   -0.009701990730630067
-0.16683796642789653   -0.010662473804105396   -0.009701990730630067
-0.16683796642789653   -0.010662473804105396   -0.009701990730630067
-0.1912178108803265   0.01126856287465431   0.04780737853697251
-0.1912178108803265   0.01126856287465431   0.04780737853697251
-0.1912178108803265   0.01126856287465431   0.04780737853697251
-0.1912178108803265   0.01126856287465431   0.04780737853697251
-0.14490520816884644   -0.04400241986865342   -0.015777570988734838
-0.14490520816884644   -0.04400241986865342   -0.015777570988734838
-0.14490520816884644   -0.04400241986865342   -0.015777570988734838
-0.14490520816884644   -0.04400241986865342   -0.015777570988734838
-0.13545304660929794   0.007418491762475447   0.049159188086027636
-0.13545304660929794   0.007418491762475447   0.049159188086027636
-0.13545304660929794   0.007418491762475447   0.049159188086027636
-0.13545304660929794   0.007418491762475447   0.049159188086027636
-0.21293391456730884   -0.059806032036260726   -0.007058303121831685
-0.21293391456730884   -0.059806032036260726   -0.007058303121831685
-0.21293391456730884   -0.059806032036260726   -0.007058303121831685
-0.21293391456730884   -0.059806032036260726   -0.007058303121831685
-0.16907489400094197   -0.01591164111629974   -0.01426125288218465
-0.16907489400094197   -0.01591164111629974   -0.01426125288218465
-0.16907489400094197   -0.01591164111629974   -0.01426125288218465
-0.16907489400094197   -0.01591164111629974   -0.01426125288218465
-2.0329447681186377   -0.2879908276512749   -0.16905480761949418
-2.0329447681186377   -0.2879908276512749   -0.16905480761949418
-2.0329447681186377   -0.2879908276512749   -0.16905480761949418
-2.0329447681186377   -0.2879908276512749   -0.16905480761949418
-0.7054155377513611   -1.109277145555799   -0.13233723607414966
-0.7054155377513611   -1.109277145555799   -0.13233723607414966
-0.7054155377513611   -1.109277145555799   -0.13233723607414966
-0.7054155377513611   -1.109277145555799   -0.13233723607414966
-0.5452529742093053   -0.04673004252863784   0.0007632958245482775
-0.5452529742093053   -0.04673004252863784   0.0007632958245482775
-0.5452529742093053   -0.04673004252863784   0.0007632958245482775
-0.5452529742093053   -0.04673004252863784   0.0007632958245482775
-2.170507126965641   -1.3039782982507406   -0.6948970850432763
-2.170507126965641   -1.3039782982507406   -0.6948970850432763
-2.170507126965641   -1.3039782982507406   -0.6948970850432763
-2.170507126965641   -1.3039782982507406   -0.6948970850432763
-1.3294512405213672   -0.648719590990574   -0.09452639311760053
-1.3294512405213672   -0.648719590990574   -0.09452639311760053
-1.3294512405213672   -0.648719590990574   -0.09452639311760053
-1.3294512405213672   -0.648719590990574   -0.09452639311760053
-1.8890024078208425   -0.3615857882748851   -0.22976599929515437
-1.8890024078208425   -0.3615857882748851   -0.22976599929515437
-1.8890024078208425   -0.3615857882748851   -0.22976599929515437
-1.8890024078208425   -0.3615857882748851   -0.22976599929515437
-0.7617540994932975   -0.9241189586436883   -0.20435341448035835
-0.7617540994932975   -0.9241189586436883   -0.20435341448035835
-0.7617540994932975   -0.9241189586436883   -0.20435341448035835
-0.7617540994932975   -0.9241189586436883   -0.20435341448035835
-0.5562283029556623   -0.06229708521030341   0.020934774962340277
-0.5562283029556623   -0.06229708521030341   0.020934774962340277
-0.5562283029556623   -0.06229708521030341   0.020934774962340277
-0.5562283029556623   -0.06229708521030341   0.020934774962340277
-2.0310853888529237   -1.163153698783098   -0.6388478175272043
-2.0310853888529237   -1.163153698783098   -0.6388478175272043
-2.0310853888529237   -1.163153698783098   -0.6388478175272043
-2.0310853888529237   -1.163153698783098   -0.6388478175272043
-1.2521625160376917   -0.5849631137484823   0.050689116176999297
-1.2521625160376917   -0.5849631137484823   0.050689116176999297
-1.2521625160376917   -0.5849631137484823   0.050689116176999297
-1.2521625160376917   -0.5849631137484823   0.050689116176999297
-1.773810247957956   -0.34427132630860474   -0.17135448552687238
-1.773810247957956   -0.34427132630860474   -0.17135448552687238
-1.773810247957956   -0.34427132630860474   -0.17135448552687238
-1.773810247957956   -0.34427132630860474   -0.17135448552687238
-0.7412750591774404   -0.8089510730116086   -0.15764501834524086
-0.7412750591774404   -0.8089510730116086   -0.15764501834524086
-0.7412750591774404   -0.8089510730116086   -0.15764501834524086
-0.7412750591774404   -0.8089510730116086   -0.15764501834524086
-0.6391378078559825   -0.1636429190471913   -0.03321998021906574
-0.6391378078559825   -0.1636429190471913   -0.03321998021906574
-0.6391378078559825   -0.1636429190471913   -0.03321998021906574
-0.6391378078559825   -0.1636429190471913   -0.03321998021906574
-1.8511738049793651   -0.9775438149726088   -0.5657435239903947
-1.8511738049793651   -0.9775438149726088   -0.5657435239903947
-1.8511738049793651   -0.9775438149726088   -0.5657435239903947
-1.8511738049793651   -0.9775438149726088   -0.5657435239903947
-1.159865482152759   -0.5071381820936016   0.21472460169669946
-1.159865482152759   -0.5071381820936016   0.21472460169669946
-1.159865482152759   -0.5071381820936016   0.21472460169669946
-1.159865482152759   -0.5071381820936016   0.21472460169669946
-0.5222066490688784   -0.2835737563132502   -0.041996181904288804
-0.5222066490688784   -0.2835737563132502   -0.041996181904288804
-0.5222066490688784   -0.2835737563132502   -0.041996181904288804
-0.5222066490688784   -0.2835737563132502   -0.041996181904288804
-0.24138498133153413   -0.3502015712436873   -0.05963903811559849
-0.24138498133153413   -0.3502015712436873   -0.05963903811559849
-0.24138498133153413   -0.3502015712436873   -0.05963903811559849
-0.24138498133153413   -0.3502015712436873   -0.05963903811559849
-0.21295547422164912   -0.18118607981026075   0.0055095996013716855
-0.21295547422164912   -0.18118607981026075   0.0055095996013716855
-0.21295547422164912   -0.18118607981026075   0.0055095996013716855
-0.21295547422164912   -0.18118607981026075   0.0055095996013716855
-0.6385923209863199   -0.5129552641493139   0.000291783560155634
-0.6385923209863199   -0.5129552641493139   0.000291783560155634
-0.6385923209863199   -0.5129552641493139   0.000291783560155634
-0.6385923209863199   -0.5129552641493139   0.000291783560155634
-0.3430375286574945   -0.24878868928446607   0.10988852639985779
-0.3430375286574945   -0.24878868928446607   0.10988852639985779
-0.3430375286574945   -0.24878868928446607   0.10988852639985779
-0.3430375286574945   -0.24878868928446607   0.10988852639985779
-0.5942487643790613   -0.26394649772716   -0.02699919982571085
-0.5942487643790613   -0.26394649772716   -0.02699919982571085
-0.5942487643790613   -0.26394649772716   -0.02699919982571085
-0.5942487643790613   -0.26394649772716   -0.02699919982571085
-0.2753160992814827   -0.4482119146849902   -0.039267690823063015
-0.2753160992814827   -0.4482119146849902   -0.039267690823063015
-0.2753160992814827   -0.4482119146849902   -0.039267690823063015
-0.2753160992814827   -0.4482119146849902   -0.039267690823063015
-0.22998802411707464   -0.187765330312351   0.00565973280771391
-0.22998802411707464   -0.187765330312351   0.00565973280771391
-0.22998802411707464   -0.187765330312351   0.00565973280771391
-0.22998802411707464   -0.187765330312351   0.00565973280771391
-0.6697038677721602   -0.5063504649358799   -0.10238966939456919
-0.6697038677721602   -0.5063504649358799   -0.10238966939456919
-0.6697038677721602   -0.5063504649358799   -0.10238966939456919
-0.6697038677721602   -0.5063504649358799   -0.10238966939456919
-0.4089932796492614   -0.319175651043246   0.050189260635113184
-0.4089932796492614   -0.319175651043246   0.050189260635113184
-0.4089932796492614   -0.319175651043246   0.050189260635113184
-0.4089932796492614   -0.319175651043246   0.050189260635113184
-0.6131630195869978   -0.2756162122073388   -0.05041968119729834
-0.6131630195869978   -0.2756162122073388   -0.05041968119729834
-0.6131630195869978   -0.2756162122073388   -0.05041968119729834
-0.6131630195869978   -0.2756162122073388   -0.05041968119729834
-0.2848469517372295   -0.4168176624758852   -0.039582573129526406
-0.2848469517372295   -0.4168176624758852   -0.039582573129526406
-0.2848469517372295   -0.4168176624758852   -0.039582573129526406
-0.2848469517372295   -0.4168176624758852   -0.039582573129526406
-0.25624601665178015   -0.19387670351359287   0.008333379514846646
-0.25624601665178015   -0.19387670351359287   0.008333379514846646
-0.25624601665178015   -0.19387670351359287   0.008333379514846646
-0.25624601665178015   -0.19387670351359287   0.008333379514846646
-0.7159990798810696   -0.4919747095900415   -0.0891945498016533
-0.7159990798810696   -0.4919747095900415   -0.0891945498016533
-0.7159990798810696   -0.4919747095900415   -0.0891945498016533
-0.7159990798810696   -0.4919747095900415   -0.0891945498016533
-0.42789829103679655   -0.3008167848702668   0.053107488609215894
-0.42789829103679655   -0.3008167848702668   0.053107488609215894
-0.42789829103679655   -0.3008167848702668   0.053107488609215894
-0.42789829103679655   -0.3008167848702668   0.053107488609215894
-0.1907483655774531   -0.16903813990095312   0.012380609312072556
-0.1907483655774531   -0.16903813990095312   0.012380609312072556
-0.1907483655774531   -0.16903813990095312   0.012380609312072556
-0.1907483655774531   -0.16903813990095312   0.012380609312072556
-0.11645178533185255   -0.10903610265967739   -0.02910528856096281
-0.11645178533185255   -0.10903610265967739   -0.02910528856096281
-0.11645178533185255   -0.10903610265967739   -0.02910528856096281
-0.11645178533185255   -0.10903610265967739   -0.02910528856096281
-0.11295805397077137   -0.15107320974530375   0.012487554318835255
-0.11295805397077137   -0.15107320974530375   0.012487554318835255
-0.11295805397077137   -0.15107320974530375   0.012487554318835255
-0.11295805397077137   -0.15107320974530375   0.012487554318835255
-0.21043894828900528   -0.14973694440609386   -0.013356906139573868
-0.21043894828900528   -0.14973694440609386   -0.013356906139573868
-0.21043894828900528   -0.14973694440609386   -0.013356906139573868
-0.21043894828900528   -0.14973694440609386   -0.013356906139573868
-0.13314843573652874   -0.12209355009374179   0.055096854251986224
-0.13314843573652874   -0.12209355009374179   0.055096854251986224
-0.13314843573652874   -0.12209355009374179   0.055096854251986224
-0.13314843573652874   -0.12209355009374179   0.055096854251986224
-0.20918039412244505   -0.1701461704849822   0.013345090772113433
-0.20918039412244505   -0.1701461704849822   0.013345090772113433
-0.20918039412244505   -0.1701461704849822   0.013345090772113433
-0.20918039412244505   -0.1701461704849822   0.013345090772113433
-0.11603490142215017   -0.1324822769512335   -0.021487615732129046
-0.11603490142215017   -0.1324822769512335   -0.021487615732129046
-0.11603490142215017   -0.1324822769512335   -0.021487615732129046
-0.11603490142215017   -0.1324822769512335   -0.021487615732129046
-0.11416197170538528   -0.15561226913420578   0.011092736132916607
-0.11416197170538528   -0.15561226913420578   0.011092736132916607
-0.11416197170538528   -0.15561226913420578   0.011092736132916607
-0.11416197170538528   -0.15561226913420578   0.011092736132916607
-0.2233560651820657   -0.17476041813617588   0.025814615306583355
-0.2233560651820657   -0.17476041813617588   0.025814615306583355
-0.2233560651820657   -0.17476041813617588   0.025814615306583355
-0.2233560651820657   -0.17476041813617588   0.025814615306583355
-0.14467669220832524   -0.1360218680208955   0.04673261145952152
-0.14467669220832524   -0.1360218680208955   0.04673261145952152
-0.14467669220832524   -0.1360218680208955   0.04673261145952152
-0.14467669220832524   -0.1360218680208955   0.04673261145952152
-0.22525225470454965   -0.17644518587418623   0.018018435432174067
-0.22525225470454965   -0.17644518587418623   0.018018435432174067
-0.22525225470454965   -0.17644518587418623   0.018018435432174067
-0.22525225470454965   -0.17644518587418623   0.018018435432174067
-0.12193135958929853   -0.16359307880259186   -0.019773393618263642
-0.12193135958929853   -0.16359307880259186   -0.019773393618263642
-0.12193135958929853   -0.16359307880259186   -0.019773393618263642
-0.12193135958929853   -0.16359307880259186   -0.019773393618263642
-0.11534635078096883   -0.16067903600410485   0.015576113662263372
-0.11534635078096883   -0.16067903600410485   0.015576113662263372
-0.11534635078096883   -0.16067903600410485   0.015576113662263372
-0.11534635078096883   -0.16067903600410485   0.015576113662263372
-0.2610672405363715   -0.21515528752293714   0.005505844101234898
-0.2610672405363715   -0.21515528752293714   0.005505844101234898
-0.2610672405363715   -0.21515528752293714   0.005505844101234898
-0.2610672405363715   -0.21515528752293714   0.005505844101234898
-0.16143427772156135   -0.15512056514228736   0.022163315601080612
-0.16143427772156135   -0.15512056514228736   0.022163315601080612
-0.16143427772156135   -0.15512056514228736   0.022163315601080612
-0.16143427772156135   -0.15512056514228736   0.022163315601080612
-0.09574615614377045   -0.06729818426127167   0.03268493898104188
-0.09574615614377045   -0.06729818426127167   0.03268493898104188
-0.09574615614377045   -0.06729818426127167   0.03268493898104188
-0.09574615614377045   -0.06729818426127167   0.03268493898104188
-0.06696028083825165   0.0003068136340501834   -0.006523350224742324
-0.06696028083825165   0.0003068136340501834   -0.006523350224742324
-0.06696028083825165   0.0003068136340501834   -0.006523350224742324
-0.06696028083825165   0.0003068136340501834   -0.006523350224742324
-0.0635588310316543   -0.07270411583254466   0.020291922084798963
-0.0635588310316543   -0.07270411583254466   0.020291922084798963
-0.0635588310316543   -0.07270411583254466   0.020291922084798963
-0.0635588310316543   -0.07270411583254466   0.020291922084798963
-0.08856986132681048   -0.012435840815538921   -0.00420885139112672
-0.08856986132681048   -0.012435840815538921   -0.00420885139112672
-0.08856986132681048   -0.012435840815538921   -0.00420885139112672
-0.08856986132681048   -0.012435840815538921   -0.00420885139112672
-0.07278835311680534   -0.036629303079122245   0.01621361021697867
-0.07278835311680534   -0.036629303079122245   0.01621361021697867
-0.07278835311680534   -0.036629303079122245   0.01621361021697867
-0.07278835311680534   -0.036629303079122245   0.01621361021697867
-0.09443523369006904   -0.0767767429881482   0.030805188965191393
-0.09443523369006904   -0.0767767429881482   0.030805188965191393
-0.09443523369006904   -0.0767767429881482   0.030805188965191393
-0.09443523369006904   -0.0767767429881482   0.030805188965191393
-0.05601968567596394   -0.006689440667502537   -0.008027026301791338
-0.05601968567596394   -0.006689440667502537   -0.008027026301791338
-0.05601968567596394   -0.006689440667502537   -0.008027026301791338
-0.05601968567596394   -0.006689440667502537   -0.008027026301791338
-0.058179871977986145   -0.0791061740321392   0.018699645343386657
-0.058179871977986145   -0.0791061740321392   0.018699645343386657
-0.058179871977986145   -0.0791061740321392   0.018699645343386657
-0.058179871977986145   -0.0791061740321392   0.018699645343386657
-0.08913443563773003   -0.024808987898348032   0.0054271352353321275
-0.08913443563773003   -0.024808987898348032   0.0054271352353321275
-0.08913443563773003   -0.024808987898348032   0.0054271352353321275
-0.08913443563773003   -0.024808987898348032   0.0054271352353321275
-0.06670138566575583   -0.04196919898217084   0.01937581591295623
-0.06670138566575583   -0.04196919898217084   0.01937581591295623
-0.06670138566575583   -0.04196919898217084   0.01937581591295623
-0.06670138566575583   -0.04196919898217084   0.01937581591295623
-0.09485033280734749   -0.08314371914075738   0.03518238062965712
-0.09485033280734749   -0.08314371914075738   0.03518238062965712
-0.09485033280734749   -0.08314371914075738   0.03518238062965712
-0.09485033280734749   -0.08314371914075738   0.03518238062965712
-0.0529542132500944   -0.021261681231456355   -0.013016553817845125
-0.0529542132500944   -0.021261681231456355   -0.013016553817845125
-0.0529542132500944   -0.021261681231456355   -0.013016553817845125
-0.0529542132500944   -0.021261681231456355   -0.013016553817845125
-0.04852130033774496   -0.08620405428484505   0.02054461527436442
-0.04852130033774496   -0.08620405428484505   0.02054461527436442
-0.04852130033774496   -0.08620405428484505   0.02054461527436442
-0.04852130033774496   -0.08620405428484505   0.02054461527436442
-0.09591923055133554   -0.05509580761960488   0.007128486425926358
-0.09591923055133554   -0.05509580761960488   0.007128486425926358
-0.09591923055133554   -0.05509580761960488   0.007128486425926358
-0.09591923055133554   -0.05509580761960488   0.007128486425926358
-0.0640566589412798   -0.0529997974101683   0.016816212377143792
-0.0640566589412798   -0.0529997974101683   0.016816212377143792
-0.0640566589412798   -0.0529997974101683   0.016816212377143792
-0.0640566589412798   -0.0529997974101683   0.016816212377143792
-0.06152931897394939   -0.011916979110024855   0.03285525184084396
-0.06152931897394939   -0.011916979110024855   0.03285525184084396
-0.06152931897394939   -0.011916979110024855   0.03285525184084396
-0.06152931897394939   -0.011916979110024855   0.03285525184084396
-0.010649438149033316   0.007250716626736823   -0.0006633103800677297
-0.010649438149033316   0.007250716626736823   -0.0006633103800677297
-0.010649438149033316   0.007250716626736823   -0.0006633103800677297
-0.010649438149033316   0.007250716626736823   -0.0006633103800677297
0.0037597411862301147   -0.003780684658153093   0.020302909401575055
0.0037597411862301147   -0.003780684658153093   0.020302909401575055
0.0037597411862301147   -0.003780684658153093   0.020302909401575055
0.0037597411862301147   -0.003780684658153093   0.020302909401575055
-0.052499748007067186   0.005479856467090136   -0.002596635091897428
-0.052499748007067186   0.005479856467090136   -0.002596635091897428
-0.052499748007067186   0.005479856467090136   -0.002596635091897428
-0.052499748007067186   0.005479856467090136   -0.002596635091897428
-0.030750001302423224   -0.002294877056714116   -0.002563015485371966
-0.030750001302423224   -0.002294877056714116   -0.002563015485371966
-0.030750001302423224   -0.002294877056714116   -0.002563015485371966
-0.030750001302423224   -0.002294877056714116   -0.002563015485371966
-0.04853942482186796   -0.011470110233210058   0.03415494753439607
-0.04853942482186796   -0.011470110233210058   0.03415494753439607
-0.04853942482186796   -0.011470110233210058   0.03415494753439607
-0.04853942482186796   -0.011470110233210058   0.03415494753439607
0.001640947220666651   0.015010811261783654   -0.009082556346163666
0.001640947220666651   0.015010811261783654   -0.009082556346163666
0.001640947220666651   0.015010811261783654   -0.009082556346163666
0.001640947220666651   0.015010811261783654   -0.009082556346163666
0.011079948118834412   -0.004646365231126345   0.02501754591122736
0.011079948118834412   -0.004646365231126345   0.02501754591122736
0.011079948118834412   -0.004646365231126345   0.02501754591122736
0.011079948118834412   -0.004646365231126345   0.02501754591122736
-0.046012722176536736   0.004264138155744938   -0.0038349178372563296
-0.046012722176536736   0.004264138155744938   -0.0038349178372563296
-0.046012722176536736   0.004264138155744938   -0.0038349178372563296
-0.046012722176536736   0.004264138155744938   -0.0038349178372563296
-0.02002533232449308   -0.0004923781803624263   0.003257170680834532
-0.02002533232449308   -0.0004923781803624263   0.003257170680834532
-0.02002533232449308   -0.0004923781803624263   0.003257170680834532
-0.02002533232449308   -0.0004923781803624263   0.003257170680834532
-0.041325122999775636   -0.012797871163862468   0.0366650873661548
-0.041325122999775636   -0.012797871163862468   0.0366650873661548
-0.041325122999775636   -0.012797871163862468   0.0366650873661548
-0.041325122999775636   -0.012797871163862468   0.0366650873661548
0.008057009178378177   0.01408030432478852   -0.008823818346953331
0.008057009178378177   0.01408030432478852   -0.008823818346953331
0.008057009178378177   0.01408030432478852   -0.008823818346953331
0.008057009178378177   0.01408030432478852   -0.008823818346953331
0.018593983255941908   -0.007233584992972445   0.024276034271358965
0.018593983255941908   -0.007233584992972445   0.024276034271358965
0.018593983255941908   -0.007233584992972445   0.024276034271358965
0.018593983255941908   -0.007233584992972445   0.024276034271358965
-0.035366847053546355   0.004466309785627603   -0.004353482375118721
-0.035366847053546355   0.004466309785627603   -0.004353482375118721
-0.035366847053546355   0.004466309785627603   -0.004353482375118721
-0.035366847053546355   0.004466309785627603   -0.004353482375118721
-0.010430866651903199   0.0006527942810045523   0.00840148673297985
-0.010430866651903199   0.0006527942810045523   0.00840148673297985
-0.010430866651903199   0.0006527942810045523   0.00840148673297985
-0.010430866651903199   0.0006527942810045523   0.00840148673297985
              </DataArray>   
             <DataArray type="Float64" NumberOfComponents="3" Name="Displacements" format="ascii">   
0.0   0.0   0.0
-0.005657454371326724   -0.0037104179970131068   -0.0018951020828683269
0.0   0.0   0.0
0.0   0.0   0.0
-0.005657454371326724   -0.0037104179970131068   -0.0018951020828683269
-0.0036002029751279253   -0.0033341701742074592   -0.0013923256780785838
0.0   0.0   0.0
-0.0035291894524934657   -0.0035015628933905323   -0.0011664219379386935
0.0   0.0   0.0
0.0   0.0   0.0
-0.0035291894524934657   -0.0035015628933905323   -0.0011664219379386935
0.0   0.0   0.0
0.0   0.0   0.0
-0.0035291894524934657   -0.0035015628933905323   -0.0011664219379386935
-0.005921024795562043   -0.003952981468764455   -0.001521428381745457
-0.005657454371326724   -0.0037104179970131068   -0.0018951020828683269
0.0   0.0   0.0
-0.0035291894524934657   -0.0035015628933905323   -0.0011664219379386935
-0.005657454371326724   -0.0037104179970131068   -0.0018951020828683269
0.0   0.0   0.0
0.0   0.0   0.0
-0.005921024795562043   -0.003952981468764455   -0.001521428381745457
0.0   0.0   0.0
0.0   0.0   0.0
-0.005921024795562043   -0.003952981468764455   -0.001521428381745457
-0.0035291894524934657   -0.0035015628933905323   -0.0011664219379386935
0.0   0.0   0.0
-0.003539344428136937   -0.003587323230307282   -0.0009408205744764246
0.0   0.0   0.0
0.0   0.0   0.0
-0.003539344428136937   -0.003587323230307282   -0.0009408205744764246
0.0   0.0   0.0
0.0   0.0   0.0
-0.003539344428136937   -0.003587323230307282   -0.0009408205744764246
-0.0061062204730837595   -0.00407092349219052   -0.0011633471616726266
-0.005921024795562043   -0.003952981468764455   -0.001521428381745457
0.0   0.0   0.0
-0.003539344428136937   -0.003587323230307282   -0.0009408205744764246
-0.005921024795562043   -0.003952981468764455   -0.001521428381745457
0.0   0.0   0.0
0.0   0.0   0.0
-0.0061062204730837595   -0.00407092349219052   -0.0011633471616726266
0.0   0.0   0.0
0.0   0.0   0.0
-0.0061062204730837595   -0.00407092349219052   -0.0011633471616726266
-0.003539344428136937   -0.003587323230307282   -0.0009408205744764246
0.0   0.0   0.0
-0.0035377118225244433   -0.0036093283574444757   -0.0007075170578147913
0.0   0.0   0.0
0.0   0.0   0.0
-0.0035377118225244433   -0.0036093283574444757   -0.0007075170578147913
0.0   0.0   0.0
0.0   0.0   0.0
-0.0035377118225244433   -0.0036093283574444757   -0.0007075170578147913
-0.006504982482989262   -0.0041601647797271345   -0.0007478935637197084
-0.0061062204730837595   -0.00407092349219052   -0.0011633471616726266
0.0   0.0   0.0
-0.0035377118225244433   -0.0036093283574444757   -0.0007075170578147913
-0.0061062204730837595   -0.00407092349219052   -0.0011633471616726266
0.0   0.0   0.0
0.0   0.0   0.0
-0.0036002029751279253   -0.0033341701742074592   -0.0013923256780785838
0.0   0.0   0.0
0.0   0.0   0.0
-0.0036002029751279253   -0.0033341701742074592   -0.0013923256780785838
-0.0016393182623535918   -0.003196137646519683   -0.0010589449471466905
0.0   0.0   0.0
-0.0015768700257758792   -0.0033051149794918002   -0.0009523223334713022
0.0   0.0   0.0
0.0   0.0   0.0
-0.0015768700257758792   -0.0033051149794918002   -0.0009523223334713022
0.0   0.0   0.0
0.0   0.0   0.0
-0.0015768700257758792   -0.0033051149794918002   -0.0009523223334713022
-0.0035291894524934657   -0.0035015628933905323   -0.0011664219379386935
-0.0036002029751279253   -0.0033341701742074592   -0.0013923256780785838
0.0   0.0   0.0
-0.0015768700257758792   -0.0033051149794918002   -0.0009523223334713022
-0.0036002029751279253   -0.0033341701742074592   -0.0013923256780785838
0.0   0.0   0.0
0.0   0.0   0.0
-0.0035291894524934657   -0.0035015628933905323   -0.0011664219379386935
0.0   0.0   0.0
0.0   0.0   0.0
-0.0035291894524934657   -0.0035015628933905323   -0.0011664219379386935
-0.0015768700257758792   -0.0033051149794918002   -0.0009523223334713022
0.0   0.0   0.0
-0.0015418797609497907   -0.0033466448707423053   -0.0008484614230400103
0.0   0.0   0.0
0.0   0.0   0.0
-0.0015418797609497907   -0.0033466448707423053   -0.0008484614230400103
0.0   0.0   0.0
0.0   0.0   0.0
-0.0015418797609497907   -0.0033466448707423053   -0.0008484614230400103
-0.003539344428136937   -0.003587323230307282   -0.0009408205744764246
-0.0035291894524934657   -0.0035015628933905323   -0.0011664219379386935
0.0   0.0   0.0
-0.0015418797609497907   -0.0033466448707423053   -0.0008484614230400103
-0.0035291894524934657   -0.0035015628933905323   -0.0011664219379386935
0.0   0.0   0.0
0.0   0.0   0.0
-0.003539344428136937   -0.003587323230307282   -0.0009408205744764246
0.0   0.0   0.0
0.0   0.0   0.0
-0.003539344428136937   -0.003587323230307282   -0.0009408205744764246
-0.0015418797609497907   -0.0033466448707423053   -0.0008484614230400103
0.0   0.0   0.0
-0.001510051759457466   -0.003329299750159376   -0.0007410644240468486
0.0   0.0   0.0
0.0   0.0   0.0
-0.001510051759457466   -0.003329299750159376   -0.0007410644240468486
0.0   0.0   0.0
0.0   0.0   0.0
-0.001510051759457466   -0.003329299750159376   -0.0007410644240468486
-0.0035377118225244433   -0.0036093283574444757   -0.0007075170578147913
-0.003539344428136937   -0.003587323230307282   -0.0009408205744764246
0.0   0.0   0.0
-0.001510051759457466   -0.003329299750159376   -0.0007410644240468486
-0.003539344428136937   -0.003587323230307282   -0.0009408205744764246
0.0   0.0   0.0
0.0   0.0   0.0
-0.0016393182623535918   -0.003196137646519683   -0.0010589449471466905
0.0   0.0   0.0
0.0   0.0   0.0
-0.0016393182623535918   -0.003196137646519683   -0.0010589449471466905
0.00021352209533871108   -0.003213791820827215   -0.0008464591433452196
0.0   0.0   0.0
0.00025328904637068504   -0.0032703006552547626   -0.0008612707147213884
0.0   0.0   0.0
0.0   0.0   0.0
0.00025328904637068504   -0.0032703006552547626   -0.0008612707147213884
0.0   0.0   0.0
0.0   0.0   0.0
0.00025328904637068504   -0.0032703006552547626   -0.0008612707147213884
-0.0015768700257758792   -0.0033051149794918002   -0.0009523223334713022
-0.0016393182623535918   -0.003196137646519683   -0.0010589449471466905
0.0   0.0   0.0
0.00025328904637068504   -0.0032703006552547626   -0.0008612707147213884
-0.0016393182623535918   -0.003196137646519683   -0.0010589449471466905
0.0   0.0   0.0
0.0   0.0   0.0
-0.0015768700257758792   -0.0033051149794918002   -0.0009523223334713022
0.0   0.0   0.0
0.0   0.0   0.0
-0.0015768700257758792   -0.0033051149794918002   -0.0009523223334713022
0.00025328904637068504   -0.0032703006552547626   -0.0008612707147213884
0.0   0.0   0.0
0.0002846489407773   -0.0032656375119857143   -0.0008746303399267658
0.0   0.0   0.0
0.0   0.0   0.0
0.0002846489407773   -0.0032656375119857143   -0.0008746303399267658
0.0   0.0   0.0
0.0   0.0   0.0
0.0002846489407773   -0.0032656375119857143   -0.0008746303399267658
-0.0015418797609497907   -0.0033466448707423053   -0.0008484614230400103
-0.0015768700257758792   -0.0033051149794918002   -0.0009523223334713022
0.0   0.0   0.0
0.0002846489407773   -0.0032656375119857143   -0.0008746303399267658
-0.0015768700257758792   -0.0033051149794918002   -0.0009523223334713022
0.0   0.0   0.0
0.0   0.0   0.0
-0.0015418797609497907   -0.0033466448707423053   -0.0008484614230400103
0.0   0.0   0.0
0.0   0.0   0.0
-0.0015418797609497907   -0.0033466448707423053   -0.0008484614230400103
0.0002846489407773   -0.0032656375119857143   -0.0008746303399267658
0.0   0.0   0.0
0.0003269108959067731   -0.0031947818772013986   -0.0008883373704118513
0.0   0.0   0.0
0.0   0.0   0.0
0.0003269108959067731   -0.0031947818772013986   -0.0008883373704118513
0.0   0.0   0.0
0.0   0.0   0.0
0.0003269108959067731   -0.0031947818772013986   -0.0008883373704118513
-0.001510051759457466   -0.003329299750159376   -0.0007410644240468486
-0.0015418797609497907   -0.0033466448707423053   -0.0008484614230400103
0.0   0.0   0.0
0.0003269108959067731   -0.0031947818772013986   -0.0008883373704118513
-0.0015418797609497907   -0.0033466448707423053   -0.0008484614230400103
0.0   0.0   0.0
0.0   0.0   0.0
0.00021352209533871108   -0.003213791820827215   -0.0008464591433452196
0.0   0.0   0.0
0.0   0.0   0.0
0.00021352209533871108   -0.003213791820827215   -0.0008464591433452196
0.0022245803807178573   -0.0033703435160762543   -0.0007413193687469837
0.0   0.0   0.0
0.002228248264945829   -0.0033883540856370683   -0.0008839050566959003
0.0   0.0   0.0
0.0   0.0   0.0
0.002228248264945829   -0.0033883540856370683   -0.0008839050566959003
0.0   0.0   0.0
0.0   0.0   0.0
0.002228248264945829   -0.0033883540856370683   -0.0008839050566959003
0.00025328904637068504   -0.0032703006552547626   -0.0008612707147213884
0.00021352209533871108   -0.003213791820827215   -0.0008464591433452196
0.0   0.0   0.0
0.002228248264945829   -0.0033883540856370683   -0.0008839050566959003
0.00021352209533871108   -0.003213791820827215   -0.0008464591433452196
0.0   0.0   0.0
0.0   0.0   0.0
0.00025328904637068504   -0.0032703006552547626   -0.0008612707147213884
0.0   0.0   0.0
0.0   0.0   0.0
0.00025328904637068504   -0.0032703006552547626   -0.0008612707147213884
0.002228248264945829   -0.0033883540856370683   -0.0008839050566959003
0.0   0.0   0.0
0.002218456985415914   -0.003339967606828169   -0.0010206677527342283
0.0   0.0   0.0
0.0   0.0   0.0
0.002218456985415914   -0.003339967606828169   -0.0010206677527342283
0.0   0.0   0.0
0.0   0.0   0.0
0.002218456985415914   -0.003339967606828169   -0.0010206677527342283
0.0002846489407773   -0.0032656375119857143   -0.0008746303399267658
0.00025328904637068504   -0.0032703006552547626   -0.0008612707147213884
0.0   0.0   0.0
0.002218456985415914   -0.003339967606828169   -0.0010206677527342283
0.00025328904637068504   -0.0032703006552547626   -0.0008612707147213884
0.0   0.0   0.0
0.0   0.0   0.0
0.0002846489407773   -0.0032656375119857143   -0.0008746303399267658
0.0   0.0   0.0
0.0   0.0   0.0
0.0002846489407773   -0.0032656375119857143   -0.0008746303399267658
0.002218456985415914   -0.003339967606828169   -0.0010206677527342283
0.0   0.0   0.0
0.002261183511962065   -0.0032103485034801938   -0.0011548083876952598
0.0   0.0   0.0
0.0   0.0   0.0
0.002261183511962065   -0.0032103485034801938   -0.0011548083876952598
0.0   0.0   0.0
0.0   0.0   0.0
0.002261183511962065   -0.0032103485034801938   -0.0011548083876952598
0.0003269108959067731   -0.0031947818772013986   -0.0008883373704118513
0.0002846489407773   -0.0032656375119857143   -0.0008746303399267658
0.0   0.0   0.0
0.002261183511962065   -0.0032103485034801938   -0.0011548083876952598
0.0002846489407773   -0.0032656375119857143   -0.0008746303399267658
0.0   0.0   0.0
0.0   0.0   0.0
0.0022245803807178573   -0.0033703435160762543   -0.0007413193687469837
0.0   0.0   0.0
0.0   0.0   0.0
0.0022245803807178573   -0.0033703435160762543   -0.0007413193687469837
0.005020786195869609   -0.0037670851748752873   -0.000699341348872382
0.0   0.0   0.0
0.004714954661692538   -0.003726009308174724   -0.0010225445359798356
0.0   0.0   0.0
0.0   0.0   0.0
0.004714954661692538   -0.003726009308174724   -0.0010225445359798356
0.0   0.0   0.0
0.0   0.0   0.0
0.004714954661692538   -0.003726009308174724   -0.0010225445359798356
0.002228248264945829   -0.0033883540856370683   -0.0008839050566959003
0.0022245803807178573   -0.0033703435160762543   -0.0007413193687469837
0.0   0.0   0.0
0.004714954661692538   -0.003726009308174724   -0.0010225445359798356
0.0022245803807178573   -0.0033703435160762543   -0.0007413193687469837
0.0   0.0   0.0
0.0   0.0   0.0
0.002228248264945829   -0.0033883540856370683   -0.0008839050566959003
0.0   0.0   0.0
0.0   0.0   0.0
0.002228248264945829   -0.0033883540856370683   -0.0008839050566959003
0.004714954661692538   -0.003726009308174724   -0.0010225445359798356
0.0   0.0   0.0
0.004573811486717024   -0.0036485408168155033   -0.0012958365766792205
0.0   0.0   0.0
0.0   0.0   0.0
0.004573811486717024   -0.0036485408168155033   -0.0012958365766792205
0.0   0.0   0.0
0.0   0.0   0.0
0.004573811486717024   -0.0036485408168155033   -0.0012958365766792205
0.002218456985415914   -0.003339967606828169   -0.0010206677527342283
0.002228248264945829   -0.0033883540856370683   -0.0008839050566959003
0.0   0.0   0.0
0.004573811486717024   -0.0036485408168155033   -0.0012958365766792205
0.002228248264945829   -0.0033883540856370683   -0.0008839050566959003
0.0   0.0   0.0
0.0   0.0   0.0
0.002218456985415914   -0.003339967606828169   -0.0010206677527342283
0.0   0.0   0.0
0.0   0.0   0.0
0.002218456985415914   -0.003339967606828169   -0.0010206677527342283
0.004573811486717024   -0.0036485408168155033   -0.0012958365766792205
0.0   0.0   0.0
0.004363862348709133   -0.0034502862387874294   -0.0015850000185978334
0.0   0.0   0.0
0.0   0.0   0.0
0.004363862348709133   -0.0034502862387874294   -0.0015850000185978334
0.0   0.0   0.0
0.0   0.0   0.0
0.004363862348709133   -0.0034502862387874294   -0.0015850000185978334
0.002261183511962065   -0.0032103485034801938   -0.0011548083876952598
0.002218456985415914   -0.003339967606828169   -0.0010206677527342283
0.0   0.0   0.0
0.004363862348709133   -0.0034502862387874294   -0.0015850000185978334
0.002218456985415914   -0.003339967606828169   -0.0010206677527342283
0.0   0.0   0.0
-0.005657454371326724   -0.0037104179970131068   -0.0018951020828683269
-0.010568009568651627   -0.010359413525258787   -0.0025531477520094386
-0.0036002029751279253   -0.0033341701742074592   -0.0013923256780785838
-0.005921024795562043   -0.003952981468764455   -0.001521428381745457
-0.010568009568651627   -0.010359413525258787   -0.0025531477520094386
-0.006745201808142199   -0.01002099094666885   -0.002101428344441672
-0.0036002029751279253   -0.0033341701742074592   -0.0013923256780785838
-0.006753438471199862   -0.01019227939297099   -0.001892461788420092
-0.005921024795562043   -0.003952981468764455   -0.001521428381745457
-0.0035291894524934657   -0.0035015628933905323   -0.0011664219379386935
-0.006753438471199862   -0.01019227939297099   -0.001892461788420092
-0.0036002029751279253   -0.0033341701742074592   -0.0013923256780785838
-0.005921024795562043   -0.003952981468764455   -0.001521428381745457
-0.006753438471199862   -0.01019227939297099   -0.001892461788420092
-0.01088499001669098   -0.010598400298485801   -0.002213779437635227
-0.010568009568651627   -0.010359413525258787   -0.0025531477520094386
-0.005921024795562043   -0.003952981468764455   -0.001521428381745457
-0.006753438471199862   -0.01019227939297099   -0.001892461788420092
-0.010568009568651627   -0.010359413525258787   -0.0025531477520094386
-0.0036002029751279253   -0.0033341701742074592   -0.0013923256780785838
-0.005921024795562043   -0.003952981468764455   -0.001521428381745457
-0.01088499001669098   -0.010598400298485801   -0.002213779437635227
-0.0035291894524934657   -0.0035015628933905323   -0.0011664219379386935
-0.0061062204730837595   -0.00407092349219052   -0.0011633471616726266
-0.01088499001669098   -0.010598400298485801   -0.002213779437635227
-0.006753438471199862   -0.01019227939297099   -0.001892461788420092
-0.0035291894524934657   -0.0035015628933905323   -0.0011664219379386935
-0.006780323929068623   -0.010296674137224132   -0.0016916362217071085
-0.0061062204730837595   -0.00407092349219052   -0.0011633471616726266
-0.003539344428136937   -0.003587323230307282   -0.0009408205744764246
-0.006780323929068623   -0.010296674137224132   -0.0016916362217071085
-0.0035291894524934657   -0.0035015628933905323   -0.0011664219379386935
-0.0061062204730837595   -0.00407092349219052   -0.0011633471616726266
-0.006780323929068623   -0.010296674137224132   -0.0016916362217071085
-0.011105338535717565   -0.010733346713571033   -0.001881456043091461
-0.01088499001669098   -0.010598400298485801   -0.002213779437635227
-0.0061062204730837595   -0.00407092349219052   -0.0011633471616726266
-0.006780323929068623   -0.010296674137224132   -0.0016916362217071085
-0.01088499001669098   -0.010598400298485801   -0.002213779437635227
-0.0035291894524934657   -0.0035015628933905323   -0.0011664219379386935
-0.0061062204730837595   -0.00407092349219052   -0.0011633471616726266
-0.011105338535717565   -0.010733346713571033   -0.001881456043091461
-0.003539344428136937   -0.003587323230307282   -0.0009408205744764246
-0.006504982482989262   -0.0041601647797271345   -0.0007478935637197084
-0.011105338535717565   -0.010733346713571033   -0.001881456043091461
-0.006780323929068623   -0.010296674137224132   -0.0016916362217071085
-0.003539344428136937   -0.003587323230307282   -0.0009408205744764246
-0.006760421927994031   -0.010350808094831831   -0.0015036394064428798
-0.006504982482989262   -0.0041601647797271345   -0.0007478935637197084
-0.0035377118225244433   -0.0036093283574444757   -0.0007075170578147913
-0.006760421927994031   -0.010350808094831831   -0.0015036394064428798
-0.003539344428136937   -0.003587323230307282   -0.0009408205744764246
-0.006504982482989262   -0.0041601647797271345   -0.0007478935637197084
-0.006760421927994031   -0.010350808094831831   -0.0015036394064428798
-0.01136579397802293   -0.01081174060448146   -0.0015790652849826498
-0.011105338535717565   -0.010733346713571033   -0.001881456043091461
-0.006504982482989262   -0.0041601647797271345   -0.0007478935637197084
-0.006760421927994031   -0.010350808094831831   -0.0015036394064428798
-0.011105338535717565   -0.010733346713571033   -0.001881456043091461
-0.003539344428136937   -0.003587323230307282   -0.0009408205744764246
-0.0036002029751279253   -0.0033341701742074592   -0.0013923256780785838
-0.006745201808142199   -0.01002099094666885   -0.002101428344441672
-0.0016393182623535918   -0.003196137646519683   -0.0010589449471466905
-0.0035291894524934657   -0.0035015628933905323   -0.0011664219379386935
-0.006745201808142199   -0.01002099094666885   -0.002101428344441672
-0.003129290604022726   -0.009863519885153558   -0.0017930466300596195
-0.0016393182623535918   -0.003196137646519683   -0.0010589449471466905
-0.003102569204439047   -0.00997255383839909   -0.0016859873624338435
-0.0035291894524934657   -0.0035015628933905323   -0.0011664219379386935
-0.0015768700257758792   -0.0033051149794918002   -0.0009523223334713022
-0.003102569204439047   -0.00997255383839909   -0.0016859873624338435
-0.0016393182623535918   -0.003196137646519683   -0.0010589449471466905
-0.0035291894524934657   -0.0035015628933905323   -0.0011664219379386935
-0.003102569204439047   -0.00997255383839909   -0.0016859873624338435
-0.006753438471199862   -0.01019227939297099   -0.001892461788420092
-0.006745201808142199   -0.01002099094666885   -0.002101428344441672
-0.0035291894524934657   -0.0035015628933905323   -0.0011664219379386935
-0.003102569204439047   -0.00997255383839909   -0.0016859873624338435
-0.006745201808142199   -0.01002099094666885   -0.002101428344441672
-0.0016393182623535918   -0.003196137646519683   -0.0010589449471466905
-0.0035291894524934657   -0.0035015628933905323   -0.0011664219379386935
-0.006753438471199862   -0.01019227939297099   -0.001892461788420092
-0.0015768700257758792   -0.0033051149794918002   -0.0009523223334713022
-0.003539344428136937   -0.003587323230307282   -0.0009408205744764246
-0.006753438471199862   -0.01019227939297099   -0.001892461788420092
-0.003102569204439047   -0.00997255383839909   -0.0016859873624338435
-0.0015768700257758792   -0.0033051149794918002   -0.0009523223334713022
-0.003078920823470024   -0.010025426566395993   -0.0015889246561556435
-0.003539344428136937   -0.003587323230307282   -0.0009408205744764246
-0.0015418797609497907   -0.0033466448707423053   -0.0008484614230400103
-0.003078920823470024   -0.010025426566395993   -0.0015889246561556435
-0.0015768700257758792   -0.0033051149794918002   -0.0009523223334713022
-0.003539344428136937   -0.003587323230307282   -0.0009408205744764246
-0.003078920823470024   -0.010025426566395993   -0.0015889246561556435
-0.006780323929068623   -0.010296674137224132   -0.0016916362217071085
-0.006753438471199862   -0.01019227939297099   -0.001892461788420092
-0.003539344428136937   -0.003587323230307282   -0.0009408205744764246
-0.003078920823470024   -0.010025426566395993   -0.0015889246561556435
-0.006753438471199862   -0.01019227939297099   -0.001892461788420092
-0.0015768700257758792   -0.0033051149794918002   -0.0009523223334713022
-0.003539344428136937   -0.003587323230307282   -0.0009408205744764246
-0.006780323929068623   -0.010296674137224132   -0.0016916362217071085
-0.0015418797609497907   -0.0033466448707423053   -0.0008484614230400103
-0.0035377118225244433   -0.0036093283574444757   -0.0007075170578147913
-0.006780323929068623   -0.010296674137224132   -0.0016916362217071085
-0.003078920823470024   -0.010025426566395993   -0.0015889246561556435
-0.0015418797609497907   -0.0033466448707423053   -0.0008484614230400103
-0.0030435015905856634   -0.010024131774993117   -0.0015044066487422568
-0.0035377118225244433   -0.0036093283574444757   -0.0007075170578147913
-0.001510051759457466   -0.003329299750159376   -0.0007410644240468486
-0.0030435015905856634   -0.010024131774993117   -0.0015044066487422568
-0.0015418797609497907   -0.0033466448707423053   -0.0008484614230400103
-0.0035377118225244433   -0.0036093283574444757   -0.0007075170578147913
-0.0030435015905856634   -0.010024131774993117   -0.0015044066487422568
-0.006760421927994031   -0.010350808094831831   -0.0015036394064428798
-0.006780323929068623   -0.010296674137224132   -0.0016916362217071085
-0.0035377118225244433   -0.0036093283574444757   -0.0007075170578147913
-0.0030435015905856634   -0.010024131774993117   -0.0015044066487422568
-0.006780323929068623   -0.010296674137224132   -0.0016916362217071085
-0.0015418797609497907   -0.0033466448707423053   -0.0008484614230400103
-0.0016393182623535918   -0.003196137646519683   -0.0010589449471466905
-0.003129290604022726   -0.009863519885153558   -0.0017930466300596195
0.00021352209533871108   -0.003213791820827215   -0.0008464591433452196
-0.0015768700257758792   -0.0033051149794918002   -0.0009523223334713022
-0.003129290604022726   -0.009863519885153558   -0.0017930466300596195
0.0003577212729630957   -0.009868191840173141   -0.001598038053004
0.00021352209533871108   -0.003213791820827215   -0.0008464591433452196
0.0003906136314240818   -0.009919870872546713   -0.0015910002207128557
-0.0015768700257758792   -0.0033051149794918002   -0.0009523223334713022
0.00025328904637068504   -0.0032703006552547626   -0.0008612707147213884
0.0003906136314240818   -0.009919870872546713   -0.0015910002207128557
0.00021352209533871108   -0.003213791820827215   -0.0008464591433452196
-0.0015768700257758792   -0.0033051149794918002   -0.0009523223334713022
0.0003906136314240818   -0.009919870872546713   -0.0015910002207128557
-0.003102569204439047   -0.00997255383839909   -0.0016859873624338435
-0.003129290604022726   -0.009863519885153558   -0.0017930466300596195
-0.0015768700257758792   -0.0033051149794918002   -0.0009523223334713022
0.0003906136314240818   -0.009919870872546713   -0.0015910002207128557
-0.003129290604022726   -0.009863519885153558   -0.0017930466300596195
0.00021352209533871108   -0.003213791820827215   -0.0008464591433452196
-0.0015768700257758792   -0.0033051149794918002   -0.0009523223334713022
-0.003102569204439047   -0.00997255383839909   -0.0016859873624338435
0.00025328904637068504   -0.0032703006552547626   -0.0008612707147213884
-0.0015418797609497907   -0.0033466448707423053   -0.0008484614230400103
-0.003102569204439047   -0.00997255383839909   -0.0016859873624338435
0.0003906136314240818   -0.009919870872546713   -0.0015910002207128557
0.00025328904637068504   -0.0032703006552547626   -0.0008612707147213884
0.0004126577168890831   -0.009916706152590897   -0.0015953093764254553
-0.0015418797609497907   -0.0033466448707423053   -0.0008484614230400103
0.0002846489407773   -0.0032656375119857143   -0.0008746303399267658
0.0004126577168890831   -0.009916706152590897   -0.0015953093764254553
0.00025328904637068504   -0.0032703006552547626   -0.0008612707147213884
-0.0015418797609497907   -0.0033466448707423053   -0.0008484614230400103
0.0004126577168890831   -0.009916706152590897   -0.0015953093764254553
-0.003078920823470024   -0.010025426566395993   -0.0015889246561556435
-0.003102569204439047   -0.00997255383839909   -0.0016859873624338435
-0.0015418797609497907   -0.0033466448707423053   -0.0008484614230400103
0.0004126577168890831   -0.009916706152590897   -0.0015953093764254553
-0.003102569204439047   -0.00997255383839909   -0.0016859873624338435
0.00025328904637068504   -0.0032703006552547626   -0.0008612707147213884
-0.0015418797609497907   -0.0033466448707423053   -0.0008484614230400103
-0.003078920823470024   -0.010025426566395993   -0.0015889246561556435
0.0002846489407773   -0.0032656375119857143   -0.0008746303399267658
-0.001510051759457466   -0.003329299750159376   -0.0007410644240468486
-0.003078920823470024   -0.010025426566395993   -0.0015889246561556435
0.0004126577168890831   -0.009916706152590897   -0.0015953093764254553
0.0002846489407773   -0.0032656375119857143   -0.0008746303399267658
0.00043632830859130115   -0.009857022759294991   -0.0016111452887890734
-0.001510051759457466   -0.003329299750159376   -0.0007410644240468486
0.0003269108959067731   -0.0031947818772013986   -0.0008883373704118513
0.00043632830859130115   -0.009857022759294991   -0.0016111452887890734
0.0002846489407773   -0.0032656375119857143   -0.0008746303399267658
-0.001510051759457466   -0.003329299750159376   -0.0007410644240468486
0.00043632830859130115   -0.009857022759294991   -0.0016111452887890734
-0.0030435015905856634   -0.010024131774993117   -0.0015044066487422568
-0.003078920823470024   -0.010025426566395993   -0.0015889246561556435
-0.001510051759457466   -0.003329299750159376   -0.0007410644240468486
0.00043632830859130115   -0.009857022759294991   -0.0016111452887890734
-0.003078920823470024   -0.010025426566395993   -0.0015889246561556435
0.0002846489407773   -0.0032656375119857143   -0.0008746303399267658
0.00021352209533871108   -0.003213791820827215   -0.0008464591433452196
0.0003577212729630957   -0.009868191840173141   -0.001598038053004
0.0022245803807178573   -0.0033703435160762543   -0.0007413193687469837
0.00025328904637068504   -0.0032703006552547626   -0.0008612707147213884
0.0003577212729630957   -0.009868191840173141   -0.001598038053004
0.004052824478830187   -0.010029148742327389   -0.0015070103573868157
0.0022245803807178573   -0.0033703435160762543   -0.0007413193687469837
0.00407129609954749   -0.01002872701884529   -0.001603239407566187
0.00025328904637068504   -0.0032703006552547626   -0.0008612707147213884
0.002228248264945829   -0.0033883540856370683   -0.0008839050566959003
0.00407129609954749   -0.01002872701884529   -0.001603239407566187
0.0022245803807178573   -0.0033703435160762543   -0.0007413193687469837
0.00025328904637068504   -0.0032703006552547626   -0.0008612707147213884
0.00407129609954749   -0.01002872701884529   -0.001603239407566187
0.0003906136314240818   -0.009919870872546713   -0.0015910002207128557
0.0003577212729630957   -0.009868191840173141   -0.001598038053004
0.00025328904637068504   -0.0032703006552547626   -0.0008612707147213884
0.00407129609954749   -0.01002872701884529   -0.001603239407566187
0.0003577212729630957   -0.009868191840173141   -0.001598038053004
0.0022245803807178573   -0.0033703435160762543   -0.0007413193687469837
0.00025328904637068504   -0.0032703006552547626   -0.0008612707147213884
0.0003906136314240818   -0.009919870872546713   -0.0015910002207128557
0.002228248264945829   -0.0033883540856370683   -0.0008839050566959003
0.0002846489407773   -0.0032656375119857143   -0.0008746303399267658
0.0003906136314240818   -0.009919870872546713   -0.0015910002207128557
0.00407129609954749   -0.01002872701884529   -0.001603239407566187
0.002228248264945829   -0.0033883540856370683   -0.0008839050566959003
0.0040522025376552384   -0.009974519619092462   -0.0017123065514707619
0.0002846489407773   -0.0032656375119857143   -0.0008746303399267658
0.002218456985415914   -0.003339967606828169   -0.0010206677527342283
0.0040522025376552384   -0.009974519619092462   -0.0017123065514707619
0.002228248264945829   -0.0033883540856370683   -0.0008839050566959003
0.0002846489407773   -0.0032656375119857143   -0.0008746303399267658
0.0040522025376552384   -0.009974519619092462   -0.0017123065514707619
0.0004126577168890831   -0.009916706152590897   -0.0015953093764254553
0.0003906136314240818   -0.009919870872546713   -0.0015910002207128557
0.0002846489407773   -0.0032656375119857143   -0.0008746303399267658
0.0040522025376552384   -0.009974519619092462   -0.0017123065514707619
0.0003906136314240818   -0.009919870872546713   -0.0015910002207128557
0.002228248264945829   -0.0033883540856370683   -0.0008839050566959003
0.0002846489407773   -0.0032656375119857143   -0.0008746303399267658
0.0004126577168890831   -0.009916706152590897   -0.0015953093764254553
0.002218456985415914   -0.003339967606828169   -0.0010206677527342283
0.0003269108959067731   -0.0031947818772013986   -0.0008883373704118513
0.0004126577168890831   -0.009916706152590897   -0.0015953093764254553
0.0040522025376552384   -0.009974519619092462   -0.0017123065514707619
0.002218456985415914   -0.003339967606828169   -0.0010206677527342283
0.004041159120562534   -0.00985169345538925   -0.0018301774416431143
0.0003269108959067731   -0.0031947818772013986   -0.0008883373704118513
0.002261183511962065   -0.0032103485034801938   -0.0011548083876952598
0.004041159120562534   -0.00985169345538925   -0.0018301774416431143
0.002218456985415914   -0.003339967606828169   -0.0010206677527342283
0.0003269108959067731   -0.0031947818772013986   -0.0008883373704118513
0.004041159120562534   -0.00985169345538925   -0.0018301774416431143
0.00043632830859130115   -0.009857022759294991   -0.0016111452887890734
0.0004126577168890831   -0.009916706152590897   -0.0015953093764254553
0.0003269108959067731   -0.0031947818772013986   -0.0008883373704118513
0.004041159120562534   -0.00985169345538925   -0.0018301774416431143
0.0004126577168890831   -0.009916706152590897   -0.0015953093764254553
0.002218456985415914   -0.003339967606828169   -0.0010206677527342283
0.0022245803807178573   -0.0033703435160762543   -0.0007413193687469837
0.004052824478830187   -0.010029148742327389   -0.0015070103573868157
0.005020786195869609   -0.0037670851748752873   -0.000699341348872382
0.002228248264945829   -0.0033883540856370683   -0.0008839050566959003
0.004052824478830187   -0.010029148742327389   -0.0015070103573868157
0.00851139777258428   -0.010328377036517978   -0.0014824245731648498
0.005020786195869609   -0.0037670851748752873   -0.000699341348872382
0.008337840053303437   -0.010300250439508848   -0.0016988787232925994
0.002228248264945829   -0.0033883540856370683   -0.0008839050566959003
0.004714954661692538   -0.003726009308174724   -0.0010225445359798356
0.008337840053303437   -0.010300250439508848   -0.0016988787232925994
0.005020786195869609   -0.0037670851748752873   -0.000699341348872382
0.002228248264945829   -0.0033883540856370683   -0.0008839050566959003
0.008337840053303437   -0.010300250439508848   -0.0016988787232925994
0.00407129609954749   -0.01002872701884529   -0.001603239407566187
0.004052824478830187   -0.010029148742327389   -0.0015070103573868157
0.002228248264945829   -0.0033883540856370683   -0.0008839050566959003
0.008337840053303437   -0.010300250439508848   -0.0016988787232925994
0.004052824478830187   -0.010029148742327389   -0.0015070103573868157
0.005020786195869609   -0.0037670851748752873   -0.000699341348872382
0.002228248264945829   -0.0033883540856370683   -0.0008839050566959003
0.00407129609954749   -0.01002872701884529   -0.001603239407566187
0.004714954661692538   -0.003726009308174724   -0.0010225445359798356
0.002218456985415914   -0.003339967606828169   -0.0010206677527342283
0.00407129609954749   -0.01002872701884529   -0.001603239407566187
0.008337840053303437   -0.010300250439508848   -0.0016988787232925994
0.004714954661692538   -0.003726009308174724   -0.0010225445359798356
0.00818276837741754   -0.01021666752920748   -0.0019423482494719088
0.002218456985415914   -0.003339967606828169   -0.0010206677527342283
0.004573811486717024   -0.0036485408168155033   -0.0012958365766792205
0.00818276837741754   -0.01021666752920748   -0.0019423482494719088
0.004714954661692538   -0.003726009308174724   -0.0010225445359798356
0.002218456985415914   -0.003339967606828169   -0.0010206677527342283
0.00818276837741754   -0.01021666752920748   -0.0019423482494719088
0.0040522025376552384   -0.009974519619092462   -0.0017123065514707619
0.00407129609954749   -0.01002872701884529   -0.001603239407566187
0.002218456985415914   -0.003339967606828169   -0.0010206677527342283
0.00818276837741754   -0.01021666752920748   -0.0019423482494719088
0.00407129609954749   -0.01002872701884529   -0.001603239407566187
0.004714954661692538   -0.003726009308174724   -0.0010225445359798356
0.002218456985415914   -0.003339967606828169   -0.0010206677527342283
0.0040522025376552384   -0.009974519619092462   -0.0017123065514707619
0.004573811486717024   -0.0036485408168155033   -0.0012958365766792205
0.002261183511962065   -0.0032103485034801938   -0.0011548083876952598
0.0040522025376552384   -0.009974519619092462   -0.0017123065514707619
0.00818276837741754   -0.01021666752920748   -0.0019423482494719088
0.004573811486717024   -0.0036485408168155033   -0.0012958365766792205
0.007950567626052216   -0.010030620567723962   -0.0021957687000886206
0.002261183511962065   -0.0032103485034801938   -0.0011548083876952598
0.004363862348709133   -0.0034502862387874294   -0.0015850000185978334
0.007950567626052216   -0.010030620567723962   -0.0021957687000886206
0.004573811486717024   -0.0036485408168155033   -0.0012958365766792205
0.002261183511962065   -0.0032103485034801938   -0.0011548083876952598
0.007950567626052216   -0.010030620567723962   -0.0021957687000886206
0.004041159120562534   -0.00985169345538925   -0.0018301774416431143
0.0040522025376552384   -0.009974519619092462   -0.0017123065514707619
0.002261183511962065   -0.0032103485034801938   -0.0011548083876952598
0.007950567626052216   -0.010030620567723962   -0.0021957687000886206
0.0040522025376552384   -0.009974519619092462   -0.0017123065514707619
0.004573811486717024   -0.0036485408168155033   -0.0012958365766792205
-0.010568009568651627   -0.010359413525258787   -0.0025531477520094386
-0.014481282327757562   -0.019430666269311638   -0.00290788177780845
-0.006745201808142199   -0.01002099094666885   -0.002101428344441672
-0.01088499001669098   -0.010598400298485801   -0.002213779437635227
-0.014481282327757562   -0.019430666269311638   -0.00290788177780845
-0.009310330347502099   -0.01917199594064506   -0.0025414346445895636
-0.006745201808142199   -0.01002099094666885   -0.002101428344441672
-0.009331051583939596   -0.019319867539103548   -0.0023792816926271033
-0.01088499001669098   -0.010598400298485801   -0.002213779437635227
-0.006753438471199862   -0.01019227939297099   -0.001892461788420092
-0.009331051583939596   -0.019319867539103548   -0.0023792816926271033
-0.006745201808142199   -0.01002099094666885   -0.002101428344441672
-0.01088499001669098   -0.010598400298485801   -0.002213779437635227
-0.009331051583939596   -0.019319867539103548   -0.0023792816926271033
-0.014739211533885813   -0.019632740461363294   -0.00265472862612007
-0.014481282327757562   -0.019430666269311638   -0.00290788177780845
-0.01088499001669098   -0.010598400298485801   -0.002213779437635227
-0.009331051583939596   -0.019319867539103548   -0.0023792816926271033
-0.014481282327757562   -0.019430666269311638   -0.00290788177780845
-0.006745201808142199   -0.01002099094666885   -0.002101428344441672
-0.01088499001669098   -0.010598400298485801   -0.002213779437635227
-0.014739211533885813   -0.019632740461363294   -0.00265472862612007
-0.006753438471199862   -0.01019227939297099   -0.001892461788420092
-0.011105338535717565   -0.010733346713571033   -0.001881456043091461
-0.014739211533885813   -0.019632740461363294   -0.00265472862612007
-0.009331051583939596   -0.019319867539103548   -0.0023792816926271033
-0.006753438471199862   -0.01019227939297099   -0.001892461788420092
-0.00935541494350305   -0.019422755062199603   -0.00222885295400725
-0.011105338535717565   -0.010733346713571033   -0.001881456043091461
-0.006780323929068623   -0.010296674137224132   -0.0016916362217071085
-0.00935541494350305   -0.019422755062199603   -0.00222885295400725
-0.006753438471199862   -0.01019227939297099   -0.001892461788420092
-0.011105338535717565   -0.010733346713571033   -0.001881456043091461
-0.00935541494350305   -0.019422755062199603   -0.00222885295400725
-0.014901954427215825   -0.019759434807185543   -0.0024187625575033305
-0.014739211533885813   -0.019632740461363294   -0.00265472862612007
-0.011105338535717565   -0.010733346713571033   -0.001881456043091461
-0.00935541494350305   -0.019422755062199603   -0.00222885295400725
-0.014739211533885813   -0.019632740461363294   -0.00265472862612007
-0.006753438471199862   -0.01019227939297099   -0.001892461788420092
-0.011105338535717565   -0.010733346713571033   -0.001881456043091461
-0.014901954427215825   -0.019759434807185543   -0.0024187625575033305
-0.006780323929068623   -0.010296674137224132   -0.0016916362217071085
-0.01136579397802293   -0.01081174060448146   -0.0015790652849826498
-0.014901954427215825   -0.019759434807185543   -0.0024187625575033305
-0.00935541494350305   -0.019422755062199603   -0.00222885295400725
-0.006780323929068623   -0.010296674137224132   -0.0016916362217071085
-0.009338203188103883   -0.019490417829693237   -0.0020876513679786665
-0.01136579397802293   -0.01081174060448146   -0.0015790652849826498
-0.006760421927994031   -0.010350808094831831   -0.0015036394064428798
-0.009338203188103883   -0.019490417829693237   -0.0020876513679786665
-0.006780323929068623   -0.010296674137224132   -0.0016916362217071085
-0.01136579397802293   -0.01081174060448146   -0.0015790652849826498
-0.009338203188103883   -0.019490417829693237   -0.0020876513679786665
-0.015087123097992402   -0.019850506047147266   -0.0022015905996209057
-0.014901954427215825   -0.019759434807185543   -0.0024187625575033305
-0.01136579397802293   -0.01081174060448146   -0.0015790652849826498
-0.009338203188103883   -0.019490417829693237   -0.0020876513679786665
-0.014901954427215825   -0.019759434807185543   -0.0024187625575033305
-0.006780323929068623   -0.010296674137224132   -0.0016916362217071085
-0.006745201808142199   -0.01002099094666885   -0.002101428344441672
-0.009310330347502099   -0.01917199594064506   -0.0025414346445895636
-0.003129290604022726   -0.009863519885153558   -0.0017930466300596195
-0.006753438471199862   -0.01019227939297099   -0.001892461788420092
-0.009310330347502099   -0.01917199594064506   -0.0025414346445895636
-0.004434436758186893   -0.019043045602982783   -0.0022868329204999917
-0.003129290604022726   -0.009863519885153558   -0.0017930466300596195
-0.00442363972308181   -0.019137615908786102   -0.0021952180468396715
-0.006753438471199862   -0.01019227939297099   -0.001892461788420092
-0.003102569204439047   -0.00997255383839909   -0.0016859873624338435
-0.00442363972308181   -0.019137615908786102   -0.0021952180468396715
-0.003129290604022726   -0.009863519885153558   -0.0017930466300596195
-0.006753438471199862   -0.01019227939297099   -0.001892461788420092
-0.00442363972308181   -0.019137615908786102   -0.0021952180468396715
-0.009331051583939596   -0.019319867539103548   -0.0023792816926271033
-0.009310330347502099   -0.01917199594064506   -0.0025414346445895636
-0.006753438471199862   -0.01019227939297099   -0.001892461788420092
-0.00442363972308181   -0.019137615908786102   -0.0021952180468396715
-0.009310330347502099   -0.01917199594064506   -0.0025414346445895636
-0.003129290604022726   -0.009863519885153558   -0.0017930466300596195
-0.006753438471199862   -0.01019227939297099   -0.001892461788420092
-0.009331051583939596   -0.019319867539103548   -0.0023792816926271033
-0.003102569204439047   -0.00997255383839909   -0.0016859873624338435
-0.006780323929068623   -0.010296674137224132   -0.0016916362217071085
-0.009331051583939596   -0.019319867539103548   -0.0023792816926271033
-0.00442363972308181   -0.019137615908786102   -0.0021952180468396715
-0.003102569204439047   -0.00997255383839909   -0.0016859873624338435
-0.004410342942589383   -0.01919315910026644   -0.002114769085901161
-0.006780323929068623   -0.010296674137224132   -0.0016916362217071085
-0.003078920823470024   -0.010025426566395993   -0.0015889246561556435
-0.004410342942589383   -0.01919315910026644   -0.002114769085901161
-0.003102569204439047   -0.00997255383839909   -0.0016859873624338435
-0.006780323929068623   -0.010296674137224132   -0.0016916362217071085
-0.004410342942589383   -0.01919315910026644   -0.002114769085901161
-0.00935541494350305   -0.019422755062199603   -0.00222885295400725
-0.009331051583939596   -0.019319867539103548   -0.0023792816926271033
-0.006780323929068623   -0.010296674137224132   -0.0016916362217071085
-0.004410342942589383   -0.01919315910026644   -0.002114769085901161
-0.009331051583939596   -0.019319867539103548   -0.0023792816926271033
-0.003102569204439047   -0.00997255383839909   -0.0016859873624338435
-0.006780323929068623   -0.010296674137224132   -0.0016916362217071085
-0.00935541494350305   -0.019422755062199603   -0.00222885295400725
-0.003078920823470024   -0.010025426566395993   -0.0015889246561556435
-0.006760421927994031   -0.010350808094831831   -0.0015036394064428798
-0.00935541494350305   -0.019422755062199603   -0.00222885295400725
-0.004410342942589383   -0.01919315910026644   -0.002114769085901161
-0.003078920823470024   -0.010025426566395993   -0.0015889246561556435
-0.004388291702074092   -0.019210469281683643   -0.0020454519598764186
-0.006760421927994031   -0.010350808094831831   -0.0015036394064428798
-0.0030435015905856634   -0.010024131774993117   -0.0015044066487422568
-0.004388291702074092   -0.019210469281683643   -0.0020454519598764186
-0.003078920823470024   -0.010025426566395993   -0.0015889246561556435
-0.006760421927994031   -0.010350808094831831   -0.0015036394064428798
-0.004388291702074092   -0.019210469281683643   -0.0020454519598764186
-0.009338203188103883   -0.019490417829693237   -0.0020876513679786665
-0.00935541494350305   -0.019422755062199603   -0.00222885295400725
-0.006760421927994031   -0.010350808094831831   -0.0015036394064428798
-0.004388291702074092   -0.019210469281683643   -0.0020454519598764186
-0.00935541494350305   -0.019422755062199603   -0.00222885295400725
-0.003078920823470024   -0.010025426566395993   -0.0015889246561556435
-0.003129290604022726   -0.009863519885153558   -0.0017930466300596195
-0.004434436758186893   -0.019043045602982783   -0.0022868329204999917
0.0003577212729630957   -0.009868191840173141   -0.001598038053004
-0.003102569204439047   -0.00997255383839909   -0.0016859873624338435
-0.004434436758186893   -0.019043045602982783   -0.0022868329204999917
0.0002983847598455757   -0.019036186284796856   -0.0021289372760351522
0.0003577212729630957   -0.009868191840173141   -0.001598038053004
0.00031849078647459584   -0.019078297788365464   -0.002107480718047823
-0.003102569204439047   -0.00997255383839909   -0.0016859873624338435
0.0003906136314240818   -0.009919870872546713   -0.0015910002207128557
0.00031849078647459584   -0.019078297788365464   -0.002107480718047823
0.0003577212729630957   -0.009868191840173141   -0.001598038053004
-0.003102569204439047   -0.00997255383839909   -0.0016859873624338435
0.00031849078647459584   -0.019078297788365464   -0.002107480718047823
-0.00442363972308181   -0.019137615908786102   -0.0021952180468396715
-0.004434436758186893   -0.019043045602982783   -0.0022868329204999917
-0.003102569204439047   -0.00997255383839909   -0.0016859873624338435
0.00031849078647459584   -0.019078297788365464   -0.002107480718047823
-0.004434436758186893   -0.019043045602982783   -0.0022868329204999917
0.0003577212729630957   -0.009868191840173141   -0.001598038053004
-0.003102569204439047   -0.00997255383839909   -0.0016859873624338435
-0.00442363972308181   -0.019137615908786102   -0.0021952180468396715
0.0003906136314240818   -0.009919870872546713   -0.0015910002207128557
-0.003078920823470024   -0.010025426566395993   -0.0015889246561556435
-0.00442363972308181   -0.019137615908786102   -0.0021952180468396715
0.00031849078647459584   -0.019078297788365464   -0.002107480718047823
0.0003906136314240818   -0.009919870872546713   -0.0015910002207128557
0.0003312704665886275   -0.019081539393919066   -0.0020968974261907545
-0.003078920823470024   -0.010025426566395993   -0.0015889246561556435
0.0004126577168890831   -0.009916706152590897   -0.0015953093764254553
0.0003312704665886275   -0.019081539393919066   -0.0020968974261907545
0.0003906136314240818   -0.009919870872546713   -0.0015910002207128557
-0.003078920823470024   -0.010025426566395993   -0.0015889246561556435
0.0003312704665886275   -0.019081539393919066   -0.0020968974261907545
-0.004410342942589383   -0.01919315910026644   -0.002114769085901161
-0.00442363972308181   -0.019137615908786102   -0.0021952180468396715
-0.003078920823470024   -0.010025426566395993   -0.0015889246561556435
0.0003312704665886275   -0.019081539393919066   -0.0020968974261907545
-0.00442363972308181   -0.019137615908786102   -0.0021952180468396715
0.0003906136314240818   -0.009919870872546713   -0.0015910002207128557
-0.003078920823470024   -0.010025426566395993   -0.0015889246561556435
-0.004410342942589383   -0.01919315910026644   -0.002114769085901161
0.0004126577168890831   -0.009916706152590897   -0.0015953093764254553
-0.0030435015905856634   -0.010024131774993117   -0.0015044066487422568
-0.004410342942589383   -0.01919315910026644   -0.002114769085901161
0.0003312704665886275   -0.019081539393919066   -0.0020968974261907545
0.0004126577168890831   -0.009916706152590897   -0.0015953093764254553
0.00034042607541085536   -0.019045331202249032   -0.0020978492760548167
-0.0030435015905856634   -0.010024131774993117   -0.0015044066487422568
0.00043632830859130115   -0.009857022759294991   -0.0016111452887890734
0.00034042607541085536   -0.019045331202249032   -0.0020978492760548167
0.0004126577168890831   -0.009916706152590897   -0.0015953093764254553
-0.0030435015905856634   -0.010024131774993117   -0.0015044066487422568
0.00034042607541085536   -0.019045331202249032   -0.0020978492760548167
-0.004388291702074092   -0.019210469281683643   -0.0020454519598764186
-0.004410342942589383   -0.01919315910026644   -0.002114769085901161
-0.0030435015905856634   -0.010024131774993117   -0.0015044066487422568
0.00034042607541085536   -0.019045331202249032   -0.0020978492760548167
-0.004410342942589383   -0.01919315910026644   -0.002114769085901161
0.0004126577168890831   -0.009916706152590897   -0.0015953093764254553
0.0003577212729630957   -0.009868191840173141   -0.001598038053004
0.0002983847598455757   -0.019036186284796856   -0.0021289372760351522
0.004052824478830187   -0.010029148742327389   -0.0015070103573868157
0.0003906136314240818   -0.009919870872546713   -0.0015910002207128557
0.0002983847598455757   -0.019036186284796856   -0.0021289372760351522
0.005233122103716859   -0.019144163260806608   -0.0020650416629987467
0.004052824478830187   -0.010029148742327389   -0.0015070103573868157
0.005250616069255467   -0.019138201370710466   -0.002115202722319625
0.0003906136314240818   -0.009919870872546713   -0.0015910002207128557
0.00407129609954749   -0.01002872701884529   -0.001603239407566187
0.005250616069255467   -0.019138201370710466   -0.002115202722319625
0.004052824478830187   -0.010029148742327389   -0.0015070103573868157
0.0003906136314240818   -0.009919870872546713   -0.0015910002207128557
0.005250616069255467   -0.019138201370710466   -0.002115202722319625
0.00031849078647459584   -0.019078297788365464   -0.002107480718047823
0.0002983847598455757   -0.019036186284796856   -0.0021289372760351522
0.0003906136314240818   -0.009919870872546713   -0.0015910002207128557
0.005250616069255467   -0.019138201370710466   -0.002115202722319625
0.0002983847598455757   -0.019036186284796856   -0.0021289372760351522
0.004052824478830187   -0.010029148742327389   -0.0015070103573868157
0.0003906136314240818   -0.009919870872546713   -0.0015910002207128557
0.00031849078647459584   -0.019078297788365464   -0.002107480718047823
0.00407129609954749   -0.01002872701884529   -0.001603239407566187
0.0004126577168890831   -0.009916706152590897   -0.0015953093764254553
0.00031849078647459584   -0.019078297788365464   -0.002107480718047823
0.005250616069255467   -0.019138201370710466   -0.002115202722319625
0.00407129609954749   -0.01002872701884529   -0.001603239407566187
0.005236995383624795   -0.019094194730383245   -0.0021754380817911134
0.0004126577168890831   -0.009916706152590897   -0.0015953093764254553
0.0040522025376552384   -0.009974519619092462   -0.0017123065514707619
0.005236995383624795   -0.019094194730383245   -0.0021754380817911134
0.00407129609954749   -0.01002872701884529   -0.001603239407566187
0.0004126577168890831   -0.009916706152590897   -0.0015953093764254553
0.005236995383624795   -0.019094194730383245   -0.0021754380817911134
0.0003312704665886275   -0.019081539393919066   -0.0020968974261907545
0.00031849078647459584   -0.019078297788365464   -0.002107480718047823
0.0004126577168890831   -0.009916706152590897   -0.0015953093764254553
0.005236995383624795   -0.019094194730383245   -0.0021754380817911134
0.00031849078647459584   -0.019078297788365464   -0.002107480718047823
0.00407129609954749   -0.01002872701884529   -0.001603239407566187
0.0004126577168890831   -0.009916706152590897   -0.0015953093764254553
0.0003312704665886275   -0.019081539393919066   -0.0020968974261907545
0.0040522025376552384   -0.009974519619092462   -0.0017123065514707619
0.00043632830859130115   -0.009857022759294991   -0.0016111452887890734
0.0003312704665886275   -0.019081539393919066   -0.0020968974261907545
0.005236995383624795   -0.019094194730383245   -0.0021754380817911134
0.0040522025376552384   -0.009974519619092462   -0.0017123065514707619
0.0052167737176246655   -0.019002732172274165   -0.0022469404526697296
0.00043632830859130115   -0.009857022759294991   -0.0016111452887890734
0.004041159120562534   -0.00985169345538925   -0.0018301774416431143
0.0052167737176246655   -0.019002732172274165   -0.0022469404526697296
0.0040522025376552384   -0.009974519619092462   -0.0017123065514707619
0.00043632830859130115   -0.009857022759294991   -0.0016111452887890734
0.0052167737176246655   -0.019002732172274165   -0.0022469404526697296
0.00034042607541085536   -0.019045331202249032   -0.0020978492760548167
0.0003312704665886275   -0.019081539393919066   -0.0020968974261907545
0.00043632830859130115   -0.009857022759294991   -0.0016111452887890734
0.0052167737176246655   -0.019002732172274165   -0.0022469404526697296
0.0003312704665886275   -0.019081539393919066   -0.0020968974261907545
0.0040522025376552384   -0.009974519619092462   -0.0017123065514707619
0.004052824478830187   -0.010029148742327389   -0.0015070103573868157
0.005233122103716859   -0.019144163260806608   -0.0020650416629987467
0.00851139777258428   -0.010328377036517978   -0.0014824245731648498
0.00407129609954749   -0.01002872701884529   -0.001603239407566187
0.005233122103716859   -0.019144163260806608   -0.0020650416629987467
0.010852882059983679   -0.019340070951891573   -0.002066142584149675
0.00851139777258428   -0.010328377036517978   -0.0014824245731648498
0.010758035957688178   -0.01930642442385226   -0.002197166442111518
0.00407129609954749   -0.01002872701884529   -0.001603239407566187
0.008337840053303437   -0.010300250439508848   -0.0016988787232925994
0.010758035957688178   -0.01930642442385226   -0.002197166442111518
0.00851139777258428   -0.010328377036517978   -0.0014824245731648498
0.00407129609954749   -0.01002872701884529   -0.001603239407566187
0.010758035957688178   -0.01930642442385226   -0.002197166442111518
0.005250616069255467   -0.019138201370710466   -0.002115202722319625
0.005233122103716859   -0.019144163260806608   -0.0020650416629987467
0.00407129609954749   -0.01002872701884529   -0.001603239407566187
0.010758035957688178   -0.01930642442385226   -0.002197166442111518
0.005233122103716859   -0.019144163260806608   -0.0020650416629987467
0.00851139777258428   -0.010328377036517978   -0.0014824245731648498
0.00407129609954749   -0.01002872701884529   -0.001603239407566187
0.005250616069255467   -0.019138201370710466   -0.002115202722319625
0.008337840053303437   -0.010300250439508848   -0.0016988787232925994
0.0040522025376552384   -0.009974519619092462   -0.0017123065514707619
0.005250616069255467   -0.019138201370710466   -0.002115202722319625
0.010758035957688178   -0.01930642442385226   -0.002197166442111518
0.008337840053303437   -0.010300250439508848   -0.0016988787232925994
0.010663420715296199   -0.01923865395346493   -0.002346356565282966
0.0040522025376552384   -0.009974519619092462   -0.0017123065514707619
0.00818276837741754   -0.01021666752920748   -0.0019423482494719088
0.010663420715296199   -0.01923865395346493   -0.002346356565282966
0.008337840053303437   -0.010300250439508848   -0.0016988787232925994
0.0040522025376552384   -0.009974519619092462   -0.0017123065514707619
0.010663420715296199   -0.01923865395346493   -0.002346356565282966
0.005236995383624795   -0.019094194730383245   -0.0021754380817911134
0.005250616069255467   -0.019138201370710466   -0.002115202722319625
0.0040522025376552384   -0.009974519619092462   -0.0017123065514707619
0.010663420715296199   -0.01923865395346493   -0.002346356565282966
0.005250616069255467   -0.019138201370710466   -0.002115202722319625
0.008337840053303437   -0.010300250439508848   -0.0016988787232925994
0.0040522025376552384   -0.009974519619092462   -0.0017123065514707619
0.005236995383624795   -0.019094194730383245   -0.0021754380817911134
0.00818276837741754   -0.01021666752920748   -0.0019423482494719088
0.004041159120562534   -0.00985169345538925   -0.0018301774416431143
0.005236995383624795   -0.019094194730383245   -0.0021754380817911134
0.010663420715296199   -0.01923865395346493   -0.002346356565282966
0.00818276837741754   -0.01021666752920748   -0.0019423482494719088
0.010495608500340382   -0.0190964120272428   -0.0025137321766234037
0.004041159120562534   -0.00985169345538925   -0.0018301774416431143
0.007950567626052216   -0.010030620567723962   -0.0021957687000886206
0.010495608500340382   -0.0190964120272428   -0.0025137321766234037
0.00818276837741754   -0.01021666752920748   -0.0019423482494719088
0.004041159120562534   -0.00985169345538925   -0.0018301774416431143
0.010495608500340382   -0.0190964120272428   -0.0025137321766234037
0.0052167737176246655   -0.019002732172274165   -0.0022469404526697296
0.005236995383624795   -0.019094194730383245   -0.0021754380817911134
0.004041159120562534   -0.00985169345538925   -0.0018301774416431143
0.010495608500340382   -0.0190964120272428   -0.0025137321766234037
0.005236995383624795   -0.019094194730383245   -0.0021754380817911134
0.00818276837741754   -0.01021666752920748   -0.0019423482494719088
-0.014481282327757562   -0.019430666269311638   -0.00290788177780845
-0.017294669432361014   -0.030188521997798423   -0.0031009929350115945
-0.009310330347502099   -0.01917199594064506   -0.0025414346445895636
-0.014739211533885813   -0.019632740461363294   -0.00265472862612007
-0.017294669432361014   -0.030188521997798423   -0.0031009929350115945
-0.01122548721347932   -0.030023900834618464   -0.0028021550152833308
-0.009310330347502099   -0.01917199594064506   -0.0025414346445895636
-0.011239246433542386   -0.030151125007838796   -0.0026860698663829868
-0.014739211533885813   -0.019632740461363294   -0.00265472862612007
-0.009331051583939596   -0.019319867539103548   -0.0023792816926271033
-0.011239246433542386   -0.030151125007838796   -0.0026860698663829868
-0.009310330347502099   -0.01917199594064506   -0.0025414346445895636
-0.014739211533885813   -0.019632740461363294   -0.00265472862612007
-0.011239246433542386   -0.030151125007838796   -0.0026860698663829868
-0.017468562982985287   -0.030360627689701478   -0.0029328436067286084
-0.017294669432361014   -0.030188521997798423   -0.0031009929350115945
-0.014739211533885813   -0.019632740461363294   -0.00265472862612007
-0.011239246433542386   -0.030151125007838796   -0.0026860698663829868
-0.017294669432361014   -0.030188521997798423   -0.0031009929350115945
-0.009310330347502099   -0.01917199594064506   -0.0025414346445895636
-0.014739211533885813   -0.019632740461363294   -0.00265472862612007
-0.017468562982985287   -0.030360627689701478   -0.0029328436067286084
-0.009331051583939596   -0.019319867539103548   -0.0023792816926271033
-0.014901954427215825   -0.019759434807185543   -0.0024187625575033305
-0.017468562982985287   -0.030360627689701478   -0.0029328436067286084
-0.011239246433542386   -0.030151125007838796   -0.0026860698663829868
-0.009331051583939596   -0.019319867539103548   -0.0023792816926271033
-0.011249144737888739   -0.030251969472040213   -0.002581548256269218
-0.014901954427215825   -0.019759434807185543   -0.0024187625575033305
-0.00935541494350305   -0.019422755062199603   -0.00222885295400725
-0.011249144737888739   -0.030251969472040213   -0.002581548256269218
-0.009331051583939596   -0.019319867539103548   -0.0023792816926271033
-0.014901954427215825   -0.019759434807185543   -0.0024187625575033305
-0.011249144737888739   -0.030251969472040213   -0.002581548256269218
-0.017568467710990285   -0.0304823748903311   -0.002780818842019548
-0.017468562982985287   -0.030360627689701478   -0.0029328436067286084
-0.014901954427215825   -0.019759434807185543   -0.0024187625575033305
-0.011249144737888739   -0.030251969472040213   -0.002581548256269218
-0.017468562982985287   -0.030360627689701478   -0.0029328436067286084
-0.009331051583939596   -0.019319867539103548   -0.0023792816926271033
-0.014901954427215825   -0.019759434807185543   -0.0024187625575033305
-0.017568467710990285   -0.0304823748903311   -0.002780818842019548
-0.00935541494350305   -0.019422755062199603   -0.00222885295400725
-0.015087123097992402   -0.019850506047147266   -0.0022015905996209057
-0.017568467710990285   -0.0304823748903311   -0.002780818842019548
-0.011249144737888739   -0.030251969472040213   -0.002581548256269218
-0.00935541494350305   -0.019422755062199603   -0.00222885295400725
-0.011226130003014397   -0.03033479529244448   -0.0024870545965365214
-0.015087123097992402   -0.019850506047147266   -0.0022015905996209057
-0.009338203188103883   -0.019490417829693237   -0.0020876513679786665
-0.011226130003014397   -0.03033479529244448   -0.0024870545965365214
-0.00935541494350305   -0.019422755062199603   -0.00222885295400725
-0.015087123097992402   -0.019850506047147266   -0.0022015905996209057
-0.011226130003014397   -0.03033479529244448   -0.0024870545965365214
-0.01767139548031123   -0.030591472141573792   -0.0026468338719048794
-0.017568467710990285   -0.0304823748903311   -0.002780818842019548
-0.015087123097992402   -0.019850506047147266   -0.0022015905996209057
-0.011226130003014397   -0.03033479529244448   -0.0024870545965365214
-0.017568467710990285   -0.0304823748903311   -0.002780818842019548
-0.00935541494350305   -0.019422755062199603   -0.00222885295400725
-0.009310330347502099   -0.01917199594064506   -0.0025414346445895636
-0.01122548721347932   -0.030023900834618464   -0.0028021550152833308
-0.004434436758186893   -0.019043045602982783   -0.0022868329204999917
-0.009331051583939596   -0.019319867539103548   -0.0023792816926271033
-0.01122548721347932   -0.030023900834618464   -0.0028021550152833308
-0.005535576838380546   -0.029938836574511258   -0.00259521993368115
-0.004434436758186893   -0.019043045602982783   -0.0022868329204999917
-0.005525310166337305   -0.03001868404426295   -0.002518604272185803
-0.009331051583939596   -0.019319867539103548   -0.0023792816926271033
-0.00442363972308181   -0.019137615908786102   -0.0021952180468396715
-0.005525310166337305   -0.03001868404426295   -0.002518604272185803
-0.004434436758186893   -0.019043045602982783   -0.0022868329204999917
-0.009331051583939596   -0.019319867539103548   -0.0023792816926271033
-0.005525310166337305   -0.03001868404426295   -0.002518604272185803
-0.011239246433542386   -0.030151125007838796   -0.0026860698663829868
-0.01122548721347932   -0.030023900834618464   -0.0028021550152833308
-0.009331051583939596   -0.019319867539103548   -0.0023792816926271033
-0.005525310166337305   -0.03001868404426295   -0.002518604272185803
-0.01122548721347932   -0.030023900834618464   -0.0028021550152833308
-0.004434436758186893   -0.019043045602982783   -0.0022868329204999917
-0.009331051583939596   -0.019319867539103548   -0.0023792816926271033
-0.011239246433542386   -0.030151125007838796   -0.0026860698663829868
-0.00442363972308181   -0.019137615908786102   -0.0021952180468396715
-0.00935541494350305   -0.019422755062199603   -0.00222885295400725
-0.011239246433542386   -0.030151125007838796   -0.0026860698663829868
-0.005525310166337305   -0.03001868404426295   -0.002518604272185803
-0.00442363972308181   -0.019137615908786102   -0.0021952180468396715
-0.005511190999104005   -0.03007642760181002   -0.002453379555563048
-0.00935541494350305   -0.019422755062199603   -0.00222885295400725
-0.004410342942589383   -0.01919315910026644   -0.002114769085901161
-0.005511190999104005   -0.03007642760181002   -0.002453379555563048
-0.00442363972308181   -0.019137615908786102   -0.0021952180468396715
-0.00935541494350305   -0.019422755062199603   -0.00222885295400725
-0.005511190999104005   -0.03007642760181002   -0.002453379555563048
-0.011249144737888739   -0.030251969472040213   -0.002581548256269218
-0.011239246433542386   -0.030151125007838796   -0.0026860698663829868
-0.00935541494350305   -0.019422755062199603   -0.00222885295400725
-0.005511190999104005   -0.03007642760181002   -0.002453379555563048
-0.011239246433542386   -0.030151125007838796   -0.0026860698663829868
-0.00442363972308181   -0.019137615908786102   -0.0021952180468396715
-0.00935541494350305   -0.019422755062199603   -0.00222885295400725
-0.011249144737888739   -0.030251969472040213   -0.002581548256269218
-0.004410342942589383   -0.01919315910026644   -0.002114769085901161
-0.009338203188103883   -0.019490417829693237   -0.0020876513679786665
-0.011249144737888739   -0.030251969472040213   -0.002581548256269218
-0.005511190999104005   -0.03007642760181002   -0.002453379555563048
-0.004410342942589383   -0.01919315910026644   -0.002114769085901161
-0.005490008823127568   -0.0301124455061548   -0.0023997336667917566
-0.009338203188103883   -0.019490417829693237   -0.0020876513679786665
-0.004388291702074092   -0.019210469281683643   -0.0020454519598764186
-0.005490008823127568   -0.0301124455061548   -0.0023997336667917566
-0.004410342942589383   -0.01919315910026644   -0.002114769085901161
-0.009338203188103883   -0.019490417829693237   -0.0020876513679786665
-0.005490008823127568   -0.0301124455061548   -0.0023997336667917566
-0.011226130003014397   -0.03033479529244448   -0.0024870545965365214
-0.011249144737888739   -0.030251969472040213   -0.002581548256269218
-0.009338203188103883   -0.019490417829693237   -0.0020876513679786665
-0.005490008823127568   -0.0301124455061548   -0.0023997336667917566
-0.011249144737888739   -0.030251969472040213   -0.002581548256269218
-0.004410342942589383   -0.01919315910026644   -0.002114769085901161
-0.004434436758186893   -0.019043045602982783   -0.0022868329204999917
-0.005535576838380546   -0.029938836574511258   -0.00259521993368115
0.0002983847598455757   -0.019036186284796856   -0.0021289372760351522
-0.00442363972308181   -0.019137615908786102   -0.0021952180468396715
-0.005535576838380546   -0.029938836574511258   -0.00259521993368115
-1.1885897743119572e-07   -0.02992421978218832   -0.002474660309218975
0.0002983847598455757   -0.019036186284796856   -0.0021289372760351522
1.9428086685585397e-05   -0.029956442593550795   -0.002437818014956561
-0.00442363972308181   -0.019137615908786102   -0.0021952180468396715
0.00031849078647459584   -0.019078297788365464   -0.002107480718047823
1.9428086685585397e-05   -0.029956442593550795   -0.002437818014956561
0.0002983847598455757   -0.019036186284796856   -0.0021289372760351522
-0.00442363972308181   -0.019137615908786102   -0.0021952180468396715
1.9428086685585397e-05   -0.029956442593550795   -0.002437818014956561
-0.005525310166337305   -0.03001868404426295   -0.002518604272185803
-0.005535576838380546   -0.029938836574511258   -0.00259521993368115
-0.00442363972308181   -0.019137615908786102   -0.0021952180468396715
1.9428086685585397e-05   -0.029956442593550795   -0.002437818014956561
-0.005535576838380546   -0.029938836574511258   -0.00259521993368115
0.0002983847598455757   -0.019036186284796856   -0.0021289372760351522
-0.00442363972308181   -0.019137615908786102   -0.0021952180468396715
-0.005525310166337305   -0.03001868404426295   -0.002518604272185803
0.00031849078647459584   -0.019078297788365464   -0.002107480718047823
-0.004410342942589383   -0.01919315910026644   -0.002114769085901161
-0.005525310166337305   -0.03001868404426295   -0.002518604272185803
1.9428086685585397e-05   -0.029956442593550795   -0.002437818014956561
0.00031849078647459584   -0.019078297788365464   -0.002107480718047823
3.327021859304385e-05   -0.02996640938676424   -0.0024122214431086743
-0.004410342942589383   -0.01919315910026644   -0.002114769085901161
0.0003312704665886275   -0.019081539393919066   -0.0020968974261907545
3.327021859304385e-05   -0.02996640938676424   -0.0024122214431086743
0.00031849078647459584   -0.019078297788365464   -0.002107480718047823
-0.004410342942589383   -0.01919315910026644   -0.002114769085901161
3.327021859304385e-05   -0.02996640938676424   -0.0024122214431086743
-0.005511190999104005   -0.03007642760181002   -0.002453379555563048
-0.005525310166337305   -0.03001868404426295   -0.002518604272185803
-0.004410342942589383   -0.01919315910026644   -0.002114769085901161
3.327021859304385e-05   -0.02996640938676424   -0.0024122214431086743
-0.005525310166337305   -0.03001868404426295   -0.002518604272185803
0.00031849078647459584   -0.019078297788365464   -0.002107480718047823
-0.004410342942589383   -0.01919315910026644   -0.002114769085901161
-0.005511190999104005   -0.03007642760181002   -0.002453379555563048
0.0003312704665886275   -0.019081539393919066   -0.0020968974261907545
-0.004388291702074092   -0.019210469281683643   -0.0020454519598764186
-0.005511190999104005   -0.03007642760181002   -0.002453379555563048
3.327021859304385e-05   -0.02996640938676424   -0.0024122214431086743
0.0003312704665886275   -0.019081539393919066   -0.0020968974261907545
4.196105161051086e-05   -0.029953815192373365   -0.0023983689610278308
-0.004388291702074092   -0.019210469281683643   -0.0020454519598764186
0.00034042607541085536   -0.019045331202249032   -0.0020978492760548167
4.196105161051086e-05   -0.029953815192373365   -0.0023983689610278308
0.0003312704665886275   -0.019081539393919066   -0.0020968974261907545
-0.004388291702074092   -0.019210469281683643   -0.0020454519598764186
4.196105161051086e-05   -0.029953815192373365   -0.0023983689610278308
-0.005490008823127568   -0.0301124455061548   -0.0023997336667917566
-0.005511190999104005   -0.03007642760181002   -0.002453379555563048
-0.004388291702074092   -0.019210469281683643   -0.0020454519598764186
4.196105161051086e-05   -0.029953815192373365   -0.0023983689610278308
-0.005511190999104005   -0.03007642760181002   -0.002453379555563048
0.0003312704665886275   -0.019081539393919066   -0.0020968974261907545
0.0002983847598455757   -0.019036186284796856   -0.0021289372760351522
-1.1885897743119572e-07   -0.02992421978218832   -0.002474660309218975
0.005233122103716859   -0.019144163260806608   -0.0020650416629987467
0.00031849078647459584   -0.019078297788365464   -0.002107480718047823
-1.1885897743119572e-07   -0.02992421978218832   -0.002474660309218975
0.005725678295580476   -0.02997403830266461   -0.0024399808227539167
0.005233122103716859   -0.019144163260806608   -0.0020650416629987467
0.005749634962365826   -0.029961412731902788   -0.002443752116049389
0.00031849078647459584   -0.019078297788365464   -0.002107480718047823
0.005250616069255467   -0.019138201370710466   -0.002115202722319625
0.005749634962365826   -0.029961412731902788   -0.002443752116049389
0.005233122103716859   -0.019144163260806608   -0.0020650416629987467
0.00031849078647459584   -0.019078297788365464   -0.002107480718047823
0.005749634962365826   -0.029961412731902788   -0.002443752116049389
1.9428086685585397e-05   -0.029956442593550795   -0.002437818014956561
-1.1885897743119572e-07   -0.02992421978218832   -0.002474660309218975
0.00031849078647459584   -0.019078297788365464   -0.002107480718047823
0.005749634962365826   -0.029961412731902788   -0.002443752116049389
-1.1885897743119572e-07   -0.02992421978218832   -0.002474660309218975
0.005233122103716859   -0.019144163260806608   -0.0020650416629987467
0.00031849078647459584   -0.019078297788365464   -0.002107480718047823
1.9428086685585397e-05   -0.029956442593550795   -0.002437818014956561
0.005250616069255467   -0.019138201370710466   -0.002115202722319625
0.0003312704665886275   -0.019081539393919066   -0.0020968974261907545
1.9428086685585397e-05   -0.029956442593550795   -0.002437818014956561
0.005749634962365826   -0.029961412731902788   -0.002443752116049389
0.005250616069255467   -0.019138201370710466   -0.002115202722319625
0.005751220088380889   -0.029928225207183974   -0.002458164386086398
0.0003312704665886275   -0.019081539393919066   -0.0020968974261907545
0.005236995383624795   -0.019094194730383245   -0.0021754380817911134
0.005751220088380889   -0.029928225207183974   -0.002458164386086398
0.005250616069255467   -0.019138201370710466   -0.002115202722319625
0.0003312704665886275   -0.019081539393919066   -0.0020968974261907545
0.005751220088380889   -0.029928225207183974   -0.002458164386086398
3.327021859304385e-05   -0.02996640938676424   -0.0024122214431086743
1.9428086685585397e-05   -0.029956442593550795   -0.002437818014956561
0.0003312704665886275   -0.019081539393919066   -0.0020968974261907545
0.005751220088380889   -0.029928225207183974   -0.002458164386086398
1.9428086685585397e-05   -0.029956442593550795   -0.002437818014956561
0.005250616069255467   -0.019138201370710466   -0.002115202722319625
0.0003312704665886275   -0.019081539393919066   -0.0020968974261907545
3.327021859304385e-05   -0.02996640938676424   -0.0024122214431086743
0.005236995383624795   -0.019094194730383245   -0.0021754380817911134
0.00034042607541085536   -0.019045331202249032   -0.0020978492760548167
3.327021859304385e-05   -0.02996640938676424   -0.0024122214431086743
0.005751220088380889   -0.029928225207183974   -0.002458164386086398
0.005236995383624795   -0.019094194730383245   -0.0021754380817911134
0.005738433877291312   -0.029866160498140056   -0.002483622031130292
0.00034042607541085536   -0.019045331202249032   -0.0020978492760548167
0.0052167737176246655   -0.019002732172274165   -0.0022469404526697296
0.005738433877291312   -0.029866160498140056   -0.002483622031130292
0.005236995383624795   -0.019094194730383245   -0.0021754380817911134
0.00034042607541085536   -0.019045331202249032   -0.0020978492760548167
0.005738433877291312   -0.029866160498140056   -0.002483622031130292
4.196105161051086e-05   -0.029953815192373365   -0.0023983689610278308
3.327021859304385e-05   -0.02996640938676424   -0.0024122214431086743
0.00034042607541085536   -0.019045331202249032   -0.0020978492760548167
0.005738433877291312   -0.029866160498140056   -0.002483622031130292
3.327021859304385e-05   -0.02996640938676424   -0.0024122214431086743
0.005236995383624795   -0.019094194730383245   -0.0021754380817911134
0.005233122103716859   -0.019144163260806608   -0.0020650416629987467
0.005725678295580476   -0.02997403830266461   -0.0024399808227539167
0.010852882059983679   -0.019340070951891573   -0.002066142584149675
0.005250616069255467   -0.019138201370710466   -0.002115202722319625
0.005725678295580476   -0.02997403830266461   -0.0024399808227539167
0.01204839344078958   -0.03006563634839973   -0.002472383464720356
0.010852882059983679   -0.019340070951891573   -0.002066142584149675
0.01203690529464836   -0.030022646038265946   -0.002520005160879471
0.005250616069255467   -0.019138201370710466   -0.002115202722319625
0.010758035957688178   -0.01930642442385226   -0.002197166442111518
0.01203690529464836   -0.030022646038265946   -0.002520005160879471
0.010852882059983679   -0.019340070951891573   -0.002066142584149675
0.005250616069255467   -0.019138201370710466   -0.002115202722319625
0.01203690529464836   -0.030022646038265946   -0.002520005160879471
0.005749634962365826   -0.029961412731902788   -0.002443752116049389
0.005725678295580476   -0.02997403830266461   -0.0024399808227539167
0.005250616069255467   -0.019138201370710466   -0.002115202722319625
0.01203690529464836   -0.030022646038265946   -0.002520005160879471
0.005725678295580476   -0.02997403830266461   -0.0024399808227539167
0.010852882059983679   -0.019340070951891573   -0.002066142584149675
0.005250616069255467   -0.019138201370710466   -0.002115202722319625
0.005749634962365826   -0.029961412731902788   -0.002443752116049389
0.010758035957688178   -0.01930642442385226   -0.002197166442111518
0.005236995383624795   -0.019094194730383245   -0.0021754380817911134
0.005749634962365826   -0.029961412731902788   -0.002443752116049389
0.01203690529464836   -0.030022646038265946   -0.002520005160879471
0.010758035957688178   -0.01930642442385226   -0.002197166442111518
0.012006436841737583   -0.029968484934371608   -0.002584889385429839
0.005236995383624795   -0.019094194730383245   -0.0021754380817911134
0.010663420715296199   -0.01923865395346493   -0.002346356565282966
0.012006436841737583   -0.029968484934371608   -0.002584889385429839
0.010758035957688178   -0.01930642442385226   -0.002197166442111518
0.005236995383624795   -0.019094194730383245   -0.0021754380817911134
0.012006436841737583   -0.029968484934371608   -0.002584889385429839
0.005751220088380889   -0.029928225207183974   -0.002458164386086398
0.005749634962365826   -0.029961412731902788   -0.002443752116049389
0.005236995383624795   -0.019094194730383245   -0.0021754380817911134
0.012006436841737583   -0.029968484934371608   -0.002584889385429839
0.005749634962365826   -0.029961412731902788   -0.002443752116049389
0.010758035957688178   -0.01930642442385226   -0.002197166442111518
0.005236995383624795   -0.019094194730383245   -0.0021754380817911134
0.005751220088380889   -0.029928225207183974   -0.002458164386086398
0.010663420715296199   -0.01923865395346493   -0.002346356565282966
0.0052167737176246655   -0.019002732172274165   -0.0022469404526697296
0.005751220088380889   -0.029928225207183974   -0.002458164386086398
0.012006436841737583   -0.029968484934371608   -0.002584889385429839
0.010663420715296199   -0.01923865395346493   -0.002346356565282966
0.011923850801799989   -0.029865168962205094   -0.002666911002872064
0.0052167737176246655   -0.019002732172274165   -0.0022469404526697296
0.010495608500340382   -0.0190964120272428   -0.0025137321766234037
0.011923850801799989   -0.029865168962205094   -0.002666911002872064
0.010663420715296199   -0.01923865395346493   -0.002346356565282966
0.0052167737176246655   -0.019002732172274165   -0.0022469404526697296
0.011923850801799989   -0.029865168962205094   -0.002666911002872064
0.005738433877291312   -0.029866160498140056   -0.002483622031130292
0.005751220088380889   -0.029928225207183974   -0.002458164386086398
0.0052167737176246655   -0.019002732172274165   -0.0022469404526697296
0.011923850801799989   -0.029865168962205094   -0.002666911002872064
0.005751220088380889   -0.029928225207183974   -0.002458164386086398
0.010663420715296199   -0.01923865395346493   -0.002346356565282966
-0.017294669432361014   -0.030188521997798423   -0.0031009929350115945
-0.01899869633776787   -0.04190011448837615   -0.0031575768537857457
-0.01122548721347932   -0.030023900834618464   -0.0028021550152833308
-0.017468562982985287   -0.030360627689701478   -0.0029328436067286084
-0.01899869633776787   -0.04190011448837615   -0.0031575768537857457
-0.012483199184964672   -0.041832991682756414   -0.002919487400472176
-0.01122548721347932   -0.030023900834618464   -0.0028021550152833308
-0.012478431999831096   -0.04194153122397104   -0.002848273422030006
-0.017468562982985287   -0.030360627689701478   -0.0029328436067286084
-0.011239246433542386   -0.030151125007838796   -0.0026860698663829868
-0.012478431999831096   -0.04194153122397104   -0.002848273422030006
-0.01122548721347932   -0.030023900834618464   -0.0028021550152833308
-0.017468562982985287   -0.030360627689701478   -0.0029328436067286084
-0.012478431999831096   -0.04194153122397104   -0.002848273422030006
-0.019080060366121882   -0.04204601094955689   -0.0030708244487721147
-0.01899869633776787   -0.04190011448837615   -0.0031575768537857457
-0.017468562982985287   -0.030360627689701478   -0.0029328436067286084
-0.012478431999831096   -0.04194153122397104   -0.002848273422030006
-0.01899869633776787   -0.04190011448837615   -0.0031575768537857457
-0.01122548721347932   -0.030023900834618464   -0.0028021550152833308
-0.017468562982985287   -0.030360627689701478   -0.0029328436067286084
-0.019080060366121882   -0.04204601094955689   -0.0030708244487721147
-0.011239246433542386   -0.030151125007838796   -0.0026860698663829868
-0.017568467710990285   -0.0304823748903311   -0.002780818842019548
-0.019080060366121882   -0.04204601094955689   -0.0030708244487721147
-0.012478431999831096   -0.04194153122397104   -0.002848273422030006
-0.011239246433542386   -0.030151125007838796   -0.0026860698663829868
-0.012461897379903374   -0.04204164318162806   -0.002788883720564568
-0.017568467710990285   -0.0304823748903311   -0.002780818842019548
-0.011249144737888739   -0.030251969472040213   -0.002581548256269218
-0.012461897379903374   -0.04204164318162806   -0.002788883720564568
-0.011239246433542386   -0.030151125007838796   -0.0026860698663829868
-0.017568467710990285   -0.0304823748903311   -0.002780818842019548
-0.012461897379903374   -0.04204164318162806   -0.002788883720564568
-0.019106132631171065   -0.04216498842021706   -0.003001091548482883
-0.019080060366121882   -0.04204601094955689   -0.0030708244487721147
-0.017568467710990285   -0.0304823748903311   -0.002780818842019548
-0.012461897379903374   -0.04204164318162806   -0.002788883720564568
-0.019080060366121882   -0.04204601094955689   -0.0030708244487721147
-0.011239246433542386   -0.030151125007838796   -0.0026860698663829868
-0.017568467710990285   -0.0304823748903311   -0.002780818842019548
-0.019106132631171065   -0.04216498842021706   -0.003001091548482883
-0.011249144737888739   -0.030251969472040213   -0.002581548256269218
-0.01767139548031123   -0.030591472141573792   -0.0026468338719048794
-0.019106132631171065   -0.04216498842021706   -0.003001091548482883
-0.012461897379903374   -0.04204164318162806   -0.002788883720564568
-0.011249144737888739   -0.030251969472040213   -0.002581548256269218
-0.012420851815735082   -0.04214095719849969   -0.002740491093753662
-0.01767139548031123   -0.030591472141573792   -0.0026468338719048794
-0.011226130003014397   -0.03033479529244448   -0.0024870545965365214
-0.012420851815735082   -0.04214095719849969   -0.002740491093753662
-0.011249144737888739   -0.030251969472040213   -0.002581548256269218
-0.01767139548031123   -0.030591472141573792   -0.0026468338719048794
-0.012420851815735082   -0.04214095719849969   -0.002740491093753662
-0.01911503926035701   -0.04229418180201108   -0.0029498384446760475
-0.019106132631171065   -0.04216498842021706   -0.003001091548482883
-0.01767139548031123   -0.030591472141573792   -0.0026468338719048794
-0.012420851815735082   -0.04214095719849969   -0.002740491093753662
-0.019106132631171065   -0.04216498842021706   -0.003001091548482883
-0.011249144737888739   -0.030251969472040213   -0.002581548256269218
-0.01122548721347932   -0.030023900834618464   -0.0028021550152833308
-0.012483199184964672   -0.041832991682756414   -0.002919487400472176
-0.005535576838380546   -0.029938836574511258   -0.00259521993368115
-0.011239246433542386   -0.030151125007838796   -0.0026860698663829868
-0.012483199184964672   -0.041832991682756414   -0.002919487400472176
-0.006430712404688099   -0.041794504330506466   -0.0027573919620543274
-0.005535576838380546   -0.029938836574511258   -0.00259521993368115
-0.006408296309626894   -0.04186021331487013   -0.0026953310798384263
-0.011239246433542386   -0.030151125007838796   -0.0026860698663829868
-0.005525310166337305   -0.03001868404426295   -0.002518604272185803
-0.006408296309626894   -0.04186021331487013   -0.0026953310798384263
-0.005535576838380546   -0.029938836574511258   -0.00259521993368115
-0.011239246433542386   -0.030151125007838796   -0.0026860698663829868
-0.006408296309626894   -0.04186021331487013   -0.0026953310798384263
-0.012478431999831096   -0.04194153122397104   -0.002848273422030006
-0.012483199184964672   -0.041832991682756414   -0.002919487400472176
-0.011239246433542386   -0.030151125007838796   -0.0026860698663829868
-0.006408296309626894   -0.04186021331487013   -0.0026953310798384263
-0.012483199184964672   -0.041832991682756414   -0.002919487400472176
-0.005535576838380546   -0.029938836574511258   -0.00259521993368115
-0.011239246433542386   -0.030151125007838796   -0.0026860698663829868
-0.012478431999831096   -0.04194153122397104   -0.002848273422030006
-0.005525310166337305   -0.03001868404426295   -0.002518604272185803
-0.011249144737888739   -0.030251969472040213   -0.002581548256269218
-0.012478431999831096   -0.04194153122397104   -0.002848273422030006
-0.006408296309626894   -0.04186021331487013   -0.0026953310798384263
-0.005525310166337305   -0.03001868404426295   -0.002518604272185803
-0.006380761812352542   -0.04192050721248836   -0.002645105012918021
-0.011249144737888739   -0.030251969472040213   -0.002581548256269218
-0.005511190999104005   -0.03007642760181002   -0.002453379555563048
-0.006380761812352542   -0.04192050721248836   -0.002645105012918021
-0.005525310166337305   -0.03001868404426295   -0.002518604272185803
-0.011249144737888739   -0.030251969472040213   -0.002581548256269218
-0.006380761812352542   -0.04192050721248836   -0.002645105012918021
-0.012461897379903374   -0.04204164318162806   -0.002788883720564568
-0.012478431999831096   -0.04194153122397104   -0.002848273422030006
-0.011249144737888739   -0.030251969472040213   -0.002581548256269218
-0.006380761812352542   -0.04192050721248836   -0.002645105012918021
-0.012478431999831096   -0.04194153122397104   -0.002848273422030006
-0.005525310166337305   -0.03001868404426295   -0.002518604272185803
-0.011249144737888739   -0.030251969472040213   -0.002581548256269218
-0.012461897379903374   -0.04204164318162806   -0.002788883720564568
-0.005511190999104005   -0.03007642760181002   -0.002453379555563048
-0.011226130003014397   -0.03033479529244448   -0.0024870545965365214
-0.012461897379903374   -0.04204164318162806   -0.002788883720564568
-0.006380761812352542   -0.04192050721248836   -0.002645105012918021
-0.005511190999104005   -0.03007642760181002   -0.002453379555563048
-0.006347641749409522   -0.04197558398898248   -0.0026069974991773637
-0.011226130003014397   -0.03033479529244448   -0.0024870545965365214
-0.005490008823127568   -0.0301124455061548   -0.0023997336667917566
-0.006347641749409522   -0.04197558398898248   -0.0026069974991773637
-0.005511190999104005   -0.03007642760181002   -0.002453379555563048
-0.011226130003014397   -0.03033479529244448   -0.0024870545965365214
-0.006347641749409522   -0.04197558398898248   -0.0026069974991773637
-0.012420851815735082   -0.04214095719849969   -0.002740491093753662
-0.012461897379903374   -0.04204164318162806   -0.002788883720564568
-0.011226130003014397   -0.03033479529244448   -0.0024870545965365214
-0.006347641749409522   -0.04197558398898248   -0.0026069974991773637
-0.012461897379903374   -0.04204164318162806   -0.002788883720564568
-0.005511190999104005   -0.03007642760181002   -0.002453379555563048
-0.005535576838380546   -0.029938836574511258   -0.00259521993368115
-0.006430712404688099   -0.041794504330506466   -0.0027573919620543274
-1.1885897743119572e-07   -0.02992421978218832   -0.002474660309218975
-0.005525310166337305   -0.03001868404426295   -0.002518604272185803
-0.006430712404688099   -0.041794504330506466   -0.0027573919620543274
-0.0005419921149521611   -0.041772478914451565   -0.0026735085598458184
-1.1885897743119572e-07   -0.02992421978218832   -0.002474660309218975
-0.0005106001680641055   -0.041794572760209356   -0.002621219132527825
-0.005525310166337305   -0.03001868404426295   -0.002518604272185803
1.9428086685585397e-05   -0.029956442593550795   -0.002437818014956561
-0.0005106001680641055   -0.041794572760209356   -0.002621219132527825
-1.1885897743119572e-07   -0.02992421978218832   -0.002474660309218975
-0.005525310166337305   -0.03001868404426295   -0.002518604272185803
-0.0005106001680641055   -0.041794572760209356   -0.002621219132527825
-0.006408296309626894   -0.04186021331487013   -0.0026953310798384263
-0.006430712404688099   -0.041794504330506466   -0.0027573919620543274
-0.005525310166337305   -0.03001868404426295   -0.002518604272185803
-0.0005106001680641055   -0.041794572760209356   -0.002621219132527825
-0.006430712404688099   -0.041794504330506466   -0.0027573919620543274
-1.1885897743119572e-07   -0.02992421978218832   -0.002474660309218975
-0.005525310166337305   -0.03001868404426295   -0.002518604272185803
-0.006408296309626894   -0.04186021331487013   -0.0026953310798384263
1.9428086685585397e-05   -0.029956442593550795   -0.002437818014956561
-0.005511190999104005   -0.03007642760181002   -0.002453379555563048
-0.006408296309626894   -0.04186021331487013   -0.0026953310798384263
-0.0005106001680641055   -0.041794572760209356   -0.002621219132527825
1.9428086685585397e-05   -0.029956442593550795   -0.002437818014956561
-0.00048343934092409153   -0.04181086903826772   -0.002580661770083913
-0.005511190999104005   -0.03007642760181002   -0.002453379555563048
3.327021859304385e-05   -0.02996640938676424   -0.0024122214431086743
-0.00048343934092409153   -0.04181086903826772   -0.002580661770083913
1.9428086685585397e-05   -0.029956442593550795   -0.002437818014956561
-0.005511190999104005   -0.03007642760181002   -0.002453379555563048
-0.00048343934092409153   -0.04181086903826772   -0.002580661770083913
-0.006380761812352542   -0.04192050721248836   -0.002645105012918021
-0.006408296309626894   -0.04186021331487013   -0.0026953310798384263
-0.005511190999104005   -0.03007642760181002   -0.002453379555563048
-0.00048343934092409153   -0.04181086903826772   -0.002580661770083913
-0.006408296309626894   -0.04186021331487013   -0.0026953310798384263
1.9428086685585397e-05   -0.029956442593550795   -0.002437818014956561
-0.005511190999104005   -0.03007642760181002   -0.002453379555563048
-0.006380761812352542   -0.04192050721248836   -0.002645105012918021
3.327021859304385e-05   -0.02996640938676424   -0.0024122214431086743
-0.005490008823127568   -0.0301124455061548   -0.0023997336667917566
-0.006380761812352542   -0.04192050721248836   -0.002645105012918021
-0.00048343934092409153   -0.04181086903826772   -0.002580661770083913
3.327021859304385e-05   -0.02996640938676424   -0.0024122214431086743
-0.00046278042182001526   -0.041821284655892826   -0.0025522646285919414
-0.005490008823127568   -0.0301124455061548   -0.0023997336667917566
4.196105161051086e-05   -0.029953815192373365   -0.0023983689610278308
-0.00046278042182001526   -0.041821284655892826   -0.0025522646285919414
3.327021859304385e-05   -0.02996640938676424   -0.0024122214431086743
-0.005490008823127568   -0.0301124455061548   -0.0023997336667917566
-0.00046278042182001526   -0.041821284655892826   -0.0025522646285919414
-0.006347641749409522   -0.04197558398898248   -0.0026069974991773637
-0.006380761812352542   -0.04192050721248836   -0.002645105012918021
-0.005490008823127568   -0.0301124455061548   -0.0023997336667917566
-0.00046278042182001526   -0.041821284655892826   -0.0025522646285919414
-0.006380761812352542   -0.04192050721248836   -0.002645105012918021
3.327021859304385e-05   -0.02996640938676424   -0.0024122214431086743
-1.1885897743119572e-07   -0.02992421978218832   -0.002474660309218975
-0.0005419921149521611   -0.041772478914451565   -0.0026735085598458184
0.005725678295580476   -0.02997403830266461   -0.0024399808227539167
1.9428086685585397e-05   -0.029956442593550795   -0.002437818014956561
-0.0005419921149521611   -0.041772478914451565   -0.0026735085598458184
0.005526497557397503   -0.041763122374539885   -0.002668566986115452
0.005725678295580476   -0.02997403830266461   -0.0024399808227539167
0.005568133643947981   -0.04174297445474069   -0.002626539922030885
1.9428086685585397e-05   -0.029956442593550795   -0.002437818014956561
0.005749634962365826   -0.029961412731902788   -0.002443752116049389
0.005568133643947981   -0.04174297445474069   -0.002626539922030885
0.005725678295580476   -0.02997403830266461   -0.0024399808227539167
1.9428086685585397e-05   -0.029956442593550795   -0.002437818014956561
0.005568133643947981   -0.04174297445474069   -0.002626539922030885
-0.0005106001680641055   -0.041794572760209356   -0.002621219132527825
-0.0005419921149521611   -0.041772478914451565   -0.0026735085598458184
1.9428086685585397e-05   -0.029956442593550795   -0.002437818014956561
0.005568133643947981   -0.04174297445474069   -0.002626539922030885
-0.0005419921149521611   -0.041772478914451565   -0.0026735085598458184
0.005725678295580476   -0.02997403830266461   -0.0024399808227539167
1.9428086685585397e-05   -0.029956442593550795   -0.002437818014956561
-0.0005106001680641055   -0.041794572760209356   -0.002621219132527825
0.005749634962365826   -0.029961412731902788   -0.002443752116049389
3.327021859304385e-05   -0.02996640938676424   -0.0024122214431086743
-0.0005106001680641055   -0.041794572760209356   -0.002621219132527825
0.005568133643947981   -0.04174297445474069   -0.002626539922030885
0.005749634962365826   -0.029961412731902788   -0.002443752116049389
0.005595937423207383   -0.04171945758442485   -0.002595909202418351
3.327021859304385e-05   -0.02996640938676424   -0.0024122214431086743
0.005751220088380889   -0.029928225207183974   -0.002458164386086398
0.005595937423207383   -0.04171945758442485   -0.002595909202418351
0.005749634962365826   -0.029961412731902788   -0.002443752116049389
3.327021859304385e-05   -0.02996640938676424   -0.0024122214431086743
0.005595937423207383   -0.04171945758442485   -0.002595909202418351
-0.00048343934092409153   -0.04181086903826772   -0.002580661770083913
-0.0005106001680641055   -0.041794572760209356   -0.002621219132527825
3.327021859304385e-05   -0.02996640938676424   -0.0024122214431086743
0.005595937423207383   -0.04171945758442485   -0.002595909202418351
-0.0005106001680641055   -0.041794572760209356   -0.002621219132527825
0.005749634962365826   -0.029961412731902788   -0.002443752116049389
3.327021859304385e-05   -0.02996640938676424   -0.0024122214431086743
-0.00048343934092409153   -0.04181086903826772   -0.002580661770083913
0.005751220088380889   -0.029928225207183974   -0.002458164386086398
4.196105161051086e-05   -0.029953815192373365   -0.0023983689610278308
-0.00048343934092409153   -0.04181086903826772   -0.002580661770083913
0.005595937423207383   -0.04171945758442485   -0.002595909202418351
0.005751220088380889   -0.029928225207183974   -0.002458164386086398
0.005601462168180887   -0.0416848466743881   -0.0025764407207063728
4.196105161051086e-05   -0.029953815192373365   -0.0023983689610278308
0.005738433877291312   -0.029866160498140056   -0.002483622031130292
0.005601462168180887   -0.0416848466743881   -0.0025764407207063728
0.005751220088380889   -0.029928225207183974   -0.002458164386086398
4.196105161051086e-05   -0.029953815192373365   -0.0023983689610278308
0.005601462168180887   -0.0416848466743881   -0.0025764407207063728
-0.00046278042182001526   -0.041821284655892826   -0.0025522646285919414
-0.00048343934092409153   -0.04181086903826772   -0.002580661770083913
4.196105161051086e-05   -0.029953815192373365   -0.0023983689610278308
0.005601462168180887   -0.0416848466743881   -0.0025764407207063728
-0.00048343934092409153   -0.04181086903826772   -0.002580661770083913
0.005751220088380889   -0.029928225207183974   -0.002458164386086398
0.005725678295580476   -0.02997403830266461   -0.0024399808227539167
0.005526497557397503   -0.041763122374539885   -0.002668566986115452
0.01204839344078958   -0.03006563634839973   -0.002472383464720356
0.005749634962365826   -0.029961412731902788   -0.002443752116049389
0.005526497557397503   -0.041763122374539885   -0.002668566986115452
0.01210308001483864   -0.041750212701903974   -0.002734622611907799
0.01204839344078958   -0.03006563634839973   -0.002472383464720356
0.012184681315478075   -0.041696685742802365   -0.002700247265583053
0.005749634962365826   -0.029961412731902788   -0.002443752116049389
0.01203690529464836   -0.030022646038265946   -0.002520005160879471
0.012184681315478075   -0.041696685742802365   -0.002700247265583053
0.01204839344078958   -0.03006563634839973   -0.002472383464720356
0.005749634962365826   -0.029961412731902788   -0.002443752116049389
0.012184681315478075   -0.041696685742802365   -0.002700247265583053
0.005568133643947981   -0.04174297445474069   -0.002626539922030885
0.005526497557397503   -0.041763122374539885   -0.002668566986115452
0.005749634962365826   -0.029961412731902788   -0.002443752116049389
0.012184681315478075   -0.041696685742802365   -0.002700247265583053
0.005526497557397503   -0.041763122374539885   -0.002668566986115452
0.01204839344078958   -0.03006563634839973   -0.002472383464720356
0.005749634962365826   -0.029961412731902788   -0.002443752116049389
0.005568133643947981   -0.04174297445474069   -0.002626539922030885
0.01203690529464836   -0.030022646038265946   -0.002520005160879471
0.005751220088380889   -0.029928225207183974   -0.002458164386086398
0.005568133643947981   -0.04174297445474069   -0.002626539922030885
0.012184681315478075   -0.041696685742802365   -0.002700247265583053
0.01203690529464836   -0.030022646038265946   -0.002520005160879471
0.012227711436318995   -0.04165439202275228   -0.0026831859320751612
0.005751220088380889   -0.029928225207183974   -0.002458164386086398
0.012006436841737583   -0.029968484934371608   -0.002584889385429839
0.012227711436318995   -0.04165439202275228   -0.0026831859320751612
0.01203690529464836   -0.030022646038265946   -0.002520005160879471
0.005751220088380889   -0.029928225207183974   -0.002458164386086398
0.012227711436318995   -0.04165439202275228   -0.0026831859320751612
0.005595937423207383   -0.04171945758442485   -0.002595909202418351
0.005568133643947981   -0.04174297445474069   -0.002626539922030885
0.005751220088380889   -0.029928225207183974   -0.002458164386086398
0.012227711436318995   -0.04165439202275228   -0.0026831859320751612
0.005568133643947981   -0.04174297445474069   -0.002626539922030885
0.01203690529464836   -0.030022646038265946   -0.002520005160879471
0.005751220088380889   -0.029928225207183974   -0.002458164386086398
0.005595937423207383   -0.04171945758442485   -0.002595909202418351
0.012006436841737583   -0.029968484934371608   -0.002584889385429839
0.005738433877291312   -0.029866160498140056   -0.002483622031130292
0.005595937423207383   -0.04171945758442485   -0.002595909202418351
0.012227711436318995   -0.04165439202275228   -0.0026831859320751612
0.012006436841737583   -0.029968484934371608   -0.002584889385429839
0.012237837792076788   -0.04158646153296642   -0.0026837335451062004
0.005738433877291312   -0.029866160498140056   -0.002483622031130292
0.011923850801799989   -0.029865168962205094   -0.002666911002872064
0.012237837792076788   -0.04158646153296642   -0.0026837335451062004
0.012006436841737583   -0.029968484934371608   -0.002584889385429839
0.005738433877291312   -0.029866160498140056   -0.002483622031130292
0.012237837792076788   -0.04158646153296642   -0.0026837335451062004
0.005601462168180887   -0.0416848466743881   -0.0025764407207063728
0.005595937423207383   -0.04171945758442485   -0.002595909202418351
0.005738433877291312   -0.029866160498140056   -0.002483622031130292
0.012237837792076788   -0.04158646153296642   -0.0026837335451062004
0.005595937423207383   -0.04171945758442485   -0.002595909202418351
0.012006436841737583   -0.029968484934371608   -0.002584889385429839
-0.01899869633776787   -0.04190011448837615   -0.0031575768537857457
-0.0195933112080636   -0.05382403085255616   -0.003104055388466703
-0.012483199184964672   -0.041832991682756414   -0.002919487400472176
-0.019080060366121882   -0.04204601094955689   -0.0030708244487721147
-0.0195933112080636   -0.05382403085255616   -0.003104055388466703
-0.013084876140136698   -0.053855164290716594   -0.002927964857109037
-0.012483199184964672   -0.041832991682756414   -0.002919487400472176
-0.013049917797553842   -0.053944636652516996   -0.002900949532820106
-0.019080060366121882   -0.04204601094955689   -0.0030708244487721147
-0.012478431999831096   -0.04194153122397104   -0.002848273422030006
-0.013049917797553842   -0.053944636652516996   -0.002900949532820106
-0.012483199184964672   -0.041832991682756414   -0.002919487400472176
-0.019080060366121882   -0.04204601094955689   -0.0030708244487721147
-0.013049917797553842   -0.053944636652516996   -0.002900949532820106
-0.019570961801035583   -0.05394373447265811   -0.003098379233939498
-0.0195933112080636   -0.05382403085255616   -0.003104055388466703
-0.019080060366121882   -0.04204601094955689   -0.0030708244487721147
-0.013049917797553842   -0.053944636652516996   -0.002900949532820106
-0.0195933112080636   -0.05382403085255616   -0.003104055388466703
-0.012483199184964672   -0.041832991682756414   -0.002919487400472176
-0.019080060366121882   -0.04204601094955689   -0.0030708244487721147
-0.019570961801035583   -0.05394373447265811   -0.003098379233939498
-0.012478431999831096   -0.04194153122397104   -0.002848273422030006
-0.019106132631171065   -0.04216498842021706   -0.003001091548482883
-0.019570961801035583   -0.05394373447265811   -0.003098379233939498
-0.013049917797553842   -0.053944636652516996   -0.002900949532820106
-0.012478431999831096   -0.04194153122397104   -0.002848273422030006
-0.012995309989390722   -0.054043747778397336   -0.0028861264679158065
-0.019106132631171065   -0.04216498842021706   -0.003001091548482883
-0.012461897379903374   -0.04204164318162806   -0.002788883720564568
-0.012995309989390722   -0.054043747778397336   -0.0028861264679158065
-0.012478431999831096   -0.04194153122397104   -0.002848273422030006
-0.019106132631171065   -0.04216498842021706   -0.003001091548482883
-0.012995309989390722   -0.054043747778397336   -0.0028861264679158065
-0.01951123704920669   -0.05405993654001679   -0.0031109235311852176
-0.019570961801035583   -0.05394373447265811   -0.003098379233939498
-0.019106132631171065   -0.04216498842021706   -0.003001091548482883
-0.012995309989390722   -0.054043747778397336   -0.0028861264679158065
-0.019570961801035583   -0.05394373447265811   -0.003098379233939498
-0.012478431999831096   -0.04194153122397104   -0.002848273422030006
-0.019106132631171065   -0.04216498842021706   -0.003001091548482883
-0.01951123704920669   -0.05405993654001679   -0.0031109235311852176
-0.012461897379903374   -0.04204164318162806   -0.002788883720564568
-0.01911503926035701   -0.04229418180201108   -0.0029498384446760475
-0.01951123704920669   -0.05405993654001679   -0.0031109235311852176
-0.012995309989390722   -0.054043747778397336   -0.0028861264679158065
-0.012461897379903374   -0.04204164318162806   -0.002788883720564568
-0.01292454271729705   -0.054159320545989854   -0.0028832994435268014
-0.01911503926035701   -0.04229418180201108   -0.0029498384446760475
-0.012420851815735082   -0.04214095719849969   -0.002740491093753662
-0.01292454271729705   -0.054159320545989854   -0.0028832994435268014
-0.012461897379903374   -0.04204164318162806   -0.002788883720564568
-0.01911503926035701   -0.04229418180201108   -0.0029498384446760475
-0.01292454271729705   -0.054159320545989854   -0.0028832994435268014
-0.019414211960403334   -0.05420959970242325   -0.00314260752999137
-0.01951123704920669   -0.05405993654001679   -0.0031109235311852176
-0.01911503926035701   -0.04229418180201108   -0.0029498384446760475
-0.01292454271729705   -0.054159320545989854   -0.0028832994435268014
-0.01951123704920669   -0.05405993654001679   -0.0031109235311852176
-0.012461897379903374   -0.04204164318162806   -0.002788883720564568
-0.012483199184964672   -0.041832991682756414   -0.002919487400472176
-0.013084876140136698   -0.053855164290716594   -0.002927964857109037
-0.006430712404688099   -0.041794504330506466   -0.0027573919620543274
-0.012478431999831096   -0.04194153122397104   -0.002848273422030006
-0.013084876140136698   -0.053855164290716594   -0.002927964857109037
-0.007123246323103514   -0.05386194279404435   -0.0028109173897179094
-0.006430712404688099   -0.041794504330506466   -0.0027573919620543274
-0.007076416358861891   -0.05391327780096037   -0.002762989832382328
-0.012478431999831096   -0.04194153122397104   -0.002848273422030006
-0.006408296309626894   -0.04186021331487013   -0.0026953310798384263
-0.007076416358861891   -0.05391327780096037   -0.002762989832382328
-0.006430712404688099   -0.041794504330506466   -0.0027573919620543274
-0.012478431999831096   -0.04194153122397104   -0.002848273422030006
-0.007076416358861891   -0.05391327780096037   -0.002762989832382328
-0.013049917797553842   -0.053944636652516996   -0.002900949532820106
-0.013084876140136698   -0.053855164290716594   -0.002927964857109037
-0.012478431999831096   -0.04194153122397104   -0.002848273422030006
-0.007076416358861891   -0.05391327780096037   -0.002762989832382328
-0.013084876140136698   -0.053855164290716594   -0.002927964857109037
-0.006430712404688099   -0.041794504330506466   -0.0027573919620543274
-0.012478431999831096   -0.04194153122397104   -0.002848273422030006
-0.013049917797553842   -0.053944636652516996   -0.002900949532820106
-0.006408296309626894   -0.04186021331487013   -0.0026953310798384263
-0.012461897379903374   -0.04204164318162806   -0.002788883720564568
-0.013049917797553842   -0.053944636652516996   -0.002900949532820106
-0.007076416358861891   -0.05391327780096037   -0.002762989832382328
-0.006408296309626894   -0.04186021331487013   -0.0026953310798384263
-0.007023492099217719   -0.0539756780828925   -0.0027273012148351706
-0.012461897379903374   -0.04204164318162806   -0.002788883720564568
-0.006380761812352542   -0.04192050721248836   -0.002645105012918021
-0.007023492099217719   -0.0539756780828925   -0.0027273012148351706
-0.006408296309626894   -0.04186021331487013   -0.0026953310798384263
-0.012461897379903374   -0.04204164318162806   -0.002788883720564568
-0.007023492099217719   -0.0539756780828925   -0.0027273012148351706
-0.012995309989390722   -0.054043747778397336   -0.0028861264679158065
-0.013049917797553842   -0.053944636652516996   -0.002900949532820106
-0.012461897379903374   -0.04204164318162806   -0.002788883720564568
-0.007023492099217719   -0.0539756780828925   -0.0027273012148351706
-0.013049917797553842   -0.053944636652516996   -0.002900949532820106
-0.006408296309626894   -0.04186021331487013   -0.0026953310798384263
-0.012461897379903374   -0.04204164318162806   -0.002788883720564568
-0.012995309989390722   -0.054043747778397336   -0.0028861264679158065
-0.006380761812352542   -0.04192050721248836   -0.002645105012918021
-0.012420851815735082   -0.04214095719849969   -0.002740491093753662
-0.012995309989390722   -0.054043747778397336   -0.0028861264679158065
-0.007023492099217719   -0.0539756780828925   -0.0027273012148351706
-0.006380761812352542   -0.04192050721248836   -0.002645105012918021
-0.006966452478104889   -0.05404933813500571   -0.002704247691661712
-0.012420851815735082   -0.04214095719849969   -0.002740491093753662
-0.006347641749409522   -0.04197558398898248   -0.0026069974991773637
-0.006966452478104889   -0.05404933813500571   -0.002704247691661712
-0.006380761812352542   -0.04192050721248836   -0.002645105012918021
-0.012420851815735082   -0.04214095719849969   -0.002740491093753662
-0.006966452478104889   -0.05404933813500571   -0.002704247691661712
-0.01292454271729705   -0.054159320545989854   -0.0028832994435268014
-0.012995309989390722   -0.054043747778397336   -0.0028861264679158065
-0.012420851815735082   -0.04214095719849969   -0.002740491093753662
-0.006966452478104889   -0.05404933813500571   -0.002704247691661712
-0.012995309989390722   -0.054043747778397336   -0.0028861264679158065
-0.006380761812352542   -0.04192050721248836   -0.002645105012918021
-0.006430712404688099   -0.041794504330506466   -0.0027573919620543274
-0.007123246323103514   -0.05386194279404435   -0.0028109173897179094
-0.0005419921149521611   -0.041772478914451565   -0.0026735085598458184
-0.006408296309626894   -0.04186021331487013   -0.0026953310798384263
-0.007123246323103514   -0.05386194279404435   -0.0028109173897179094
-0.0013302970056768106   -0.05383036370683733   -0.0027630233498323825
-0.0005419921149521611   -0.041772478914451565   -0.0026735085598458184
-0.0012749073413127624   -0.05384228953172299   -0.0026952241435366227
-0.006408296309626894   -0.04186021331487013   -0.0026953310798384263
-0.0005106001680641055   -0.041794572760209356   -0.002621219132527825
-0.0012749073413127624   -0.05384228953172299   -0.0026952241435366227
-0.0005419921149521611   -0.041772478914451565   -0.0026735085598458184
-0.006408296309626894   -0.04186021331487013   -0.0026953310798384263
-0.0012749073413127624   -0.05384228953172299   -0.0026952241435366227
-0.007076416358861891   -0.05391327780096037   -0.002762989832382328
-0.007123246323103514   -0.05386194279404435   -0.0028109173897179094
-0.006408296309626894   -0.04186021331487013   -0.0026953310798384263
-0.0012749073413127624   -0.05384228953172299   -0.0026952241435366227
-0.007123246323103514   -0.05386194279404435   -0.0028109173897179094
-0.0005419921149521611   -0.041772478914451565   -0.0026735085598458184
-0.006408296309626894   -0.04186021331487013   -0.0026953310798384263
-0.007076416358861891   -0.05391327780096037   -0.002762989832382328
-0.0005106001680641055   -0.041794572760209356   -0.002621219132527825
-0.006380761812352542   -0.04192050721248836   -0.002645105012918021
-0.007076416358861891   -0.05391327780096037   -0.002762989832382328
-0.0012749073413127624   -0.05384228953172299   -0.0026952241435366227
-0.0005106001680641055   -0.041794572760209356   -0.002621219132527825
-0.0012225133173322175   -0.053864412877558235   -0.0026395767537652787
-0.006380761812352542   -0.04192050721248836   -0.002645105012918021
-0.00048343934092409153   -0.04181086903826772   -0.002580661770083913
-0.0012225133173322175   -0.053864412877558235   -0.0026395767537652787
-0.0005106001680641055   -0.041794572760209356   -0.002621219132527825
-0.006380761812352542   -0.04192050721248836   -0.002645105012918021
-0.0012225133173322175   -0.053864412877558235   -0.0026395767537652787
-0.007023492099217719   -0.0539756780828925   -0.0027273012148351706
-0.007076416358861891   -0.05391327780096037   -0.002762989832382328
-0.006380761812352542   -0.04192050721248836   -0.002645105012918021
-0.0012225133173322175   -0.053864412877558235   -0.0026395767537652787
-0.007076416358861891   -0.05391327780096037   -0.002762989832382328
-0.0005106001680641055   -0.041794572760209356   -0.002621219132527825
-0.006380761812352542   -0.04192050721248836   -0.002645105012918021
-0.007023492099217719   -0.0539756780828925   -0.0027273012148351706
-0.00048343934092409153   -0.04181086903826772   -0.002580661770083913
-0.006347641749409522   -0.04197558398898248   -0.0026069974991773637
-0.007023492099217719   -0.0539756780828925   -0.0027273012148351706
-0.0012225133173322175   -0.053864412877558235   -0.0026395767537652787
-0.00048343934092409153   -0.04181086903826772   -0.002580661770083913
-0.0011780542486518042   -0.053897239266717016   -0.0025965058959877825
-0.006347641749409522   -0.04197558398898248   -0.0026069974991773637
-0.00046278042182001526   -0.041821284655892826   -0.0025522646285919414
-0.0011780542486518042   -0.053897239266717016   -0.0025965058959877825
-0.00048343934092409153   -0.04181086903826772   -0.002580661770083913
-0.006347641749409522   -0.04197558398898248   -0.0026069974991773637
-0.0011780542486518042   -0.053897239266717016   -0.0025965058959877825
-0.006966452478104889   -0.05404933813500571   -0.002704247691661712
-0.007023492099217719   -0.0539756780828925   -0.0027273012148351706
-0.006347641749409522   -0.04197558398898248   -0.0026069974991773637
-0.0011780542486518042   -0.053897239266717016   -0.0025965058959877825
-0.007023492099217719   -0.0539756780828925   -0.0027273012148351706
-0.00048343934092409153   -0.04181086903826772   -0.002580661770083913
-0.0005419921149521611   -0.041772478914451565   -0.0026735085598458184
-0.0013302970056768106   -0.05383036370683733   -0.0027630233498323825
0.005526497557397503   -0.041763122374539885   -0.002668566986115452
-0.0005106001680641055   -0.041794572760209356   -0.002621219132527825
-0.0013302970056768106   -0.05383036370683733   -0.0027630233498323825
0.0046371321595255295   -0.05376015624167125   -0.0027865636212384714
0.005526497557397503   -0.041763122374539885   -0.002668566986115452
0.004707791426182567   -0.05373254456449741   -0.0026992473446011767
-0.0005106001680641055   -0.041794572760209356   -0.002621219132527825
0.005568133643947981   -0.04174297445474069   -0.002626539922030885
0.004707791426182567   -0.05373254456449741   -0.0026992473446011767
0.005526497557397503   -0.041763122374539885   -0.002668566986115452
-0.0005106001680641055   -0.041794572760209356   -0.002621219132527825
0.004707791426182567   -0.05373254456449741   -0.0026992473446011767
-0.0012749073413127624   -0.05384228953172299   -0.0026952241435366227
-0.0013302970056768106   -0.05383036370683733   -0.0027630233498323825
-0.0005106001680641055   -0.041794572760209356   -0.002621219132527825
0.004707791426182567   -0.05373254456449741   -0.0026992473446011767
-0.0013302970056768106   -0.05383036370683733   -0.0027630233498323825
0.005526497557397503   -0.041763122374539885   -0.002668566986115452
-0.0005106001680641055   -0.041794572760209356   -0.002621219132527825
-0.0012749073413127624   -0.05384228953172299   -0.0026952241435366227
0.005568133643947981   -0.04174297445474069   -0.002626539922030885
-0.00048343934092409153   -0.04181086903826772   -0.002580661770083913
-0.0012749073413127624   -0.05384228953172299   -0.0026952241435366227
0.004707791426182567   -0.05373254456449741   -0.0026992473446011767
0.005568133643947981   -0.04174297445474069   -0.002626539922030885
0.004773071113111102   -0.05371818816516168   -0.0026240468634462335
-0.00048343934092409153   -0.04181086903826772   -0.002580661770083913
0.005595937423207383   -0.04171945758442485   -0.002595909202418351
0.004773071113111102   -0.05371818816516168   -0.0026240468634462335
0.005568133643947981   -0.04174297445474069   -0.002626539922030885
-0.00048343934092409153   -0.04181086903826772   -0.002580661770083913
0.004773071113111102   -0.05371818816516168   -0.0026240468634462335
-0.0012225133173322175   -0.053864412877558235   -0.0026395767537652787
-0.0012749073413127624   -0.05384228953172299   -0.0026952241435366227
-0.00048343934092409153   -0.04181086903826772   -0.002580661770083913
0.004773071113111102   -0.05371818816516168   -0.0026240468634462335
-0.0012749073413127624   -0.05384228953172299   -0.0026952241435366227
0.005568133643947981   -0.04174297445474069   -0.002626539922030885
-0.00048343934092409153   -0.04181086903826772   -0.002580661770083913
-0.0012225133173322175   -0.053864412877558235   -0.0026395767537652787
0.005595937423207383   -0.04171945758442485   -0.002595909202418351
-0.00046278042182001526   -0.041821284655892826   -0.0025522646285919414
-0.0012225133173322175   -0.053864412877558235   -0.0026395767537652787
0.004773071113111102   -0.05371818816516168   -0.0026240468634462335
0.005595937423207383   -0.04171945758442485   -0.002595909202418351
0.004808044522377631   -0.053710122869292755   -0.00256017120917435
-0.00046278042182001526   -0.041821284655892826   -0.0025522646285919414
0.005601462168180887   -0.0416848466743881   -0.0025764407207063728
0.004808044522377631   -0.053710122869292755   -0.00256017120917435
0.005595937423207383   -0.04171945758442485   -0.002595909202418351
-0.00046278042182001526   -0.041821284655892826   -0.0025522646285919414
0.004808044522377631   -0.053710122869292755   -0.00256017120917435
-0.0011780542486518042   -0.053897239266717016   -0.0025965058959877825
-0.0012225133173322175   -0.053864412877558235   -0.0026395767537652787
-0.00046278042182001526   -0.041821284655892826   -0.0025522646285919414
0.004808044522377631   -0.053710122869292755   -0.00256017120917435
-0.0012225133173322175   -0.053864412877558235   -0.0026395767537652787
0.005595937423207383   -0.04171945758442485   -0.002595909202418351
0.005526497557397503   -0.041763122374539885   -0.002668566986115452
0.0046371321595255295   -0.05376015624167125   -0.0027865636212384714
0.01210308001483864   -0.041750212701903974   -0.002734622611907799
0.005568133643947981   -0.04174297445474069   -0.002626539922030885
0.0046371321595255295   -0.05376015624167125   -0.0027865636212384714
0.011026542741692031   -0.05364221293407248   -0.002885258133171646
0.01210308001483864   -0.041750212701903974   -0.002734622611907799
0.01121102821281484   -0.053578764743538065   -0.002770673763052423
0.005568133643947981   -0.04174297445474069   -0.002626539922030885
0.012184681315478075   -0.041696685742802365   -0.002700247265583053
0.01121102821281484   -0.053578764743538065   -0.002770673763052423
0.01210308001483864   -0.041750212701903974   -0.002734622611907799
0.005568133643947981   -0.04174297445474069   -0.002626539922030885
0.01121102821281484   -0.053578764743538065   -0.002770673763052423
0.004707791426182567   -0.05373254456449741   -0.0026992473446011767
0.0046371321595255295   -0.05376015624167125   -0.0027865636212384714
0.005568133643947981   -0.04174297445474069   -0.002626539922030885
0.01121102821281484   -0.053578764743538065   -0.002770673763052423
0.0046371321595255295   -0.05376015624167125   -0.0027865636212384714
0.01210308001483864   -0.041750212701903974   -0.002734622611907799
0.005568133643947981   -0.04174297445474069   -0.002626539922030885
0.004707791426182567   -0.05373254456449741   -0.0026992473446011767
0.012184681315478075   -0.041696685742802365   -0.002700247265583053
0.005595937423207383   -0.04171945758442485   -0.002595909202418351
0.004707791426182567   -0.05373254456449741   -0.0026992473446011767
0.01121102821281484   -0.053578764743538065   -0.002770673763052423
0.012184681315478075   -0.041696685742802365   -0.002700247265583053
0.011337740234505653   -0.05354799911447361   -0.0026733417545269584
0.005595937423207383   -0.04171945758442485   -0.002595909202418351
0.012227711436318995   -0.04165439202275228   -0.0026831859320751612
0.011337740234505653   -0.05354799911447361   -0.0026733417545269584
0.012184681315478075   -0.041696685742802365   -0.002700247265583053
0.005595937423207383   -0.04171945758442485   -0.002595909202418351
0.011337740234505653   -0.05354799911447361   -0.0026733417545269584
0.004773071113111102   -0.05371818816516168   -0.0026240468634462335
0.004707791426182567   -0.05373254456449741   -0.0026992473446011767
0.005595937423207383   -0.04171945758442485   -0.002595909202418351
0.011337740234505653   -0.05354799911447361   -0.0026733417545269584
0.004707791426182567   -0.05373254456449741   -0.0026992473446011767
0.012184681315478075   -0.041696685742802365   -0.002700247265583053
0.005595937423207383   -0.04171945758442485   -0.002595909202418351
0.004773071113111102   -0.05371818816516168   -0.0026240468634462335
0.012227711436318995   -0.04165439202275228   -0.0026831859320751612
0.005601462168180887   -0.0416848466743881   -0.0025764407207063728
0.004773071113111102   -0.05371818816516168   -0.0026240468634462335
0.011337740234505653   -0.05354799911447361   -0.0026733417545269584
0.012227711436318995   -0.04165439202275228   -0.0026831859320751612
0.011450180793063243   -0.05351448518127238   -0.0025939777815948647
0.005601462168180887   -0.0416848466743881   -0.0025764407207063728
0.012237837792076788   -0.04158646153296642   -0.0026837335451062004
0.011450180793063243   -0.05351448518127238   -0.0025939777815948647
0.012227711436318995   -0.04165439202275228   -0.0026831859320751612
0.005601462168180887   -0.0416848466743881   -0.0025764407207063728
0.011450180793063243   -0.05351448518127238   -0.0025939777815948647
0.004808044522377631   -0.053710122869292755   -0.00256017120917435
0.004773071113111102   -0.05371818816516168   -0.0026240468634462335
0.005601462168180887   -0.0416848466743881   -0.0025764407207063728
0.011450180793063243   -0.05351448518127238   -0.0025939777815948647
0.004773071113111102   -0.05371818816516168   -0.0026240468634462335
0.012227711436318995   -0.04165439202275228   -0.0026831859320751612
-0.0195933112080636   -0.05382403085255616   -0.003104055388466703
-0.01906899541225874   -0.06521139699937233   -0.002967619809724838
-0.013084876140136698   -0.053855164290716594   -0.002927964857109037
-0.019570961801035583   -0.05394373447265811   -0.003098379233939498
-0.01906899541225874   -0.06521139699937233   -0.002967619809724838
-0.013031250657283168   -0.06534258932980906   -0.0028615233847347787
-0.013084876140136698   -0.053855164290716594   -0.002927964857109037
-0.012954888179321958   -0.06540939778722221   -0.002877546083980653
-0.019570961801035583   -0.05394373447265811   -0.003098379233939498
-0.013049917797553842   -0.053944636652516996   -0.002900949532820106
-0.012954888179321958   -0.06540939778722221   -0.002877546083980653
-0.013084876140136698   -0.053855164290716594   -0.002927964857109037
-0.019570961801035583   -0.05394373447265811   -0.003098379233939498
-0.012954888179321958   -0.06540939778722221   -0.002877546083980653
-0.018931156521681584   -0.06530159968493299   -0.0030432182204397857
-0.01906899541225874   -0.06521139699937233   -0.002967619809724838
-0.019570961801035583   -0.05394373447265811   -0.003098379233939498
-0.012954888179321958   -0.06540939778722221   -0.002877546083980653
-0.01906899541225874   -0.06521139699937233   -0.002967619809724838
-0.013084876140136698   -0.053855164290716594   -0.002927964857109037
-0.019570961801035583   -0.05394373447265811   -0.003098379233939498
-0.018931156521681584   -0.06530159968493299   -0.0030432182204397857
-0.013049917797553842   -0.053944636652516996   -0.002900949532820106
-0.01951123704920669   -0.05405993654001679   -0.0031109235311852176
-0.018931156521681584   -0.06530159968493299   -0.0030432182204397857
-0.012954888179321958   -0.06540939778722221   -0.002877546083980653
-0.013049917797553842   -0.053944636652516996   -0.002900949532820106
-0.012851481518736595   -0.06550448274751197   -0.0029060745613241836
-0.01951123704920669   -0.05405993654001679   -0.0031109235311852176
-0.012995309989390722   -0.054043747778397336   -0.0028861264679158065
-0.012851481518736595   -0.06550448274751197   -0.0029060745613241836
-0.013049917797553842   -0.053944636652516996   -0.002900949532820106
-0.01951123704920669   -0.05405993654001679   -0.0031109235311852176
-0.012851481518736595   -0.06550448274751197   -0.0029060745613241836
-0.01877378079049433   -0.06541226868192383   -0.0031384855907744713
-0.018931156521681584   -0.06530159968493299   -0.0030432182204397857
-0.01951123704920669   -0.05405993654001679   -0.0031109235311852176
-0.012851481518736595   -0.06550448274751197   -0.0029060745613241836
-0.018931156521681584   -0.06530159968493299   -0.0030432182204397857
-0.013049917797553842   -0.053944636652516996   -0.002900949532820106
-0.01951123704920669   -0.05405993654001679   -0.0031109235311852176
-0.01877378079049433   -0.06541226868192383   -0.0031384855907744713
-0.012995309989390722   -0.054043747778397336   -0.0028861264679158065
-0.019414211960403334   -0.05420959970242325   -0.00314260752999137
-0.01877378079049433   -0.06541226868192383   -0.0031384855907744713
-0.012851481518736595   -0.06550448274751197   -0.0029060745613241836
-0.012995309989390722   -0.054043747778397336   -0.0028861264679158065
-0.012740518402601184   -0.06563364309559491   -0.0029474790044482927
-0.019414211960403334   -0.05420959970242325   -0.00314260752999137
-0.01292454271729705   -0.054159320545989854   -0.0028832994435268014
-0.012740518402601184   -0.06563364309559491   -0.0029474790044482927
-0.012995309989390722   -0.054043747778397336   -0.0028861264679158065
-0.019414211960403334   -0.05420959970242325   -0.00314260752999137
-0.012740518402601184   -0.06563364309559491   -0.0029474790044482927
-0.01855945512646703   -0.0655807090951108   -0.0032537828100994304
-0.01877378079049433   -0.06541226868192383   -0.0031384855907744713
-0.019414211960403334   -0.05420959970242325   -0.00314260752999137
-0.012740518402601184   -0.06563364309559491   -0.0029474790044482927
-0.01877378079049433   -0.06541226868192383   -0.0031384855907744713
-0.012995309989390722   -0.054043747778397336   -0.0028861264679158065
-0.013084876140136698   -0.053855164290716594   -0.002927964857109037
-0.013031250657283168   -0.06534258932980906   -0.0028615233847347787
-0.007123246323103514   -0.05386194279404435   -0.0028109173897179094
-0.013049917797553842   -0.053944636652516996   -0.002900949532820106
-0.013031250657283168   -0.06534258932980906   -0.0028615233847347787
-0.007619302714258697   -0.06539453375795605   -0.0027936086452932675
-0.007123246323103514   -0.05386194279404435   -0.0028109173897179094
-0.00753613571970688   -0.06542928176716048   -0.0027587124980660883
-0.013049917797553842   -0.053944636652516996   -0.002900949532820106
-0.007076416358861891   -0.05391327780096037   -0.002762989832382328
-0.00753613571970688   -0.06542928176716048   -0.0027587124980660883
-0.007123246323103514   -0.05386194279404435   -0.0028109173897179094
-0.013049917797553842   -0.053944636652516996   -0.002900949532820106
-0.00753613571970688   -0.06542928176716048   -0.0027587124980660883
-0.012954888179321958   -0.06540939778722221   -0.002877546083980653
-0.013031250657283168   -0.06534258932980906   -0.0028615233847347787
-0.013049917797553842   -0.053944636652516996   -0.002900949532820106
-0.00753613571970688   -0.06542928176716048   -0.0027587124980660883
-0.013031250657283168   -0.06534258932980906   -0.0028615233847347787
-0.007123246323103514   -0.05386194279404435   -0.0028109173897179094
-0.013049917797553842   -0.053944636652516996   -0.002900949532820106
-0.012954888179321958   -0.06540939778722221   -0.002877546083980653
-0.007076416358861891   -0.05391327780096037   -0.002762989832382328
-0.012995309989390722   -0.054043747778397336   -0.0028861264679158065
-0.012954888179321958   -0.06540939778722221   -0.002877546083980653
-0.00753613571970688   -0.06542928176716048   -0.0027587124980660883
-0.007076416358861891   -0.05391327780096037   -0.002762989832382328
-0.007446667953156927   -0.06549121989933093   -0.00273617001759268
-0.012995309989390722   -0.054043747778397336   -0.0028861264679158065
-0.007023492099217719   -0.0539756780828925   -0.0027273012148351706
-0.007446667953156927   -0.06549121989933093   -0.00273617001759268
-0.007076416358861891   -0.05391327780096037   -0.002762989832382328
-0.012995309989390722   -0.054043747778397336   -0.0028861264679158065
-0.007446667953156927   -0.06549121989933093   -0.00273617001759268
-0.012851481518736595   -0.06550448274751197   -0.0029060745613241836
-0.012954888179321958   -0.06540939778722221   -0.002877546083980653
-0.012995309989390722   -0.054043747778397336   -0.0028861264679158065
-0.007446667953156927   -0.06549121989933093   -0.00273617001759268
-0.012954888179321958   -0.06540939778722221   -0.002877546083980653
-0.007076416358861891   -0.05391327780096037   -0.002762989832382328
-0.012995309989390722   -0.054043747778397336   -0.0028861264679158065
-0.012851481518736595   -0.06550448274751197   -0.0029060745613241836
-0.007023492099217719   -0.0539756780828925   -0.0027273012148351706
-0.01292454271729705   -0.054159320545989854   -0.0028832994435268014
-0.012851481518736595   -0.06550448274751197   -0.0029060745613241836
-0.007446667953156927   -0.06549121989933093   -0.00273617001759268
-0.007023492099217719   -0.0539756780828925   -0.0027273012148351706
-0.007354705487831707   -0.06558113271775383   -0.0027265845629787216
-0.01292454271729705   -0.054159320545989854   -0.0028832994435268014
-0.006966452478104889   -0.05404933813500571   -0.002704247691661712
-0.007354705487831707   -0.06558113271775383   -0.0027265845629787216
-0.007023492099217719   -0.0539756780828925   -0.0027273012148351706
-0.01292454271729705   -0.054159320545989854   -0.0028832994435268014
-0.007354705487831707   -0.06558113271775383   -0.0027265845629787216
-0.012740518402601184   -0.06563364309559491   -0.0029474790044482927
-0.012851481518736595   -0.06550448274751197   -0.0029060745613241836
-0.01292454271729705   -0.054159320545989854   -0.0028832994435268014
-0.007354705487831707   -0.06558113271775383   -0.0027265845629787216
-0.012851481518736595   -0.06550448274751197   -0.0029060745613241836
-0.007023492099217719   -0.0539756780828925   -0.0027273012148351706
-0.007123246323103514   -0.05386194279404435   -0.0028109173897179094
-0.007619302714258697   -0.06539453375795605   -0.0027936086452932675
-0.0013302970056768106   -0.05383036370683733   -0.0027630233498323825
-0.007076416358861891   -0.05391327780096037   -0.002762989832382328
-0.007619302714258697   -0.06539453375795605   -0.0027936086452932675
-0.0023712959424181273   -0.0653547228043297   -0.002782308567154143
-0.0013302970056768106   -0.05383036370683733   -0.0027630233498323825
-0.0022793070219742193   -0.06535555894113426   -0.002698240149121576
-0.007076416358861891   -0.05391327780096037   -0.002762989832382328
-0.0012749073413127624   -0.05384228953172299   -0.0026952241435366227
-0.0022793070219742193   -0.06535555894113426   -0.002698240149121576
-0.0013302970056768106   -0.05383036370683733   -0.0027630233498323825
-0.007076416358861891   -0.05391327780096037   -0.002762989832382328
-0.0022793070219742193   -0.06535555894113426   -0.002698240149121576
-0.00753613571970688   -0.06542928176716048   -0.0027587124980660883
-0.007619302714258697   -0.06539453375795605   -0.0027936086452932675
-0.007076416358861891   -0.05391327780096037   -0.002762989832382328
-0.0022793070219742193   -0.06535555894113426   -0.002698240149121576
-0.007619302714258697   -0.06539453375795605   -0.0027936086452932675
-0.0013302970056768106   -0.05383036370683733   -0.0027630233498323825
-0.007076416358861891   -0.05391327780096037   -0.002762989832382328
-0.00753613571970688   -0.06542928176716048   -0.0027587124980660883
-0.0012749073413127624   -0.05384228953172299   -0.0026952241435366227
-0.007023492099217719   -0.0539756780828925   -0.0027273012148351706
-0.00753613571970688   -0.06542928176716048   -0.0027587124980660883
-0.0022793070219742193   -0.06535555894113426   -0.002698240149121576
-0.0012749073413127624   -0.05384228953172299   -0.0026952241435366227
-0.002189731376863887   -0.06538158977107836   -0.0026265554190645015
-0.007023492099217719   -0.0539756780828925   -0.0027273012148351706
-0.0012225133173322175   -0.053864412877558235   -0.0026395767537652787
-0.002189731376863887   -0.06538158977107836   -0.0026265554190645015
-0.0012749073413127624   -0.05384228953172299   -0.0026952241435366227
-0.007023492099217719   -0.0539756780828925   -0.0027273012148351706
-0.002189731376863887   -0.06538158977107836   -0.0026265554190645015
-0.007446667953156927   -0.06549121989933093   -0.00273617001759268
-0.00753613571970688   -0.06542928176716048   -0.0027587124980660883
-0.007023492099217719   -0.0539756780828925   -0.0027273012148351706
-0.002189731376863887   -0.06538158977107836   -0.0026265554190645015
-0.00753613571970688   -0.06542928176716048   -0.0027587124980660883
-0.0012749073413127624   -0.05384228953172299   -0.0026952241435366227
-0.007023492099217719   -0.0539756780828925   -0.0027273012148351706
-0.007446667953156927   -0.06549121989933093   -0.00273617001759268
-0.0012225133173322175   -0.053864412877558235   -0.0026395767537652787
-0.006966452478104889   -0.05404933813500571   -0.002704247691661712
-0.007446667953156927   -0.06549121989933093   -0.00273617001759268
-0.002189731376863887   -0.06538158977107836   -0.0026265554190645015
-0.0012225133173322175   -0.053864412877558235   -0.0026395767537652787
-0.0021098163352131598   -0.06543497509232636   -0.0025676851327536636
-0.006966452478104889   -0.05404933813500571   -0.002704247691661712
-0.0011780542486518042   -0.053897239266717016   -0.0025965058959877825
-0.0021098163352131598   -0.06543497509232636   -0.0025676851327536636
-0.0012225133173322175   -0.053864412877558235   -0.0026395767537652787
-0.006966452478104889   -0.05404933813500571   -0.002704247691661712
-0.0021098163352131598   -0.06543497509232636   -0.0025676851327536636
-0.007354705487831707   -0.06558113271775383   -0.0027265845629787216
-0.007446667953156927   -0.06549121989933093   -0.00273617001759268
-0.006966452478104889   -0.05404933813500571   -0.002704247691661712
-0.0021098163352131598   -0.06543497509232636   -0.0025676851327536636
-0.007446667953156927   -0.06549121989933093   -0.00273617001759268
-0.0012225133173322175   -0.053864412877558235   -0.0026395767537652787
-0.0013302970056768106   -0.05383036370683733   -0.0027630233498323825
-0.0023712959424181273   -0.0653547228043297   -0.002782308567154143
0.0046371321595255295   -0.05376015624167125   -0.0027865636212384714
-0.0012749073413127624   -0.05384228953172299   -0.0026952241435366227
-0.0023712959424181273   -0.0653547228043297   -0.002782308567154143
0.003057803631315519   -0.06522587718576785   -0.0028320684791744237
0.0046371321595255295   -0.05376015624167125   -0.0027865636212384714
0.003170271265786621   -0.06519051638890756   -0.0026992942865478836
-0.0012749073413127624   -0.05384228953172299   -0.0026952241435366227
0.004707791426182567   -0.05373254456449741   -0.0026992473446011767
0.003170271265786621   -0.06519051638890756   -0.0026992942865478836
0.0046371321595255295   -0.05376015624167125   -0.0027865636212384714
-0.0012749073413127624   -0.05384228953172299   -0.0026952241435366227
0.003170271265786621   -0.06519051638890756   -0.0026992942865478836
-0.0022793070219742193   -0.06535555894113426   -0.002698240149121576
-0.0023712959424181273   -0.0653547228043297   -0.002782308567154143
-0.0012749073413127624   -0.05384228953172299   -0.0026952241435366227
0.003170271265786621   -0.06519051638890756   -0.0026992942865478836
-0.0023712959424181273   -0.0653547228043297   -0.002782308567154143
0.0046371321595255295   -0.05376015624167125   -0.0027865636212384714
-0.0012749073413127624   -0.05384228953172299   -0.0026952241435366227
-0.0022793070219742193   -0.06535555894113426   -0.002698240149121576
0.004707791426182567   -0.05373254456449741   -0.0026992473446011767
-0.0012225133173322175   -0.053864412877558235   -0.0026395767537652787
-0.0022793070219742193   -0.06535555894113426   -0.002698240149121576
0.003170271265786621   -0.06519051638890756   -0.0026992942865478836
0.004707791426182567   -0.05373254456449741   -0.0026992473446011767
0.003285580667673494   -0.06518393794770792   -0.0025796978368652977
-0.0012225133173322175   -0.053864412877558235   -0.0026395767537652787
0.004773071113111102   -0.05371818816516168   -0.0026240468634462335
0.003285580667673494   -0.06518393794770792   -0.0025796978368652977
0.004707791426182567   -0.05373254456449741   -0.0026992473446011767
-0.0012225133173322175   -0.053864412877558235   -0.0026395767537652787
0.003285580667673494   -0.06518393794770792   -0.0025796978368652977
-0.002189731376863887   -0.06538158977107836   -0.0026265554190645015
-0.0022793070219742193   -0.06535555894113426   -0.002698240149121576
-0.0012225133173322175   -0.053864412877558235   -0.0026395767537652787
0.003285580667673494   -0.06518393794770792   -0.0025796978368652977
-0.0022793070219742193   -0.06535555894113426   -0.002698240149121576
0.004707791426182567   -0.05373254456449741   -0.0026992473446011767
-0.0012225133173322175   -0.053864412877558235   -0.0026395767537652787
-0.002189731376863887   -0.06538158977107836   -0.0026265554190645015
0.004773071113111102   -0.05371818816516168   -0.0026240468634462335
-0.0011780542486518042   -0.053897239266717016   -0.0025965058959877825
-0.002189731376863887   -0.06538158977107836   -0.0026265554190645015
0.003285580667673494   -0.06518393794770792   -0.0025796978368652977
0.004773071113111102   -0.05371818816516168   -0.0026240468634462335
0.0033622422940986097   -0.06520082832262088   -0.0024715416527952352
-0.0011780542486518042   -0.053897239266717016   -0.0025965058959877825
0.004808044522377631   -0.053710122869292755   -0.00256017120917435
0.0033622422940986097   -0.06520082832262088   -0.0024715416527952352
0.004773071113111102   -0.05371818816516168   -0.0026240468634462335
-0.0011780542486518042   -0.053897239266717016   -0.0025965058959877825
0.0033622422940986097   -0.06520082832262088   -0.0024715416527952352
-0.0021098163352131598   -0.06543497509232636   -0.0025676851327536636
-0.002189731376863887   -0.06538158977107836   -0.0026265554190645015
-0.0011780542486518042   -0.053897239266717016   -0.0025965058959877825
0.0033622422940986097   -0.06520082832262088   -0.0024715416527952352
-0.002189731376863887   -0.06538158977107836   -0.0026265554190645015
0.004773071113111102   -0.05371818816516168   -0.0026240468634462335
0.0046371321595255295   -0.05376015624167125   -0.0027865636212384714
0.003057803631315519   -0.06522587718576785   -0.0028320684791744237
0.011026542741692031   -0.05364221293407248   -0.002885258133171646
0.004707791426182567   -0.05373254456449741   -0.0026992473446011767
0.003057803631315519   -0.06522587718576785   -0.0028320684791744237
0.008833820165617276   -0.06500437462049899   -0.0029606299224212047
0.011026542741692031   -0.05364221293407248   -0.002885258133171646
0.009133028446316123   -0.06493144195437811   -0.0027674524764514743
0.004707791426182567   -0.05373254456449741   -0.0026992473446011767
0.01121102821281484   -0.053578764743538065   -0.002770673763052423
0.009133028446316123   -0.06493144195437811   -0.0027674524764514743
0.011026542741692031   -0.05364221293407248   -0.002885258133171646
0.004707791426182567   -0.05373254456449741   -0.0026992473446011767
0.009133028446316123   -0.06493144195437811   -0.0027674524764514743
0.003170271265786621   -0.06519051638890756   -0.0026992942865478836
0.003057803631315519   -0.06522587718576785   -0.0028320684791744237
0.004707791426182567   -0.05373254456449741   -0.0026992473446011767
0.009133028446316123   -0.06493144195437811   -0.0027674524764514743
0.003057803631315519   -0.06522587718576785   -0.0028320684791744237
0.011026542741692031   -0.05364221293407248   -0.002885258133171646
0.004707791426182567   -0.05373254456449741   -0.0026992473446011767
0.003170271265786621   -0.06519051638890756   -0.0026992942865478836
0.01121102821281484   -0.053578764743538065   -0.002770673763052423
0.004773071113111102   -0.05371818816516168   -0.0026240468634462335
0.003170271265786621   -0.06519051638890756   -0.0026992942865478836
0.009133028446316123   -0.06493144195437811   -0.0027674524764514743
0.01121102821281484   -0.053578764743538065   -0.002770673763052423
0.009354561003815287   -0.06491140379302177   -0.0025917976861451115
0.004773071113111102   -0.05371818816516168   -0.0026240468634462335
0.011337740234505653   -0.05354799911447361   -0.0026733417545269584
0.009354561003815287   -0.06491140379302177   -0.0025917976861451115
0.01121102821281484   -0.053578764743538065   -0.002770673763052423
0.004773071113111102   -0.05371818816516168   -0.0026240468634462335
0.009354561003815287   -0.06491140379302177   -0.0025917976861451115
0.003285580667673494   -0.06518393794770792   -0.0025796978368652977
0.003170271265786621   -0.06519051638890756   -0.0026992942865478836
0.004773071113111102   -0.05371818816516168   -0.0026240468634462335
0.009354561003815287   -0.06491140379302177   -0.0025917976861451115
0.003170271265786621   -0.06519051638890756   -0.0026992942865478836
0.01121102821281484   -0.053578764743538065   -0.002770673763052423
0.004773071113111102   -0.05371818816516168   -0.0026240468634462335
0.003285580667673494   -0.06518393794770792   -0.0025796978368652977
0.011337740234505653   -0.05354799911447361   -0.0026733417545269584
0.004808044522377631   -0.053710122869292755   -0.00256017120917435
0.003285580667673494   -0.06518393794770792   -0.0025796978368652977
0.009354561003815287   -0.06491140379302177   -0.0025917976861451115
0.011337740234505653   -0.05354799911447361   -0.0026733417545269584
0.009579100326287428   -0.06491120057824629   -0.002434462572346528
0.004808044522377631   -0.053710122869292755   -0.00256017120917435
0.011450180793063243   -0.05351448518127238   -0.0025939777815948647
0.009579100326287428   -0.06491120057824629   -0.002434462572346528
0.011337740234505653   -0.05354799911447361   -0.0026733417545269584
0.004808044522377631   -0.053710122869292755   -0.00256017120917435
0.009579100326287428   -0.06491120057824629   -0.002434462572346528
0.0033622422940986097   -0.06520082832262088   -0.0024715416527952352
0.003285580667673494   -0.06518393794770792   -0.0025796978368652977
0.004808044522377631   -0.053710122869292755   -0.00256017120917435
0.009579100326287428   -0.06491120057824629   -0.002434462572346528
0.003285580667673494   -0.06518393794770792   -0.0025796978368652977
0.011337740234505653   -0.05354799911447361   -0.0026733417545269584
-0.01906899541225874   -0.06521139699937233   -0.002967619809724838
-0.017402593739095272   -0.07528846568716688   -0.0027672993085259513
-0.013031250657283168   -0.06534258932980906   -0.0028615233847347787
-0.018931156521681584   -0.06530159968493299   -0.0030432182204397857
-0.017402593739095272   -0.07528846568716688   -0.0027672993085259513
-0.012320783845111828   -0.07552524560055911   -0.002750163859035724
-0.013031250657283168   -0.06534258932980906   -0.0028615233847347787
-0.012193911405106674   -0.07555949999350704   -0.002806139187143846
-0.018931156521681584   -0.06530159968493299   -0.0030432182204397857
-0.012954888179321958   -0.06540939778722221   -0.002877546083980653
-0.012193911405106674   -0.07555949999350704   -0.002806139187143846
-0.013031250657283168   -0.06534258932980906   -0.0028615233847347787
-0.018931156521681584   -0.06530159968493299   -0.0030432182204397857
-0.012193911405106674   -0.07555949999350704   -0.002806139187143846
-0.017138415674104287   -0.07533930818721463   -0.002923967450286241
-0.017402593739095272   -0.07528846568716688   -0.0027672993085259513
-0.018931156521681584   -0.06530159968493299   -0.0030432182204397857
-0.012193911405106674   -0.07555949999350704   -0.002806139187143846
-0.017402593739095272   -0.07528846568716688   -0.0027672993085259513
-0.013031250657283168   -0.06534258932980906   -0.0028615233847347787
-0.018931156521681584   -0.06530159968493299   -0.0030432182204397857
-0.017138415674104287   -0.07533930818721463   -0.002923967450286241
-0.012954888179321958   -0.06540939778722221   -0.002877546083980653
-0.01877378079049433   -0.06541226868192383   -0.0031384855907744713
-0.017138415674104287   -0.07533930818721463   -0.002923967450286241
-0.012193911405106674   -0.07555949999350704   -0.002806139187143846
-0.012954888179321958   -0.06540939778722221   -0.002877546083980653
-0.012034559679657693   -0.07564153149544167   -0.002874810713022489
-0.01877378079049433   -0.06541226868192383   -0.0031384855907744713
-0.012851481518736595   -0.06550448274751197   -0.0029060745613241836
-0.012034559679657693   -0.07564153149544167   -0.002874810713022489
-0.012954888179321958   -0.06540939778722221   -0.002877546083980653
-0.01877378079049433   -0.06541226868192383   -0.0031384855907744713
-0.012034559679657693   -0.07564153149544167   -0.002874810713022489
-0.016874871000121115   -0.07543557635426533   -0.0031013092665429045
-0.017138415674104287   -0.07533930818721463   -0.002923967450286241
-0.01877378079049433   -0.06541226868192383   -0.0031384855907744713
-0.012034559679657693   -0.07564153149544167   -0.002874810713022489
-0.017138415674104287   -0.07533930818721463   -0.002923967450286241
-0.012954888179321958   -0.06540939778722221   -0.002877546083980653
-0.01877378079049433   -0.06541226868192383   -0.0031384855907744713
-0.016874871000121115   -0.07543557635426533   -0.0031013092665429045
-0.012851481518736595   -0.06550448274751197   -0.0029060745613241836
-0.01855945512646703   -0.0655807090951108   -0.0032537828100994304
-0.016874871000121115   -0.07543557635426533   -0.0031013092665429045
-0.012034559679657693   -0.07564153149544167   -0.002874810713022489
-0.012851481518736595   -0.06550448274751197   -0.0029060745613241836
-0.01187732311047291   -0.07577599872340944   -0.0029560593439377563
-0.01855945512646703   -0.0655807090951108   -0.0032537828100994304
-0.012740518402601184   -0.06563364309559491   -0.0029474790044482927
-0.01187732311047291   -0.07577599872340944   -0.0029560593439377563
-0.012851481518736595   -0.06550448274751197   -0.0029060745613241836
-0.01855945512646703   -0.0655807090951108   -0.0032537828100994304
-0.01187732311047291   -0.07577599872340944   -0.0029560593439377563
-0.0165372765726249   -0.07561508748031887   -0.0032989407697389507
-0.016874871000121115   -0.07543557635426533   -0.0031013092665429045
-0.01855945512646703   -0.0655807090951108   -0.0032537828100994304
-0.01187732311047291   -0.07577599872340944   -0.0029560593439377563
-0.016874871000121115   -0.07543557635426533   -0.0031013092665429045
-0.012851481518736595   -0.06550448274751197   -0.0029060745613241836
-0.013031250657283168   -0.06534258932980906   -0.0028615233847347787
-0.012320783845111828   -0.07552524560055911   -0.002750163859035724
-0.007619302714258697   -0.06539453375795605   -0.0027936086452932675
-0.012954888179321958   -0.06540939778722221   -0.002877546083980653
-0.012320783845111828   -0.07552524560055911   -0.002750163859035724
-0.007921037687419323   -0.07563623198458251   -0.0027433419914054263
-0.007619302714258697   -0.06539453375795605   -0.0027936086452932675
-0.007790854471224043   -0.07564747651375209   -0.002718311652712412
-0.012954888179321958   -0.06540939778722221   -0.002877546083980653
-0.00753613571970688   -0.06542928176716048   -0.0027587124980660883
-0.007790854471224043   -0.07564747651375209   -0.002718311652712412
-0.007619302714258697   -0.06539453375795605   -0.0027936086452932675
-0.012954888179321958   -0.06540939778722221   -0.002877546083980653
-0.007790854471224043   -0.07564747651375209   -0.002718311652712412
-0.012193911405106674   -0.07555949999350704   -0.002806139187143846
-0.012320783845111828   -0.07552524560055911   -0.002750163859035724
-0.012954888179321958   -0.06540939778722221   -0.002877546083980653
-0.007790854471224043   -0.07564747651375209   -0.002718311652712412
-0.012320783845111828   -0.07552524560055911   -0.002750163859035724
-0.007619302714258697   -0.06539453375795605   -0.0027936086452932675
-0.012954888179321958   -0.06540939778722221   -0.002877546083980653
-0.012193911405106674   -0.07555949999350704   -0.002806139187143846
-0.00753613571970688   -0.06542928176716048   -0.0027587124980660883
-0.012851481518736595   -0.06550448274751197   -0.0029060745613241836
-0.012193911405106674   -0.07555949999350704   -0.002806139187143846
-0.007790854471224043   -0.07564747651375209   -0.002718311652712412
-0.00753613571970688   -0.06542928176716048   -0.0027587124980660883
-0.007656495169000898   -0.07570137878780964   -0.0027056016919307997
-0.012851481518736595   -0.06550448274751197   -0.0029060745613241836
-0.007446667953156927   -0.06549121989933093   -0.00273617001759268
-0.007656495169000898   -0.07570137878780964   -0.0027056016919307997
-0.00753613571970688   -0.06542928176716048   -0.0027587124980660883
-0.012851481518736595   -0.06550448274751197   -0.0029060745613241836
-0.007656495169000898   -0.07570137878780964   -0.0027056016919307997
-0.012034559679657693   -0.07564153149544167   -0.002874810713022489
-0.012193911405106674   -0.07555949999350704   -0.002806139187143846
-0.012851481518736595   -0.06550448274751197   -0.0029060745613241836
-0.007656495169000898   -0.07570137878780964   -0.0027056016919307997
-0.012193911405106674   -0.07555949999350704   -0.002806139187143846
-0.00753613571970688   -0.06542928176716048   -0.0027587124980660883
-0.012851481518736595   -0.06550448274751197   -0.0029060745613241836
-0.012034559679657693   -0.07564153149544167   -0.002874810713022489
-0.007446667953156927   -0.06549121989933093   -0.00273617001759268
-0.012740518402601184   -0.06563364309559491   -0.0029474790044482927
-0.012034559679657693   -0.07564153149544167   -0.002874810713022489
-0.007656495169000898   -0.07570137878780964   -0.0027056016919307997
-0.007446667953156927   -0.06549121989933093   -0.00273617001759268
-0.007522358495218588   -0.07580045948831114   -0.002705051925330971
-0.012740518402601184   -0.06563364309559491   -0.0029474790044482927
-0.007354705487831707   -0.06558113271775383   -0.0027265845629787216
-0.007522358495218588   -0.07580045948831114   -0.002705051925330971
-0.007446667953156927   -0.06549121989933093   -0.00273617001759268
-0.012740518402601184   -0.06563364309559491   -0.0029474790044482927
-0.007522358495218588   -0.07580045948831114   -0.002705051925330971
-0.01187732311047291   -0.07577599872340944   -0.0029560593439377563
-0.012034559679657693   -0.07564153149544167   -0.002874810713022489
-0.012740518402601184   -0.06563364309559491   -0.0029474790044482927
-0.007522358495218588   -0.07580045948831114   -0.002705051925330971
-0.012034559679657693   -0.07564153149544167   -0.002874810713022489
-0.007446667953156927   -0.06549121989933093   -0.00273617001759268
-0.007619302714258697   -0.06539453375795605   -0.0027936086452932675
-0.007921037687419323   -0.07563623198458251   -0.0027433419914054263
-0.0023712959424181273   -0.0653547228043297   -0.002782308567154143
-0.00753613571970688   -0.06542928176716048   -0.0027587124980660883
-0.007921037687419323   -0.07563623198458251   -0.0027433419914054263
-0.0036674052683195245   -0.07561622969698605   -0.0027748458284137505
-0.0023712959424181273   -0.0653547228043297   -0.002782308567154143
-0.003524807777112042   -0.07560163751483995   -0.002671653541475747
-0.00753613571970688   -0.06542928176716048   -0.0027587124980660883
-0.0022793070219742193   -0.06535555894113426   -0.002698240149121576
-0.003524807777112042   -0.07560163751483995   -0.002671653541475747
-0.0023712959424181273   -0.0653547228043297   -0.002782308567154143
-0.00753613571970688   -0.06542928176716048   -0.0027587124980660883
-0.003524807777112042   -0.07560163751483995   -0.002671653541475747
-0.007790854471224043   -0.07564747651375209   -0.002718311652712412
-0.007921037687419323   -0.07563623198458251   -0.0027433419914054263
-0.00753613571970688   -0.06542928176716048   -0.0027587124980660883
-0.003524807777112042   -0.07560163751483995   -0.002671653541475747
-0.007921037687419323   -0.07563623198458251   -0.0027433419914054263
-0.0023712959424181273   -0.0653547228043297   -0.002782308567154143
-0.00753613571970688   -0.06542928176716048   -0.0027587124980660883
-0.007790854471224043   -0.07564747651375209   -0.002718311652712412
-0.0022793070219742193   -0.06535555894113426   -0.002698240149121576
-0.007446667953156927   -0.06549121989933093   -0.00273617001759268
-0.007790854471224043   -0.07564747651375209   -0.002718311652712412
-0.003524807777112042   -0.07560163751483995   -0.002671653541475747
-0.0022793070219742193   -0.06535555894113426   -0.002698240149121576
-0.003386423489771142   -0.07562561035239201   -0.0025815938792669683
-0.007446667953156927   -0.06549121989933093   -0.00273617001759268
-0.002189731376863887   -0.06538158977107836   -0.0026265554190645015
-0.003386423489771142   -0.07562561035239201   -0.0025815938792669683
-0.0022793070219742193   -0.06535555894113426   -0.002698240149121576
-0.007446667953156927   -0.06549121989933093   -0.00273617001759268
-0.003386423489771142   -0.07562561035239201   -0.0025815938792669683
-0.007656495169000898   -0.07570137878780964   -0.0027056016919307997
-0.007790854471224043   -0.07564747651375209   -0.002718311652712412
-0.007446667953156927   -0.06549121989933093   -0.00273617001759268
-0.003386423489771142   -0.07562561035239201   -0.0025815938792669683
-0.007790854471224043   -0.07564747651375209   -0.002718311652712412
-0.0022793070219742193   -0.06535555894113426   -0.002698240149121576
-0.007446667953156927   -0.06549121989933093   -0.00273617001759268
-0.007656495169000898   -0.07570137878780964   -0.0027056016919307997
-0.002189731376863887   -0.06538158977107836   -0.0026265554190645015
-0.007354705487831707   -0.06558113271775383   -0.0027265845629787216
-0.007656495169000898   -0.07570137878780964   -0.0027056016919307997
-0.003386423489771142   -0.07562561035239201   -0.0025815938792669683
-0.002189731376863887   -0.06538158977107836   -0.0026265554190645015
-0.003261405908219611   -0.07569375807740253   -0.00250352838926479
-0.007354705487831707   -0.06558113271775383   -0.0027265845629787216
-0.0021098163352131598   -0.06543497509232636   -0.0025676851327536636
-0.003261405908219611   -0.07569375807740253   -0.00250352838926479
-0.002189731376863887   -0.06538158977107836   -0.0026265554190645015
-0.007354705487831707   -0.06558113271775383   -0.0027265845629787216
-0.003261405908219611   -0.07569375807740253   -0.00250352838926479
-0.007522358495218588   -0.07580045948831114   -0.002705051925330971
-0.007656495169000898   -0.07570137878780964   -0.0027056016919307997
-0.007354705487831707   -0.06558113271775383   -0.0027265845629787216
-0.003261405908219611   -0.07569375807740253   -0.00250352838926479
-0.007656495169000898   -0.07570137878780964   -0.0027056016919307997
-0.002189731376863887   -0.06538158977107836   -0.0026265554190645015
-0.0023712959424181273   -0.0653547228043297   -0.002782308567154143
-0.0036674052683195245   -0.07561622969698605   -0.0027748458284137505
0.003057803631315519   -0.06522587718576785   -0.0028320684791744237
-0.0022793070219742193   -0.06535555894113426   -0.002698240149121576
-0.0036674052683195245   -0.07561622969698605   -0.0027748458284137505
0.0007859262813682   -0.0754605557239982   -0.0028516145226351384
0.003057803631315519   -0.06522587718576785   -0.0028320684791744237
0.0009593813576804886   -0.07541314124956255   -0.002670533031858622
-0.0022793070219742193   -0.06535555894113426   -0.002698240149121576
0.003170271265786621   -0.06519051638890756   -0.0026992942865478836
0.0009593813576804886   -0.07541314124956255   -0.002670533031858622
0.003057803631315519   -0.06522587718576785   -0.0028320684791744237
-0.0022793070219742193   -0.06535555894113426   -0.002698240149121576
0.0009593813576804886   -0.07541314124956255   -0.002670533031858622
-0.003524807777112042   -0.07560163751483995   -0.002671653541475747
-0.0036674052683195245   -0.07561622969698605   -0.0027748458284137505
-0.0022793070219742193   -0.06535555894113426   -0.002698240149121576
0.0009593813576804886   -0.07541314124956255   -0.002670533031858622
-0.0036674052683195245   -0.07561622969698605   -0.0027748458284137505
0.003057803631315519   -0.06522587718576785   -0.0028320684791744237
-0.0022793070219742193   -0.06535555894113426   -0.002698240149121576
-0.003524807777112042   -0.07560163751483995   -0.002671653541475747
0.003170271265786621   -0.06519051638890756   -0.0026992942865478836
-0.002189731376863887   -0.06538158977107836   -0.0026265554190645015
-0.003524807777112042   -0.07560163751483995   -0.002671653541475747
0.0009593813576804886   -0.07541314124956255   -0.002670533031858622
0.003170271265786621   -0.06519051638890756   -0.0026992942865478836
0.0011421503658273578   -0.07540884566155699   -0.0025061008895493485
-0.002189731376863887   -0.06538158977107836   -0.0026265554190645015
0.003285580667673494   -0.06518393794770792   -0.0025796978368652977
0.0011421503658273578   -0.07540884566155699   -0.0025061008895493485
0.003170271265786621   -0.06519051638890756   -0.0026992942865478836
-0.002189731376863887   -0.06538158977107836   -0.0026265554190645015
0.0011421503658273578   -0.07540884566155699   -0.0025061008895493485
-0.003386423489771142   -0.07562561035239201   -0.0025815938792669683
-0.003524807777112042   -0.07560163751483995   -0.002671653541475747
-0.002189731376863887   -0.06538158977107836   -0.0026265554190645015
0.0011421503658273578   -0.07540884566155699   -0.0025061008895493485
-0.003524807777112042   -0.07560163751483995   -0.002671653541475747
0.003170271265786621   -0.06519051638890756   -0.0026992942865478836
-0.002189731376863887   -0.06538158977107836   -0.0026265554190645015
-0.003386423489771142   -0.07562561035239201   -0.0025815938792669683
0.003285580667673494   -0.06518393794770792   -0.0025796978368652977
-0.0021098163352131598   -0.06543497509232636   -0.0025676851327536636
-0.003386423489771142   -0.07562561035239201   -0.0025815938792669683
0.0011421503658273578   -0.07540884566155699   -0.0025061008895493485
0.003285580667673494   -0.06518393794770792   -0.0025796978368652977
0.001275822033544761   -0.07544571065984639   -0.0023531337013787796
-0.0021098163352131598   -0.06543497509232636   -0.0025676851327536636
0.0033622422940986097   -0.06520082832262088   -0.0024715416527952352
0.001275822033544761   -0.07544571065984639   -0.0023531337013787796
0.003285580667673494   -0.06518393794770792   -0.0025796978368652977
-0.0021098163352131598   -0.06543497509232636   -0.0025676851327536636
0.001275822033544761   -0.07544571065984639   -0.0023531337013787796
-0.003261405908219611   -0.07569375807740253   -0.00250352838926479
-0.003386423489771142   -0.07562561035239201   -0.0025815938792669683
-0.0021098163352131598   -0.06543497509232636   -0.0025676851327536636
0.001275822033544761   -0.07544571065984639   -0.0023531337013787796
-0.003386423489771142   -0.07562561035239201   -0.0025815938792669683
0.003285580667673494   -0.06518393794770792   -0.0025796978368652977
0.003057803631315519   -0.06522587718576785   -0.0028320684791744237
0.0007859262813682   -0.0754605557239982   -0.0028516145226351384
0.008833820165617276   -0.06500437462049899   -0.0029606299224212047
0.003170271265786621   -0.06519051638890756   -0.0026992942865478836
0.0007859262813682   -0.0754605557239982   -0.0028516145226351384
0.005534404440244747   -0.07515443809150767   -0.0030158773888367837
0.008833820165617276   -0.06500437462049899   -0.0029606299224212047
0.005973513838221858   -0.07506341521724658   -0.002738749599390983
0.003170271265786621   -0.06519051638890756   -0.0026992942865478836
0.009133028446316123   -0.06493144195437811   -0.0027674524764514743
0.005973513838221858   -0.07506341521724658   -0.002738749599390983
0.008833820165617276   -0.06500437462049899   -0.0029606299224212047
0.003170271265786621   -0.06519051638890756   -0.0026992942865478836
0.005973513838221858   -0.07506341521724658   -0.002738749599390983
0.0009593813576804886   -0.07541314124956255   -0.002670533031858622
0.0007859262813682   -0.0754605557239982   -0.0028516145226351384
0.003170271265786621   -0.06519051638890756   -0.0026992942865478836
0.005973513838221858   -0.07506341521724658   -0.002738749599390983
0.0007859262813682   -0.0754605557239982   -0.0028516145226351384
0.008833820165617276   -0.06500437462049899   -0.0029606299224212047
0.003170271265786621   -0.06519051638890756   -0.0026992942865478836
0.0009593813576804886   -0.07541314124956255   -0.002670533031858622
0.009133028446316123   -0.06493144195437811   -0.0027674524764514743
0.003285580667673494   -0.06518393794770792   -0.0025796978368652977
0.0009593813576804886   -0.07541314124956255   -0.002670533031858622
0.005973513838221858   -0.07506341521724658   -0.002738749599390983
0.009133028446316123   -0.06493144195437811   -0.0027674524764514743
0.006310173410272498   -0.07504765485528159   -0.002482267675809538
0.003285580667673494   -0.06518393794770792   -0.0025796978368652977
0.009354561003815287   -0.06491140379302177   -0.0025917976861451115
0.006310173410272498   -0.07504765485528159   -0.002482267675809538
0.009133028446316123   -0.06493144195437811   -0.0027674524764514743
0.003285580667673494   -0.06518393794770792   -0.0025796978368652977
0.006310173410272498   -0.07504765485528159   -0.002482267675809538
0.0011421503658273578   -0.07540884566155699   -0.0025061008895493485
0.0009593813576804886   -0.07541314124956255   -0.002670533031858622
0.003285580667673494   -0.06518393794770792   -0.0025796978368652977
0.006310173410272498   -0.07504765485528159   -0.002482267675809538
0.0009593813576804886   -0.07541314124956255   -0.002670533031858622
0.009133028446316123   -0.06493144195437811   -0.0027674524764514743
0.003285580667673494   -0.06518393794770792   -0.0025796978368652977
0.0011421503658273578   -0.07540884566155699   -0.0025061008895493485
0.009354561003815287   -0.06491140379302177   -0.0025917976861451115
0.0033622422940986097   -0.06520082832262088   -0.0024715416527952352
0.0011421503658273578   -0.07540884566155699   -0.0025061008895493485
0.006310173410272498   -0.07504765485528159   -0.002482267675809538
0.009354561003815287   -0.06491140379302177   -0.0025917976861451115
0.0066588706454773034   -0.0750746139210167   -0.0022485288661900538
0.0033622422940986097   -0.06520082832262088   -0.0024715416527952352
0.009579100326287428   -0.06491120057824629   -0.002434462572346528
0.0066588706454773034   -0.0750746139210167   -0.0022485288661900538
0.009354561003815287   -0.06491140379302177   -0.0025917976861451115
0.0033622422940986097   -0.06520082832262088   -0.0024715416527952352
0.0066588706454773034   -0.0750746139210167   -0.0022485288661900538
0.001275822033544761   -0.07544571065984639   -0.0023531337013787796
0.0011421503658273578   -0.07540884566155699   -0.0025061008895493485
0.0033622422940986097   -0.06520082832262088   -0.0024715416527952352
0.0066588706454773034   -0.0750746139210167   -0.0022485288661900538
0.0011421503658273578   -0.07540884566155699   -0.0025061008895493485
0.009354561003815287   -0.06491140379302177   -0.0025917976861451115
-0.017402593739095272   -0.07528846568716688   -0.0027672993085259513
-0.01457319398271931   -0.08319886206689892   -0.0025106074390168387
-0.012320783845111828   -0.07552524560055911   -0.002750163859035724
-0.017138415674104287   -0.07533930818721463   -0.002923967450286241
-0.01457319398271931   -0.08319886206689892   -0.0025106074390168387
-0.010956881787008668   -0.08354961482687953   -0.002615840614868018
-0.012320783845111828   -0.07552524560055911   -0.002750163859035724
-0.010774021063004725   -0.08353150341775727   -0.0027019921189103853
-0.017138415674104287   -0.07533930818721463   -0.002923967450286241
-0.012193911405106674   -0.07555949999350704   -0.002806139187143846
-0.010774021063004725   -0.08353150341775727   -0.0027019921189103853
-0.012320783845111828   -0.07552524560055911   -0.002750163859035724
-0.017138415674104287   -0.07533930818721463   -0.002923967450286241
-0.010774021063004725   -0.08353150341775727   -0.0027019921189103853
-0.014179184422335052   -0.08318895983349457   -0.0027429011611450824
-0.01457319398271931   -0.08319886206689892   -0.0025106074390168387
-0.017138415674104287   -0.07533930818721463   -0.002923967450286241
-0.010774021063004725   -0.08353150341775727   -0.0027019921189103853
-0.01457319398271931   -0.08319886206689892   -0.0025106074390168387
-0.012320783845111828   -0.07552524560055911   -0.002750163859035724
-0.017138415674104287   -0.07533930818721463   -0.002923967450286241
-0.014179184422335052   -0.08318895983349457   -0.0027429011611450824
-0.012193911405106674   -0.07555949999350704   -0.002806139187143846
-0.016874871000121115   -0.07543557635426533   -0.0031013092665429045
-0.014179184422335052   -0.08318895983349457   -0.0027429011611450824
-0.010774021063004725   -0.08353150341775727   -0.0027019921189103853
-0.012193911405106674   -0.07555949999350704   -0.002806139187143846
-0.010558977177780563   -0.08358190998759467   -0.002801120513256167
-0.016874871000121115   -0.07543557635426533   -0.0031013092665429045
-0.012034559679657693   -0.07564153149544167   -0.002874810713022489
-0.010558977177780563   -0.08358190998759467   -0.002801120513256167
-0.012193911405106674   -0.07555949999350704   -0.002806139187143846
-0.016874871000121115   -0.07543557635426533   -0.0031013092665429045
-0.010558977177780563   -0.08358190998759467   -0.002801120513256167
-0.013815961228646905   -0.08325125253213028   -0.0029934688192404238
-0.014179184422335052   -0.08318895983349457   -0.0027429011611450824
-0.016874871000121115   -0.07543557635426533   -0.0031013092665429045
-0.010558977177780563   -0.08358190998759467   -0.002801120513256167
-0.014179184422335052   -0.08318895983349457   -0.0027429011611450824
-0.012193911405106674   -0.07555949999350704   -0.002806139187143846
-0.016874871000121115   -0.07543557635426533   -0.0031013092665429045
-0.013815961228646905   -0.08325125253213028   -0.0029934688192404238
-0.012034559679657693   -0.07564153149544167   -0.002874810713022489
-0.0165372765726249   -0.07561508748031887   -0.0032989407697389507
-0.013815961228646905   -0.08325125253213028   -0.0029934688192404238
-0.010558977177780563   -0.08358190998759467   -0.002801120513256167
-0.012034559679657693   -0.07564153149544167   -0.002874810713022489
-0.010363888591495151   -0.08370197862727999   -0.0029123951893798247
-0.0165372765726249   -0.07561508748031887   -0.0032989407697389507
-0.01187732311047291   -0.07577599872340944   -0.0029560593439377563
-0.010363888591495151   -0.08370197862727999   -0.0029123951893798247
-0.012034559679657693   -0.07564153149544167   -0.002874810713022489
-0.0165372765726249   -0.07561508748031887   -0.0032989407697389507
-0.010363888591495151   -0.08370197862727999   -0.0029123951893798247
-0.013372971741317057   -0.08341770448654194   -0.003261230546558154
-0.013815961228646905   -0.08325125253213028   -0.0029934688192404238
-0.0165372765726249   -0.07561508748031887   -0.0032989407697389507
-0.010363888591495151   -0.08370197862727999   -0.0029123951893798247
-0.013815961228646905   -0.08325125253213028   -0.0029934688192404238
-0.012034559679657693   -0.07564153149544167   -0.002874810713022489
-0.012320783845111828   -0.07552524560055911   -0.002750163859035724
-0.010956881787008668   -0.08354961482687953   -0.002615840614868018
-0.007921037687419323   -0.07563623198458251   -0.0027433419914054263
-0.012193911405106674   -0.07555949999350704   -0.002806139187143846
-0.010956881787008668   -0.08354961482687953   -0.002615840614868018
-0.008002883152464349   -0.0837771778382904   -0.0026981884039639532
-0.007921037687419323   -0.07563623198458251   -0.0027433419914054263
-0.007815212949321025   -0.08374820842829685   -0.0026718299029711875
-0.012193911405106674   -0.07555949999350704   -0.002806139187143846
-0.007790854471224043   -0.07564747651375209   -0.002718311652712412
-0.007815212949321025   -0.08374820842829685   -0.0026718299029711875
-0.007921037687419323   -0.07563623198458251   -0.0027433419914054263
-0.012193911405106674   -0.07555949999350704   -0.002806139187143846
-0.007815212949321025   -0.08374820842829685   -0.0026718299029711875
-0.010774021063004725   -0.08353150341775727   -0.0027019921189103853
-0.010956881787008668   -0.08354961482687953   -0.002615840614868018
-0.012193911405106674   -0.07555949999350704   -0.002806139187143846
-0.007815212949321025   -0.08374820842829685   -0.0026718299029711875
-0.010956881787008668   -0.08354961482687953   -0.002615840614868018
-0.007921037687419323   -0.07563623198458251   -0.0027433419914054263
-0.012193911405106674   -0.07555949999350704   -0.002806139187143846
-0.010774021063004725   -0.08353150341775727   -0.0027019921189103853
-0.007790854471224043   -0.07564747651375209   -0.002718311652712412
-0.012034559679657693   -0.07564153149544167   -0.002874810713022489
-0.010774021063004725   -0.08353150341775727   -0.0027019921189103853
-0.007815212949321025   -0.08374820842829685   -0.0026718299029711875
-0.007790854471224043   -0.07564747651375209   -0.002718311652712412
-0.0076301995283541   -0.08377837307570235   -0.0026580734588593316
-0.012034559679657693   -0.07564153149544167   -0.002874810713022489
-0.007656495169000898   -0.07570137878780964   -0.0027056016919307997
-0.0076301995283541   -0.08377837307570235   -0.0026580734588593316
-0.007790854471224043   -0.07564747651375209   -0.002718311652712412
-0.012034559679657693   -0.07564153149544167   -0.002874810713022489
-0.0076301995283541   -0.08377837307570235   -0.0026580734588593316
-0.010558977177780563   -0.08358190998759467   -0.002801120513256167
-0.010774021063004725   -0.08353150341775727   -0.0027019921189103853
-0.012034559679657693   -0.07564153149544167   -0.002874810713022489
-0.0076301995283541   -0.08377837307570235   -0.0026580734588593316
-0.010774021063004725   -0.08353150341775727   -0.0027019921189103853
-0.007790854471224043   -0.07564747651375209   -0.002718311652712412
-0.012034559679657693   -0.07564153149544167   -0.002874810713022489
-0.010558977177780563   -0.08358190998759467   -0.002801120513256167
-0.007656495169000898   -0.07570137878780964   -0.0027056016919307997
-0.01187732311047291   -0.07577599872340944   -0.0029560593439377563
-0.010558977177780563   -0.08358190998759467   -0.002801120513256167
-0.0076301995283541   -0.08377837307570235   -0.0026580734588593316
-0.007656495169000898   -0.07570137878780964   -0.0027056016919307997
-0.007459983398133671   -0.08386964411620149   -0.0026595620568615566
-0.01187732311047291   -0.07577599872340944   -0.0029560593439377563
-0.007522358495218588   -0.07580045948831114   -0.002705051925330971
-0.007459983398133671   -0.08386964411620149   -0.0026595620568615566
-0.007656495169000898   -0.07570137878780964   -0.0027056016919307997
-0.01187732311047291   -0.07577599872340944   -0.0029560593439377563
-0.007459983398133671   -0.08386964411620149   -0.0026595620568615566
-0.010363888591495151   -0.08370197862727999   -0.0029123951893798247
-0.010558977177780563   -0.08358190998759467   -0.002801120513256167
-0.01187732311047291   -0.07577599872340944   -0.0029560593439377563
-0.007459983398133671   -0.08386964411620149   -0.0026595620568615566
-0.010558977177780563   -0.08358190998759467   -0.002801120513256167
-0.007656495169000898   -0.07570137878780964   -0.0027056016919307997
-0.007921037687419323   -0.07563623198458251   -0.0027433419914054263
-0.008002883152464349   -0.0837771778382904   -0.0026981884039639532
-0.0036674052683195245   -0.07561622969698605   -0.0027748458284137505
-0.007790854471224043   -0.07564747651375209   -0.002718311652712412
-0.008002883152464349   -0.0837771778382904   -0.0026981884039639532
-0.005173639137007125   -0.08389707892584666   -0.0027954237221969
-0.0036674052683195245   -0.07561622969698605   -0.0027748458284137505
-0.004962073854497632   -0.08385532750001513   -0.0026629743627814492
-0.007790854471224043   -0.07564747651375209   -0.002718311652712412
-0.003524807777112042   -0.07560163751483995   -0.002671653541475747
-0.004962073854497632   -0.08385532750001513   -0.0026629743627814492
-0.0036674052683195245   -0.07561622969698605   -0.0027748458284137505
-0.007790854471224043   -0.07564747651375209   -0.002718311652712412
-0.004962073854497632   -0.08385532750001513   -0.0026629743627814492
-0.007815212949321025   -0.08374820842829685   -0.0026718299029711875
-0.008002883152464349   -0.0837771778382904   -0.0026981884039639532
-0.007790854471224043   -0.07564747651375209   -0.002718311652712412
-0.004962073854497632   -0.08385532750001513   -0.0026629743627814492
-0.008002883152464349   -0.0837771778382904   -0.0026981884039639532
-0.0036674052683195245   -0.07561622969698605   -0.0027748458284137505
-0.007790854471224043   -0.07564747651375209   -0.002718311652712412
-0.007815212949321025   -0.08374820842829685   -0.0026718299029711875
-0.003524807777112042   -0.07560163751483995   -0.002671653541475747
-0.007656495169000898   -0.07570137878780964   -0.0027056016919307997
-0.007815212949321025   -0.08374820842829685   -0.0026718299029711875
-0.004962073854497632   -0.08385532750001513   -0.0026629743627814492
-0.003524807777112042   -0.07560163751483995   -0.002671653541475747
-0.0047604144404638764   -0.0838655551089446   -0.002541656192410384
-0.007656495169000898   -0.07570137878780964   -0.0027056016919307997
-0.003386423489771142   -0.07562561035239201   -0.0025815938792669683
-0.0047604144404638764   -0.0838655551089446   -0.002541656192410384
-0.003524807777112042   -0.07560163751483995   -0.002671653541475747
-0.007656495169000898   -0.07570137878780964   -0.0027056016919307997
-0.0047604144404638764   -0.0838655551089446   -0.002541656192410384
-0.0076301995283541   -0.08377837307570235   -0.0026580734588593316
-0.007815212949321025   -0.08374820842829685   -0.0026718299029711875
-0.007656495169000898   -0.07570137878780964   -0.0027056016919307997
-0.0047604144404638764   -0.0838655551089446   -0.002541656192410384
-0.007815212949321025   -0.08374820842829685   -0.0026718299029711875
-0.003524807777112042   -0.07560163751483995   -0.002671653541475747
-0.007656495169000898   -0.07570137878780964   -0.0027056016919307997
-0.0076301995283541   -0.08377837307570235   -0.0026580734588593316
-0.003386423489771142   -0.07562561035239201   -0.0025815938792669683
-0.007522358495218588   -0.07580045948831114   -0.002705051925330971
-0.0076301995283541   -0.08377837307570235   -0.0026580734588593316
-0.0047604144404638764   -0.0838655551089446   -0.002541656192410384
-0.003386423489771142   -0.07562561035239201   -0.0025815938792669683
-0.004592727870773959   -0.08393792547088258   -0.0024384432434149846
-0.007522358495218588   -0.07580045948831114   -0.002705051925330971
-0.003261405908219611   -0.07569375807740253   -0.00250352838926479
-0.004592727870773959   -0.08393792547088258   -0.0024384432434149846
-0.003386423489771142   -0.07562561035239201   -0.0025815938792669683
-0.007522358495218588   -0.07580045948831114   -0.002705051925330971
-0.004592727870773959   -0.08393792547088258   -0.0024384432434149846
-0.007459983398133671   -0.08386964411620149   -0.0026595620568615566
-0.0076301995283541   -0.08377837307570235   -0.0026580734588593316
-0.007522358495218588   -0.07580045948831114   -0.002705051925330971
-0.004592727870773959   -0.08393792547088258   -0.0024384432434149846
-0.0076301995283541   -0.08377837307570235   -0.0026580734588593316
-0.003386423489771142   -0.07562561035239201   -0.0025815938792669683
-0.0036674052683195245   -0.07561622969698605   -0.0027748458284137505
-0.005173639137007125   -0.08389707892584666   -0.0027954237221969
0.0007859262813682   -0.0754605557239982   -0.0028516145226351384
-0.003524807777112042   -0.07560163751483995   -0.002671653541475747
-0.005173639137007125   -0.08389707892584666   -0.0027954237221969
-0.002164466245352139   -0.08386752195026813   -0.002909896902499556
0.0007859262813682   -0.0754605557239982   -0.0028516145226351384
-0.0018928349669960363   -0.08380208030804251   -0.00267597223970807
-0.003524807777112042   -0.07560163751483995   -0.002671653541475747
0.0009593813576804886   -0.07541314124956255   -0.002670533031858622
-0.0018928349669960363   -0.08380208030804251   -0.00267597223970807
0.0007859262813682   -0.0754605557239982   -0.0028516145226351384
-0.003524807777112042   -0.07560163751483995   -0.002671653541475747
-0.0018928349669960363   -0.08380208030804251   -0.00267597223970807
-0.004962073854497632   -0.08385532750001513   -0.0026629743627814492
-0.005173639137007125   -0.08389707892584666   -0.0027954237221969
-0.003524807777112042   -0.07560163751483995   -0.002671653541475747
-0.0018928349669960363   -0.08380208030804251   -0.00267597223970807
-0.005173639137007125   -0.08389707892584666   -0.0027954237221969
0.0007859262813682   -0.0754605557239982   -0.0028516145226351384
-0.003524807777112042   -0.07560163751483995   -0.002671653541475747
-0.004962073854497632   -0.08385532750001513   -0.0026629743627814492
0.0009593813576804886   -0.07541314124956255   -0.002670533031858622
-0.003386423489771142   -0.07562561035239201   -0.0025815938792669683
-0.004962073854497632   -0.08385532750001513   -0.0026629743627814492
-0.0018928349669960363   -0.08380208030804251   -0.00267597223970807
0.0009593813576804886   -0.07541314124956255   -0.002670533031858622
-0.0016151900092611236   -0.08379049380138254   -0.002453960337426973
-0.003386423489771142   -0.07562561035239201   -0.0025815938792669683
0.0011421503658273578   -0.07540884566155699   -0.0025061008895493485
-0.0016151900092611236   -0.08379049380138254   -0.002453960337426973
0.0009593813576804886   -0.07541314124956255   -0.002670533031858622
-0.003386423489771142   -0.07562561035239201   -0.0025815938792669683
-0.0016151900092611236   -0.08379049380138254   -0.002453960337426973
-0.0047604144404638764   -0.0838655551089446   -0.002541656192410384
-0.004962073854497632   -0.08385532750001513   -0.0026629743627814492
-0.003386423489771142   -0.07562561035239201   -0.0025815938792669683
-0.0016151900092611236   -0.08379049380138254   -0.002453960337426973
-0.004962073854497632   -0.08385532750001513   -0.0026629743627814492
0.0009593813576804886   -0.07541314124956255   -0.002670533031858622
-0.003386423489771142   -0.07562561035239201   -0.0025815938792669683
-0.0047604144404638764   -0.0838655551089446   -0.002541656192410384
0.0011421503658273578   -0.07540884566155699   -0.0025061008895493485
-0.003261405908219611   -0.07569375807740253   -0.00250352838926479
-0.0047604144404638764   -0.0838655551089446   -0.002541656192410384
-0.0016151900092611236   -0.08379049380138254   -0.002453960337426973
0.0011421503658273578   -0.07540884566155699   -0.0025061008895493485
-0.0014095040823143513   -0.08384439934426946   -0.0022523602431932213
-0.003261405908219611   -0.07569375807740253   -0.00250352838926479
0.001275822033544761   -0.07544571065984639   -0.0023531337013787796
-0.0014095040823143513   -0.08384439934426946   -0.0022523602431932213
0.0011421503658273578   -0.07540884566155699   -0.0025061008895493485
-0.003261405908219611   -0.07569375807740253   -0.00250352838926479
-0.0014095040823143513   -0.08384439934426946   -0.0022523602431932213
-0.004592727870773959   -0.08393792547088258   -0.0024384432434149846
-0.0047604144404638764   -0.0838655551089446   -0.002541656192410384
-0.003261405908219611   -0.07569375807740253   -0.00250352838926479
-0.0014095040823143513   -0.08384439934426946   -0.0022523602431932213
-0.0047604144404638764   -0.0838655551089446   -0.002541656192410384
0.0011421503658273578   -0.07540884566155699   -0.0025061008895493485
0.0007859262813682   -0.0754605557239982   -0.0028516145226351384
-0.002164466245352139   -0.08386752195026813   -0.002909896902499556
0.005534404440244747   -0.07515443809150767   -0.0030158773888367837
0.0009593813576804886   -0.07541314124956255   -0.002670533031858622
-0.002164466245352139   -0.08386752195026813   -0.002909896902499556
0.0010754345144810427   -0.08357869247740418   -0.003144710437887427
0.005534404440244747   -0.07515443809150767   -0.0030158773888367837
0.0017079793282252789   -0.08343621435470171   -0.0027620213003882927
0.0009593813576804886   -0.07541314124956255   -0.002670533031858622
0.005973513838221858   -0.07506341521724658   -0.002738749599390983
0.0017079793282252789   -0.08343621435470171   -0.0027620213003882927
0.005534404440244747   -0.07515443809150767   -0.0030158773888367837
0.0009593813576804886   -0.07541314124956255   -0.002670533031858622
0.0017079793282252789   -0.08343621435470171   -0.0027620213003882927
-0.0018928349669960363   -0.08380208030804251   -0.00267597223970807
-0.002164466245352139   -0.08386752195026813   -0.002909896902499556
0.0009593813576804886   -0.07541314124956255   -0.002670533031858622
0.0017079793282252789   -0.08343621435470171   -0.0027620213003882927
-0.002164466245352139   -0.08386752195026813   -0.002909896902499556
0.005534404440244747   -0.07515443809150767   -0.0030158773888367837
0.0009593813576804886   -0.07541314124956255   -0.002670533031858622
-0.0018928349669960363   -0.08380208030804251   -0.00267597223970807
0.005973513838221858   -0.07506341521724658   -0.002738749599390983
0.0011421503658273578   -0.07540884566155699   -0.0025061008895493485
-0.0018928349669960363   -0.08380208030804251   -0.00267597223970807
0.0017079793282252789   -0.08343621435470171   -0.0027620213003882927
0.005973513838221858   -0.07506341521724658   -0.002738749599390983
0.0022051094413652727   -0.08340732504035571   -0.0024027444179517705
0.0011421503658273578   -0.07540884566155699   -0.0025061008895493485
0.006310173410272498   -0.07504765485528159   -0.002482267675809538
0.0022051094413652727   -0.08340732504035571   -0.0024027444179517705
0.005973513838221858   -0.07506341521724658   -0.002738749599390983
0.0011421503658273578   -0.07540884566155699   -0.0025061008895493485
0.0022051094413652727   -0.08340732504035571   -0.0024027444179517705
-0.0016151900092611236   -0.08379049380138254   -0.002453960337426973
-0.0018928349669960363   -0.08380208030804251   -0.00267597223970807
0.0011421503658273578   -0.07540884566155699   -0.0025061008895493485
0.0022051094413652727   -0.08340732504035571   -0.0024027444179517705
-0.0018928349669960363   -0.08380208030804251   -0.00267597223970807
0.005973513838221858   -0.07506341521724658   -0.002738749599390983
0.0011421503658273578   -0.07540884566155699   -0.0025061008895493485
-0.0016151900092611236   -0.08379049380138254   -0.002453960337426973
0.006310173410272498   -0.07504765485528159   -0.002482267675809538
0.001275822033544761   -0.07544571065984639   -0.0023531337013787796
-0.0016151900092611236   -0.08379049380138254   -0.002453960337426973
0.0022051094413652727   -0.08340732504035571   -0.0024027444179517705
0.006310173410272498   -0.07504765485528159   -0.002482267675809538
0.0027215971596239947   -0.08343144574997323   -0.002074678721013119
0.001275822033544761   -0.07544571065984639   -0.0023531337013787796
0.0066588706454773034   -0.0750746139210167   -0.0022485288661900538
0.0027215971596239947   -0.08343144574997323   -0.002074678721013119
0.006310173410272498   -0.07504765485528159   -0.002482267675809538
0.001275822033544761   -0.07544571065984639   -0.0023531337013787796
0.0027215971596239947   -0.08343144574997323   -0.002074678721013119
-0.0014095040823143513   -0.08384439934426946   -0.0022523602431932213
-0.0016151900092611236   -0.08379049380138254   -0.002453960337426973
0.001275822033544761   -0.07544571065984639   -0.0023531337013787796
0.0027215971596239947   -0.08343144574997323   -0.002074678721013119
-0.0016151900092611236   -0.08379049380138254   -0.002453960337426973
0.006310173410272498   -0.07504765485528159   -0.002482267675809538
-0.01457319398271931   -0.08319886206689892   -0.0025106074390168387
-0.01068229600599358   -0.08789998878510588   -0.002209193239471242
-0.010956881787008668   -0.08354961482687953   -0.002615840614868018
-0.014179184422335052   -0.08318895983349457   -0.0027429011611450824
-0.01068229600599358   -0.08789998878510588   -0.002209193239471242
-0.00900067536163008   -0.0883436910764896   -0.0024759717357969472
-0.010956881787008668   -0.08354961482687953   -0.002615840614868018
-0.008769882742870341   -0.08825591252396371   -0.0025676026563308356
-0.014179184422335052   -0.08318895983349457   -0.0027429011611450824
-0.010774021063004725   -0.08353150341775727   -0.0027019921189103853
-0.008769882742870341   -0.08825591252396371   -0.0025676026563308356
-0.010956881787008668   -0.08354961482687953   -0.002615840614868018
-0.014179184422335052   -0.08318895983349457   -0.0027429011611450824
-0.008769882742870341   -0.08825591252396371   -0.0025676026563308356
-0.010191153540946725   -0.08780111137594966   -0.00248790829216972
-0.01068229600599358   -0.08789998878510588   -0.002209193239471242
-0.014179184422335052   -0.08318895983349457   -0.0027429011611450824
-0.008769882742870341   -0.08825591252396371   -0.0025676026563308356
-0.01068229600599358   -0.08789998878510588   -0.002209193239471242
-0.010956881787008668   -0.08354961482687953   -0.002615840614868018
-0.014179184422335052   -0.08318895983349457   -0.0027429011611450824
-0.010191153540946725   -0.08780111137594966   -0.00248790829216972
-0.010774021063004725   -0.08353150341775727   -0.0027019921189103853
-0.013815961228646905   -0.08325125253213028   -0.0029934688192404238
-0.010191153540946725   -0.08780111137594966   -0.00248790829216972
-0.008769882742870341   -0.08825591252396371   -0.0025676026563308356
-0.010774021063004725   -0.08353150341775727   -0.0027019921189103853
-0.00851432139192006   -0.0882601120398796   -0.00266015983382558
-0.013815961228646905   -0.08325125253213028   -0.0029934688192404238
-0.010558977177780563   -0.08358190998759467   -0.002801120513256167
-0.00851432139192006   -0.0882601120398796   -0.00266015983382558
-0.010774021063004725   -0.08353150341775727   -0.0027019921189103853
-0.013815961228646905   -0.08325125253213028   -0.0029934688192404238
-0.00851432139192006   -0.0882601120398796   -0.00266015983382558
-0.009767382298674812   -0.08780941520257016   -0.0027655377247273534
-0.010191153540946725   -0.08780111137594966   -0.00248790829216972
-0.013815961228646905   -0.08325125253213028   -0.0029934688192404238
-0.00851432139192006   -0.0882601120398796   -0.00266015983382558
-0.010191153540946725   -0.08780111137594966   -0.00248790829216972
-0.010774021063004725   -0.08353150341775727   -0.0027019921189103853
-0.013815961228646905   -0.08325125253213028   -0.0029934688192404238
-0.009767382298674812   -0.08780941520257016   -0.0027655377247273534
-0.010558977177780563   -0.08358190998759467   -0.002801120513256167
-0.013372971741317057   -0.08341770448654194   -0.003261230546558154
-0.009767382298674812   -0.08780941520257016   -0.0027655377247273534
-0.00851432139192006   -0.0882601120398796   -0.00266015983382558
-0.010558977177780563   -0.08358190998759467   -0.002801120513256167
-0.008276881383987201   -0.08835671030758964   -0.0027540311277204775
-0.013372971741317057   -0.08341770448654194   -0.003261230546558154
-0.010363888591495151   -0.08370197862727999   -0.0029123951893798247
-0.008276881383987201   -0.08835671030758964   -0.0027540311277204775
-0.010558977177780563   -0.08358190998759467   -0.002801120513256167
-0.013372971741317057   -0.08341770448654194   -0.003261230546558154
-0.008276881383987201   -0.08835671030758964   -0.0027540311277204775
-0.009264775452774054   -0.08793103986173421   -0.0030491510718881265
-0.009767382298674812   -0.08780941520257016   -0.0027655377247273534
-0.013372971741317057   -0.08341770448654194   -0.003261230546558154
-0.008276881383987201   -0.08835671030758964   -0.0027540311277204775
-0.009767382298674812   -0.08780941520257016   -0.0027655377247273534
-0.010558977177780563   -0.08358190998759467   -0.002801120513256167
-0.010956881787008668   -0.08354961482687953   -0.002615840614868018
-0.00900067536163008   -0.0883436910764896   -0.0024759717357969472
-0.008002883152464349   -0.0837771778382904   -0.0026981884039639532
-0.010774021063004725   -0.08353150341775727   -0.0027019921189103853
-0.00900067536163008   -0.0883436910764896   -0.0024759717357969472
-0.007769669289214145   -0.08878947457301942   -0.002711784601621611
-0.008002883152464349   -0.0837771778382904   -0.0026981884039639532
-0.007526121537997654   -0.0886994361650491   -0.002647446941152756
-0.010774021063004725   -0.08353150341775727   -0.0027019921189103853
-0.007815212949321025   -0.08374820842829685   -0.0026718299029711875
-0.007526121537997654   -0.0886994361650491   -0.002647446941152756
-0.008002883152464349   -0.0837771778382904   -0.0026981884039639532
-0.010774021063004725   -0.08353150341775727   -0.0027019921189103853
-0.007526121537997654   -0.0886994361650491   -0.002647446941152756
-0.008769882742870341   -0.08825591252396371   -0.0025676026563308356
-0.00900067536163008   -0.0883436910764896   -0.0024759717357969472
-0.010774021063004725   -0.08353150341775727   -0.0027019921189103853
-0.007526121537997654   -0.0886994361650491   -0.002647446941152756
-0.00900067536163008   -0.0883436910764896   -0.0024759717357969472
-0.008002883152464349   -0.0837771778382904   -0.0026981884039639532
-0.010774021063004725   -0.08353150341775727   -0.0027019921189103853
-0.008769882742870341   -0.08825591252396371   -0.0025676026563308356
-0.007815212949321025   -0.08374820842829685   -0.0026718299029711875
-0.010558977177780563   -0.08358190998759467   -0.002801120513256167
-0.008769882742870341   -0.08825591252396371   -0.0025676026563308356
-0.007526121537997654   -0.0886994361650491   -0.002647446941152756
-0.007815212949321025   -0.08374820842829685   -0.0026718299029711875
-0.0072906677685026485   -0.08869771861932929   -0.0025823060095121197
-0.010558977177780563   -0.08358190998759467   -0.002801120513256167
-0.0076301995283541   -0.08377837307570235   -0.0026580734588593316
-0.0072906677685026485   -0.08869771861932929   -0.0025823060095121197
-0.007815212949321025   -0.08374820842829685   -0.0026718299029711875
-0.010558977177780563   -0.08358190998759467   -0.002801120513256167
-0.0072906677685026485   -0.08869771861932929   -0.0025823060095121197
-0.00851432139192006   -0.0882601120398796   -0.00266015983382558
-0.008769882742870341   -0.08825591252396371   -0.0025676026563308356
-0.010558977177780563   -0.08358190998759467   -0.002801120513256167
-0.0072906677685026485   -0.08869771861932929   -0.0025823060095121197
-0.008769882742870341   -0.08825591252396371   -0.0025676026563308356
-0.007815212949321025   -0.08374820842829685   -0.0026718299029711875
-0.010558977177780563   -0.08358190998759467   -0.002801120513256167
-0.00851432139192006   -0.0882601120398796   -0.00266015983382558
-0.0076301995283541   -0.08377837307570235   -0.0026580734588593316
-0.010363888591495151   -0.08370197862727999   -0.0029123951893798247
-0.00851432139192006   -0.0882601120398796   -0.00266015983382558
-0.0072906677685026485   -0.08869771861932929   -0.0025823060095121197
-0.0076301995283541   -0.08377837307570235   -0.0026580734588593316
-0.007045181771395701   -0.08878247192832368   -0.002519729854802282
-0.010363888591495151   -0.08370197862727999   -0.0029123951893798247
-0.007459983398133671   -0.08386964411620149   -0.0026595620568615566
-0.007045181771395701   -0.08878247192832368   -0.002519729854802282
-0.0076301995283541   -0.08377837307570235   -0.0026580734588593316
-0.010363888591495151   -0.08370197862727999   -0.0029123951893798247
-0.007045181771395701   -0.08878247192832368   -0.002519729854802282
-0.008276881383987201   -0.08835671030758964   -0.0027540311277204775
-0.00851432139192006   -0.0882601120398796   -0.00266015983382558
-0.010363888591495151   -0.08370197862727999   -0.0029123951893798247
-0.007045181771395701   -0.08878247192832368   -0.002519729854802282
-0.00851432139192006   -0.0882601120398796   -0.00266015983382558
-0.0076301995283541   -0.08377837307570235   -0.0026580734588593316
-0.008002883152464349   -0.0837771778382904   -0.0026981884039639532
-0.007769669289214145   -0.08878947457301942   -0.002711784601621611
-0.005173639137007125   -0.08389707892584666   -0.0027954237221969
-0.007815212949321025   -0.08374820842829685   -0.0026718299029711875
-0.007769669289214145   -0.08878947457301942   -0.002711784601621611
-0.0066456485714433055   -0.08932793908004998   -0.0029713984948745113
-0.005173639137007125   -0.08389707892584666   -0.0027954237221969
-0.006347055320751267   -0.08924985305741893   -0.002742333178591633
-0.007815212949321025   -0.08374820842829685   -0.0026718299029711875
-0.004962073854497632   -0.08385532750001513   -0.0026629743627814492
-0.006347055320751267   -0.08924985305741893   -0.002742333178591633
-0.005173639137007125   -0.08389707892584666   -0.0027954237221969
-0.007815212949321025   -0.08374820842829685   -0.0026718299029711875
-0.006347055320751267   -0.08924985305741893   -0.002742333178591633
-0.007526121537997654   -0.0886994361650491   -0.002647446941152756
-0.007769669289214145   -0.08878947457301942   -0.002711784601621611
-0.007815212949321025   -0.08374820842829685   -0.0026718299029711875
-0.006347055320751267   -0.08924985305741893   -0.002742333178591633
-0.007769669289214145   -0.08878947457301942   -0.002711784601621611
-0.005173639137007125   -0.08389707892584666   -0.0027954237221969
-0.007815212949321025   -0.08374820842829685   -0.0026718299029711875
-0.007526121537997654   -0.0886994361650491   -0.002647446941152756
-0.004962073854497632   -0.08385532750001513   -0.0026629743627814492
-0.0076301995283541   -0.08377837307570235   -0.0026580734588593316
-0.007526121537997654   -0.0886994361650491   -0.002647446941152756
-0.006347055320751267   -0.08924985305741893   -0.002742333178591633
-0.004962073854497632   -0.08385532750001513   -0.0026629743627814492
-0.0060704157231192485   -0.08924561373860895   -0.0025140619732761074
-0.0076301995283541   -0.08377837307570235   -0.0026580734588593316
-0.0047604144404638764   -0.0838655551089446   -0.002541656192410384
-0.0060704157231192485   -0.08924561373860895   -0.0025140619732761074
-0.004962073854497632   -0.08385532750001513   -0.0026629743627814492
-0.0076301995283541   -0.08377837307570235   -0.0026580734588593316
-0.0060704157231192485   -0.08924561373860895   -0.0025140619732761074
-0.0072906677685026485   -0.08869771861932929   -0.0025823060095121197
-0.007526121537997654   -0.0886994361650491   -0.002647446941152756
-0.0076301995283541   -0.08377837307570235   -0.0026580734588593316
-0.0060704157231192485   -0.08924561373860895   -0.0025140619732761074
-0.007526121537997654   -0.0886994361650491   -0.002647446941152756
-0.004962073854497632   -0.08385532750001513   -0.0026629743627814492
-0.0076301995283541   -0.08377837307570235   -0.0026580734588593316
-0.0072906677685026485   -0.08869771861932929   -0.0025823060095121197
-0.0047604144404638764   -0.0838655551089446   -0.002541656192410384
-0.007459983398133671   -0.08386964411620149   -0.0026595620568615566
-0.0072906677685026485   -0.08869771861932929   -0.0025823060095121197
-0.0060704157231192485   -0.08924561373860895   -0.0025140619732761074
-0.0047604144404638764   -0.0838655551089446   -0.002541656192410384
-0.005773369439953582   -0.08931121723363483   -0.0022852480788483434
-0.007459983398133671   -0.08386964411620149   -0.0026595620568615566
-0.004592727870773959   -0.08393792547088258   -0.0024384432434149846
-0.005773369439953582   -0.08931121723363483   -0.0022852480788483434
-0.0047604144404638764   -0.0838655551089446   -0.002541656192410384
-0.007459983398133671   -0.08386964411620149   -0.0026595620568615566
-0.005773369439953582   -0.08931121723363483   -0.0022852480788483434
-0.007045181771395701   -0.08878247192832368   -0.002519729854802282
-0.0072906677685026485   -0.08869771861932929   -0.0025823060095121197
-0.007459983398133671   -0.08386964411620149   -0.0026595620568615566
-0.005773369439953582   -0.08931121723363483   -0.0022852480788483434
-0.0072906677685026485   -0.08869771861932929   -0.0025823060095121197
-0.0047604144404638764   -0.0838655551089446   -0.002541656192410384
-0.005173639137007125   -0.08389707892584666   -0.0027954237221969
-0.0066456485714433055   -0.08932793908004998   -0.0029713984948745113
-0.002164466245352139   -0.08386752195026813   -0.002909896902499556
-0.004962073854497632   -0.08385532750001513   -0.0026629743627814492
-0.0066456485714433055   -0.08932793908004998   -0.0029713984948745113
-0.005539416043878171   -0.09   -0.003170575889554059
-0.002164466245352139   -0.08386752195026813   -0.002909896902499556
-0.005163939394446492   -0.09   -0.002822878276215582
-0.004962073854497632   -0.08385532750001513   -0.0026629743627814492
-0.0018928349669960363   -0.08380208030804251   -0.00267597223970807
-0.005163939394446492   -0.09   -0.002822878276215582
-0.002164466245352139   -0.08386752195026813   -0.002909896902499556
-0.004962073854497632   -0.08385532750001513   -0.0026629743627814492
-0.005163939394446492   -0.09   -0.002822878276215582
-0.006347055320751267   -0.08924985305741893   -0.002742333178591633
-0.0066456485714433055   -0.08932793908004998   -0.0029713984948745113
-0.004962073854497632   -0.08385532750001513   -0.0026629743627814492
-0.005163939394446492   -0.09   -0.002822878276215582
-0.0066456485714433055   -0.08932793908004998   -0.0029713984948745113
-0.002164466245352139   -0.08386752195026813   -0.002909896902499556
-0.004962073854497632   -0.08385532750001513   -0.0026629743627814492
-0.006347055320751267   -0.08924985305741893   -0.002742333178591633
-0.0018928349669960363   -0.08380208030804251   -0.00267597223970807
-0.0047604144404638764   -0.0838655551089446   -0.002541656192410384
-0.006347055320751267   -0.08924985305741893   -0.002742333178591633
-0.005163939394446492   -0.09   -0.002822878276215582
-0.0018928349669960363   -0.08380208030804251   -0.00267597223970807
-0.0047867393626858865   -0.09   -0.002471055169976733
-0.0047604144404638764   -0.0838655551089446   -0.002541656192410384
-0.0016151900092611236   -0.08379049380138254   -0.002453960337426973
-0.0047867393626858865   -0.09   -0.002471055169976733
-0.0018928349669960363   -0.08380208030804251   -0.00267597223970807
-0.0047604144404638764   -0.0838655551089446   -0.002541656192410384
-0.0047867393626858865   -0.09   -0.002471055169976733
-0.0060704157231192485   -0.08924561373860895   -0.0025140619732761074
-0.006347055320751267   -0.08924985305741893   -0.002742333178591633
-0.0047604144404638764   -0.0838655551089446   -0.002541656192410384
-0.0047867393626858865   -0.09   -0.002471055169976733
-0.006347055320751267   -0.08924985305741893   -0.002742333178591633
-0.0018928349669960363   -0.08380208030804251   -0.00267597223970807
-0.0047604144404638764   -0.0838655551089446   -0.002541656192410384
-0.0060704157231192485   -0.08924561373860895   -0.0025140619732761074
-0.0016151900092611236   -0.08379049380138254   -0.002453960337426973
-0.004592727870773959   -0.08393792547088258   -0.0024384432434149846
-0.0060704157231192485   -0.08924561373860895   -0.0025140619732761074
-0.0047867393626858865   -0.09   -0.002471055169976733
-0.0016151900092611236   -0.08379049380138254   -0.002453960337426973
-0.004417940520192779   -0.09   -0.002123878033263316
-0.004592727870773959   -0.08393792547088258   -0.0024384432434149846
-0.0014095040823143513   -0.08384439934426946   -0.0022523602431932213
-0.004417940520192779   -0.09   -0.002123878033263316
-0.0016151900092611236   -0.08379049380138254   -0.002453960337426973
-0.004592727870773959   -0.08393792547088258   -0.0024384432434149846
-0.004417940520192779   -0.09   -0.002123878033263316
-0.005773369439953582   -0.08931121723363483   -0.0022852480788483434
-0.0060704157231192485   -0.08924561373860895   -0.0025140619732761074
-0.004592727870773959   -0.08393792547088258   -0.0024384432434149846
-0.004417940520192779   -0.09   -0.002123878033263316
-0.0060704157231192485   -0.08924561373860895   -0.0025140619732761074
-0.0016151900092611236   -0.08379049380138254   -0.002453960337426973
-0.002164466245352139   -0.08386752195026813   -0.002909896902499556
-0.005539416043878171   -0.09   -0.003170575889554059
0.0010754345144810427   -0.08357869247740418   -0.003144710437887427
-0.0018928349669960363   -0.08380208030804251   -0.00267597223970807
-0.005539416043878171   -0.09   -0.003170575889554059
-0.0047376444813675075   -0.09   -0.0034118014340213474
0.0010754345144810427   -0.08357869247740418   -0.003144710437887427
-0.003953079022958775   -0.09   -0.0029089011921225186
-0.0018928349669960363   -0.08380208030804251   -0.00267597223970807
0.0017079793282252789   -0.08343621435470171   -0.0027620213003882927
-0.003953079022958775   -0.09   -0.0029089011921225186
0.0010754345144810427   -0.08357869247740418   -0.003144710437887427
-0.0018928349669960363   -0.08380208030804251   -0.00267597223970807
-0.003953079022958775   -0.09   -0.0029089011921225186
-0.005163939394446492   -0.09   -0.002822878276215582
-0.005539416043878171   -0.09   -0.003170575889554059
-0.0018928349669960363   -0.08380208030804251   -0.00267597223970807
-0.003953079022958775   -0.09   -0.0029089011921225186
-0.005539416043878171   -0.09   -0.003170575889554059
0.0010754345144810427   -0.08357869247740418   -0.003144710437887427
-0.0018928349669960363   -0.08380208030804251   -0.00267597223970807
-0.005163939394446492   -0.09   -0.002822878276215582
0.0017079793282252789   -0.08343621435470171   -0.0027620213003882927
-0.0016151900092611236   -0.08379049380138254   -0.002453960337426973
-0.005163939394446492   -0.09   -0.002822878276215582
-0.003953079022958775   -0.09   -0.0029089011921225186
0.0017079793282252789   -0.08343621435470171   -0.0027620213003882927
-0.003327394558716588   -0.09   -0.0024278078533748228
-0.0016151900092611236   -0.08379049380138254   -0.002453960337426973
0.0022051094413652727   -0.08340732504035571   -0.0024027444179517705
-0.003327394558716588   -0.09   -0.0024278078533748228
0.0017079793282252789   -0.08343621435470171   -0.0027620213003882927
-0.0016151900092611236   -0.08379049380138254   -0.002453960337426973
-0.003327394558716588   -0.09   -0.0024278078533748228
-0.0047867393626858865   -0.09   -0.002471055169976733
-0.005163939394446492   -0.09   -0.002822878276215582
-0.0016151900092611236   -0.08379049380138254   -0.002453960337426973
-0.003327394558716588   -0.09   -0.0024278078533748228
-0.005163939394446492   -0.09   -0.002822878276215582
0.0017079793282252789   -0.08343621435470171   -0.0027620213003882927
-0.0016151900092611236   -0.08379049380138254   -0.002453960337426973
-0.0047867393626858865   -0.09   -0.002471055169976733
0.0022051094413652727   -0.08340732504035571   -0.0024027444179517705
-0.0014095040823143513   -0.08384439934426946   -0.0022523602431932213
-0.0047867393626858865   -0.09   -0.002471055169976733
-0.003327394558716588   -0.09   -0.0024278078533748228
0.0022051094413652727   -0.08340732504035571   -0.0024027444179517705
-0.002554463266918943   -0.09   -0.0019283845713956266
-0.0014095040823143513   -0.08384439934426946   -0.0022523602431932213
0.0027215971596239947   -0.08343144574997323   -0.002074678721013119
-0.002554463266918943   -0.09   -0.0019283845713956266
0.0022051094413652727   -0.08340732504035571   -0.0024027444179517705
-0.0014095040823143513   -0.08384439934426946   -0.0022523602431932213
-0.002554463266918943   -0.09   -0.0019283845713956266
-0.004417940520192779   -0.09   -0.002123878033263316
-0.0047867393626858865   -0.09   -0.002471055169976733
-0.0014095040823143513   -0.08384439934426946   -0.0022523602431932213
-0.002554463266918943   -0.09   -0.0019283845713956266
-0.0047867393626858865   -0.09   -0.002471055169976733
0.0022051094413652727   -0.08340732504035571   -0.0024027444179517705
-0.01068229600599358   -0.08789998878510588   -0.002209193239471242
-0.006377609582994991   -0.08813252776410728   -0.0018907768140227225
-0.00900067536163008   -0.0883436910764896   -0.0024759717357969472
-0.010191153540946725   -0.08780111137594966   -0.00248790829216972
-0.006377609582994991   -0.08813252776410728   -0.0018907768140227225
-0.006766838342925152   -0.08847424429780669   -0.0022342616404800596
-0.00900067536163008   -0.0883436910764896   -0.0024759717357969472
-0.006592329051569827   -0.08835439564374942   -0.0023593541790132254
-0.010191153540946725   -0.08780111137594966   -0.00248790829216972
-0.008769882742870341   -0.08825591252396371   -0.0025676026563308356
-0.006592329051569827   -0.08835439564374942   -0.0023593541790132254
-0.00900067536163008   -0.0883436910764896   -0.0024759717357969472
-0.010191153540946725   -0.08780111137594966   -0.00248790829216972
-0.006592329051569827   -0.08835439564374942   -0.0023593541790132254
-0.0059326254942587905   -0.08797865513545519   -0.0021835992667638237
-0.006377609582994991   -0.08813252776410728   -0.0018907768140227225
-0.010191153540946725   -0.08780111137594966   -0.00248790829216972
-0.006592329051569827   -0.08835439564374942   -0.0023593541790132254
-0.006377609582994991   -0.08813252776410728   -0.0018907768140227225
-0.00900067536163008   -0.0883436910764896   -0.0024759717357969472
-0.010191153540946725   -0.08780111137594966   -0.00248790829216972
-0.0059326254942587905   -0.08797865513545519   -0.0021835992667638237
-0.008769882742870341   -0.08825591252396371   -0.0025676026563308356
-0.009767382298674812   -0.08780941520257016   -0.0027655377247273534
-0.0059326254942587905   -0.08797865513545519   -0.0021835992667638237
-0.006592329051569827   -0.08835439564374942   -0.0023593541790132254
-0.008769882742870341   -0.08825591252396371   -0.0025676026563308356
-0.006387675071561573   -0.08831001135212213   -0.002474740536283267
-0.009767382298674812   -0.08780941520257016   -0.0027655377247273534
-0.00851432139192006   -0.0882601120398796   -0.00266015983382558
-0.006387675071561573   -0.08831001135212213   -0.002474740536283267
-0.008769882742870341   -0.08825591252396371   -0.0025676026563308356
-0.009767382298674812   -0.08780941520257016   -0.0027655377247273534
-0.006387675071561573   -0.08831001135212213   -0.002474740536283267
-0.005562207437115753   -0.08793112633042634   -0.00246437561307017
-0.0059326254942587905   -0.08797865513545519   -0.0021835992667638237
-0.009767382298674812   -0.08780941520257016   -0.0027655377247273534
-0.006387675071561573   -0.08831001135212213   -0.002474740536283267
-0.0059326254942587905   -0.08797865513545519   -0.0021835992667638237
-0.008769882742870341   -0.08825591252396371   -0.0025676026563308356
-0.009767382298674812   -0.08780941520257016   -0.0027655377247273534
-0.005562207437115753   -0.08793112633042634   -0.00246437561307017
-0.00851432139192006   -0.0882601120398796   -0.00266015983382558
-0.009264775452774054   -0.08793103986173421   -0.0030491510718881265
-0.005562207437115753   -0.08793112633042634   -0.00246437561307017
-0.006387675071561573   -0.08831001135212213   -0.002474740536283267
-0.00851432139192006   -0.0882601120398796   -0.00266015983382558
-0.006212339168116048   -0.08834172652951353   -0.002579814568413437
-0.009264775452774054   -0.08793103986173421   -0.0030491510718881265
-0.008276881383987201   -0.08835671030758964   -0.0027540311277204775
-0.006212339168116048   -0.08834172652951353   -0.002579814568413437
-0.00851432139192006   -0.0882601120398796   -0.00266015983382558
-0.009264775452774054   -0.08793103986173421   -0.0030491510718881265
-0.006212339168116048   -0.08834172652951353   -0.002579814568413437
-0.005143192828232209   -0.0879707005425289   -0.0027318528626737565
-0.005562207437115753   -0.08793112633042634   -0.00246437561307017
-0.009264775452774054   -0.08793103986173421   -0.0030491510718881265
-0.006212339168116048   -0.08834172652951353   -0.002579814568413437
-0.005562207437115753   -0.08793112633042634   -0.00246437561307017
-0.00851432139192006   -0.0882601120398796   -0.00266015983382558
-0.00900067536163008   -0.0883436910764896   -0.0024759717357969472
-0.006766838342925152   -0.08847424429780669   -0.0022342616404800596
-0.007769669289214145   -0.08878947457301942   -0.002711784601621611
-0.008769882742870341   -0.08825591252396371   -0.0025676026563308356
-0.006766838342925152   -0.08847424429780669   -0.0022342616404800596
-0.007292673464542963   -0.08868575394855846   -0.0025089325505406497
-0.007769669289214145   -0.08878947457301942   -0.002711784601621611
-0.007138203618641157   -0.08857874651301176   -0.0025122434805390516
-0.008769882742870341   -0.08825591252396371   -0.0025676026563308356
-0.007526121537997654   -0.0886994361650491   -0.002647446941152756
-0.007138203618641157   -0.08857874651301176   -0.0025122434805390516
-0.007769669289214145   -0.08878947457301942   -0.002711784601621611
-0.008769882742870341   -0.08825591252396371   -0.0025676026563308356
-0.007138203618641157   -0.08857874651301176   -0.0025122434805390516
-0.006592329051569827   -0.08835439564374942   -0.0023593541790132254
-0.006766838342925152   -0.08847424429780669   -0.0022342616404800596
-0.008769882742870341   -0.08825591252396371   -0.0025676026563308356
-0.007138203618641157   -0.08857874651301176   -0.0025122434805390516
-0.006766838342925152   -0.08847424429780669   -0.0022342616404800596
-0.007769669289214145   -0.08878947457301942   -0.002711784601621611
-0.008769882742870341   -0.08825591252396371   -0.0025676026563308356
-0.006592329051569827   -0.08835439564374942   -0.0023593541790132254
-0.007526121537997654   -0.0886994361650491   -0.002647446941152756
-0.00851432139192006   -0.0882601120398796   -0.00266015983382558
-0.006592329051569827   -0.08835439564374942   -0.0023593541790132254
-0.007138203618641157   -0.08857874651301176   -0.0025122434805390516
-0.007526121537997654   -0.0886994361650491   -0.002647446941152756
-0.006966259442493513   -0.08854008997851853   -0.0025029702501193807
-0.00851432139192006   -0.0882601120398796   -0.00266015983382558
-0.0072906677685026485   -0.08869771861932929   -0.0025823060095121197
-0.006966259442493513   -0.08854008997851853   -0.0025029702501193807
-0.007526121537997654   -0.0886994361650491   -0.002647446941152756
-0.00851432139192006   -0.0882601120398796   -0.00266015983382558
-0.006966259442493513   -0.08854008997851853   -0.0025029702501193807
-0.006387675071561573   -0.08831001135212213   -0.002474740536283267
-0.006592329051569827   -0.08835439564374942   -0.0023593541790132254
-0.00851432139192006   -0.0882601120398796   -0.00266015983382558
-0.006966259442493513   -0.08854008997851853   -0.0025029702501193807
-0.006592329051569827   -0.08835439564374942   -0.0023593541790132254
-0.007526121537997654   -0.0886994361650491   -0.002647446941152756
-0.00851432139192006   -0.0882601120398796   -0.00266015983382558
-0.006387675071561573   -0.08831001135212213   -0.002474740536283267
-0.0072906677685026485   -0.08869771861932929   -0.0025823060095121197
-0.008276881383987201   -0.08835671030758964   -0.0027540311277204775
-0.006387675071561573   -0.08831001135212213   -0.002474740536283267
-0.006966259442493513   -0.08854008997851853   -0.0025029702501193807
-0.0072906677685026485   -0.08869771861932929   -0.0025823060095121197
-0.00679142703758383   -0.08856664869404239   -0.0024838229302474105
-0.008276881383987201   -0.08835671030758964   -0.0027540311277204775
-0.007045181771395701   -0.08878247192832368   -0.002519729854802282
-0.00679142703758383   -0.08856664869404239   -0.0024838229302474105
-0.0072906677685026485   -0.08869771861932929   -0.0025823060095121197
-0.008276881383987201   -0.08835671030758964   -0.0027540311277204775
-0.00679142703758383   -0.08856664869404239   -0.0024838229302474105
-0.006212339168116048   -0.08834172652951353   -0.002579814568413437
-0.006387675071561573   -0.08831001135212213   -0.002474740536283267
-0.008276881383987201   -0.08835671030758964   -0.0027540311277204775
-0.00679142703758383   -0.08856664869404239   -0.0024838229302474105
-0.006387675071561573   -0.08831001135212213   -0.002474740536283267
-0.0072906677685026485   -0.08869771861932929   -0.0025823060095121197
-0.007769669289214145   -0.08878947457301942   -0.002711784601621611
-0.007292673464542963   -0.08868575394855846   -0.0025089325505406497
-0.0066456485714433055   -0.08932793908004998   -0.0029713984948745113
-0.007526121537997654   -0.0886994361650491   -0.002647446941152756
-0.007292673464542963   -0.08868575394855846   -0.0025089325505406497
-0.007856236077215174   -0.08877503157860052   -0.002779232404881137
-0.0066456485714433055   -0.08932793908004998   -0.0029713984948745113
-0.007696223532674254   -0.0886730295367567   -0.0026654459346400284
-0.007526121537997654   -0.0886994361650491   -0.002647446941152756
-0.006347055320751267   -0.08924985305741893   -0.002742333178591633
-0.007696223532674254   -0.0886730295367567   -0.0026654459346400284
-0.0066456485714433055   -0.08932793908004998   -0.0029713984948745113
-0.007526121537997654   -0.0886994361650491   -0.002647446941152756
-0.007696223532674254   -0.0886730295367567   -0.0026654459346400284
-0.007138203618641157   -0.08857874651301176   -0.0025122434805390516
-0.007292673464542963   -0.08868575394855846   -0.0025089325505406497
-0.007526121537997654   -0.0886994361650491   -0.002647446941152756
-0.007696223532674254   -0.0886730295367567   -0.0026654459346400284
-0.007292673464542963   -0.08868575394855846   -0.0025089325505406497
-0.0066456485714433055   -0.08932793908004998   -0.0029713984948745113
-0.007526121537997654   -0.0886994361650491   -0.002647446941152756
-0.007138203618641157   -0.08857874651301176   -0.0025122434805390516
-0.006347055320751267   -0.08924985305741893   -0.002742333178591633
-0.0072906677685026485   -0.08869771861932929   -0.0025823060095121197
-0.007138203618641157   -0.08857874651301176   -0.0025122434805390516
-0.007696223532674254   -0.0886730295367567   -0.0026654459346400284
-0.006347055320751267   -0.08924985305741893   -0.002742333178591633
-0.007504264329168857   -0.08864049890621091   -0.0025363341197709994
-0.0072906677685026485   -0.08869771861932929   -0.0025823060095121197
-0.0060704157231192485   -0.08924561373860895   -0.0025140619732761074
-0.007504264329168857   -0.08864049890621091   -0.0025363341197709994
-0.006347055320751267   -0.08924985305741893   -0.002742333178591633
-0.0072906677685026485   -0.08869771861932929   -0.0025823060095121197
-0.007504264329168857   -0.08864049890621091   -0.0025363341197709994
-0.006966259442493513   -0.08854008997851853   -0.0025029702501193807
-0.007138203618641157   -0.08857874651301176   -0.0025122434805390516
-0.0072906677685026485   -0.08869771861932929   -0.0025823060095121197
-0.007504264329168857   -0.08864049890621091   -0.0025363341197709994
-0.007138203618641157   -0.08857874651301176   -0.0025122434805390516
-0.006347055320751267   -0.08924985305741893   -0.002742333178591633
-0.0072906677685026485   -0.08869771861932929   -0.0025823060095121197
-0.006966259442493513   -0.08854008997851853   -0.0025029702501193807
-0.0060704157231192485   -0.08924561373860895   -0.0025140619732761074
-0.007045181771395701   -0.08878247192832368   -0.002519729854802282
-0.006966259442493513   -0.08854008997851853   -0.0025029702501193807
-0.007504264329168857   -0.08864049890621091   -0.0025363341197709994
-0.0060704157231192485   -0.08924561373860895   -0.0025140619732761074
-0.007306839014359742   -0.0886664909957443   -0.002398797053178549
-0.007045181771395701   -0.08878247192832368   -0.002519729854802282
-0.005773369439953582   -0.08931121723363483   -0.0022852480788483434
-0.007306839014359742   -0.0886664909957443   -0.002398797053178549
-0.0060704157231192485   -0.08924561373860895   -0.0025140619732761074
-0.007045181771395701   -0.08878247192832368   -0.002519729854802282
-0.007306839014359742   -0.0886664909957443   -0.002398797053178549
-0.00679142703758383   -0.08856664869404239   -0.0024838229302474105
-0.006966259442493513   -0.08854008997851853   -0.0025029702501193807
-0.007045181771395701   -0.08878247192832368   -0.002519729854802282
-0.007306839014359742   -0.0886664909957443   -0.002398797053178549
-0.006966259442493513   -0.08854008997851853   -0.0025029702501193807
-0.0060704157231192485   -0.08924561373860895   -0.0025140619732761074
-0.0066456485714433055   -0.08932793908004998   -0.0029713984948745113
-0.007856236077215174   -0.08877503157860052   -0.002779232404881137
-0.005539416043878171   -0.09   -0.003170575889554059
-0.006347055320751267   -0.08924985305741893   -0.002742333178591633
-0.007856236077215174   -0.08877503157860052   -0.002779232404881137
-0.008672335338726765   -0.08867998881944575   -0.0030359387470576403
-0.005539416043878171   -0.09   -0.003170575889554059
-0.008463311495378618   -0.08858374890992804   -0.002810690153849433
-0.006347055320751267   -0.08924985305741893   -0.002742333178591633
-0.005163939394446492   -0.09   -0.002822878276215582
-0.008463311495378618   -0.08858374890992804   -0.002810690153849433
-0.005539416043878171   -0.09   -0.003170575889554059
-0.006347055320751267   -0.08924985305741893   -0.002742333178591633
-0.008463311495378618   -0.08858374890992804   -0.002810690153849433
-0.007696223532674254   -0.0886730295367567   -0.0026654459346400284
-0.007856236077215174   -0.08877503157860052   -0.002779232404881137
-0.006347055320751267   -0.08924985305741893   -0.002742333178591633
-0.008463311495378618   -0.08858374890992804   -0.002810690153849433
-0.007856236077215174   -0.08877503157860052   -0.002779232404881137
-0.005539416043878171   -0.09   -0.003170575889554059
-0.006347055320751267   -0.08924985305741893   -0.002742333178591633
-0.007696223532674254   -0.0886730295367567   -0.0026654459346400284
-0.005163939394446492   -0.09   -0.002822878276215582
-0.0060704157231192485   -0.08924561373860895   -0.0025140619732761074
-0.007696223532674254   -0.0886730295367567   -0.0026654459346400284
-0.008463311495378618   -0.08858374890992804   -0.002810690153849433
-0.005163939394446492   -0.09   -0.002822878276215582
-0.008187581711185023   -0.08856177910309586   -0.0025683865038732575
-0.0060704157231192485   -0.08924561373860895   -0.0025140619732761074
-0.0047867393626858865   -0.09   -0.002471055169976733
-0.008187581711185023   -0.08856177910309586   -0.0025683865038732575
-0.005163939394446492   -0.09   -0.002822878276215582
-0.0060704157231192485   -0.08924561373860895   -0.0025140619732761074
-0.008187581711185023   -0.08856177910309586   -0.0025683865038732575
-0.007504264329168857   -0.08864049890621091   -0.0025363341197709994
-0.007696223532674254   -0.0886730295367567   -0.0026654459346400284
-0.0060704157231192485   -0.08924561373860895   -0.0025140619732761074
-0.008187581711185023   -0.08856177910309586   -0.0025683865038732575
-0.007696223532674254   -0.0886730295367567   -0.0026654459346400284
-0.005163939394446492   -0.09   -0.002822878276215582
-0.0060704157231192485   -0.08924561373860895   -0.0025140619732761074
-0.007504264329168857   -0.08864049890621091   -0.0025363341197709994
-0.0047867393626858865   -0.09   -0.002471055169976733
-0.005773369439953582   -0.08931121723363483   -0.0022852480788483434
-0.007504264329168857   -0.08864049890621091   -0.0025363341197709994
-0.008187581711185023   -0.08856177910309586   -0.0025683865038732575
-0.0047867393626858865   -0.09   -0.002471055169976733
-0.007928094664050893   -0.08859972048743453   -0.0023167034982249403
-0.005773369439953582   -0.08931121723363483   -0.0022852480788483434
-0.004417940520192779   -0.09   -0.002123878033263316
-0.007928094664050893   -0.08859972048743453   -0.0023167034982249403
-0.0047867393626858865   -0.09   -0.002471055169976733
-0.005773369439953582   -0.08931121723363483   -0.0022852480788483434
-0.007928094664050893   -0.08859972048743453   -0.0023167034982249403
-0.007306839014359742   -0.0886664909957443   -0.002398797053178549
-0.007504264329168857   -0.08864049890621091   -0.0025363341197709994
-0.005773369439953582   -0.08931121723363483   -0.0022852480788483434
-0.007928094664050893   -0.08859972048743453   -0.0023167034982249403
-0.007504264329168857   -0.08864049890621091   -0.0025363341197709994
-0.0047867393626858865   -0.09   -0.002471055169976733
-0.005539416043878171   -0.09   -0.003170575889554059
-0.008672335338726765   -0.08867998881944575   -0.0030359387470576403
-0.0047376444813675075   -0.09   -0.0034118014340213474
-0.005163939394446492   -0.09   -0.002822878276215582
-0.008672335338726765   -0.08867998881944575   -0.0030359387470576403
-0.010257259425553706   -0.08824587779199243   -0.0033079346318685247
-0.0047376444813675075   -0.09   -0.0034118014340213474
-0.00970239680955962   -0.08816486585537489   -0.0029383684040726918
-0.005163939394446492   -0.09   -0.002822878276215582
-0.003953079022958775   -0.09   -0.0029089011921225186
-0.00970239680955962   -0.08816486585537489   -0.0029383684040726918
-0.0047376444813675075   -0.09   -0.0034118014340213474
-0.005163939394446492   -0.09   -0.002822878276215582
-0.00970239680955962   -0.08816486585537489   -0.0029383684040726918
-0.008463311495378618   -0.08858374890992804   -0.002810690153849433
-0.008672335338726765   -0.08867998881944575   -0.0030359387470576403
-0.005163939394446492   -0.09   -0.002822878276215582
-0.00970239680955962   -0.08816486585537489   -0.0029383684040726918
-0.008672335338726765   -0.08867998881944575   -0.0030359387470576403
-0.0047376444813675075   -0.09   -0.0034118014340213474
-0.005163939394446492   -0.09   -0.002822878276215582
-0.008463311495378618   -0.08858374890992804   -0.002810690153849433
-0.003953079022958775   -0.09   -0.0029089011921225186
-0.0047867393626858865   -0.09   -0.002471055169976733
-0.008463311495378618   -0.08858374890992804   -0.002810690153849433
-0.00970239680955962   -0.08816486585537489   -0.0029383684040726918
-0.003953079022958775   -0.09   -0.0029089011921225186
-0.009192416112576143   -0.08815367671138047   -0.0025438202336665956
-0.0047867393626858865   -0.09   -0.002471055169976733
-0.003327394558716588   -0.09   -0.0024278078533748228
-0.009192416112576143   -0.08815367671138047   -0.0025438202336665956
-0.003953079022958775   -0.09   -0.0029089011921225186
-0.0047867393626858865   -0.09   -0.002471055169976733
-0.009192416112576143   -0.08815367671138047   -0.0025438202336665956
-0.008187581711185023   -0.08856177910309586   -0.0025683865038732575
-0.008463311495378618   -0.08858374890992804   -0.002810690153849433
-0.0047867393626858865   -0.09   -0.002471055169976733
-0.009192416112576143   -0.08815367671138047   -0.0025438202336665956
-0.008463311495378618   -0.08858374890992804   -0.002810690153849433
-0.003953079022958775   -0.09   -0.0029089011921225186
-0.0047867393626858865   -0.09   -0.002471055169976733
-0.008187581711185023   -0.08856177910309586   -0.0025683865038732575
-0.003327394558716588   -0.09   -0.0024278078533748228
-0.004417940520192779   -0.09   -0.002123878033263316
-0.008187581711185023   -0.08856177910309586   -0.0025683865038732575
-0.009192416112576143   -0.08815367671138047   -0.0025438202336665956
-0.003327394558716588   -0.09   -0.0024278078533748228
-0.008548397340991302   -0.0882600245626301   -0.002131115689396045
-0.004417940520192779   -0.09   -0.002123878033263316
-0.002554463266918943   -0.09   -0.0019283845713956266
-0.008548397340991302   -0.0882600245626301   -0.002131115689396045
-0.003327394558716588   -0.09   -0.0024278078533748228
-0.004417940520192779   -0.09   -0.002123878033263316
-0.008548397340991302   -0.0882600245626301   -0.002131115689396045
-0.007928094664050893   -0.08859972048743453   -0.0023167034982249403
-0.008187581711185023   -0.08856177910309586   -0.0025683865038732575
-0.004417940520192779   -0.09   -0.002123878033263316
-0.008548397340991302   -0.0882600245626301   -0.002131115689396045
-0.008187581711185023   -0.08856177910309586   -0.0025683865038732575
-0.003327394558716588   -0.09   -0.0024278078533748228
-0.006377609582994991   -0.08813252776410728   -0.0018907768140227225
-0.0025927993108132053   -0.08479553980085443   -0.001634040142832469
-0.006766838342925152   -0.08847424429780669   -0.0022342616404800596
-0.0059326254942587905   -0.08797865513545519   -0.0021835992667638237
-0.0025927993108132053   -0.08479553980085443   -0.001634040142832469
-0.004852346590216794   -0.08505310633618056   -0.0019988254878173816
-0.006766838342925152   -0.08847424429780669   -0.0022342616404800596
-0.00472844161954055   -0.08490809910616007   -0.002110307755928456
-0.0059326254942587905   -0.08797865513545519   -0.0021835992667638237
-0.006592329051569827   -0.08835439564374942   -0.0023593541790132254
-0.00472844161954055   -0.08490809910616007   -0.002110307755928456
-0.006766838342925152   -0.08847424429780669   -0.0022342616404800596
-0.0059326254942587905   -0.08797865513545519   -0.0021835992667638237
-0.00472844161954055   -0.08490809910616007   -0.002110307755928456
-0.002238197737767726   -0.08461613519970215   -0.001886984568334349
-0.0025927993108132053   -0.08479553980085443   -0.001634040142832469
-0.0059326254942587905   -0.08797865513545519   -0.0021835992667638237
-0.00472844161954055   -0.08490809910616007   -0.002110307755928456
-0.0025927993108132053   -0.08479553980085443   -0.001634040142832469
-0.006766838342925152   -0.08847424429780669   -0.0022342616404800596
-0.0059326254942587905   -0.08797865513545519   -0.0021835992667638237
-0.002238197737767726   -0.08461613519970215   -0.001886984568334349
-0.006592329051569827   -0.08835439564374942   -0.0023593541790132254
-0.005562207437115753   -0.08793112633042634   -0.00246437561307017
-0.002238197737767726   -0.08461613519970215   -0.001886984568334349
-0.00472844161954055   -0.08490809910616007   -0.002110307755928456
-0.006592329051569827   -0.08835439564374942   -0.0023593541790132254
-0.004588995962266379   -0.08482758960621384   -0.0022117138851474407
-0.005562207437115753   -0.08793112633042634   -0.00246437561307017
-0.006387675071561573   -0.08831001135212213   -0.002474740536283267
-0.004588995962266379   -0.08482758960621384   -0.0022117138851474407
-0.006592329051569827   -0.08835439564374942   -0.0023593541790132254
-0.005562207437115753   -0.08793112633042634   -0.00246437561307017
-0.004588995962266379   -0.08482758960621384   -0.0022117138851474407
-0.0019591729341867786   -0.08453050244881177   -0.0021249919399114947
-0.002238197737767726   -0.08461613519970215   -0.001886984568334349
-0.005562207437115753   -0.08793112633042634   -0.00246437561307017
-0.004588995962266379   -0.08482758960621384   -0.0022117138851474407
-0.002238197737767726   -0.08461613519970215   -0.001886984568334349
-0.006592329051569827   -0.08835439564374942   -0.0023593541790132254
-0.005562207437115753   -0.08793112633042634   -0.00246437561307017
-0.0019591729341867786   -0.08453050244881177   -0.0021249919399114947
-0.006387675071561573   -0.08831001135212213   -0.002474740536283267
-0.005143192828232209   -0.0879707005425289   -0.0027318528626737565
-0.0019591729341867786   -0.08453050244881177   -0.0021249919399114947
-0.004588995962266379   -0.08482758960621384   -0.0022117138851474407
-0.006387675071561573   -0.08831001135212213   -0.002474740536283267
-0.004482069006980932   -0.08480933081372229   -0.0023033641609889904
-0.005143192828232209   -0.0879707005425289   -0.0027318528626737565
-0.006212339168116048   -0.08834172652951353   -0.002579814568413437
-0.004482069006980932   -0.08480933081372229   -0.0023033641609889904
-0.006387675071561573   -0.08831001135212213   -0.002474740536283267
-0.005143192828232209   -0.0879707005425289   -0.0027318528626737565
-0.004482069006980932   -0.08480933081372229   -0.0023033641609889904
-0.0016545580116683733   -0.08451407649402887   -0.002347428767940917
-0.0019591729341867786   -0.08453050244881177   -0.0021249919399114947
-0.005143192828232209   -0.0879707005425289   -0.0027318528626737565
-0.004482069006980932   -0.08480933081372229   -0.0023033641609889904
-0.0019591729341867786   -0.08453050244881177   -0.0021249919399114947
-0.006387675071561573   -0.08831001135212213   -0.002474740536283267
-0.006766838342925152   -0.08847424429780669   -0.0022342616404800596
-0.004852346590216794   -0.08505310633618056   -0.0019988254878173816
-0.007292673464542963   -0.08868575394855846   -0.0025089325505406497
-0.006592329051569827   -0.08835439564374942   -0.0023593541790132254
-0.004852346590216794   -0.08505310633618056   -0.0019988254878173816
-0.007082074846275382   -0.0851440414456246   -0.0022964423130052776
-0.007292673464542963   -0.08868575394855846   -0.0025089325505406497
-0.006977866361900112   -0.08501752814931934   -0.0023026238174384647
-0.006592329051569827   -0.08835439564374942   -0.0023593541790132254
-0.007138203618641157   -0.08857874651301176   -0.0025122434805390516
-0.006977866361900112   -0.08501752814931934   -0.0023026238174384647
-0.007292673464542963   -0.08868575394855846   -0.0025089325505406497
-0.006592329051569827   -0.08835439564374942   -0.0023593541790132254
-0.006977866361900112   -0.08501752814931934   -0.0023026238174384647
-0.00472844161954055   -0.08490809910616007   -0.002110307755928456
-0.004852346590216794   -0.08505310633618056   -0.0019988254878173816
-0.006592329051569827   -0.08835439564374942   -0.0023593541790132254
-0.006977866361900112   -0.08501752814931934   -0.0023026238174384647
-0.004852346590216794   -0.08505310633618056   -0.0019988254878173816
-0.007292673464542963   -0.08868575394855846   -0.0025089325505406497
-0.006592329051569827   -0.08835439564374942   -0.0023593541790132254
-0.00472844161954055   -0.08490809910616007   -0.002110307755928456
-0.007138203618641157   -0.08857874651301176   -0.0025122434805390516
-0.006387675071561573   -0.08831001135212213   -0.002474740536283267
-0.00472844161954055   -0.08490809910616007   -0.002110307755928456
-0.006977866361900112   -0.08501752814931934   -0.0023026238174384647
-0.007138203618641157   -0.08857874651301176   -0.0025122434805390516
-0.006870091251258967   -0.08494915916609147   -0.00229947435117452
-0.006387675071561573   -0.08831001135212213   -0.002474740536283267
-0.006966259442493513   -0.08854008997851853   -0.0025029702501193807
-0.006870091251258967   -0.08494915916609147   -0.00229947435117452
-0.007138203618641157   -0.08857874651301176   -0.0025122434805390516
-0.006387675071561573   -0.08831001135212213   -0.002474740536283267
-0.006870091251258967   -0.08494915916609147   -0.00229947435117452
-0.004588995962266379   -0.08482758960621384   -0.0022117138851474407
-0.00472844161954055   -0.08490809910616007   -0.002110307755928456
-0.006387675071561573   -0.08831001135212213   -0.002474740536283267
-0.006870091251258967   -0.08494915916609147   -0.00229947435117452
-0.00472844161954055   -0.08490809910616007   -0.002110307755928456
-0.007138203618641157   -0.08857874651301176   -0.0025122434805390516
-0.006387675071561573   -0.08831001135212213   -0.002474740536283267
-0.004588995962266379   -0.08482758960621384   -0.0022117138851474407
-0.006966259442493513   -0.08854008997851853   -0.0025029702501193807
-0.006212339168116048   -0.08834172652951353   -0.002579814568413437
-0.004588995962266379   -0.08482758960621384   -0.0022117138851474407
-0.006870091251258967   -0.08494915916609147   -0.00229947435117452
-0.006966259442493513   -0.08854008997851853   -0.0025029702501193807
-0.006766146577157828   -0.08493612086107495   -0.0022869031968595897
-0.006212339168116048   -0.08834172652951353   -0.002579814568413437
-0.00679142703758383   -0.08856664869404239   -0.0024838229302474105
-0.006766146577157828   -0.08493612086107495   -0.0022869031968595897
-0.006966259442493513   -0.08854008997851853   -0.0025029702501193807
-0.006212339168116048   -0.08834172652951353   -0.002579814568413437
-0.006766146577157828   -0.08493612086107495   -0.0022869031968595897
-0.004482069006980932   -0.08480933081372229   -0.0023033641609889904
-0.004588995962266379   -0.08482758960621384   -0.0022117138851474407
-0.006212339168116048   -0.08834172652951353   -0.002579814568413437
-0.006766146577157828   -0.08493612086107495   -0.0022869031968595897
-0.004588995962266379   -0.08482758960621384   -0.0022117138851474407
-0.006966259442493513   -0.08854008997851853   -0.0025029702501193807
-0.007292673464542963   -0.08868575394855846   -0.0025089325505406497
-0.007082074846275382   -0.0851440414456246   -0.0022964423130052776
-0.007856236077215174   -0.08877503157860052   -0.002779232404881137
-0.007138203618641157   -0.08857874651301176   -0.0025122434805390516
-0.007082074846275382   -0.0851440414456246   -0.0022964423130052776
-0.009296269651332883   -0.08506333994545916   -0.002574963337551345
-0.007856236077215174   -0.08877503157860052   -0.002779232404881137
-0.009192884138711627   -0.08495099726526549   -0.002480182963832128
-0.007138203618641157   -0.08857874651301176   -0.0025122434805390516
-0.007696223532674254   -0.0886730295367567   -0.0026654459346400284
-0.009192884138711627   -0.08495099726526549   -0.002480182963832128
-0.007856236077215174   -0.08877503157860052   -0.002779232404881137
-0.007138203618641157   -0.08857874651301176   -0.0025122434805390516
-0.009192884138711627   -0.08495099726526549   -0.002480182963832128
-0.006977866361900112   -0.08501752814931934   -0.0023026238174384647
-0.007082074846275382   -0.0851440414456246   -0.0022964423130052776
-0.007138203618641157   -0.08857874651301176   -0.0025122434805390516
-0.009192884138711627   -0.08495099726526549   -0.002480182963832128
-0.007082074846275382   -0.0851440414456246   -0.0022964423130052776
-0.007856236077215174   -0.08877503157860052   -0.002779232404881137
-0.007138203618641157   -0.08857874651301176   -0.0025122434805390516
-0.006977866361900112   -0.08501752814931934   -0.0023026238174384647
-0.007696223532674254   -0.0886730295367567   -0.0026654459346400284
-0.006966259442493513   -0.08854008997851853   -0.0025029702501193807
-0.006977866361900112   -0.08501752814931934   -0.0023026238174384647
-0.009192884138711627   -0.08495099726526549   -0.002480182963832128
-0.007696223532674254   -0.0886730295367567   -0.0026654459346400284
-0.009076861145479894   -0.084895819631295   -0.002376208320881747
-0.006966259442493513   -0.08854008997851853   -0.0025029702501193807
-0.007504264329168857   -0.08864049890621091   -0.0025363341197709994
-0.009076861145479894   -0.084895819631295   -0.002376208320881747
-0.007696223532674254   -0.0886730295367567   -0.0026654459346400284
-0.006966259442493513   -0.08854008997851853   -0.0025029702501193807
-0.009076861145479894   -0.084895819631295   -0.002376208320881747
-0.006870091251258967   -0.08494915916609147   -0.00229947435117452
-0.006977866361900112   -0.08501752814931934   -0.0023026238174384647
-0.006966259442493513   -0.08854008997851853   -0.0025029702501193807
-0.009076861145479894   -0.084895819631295   -0.002376208320881747
-0.006977866361900112   -0.08501752814931934   -0.0023026238174384647
-0.007696223532674254   -0.0886730295367567   -0.0026654459346400284
-0.006966259442493513   -0.08854008997851853   -0.0025029702501193807
-0.006870091251258967   -0.08494915916609147   -0.00229947435117452
-0.007504264329168857   -0.08864049890621091   -0.0025363341197709994
-0.00679142703758383   -0.08856664869404239   -0.0024838229302474105
-0.006870091251258967   -0.08494915916609147   -0.00229947435117452
-0.009076861145479894   -0.084895819631295   -0.002376208320881747
-0.007504264329168857   -0.08864049890621091   -0.0025363341197709994
-0.008960340870248882   -0.08489228686465633   -0.0022619189481572267
-0.00679142703758383   -0.08856664869404239   -0.0024838229302474105
-0.007306839014359742   -0.0886664909957443   -0.002398797053178549
-0.008960340870248882   -0.08489228686465633   -0.0022619189481572267
-0.007504264329168857   -0.08864049890621091   -0.0025363341197709994
-0.00679142703758383   -0.08856664869404239   -0.0024838229302474105
-0.008960340870248882   -0.08489228686465633   -0.0022619189481572267
-0.006766146577157828   -0.08493612086107495   -0.0022869031968595897
-0.006870091251258967   -0.08494915916609147   -0.00229947435117452
-0.00679142703758383   -0.08856664869404239   -0.0024838229302474105
-0.008960340870248882   -0.08489228686465633   -0.0022619189481572267
-0.006870091251258967   -0.08494915916609147   -0.00229947435117452
-0.007504264329168857   -0.08864049890621091   -0.0025363341197709994
-0.007856236077215174   -0.08877503157860052   -0.002779232404881137
-0.009296269651332883   -0.08506333994545916   -0.002574963337551345
-0.008672335338726765   -0.08867998881944575   -0.0030359387470576403
-0.007696223532674254   -0.0886730295367567   -0.0026654459346400284
-0.009296269651332883   -0.08506333994545916   -0.002574963337551345
-0.011729226592936431   -0.08480028885740849   -0.002830728886012227
-0.008672335338726765   -0.08867998881944575   -0.0030359387470576403
-0.011602715999660517   -0.08470216114971539   -0.00263725339887998
-0.007696223532674254   -0.0886730295367567   -0.0026654459346400284
-0.008463311495378618   -0.08858374890992804   -0.002810690153849433
-0.011602715999660517   -0.08470216114971539   -0.00263725339887998
-0.008672335338726765   -0.08867998881944575   -0.0030359387470576403
-0.007696223532674254   -0.0886730295367567   -0.0026654459346400284
-0.011602715999660517   -0.08470216114971539   -0.00263725339887998
-0.009192884138711627   -0.08495099726526549   -0.002480182963832128
-0.009296269651332883   -0.08506333994545916   -0.002574963337551345
-0.007696223532674254   -0.0886730295367567   -0.0026654459346400284
-0.011602715999660517   -0.08470216114971539   -0.00263725339887998
-0.009296269651332883   -0.08506333994545916   -0.002574963337551345
-0.008672335338726765   -0.08867998881944575   -0.0030359387470576403
-0.007696223532674254   -0.0886730295367567   -0.0026654459346400284
-0.009192884138711627   -0.08495099726526549   -0.002480182963832128
-0.008463311495378618   -0.08858374890992804   -0.002810690153849433
-0.007504264329168857   -0.08864049890621091   -0.0025363341197709994
-0.009192884138711627   -0.08495099726526549   -0.002480182963832128
-0.011602715999660517   -0.08470216114971539   -0.00263725339887998
-0.008463311495378618   -0.08858374890992804   -0.002810690153849433
-0.011428092924958874   -0.08466012218160077   -0.002435253725599037
-0.007504264329168857   -0.08864049890621091   -0.0025363341197709994
-0.008187581711185023   -0.08856177910309586   -0.0025683865038732575
-0.011428092924958874   -0.08466012218160077   -0.002435253725599037
-0.008463311495378618   -0.08858374890992804   -0.002810690153849433
-0.007504264329168857   -0.08864049890621091   -0.0025363341197709994
-0.011428092924958874   -0.08466012218160077   -0.002435253725599037
-0.009076861145479894   -0.084895819631295   -0.002376208320881747
-0.009192884138711627   -0.08495099726526549   -0.002480182963832128
-0.007504264329168857   -0.08864049890621091   -0.0025363341197709994
-0.011428092924958874   -0.08466012218160077   -0.002435253725599037
-0.009192884138711627   -0.08495099726526549   -0.002480182963832128
-0.008463311495378618   -0.08858374890992804   -0.002810690153849433
-0.007504264329168857   -0.08864049890621091   -0.0025363341197709994
-0.009076861145479894   -0.084895819631295   -0.002376208320881747
-0.008187581711185023   -0.08856177910309586   -0.0025683865038732575
-0.007306839014359742   -0.0886664909957443   -0.002398797053178549
-0.009076861145479894   -0.084895819631295   -0.002376208320881747
-0.011428092924958874   -0.08466012218160077   -0.002435253725599037
-0.008187581711185023   -0.08856177910309586   -0.0025683865038732575
-0.011275600585211794   -0.08467424266799776   -0.0022190888468715487
-0.007306839014359742   -0.0886664909957443   -0.002398797053178549
-0.007928094664050893   -0.08859972048743453   -0.0023167034982249403
-0.011275600585211794   -0.08467424266799776   -0.0022190888468715487
-0.008187581711185023   -0.08856177910309586   -0.0025683865038732575
-0.007306839014359742   -0.0886664909957443   -0.002398797053178549
-0.011275600585211794   -0.08467424266799776   -0.0022190888468715487
-0.008960340870248882   -0.08489228686465633   -0.0022619189481572267
-0.009076861145479894   -0.084895819631295   -0.002376208320881747
-0.007306839014359742   -0.0886664909957443   -0.002398797053178549
-0.011275600585211794   -0.08467424266799776   -0.0022190888468715487
-0.009076861145479894   -0.084895819631295   -0.002376208320881747
-0.008187581711185023   -0.08856177910309586   -0.0025683865038732575
-0.008672335338726765   -0.08867998881944575   -0.0030359387470576403
-0.011729226592936431   -0.08480028885740849   -0.002830728886012227
-0.010257259425553706   -0.08824587779199243   -0.0033079346318685247
-0.008463311495378618   -0.08858374890992804   -0.002810690153849433
-0.011729226592936431   -0.08480028885740849   -0.002830728886012227
-0.014862357792202869   -0.08437248288891087   -0.0030760006914152325
-0.010257259425553706   -0.08824587779199243   -0.0033079346318685247
-0.014455592962707915   -0.0842661890844404   -0.002770558900321634
-0.008463311495378618   -0.08858374890992804   -0.002810690153849433
-0.00970239680955962   -0.08816486585537489   -0.0029383684040726918
-0.014455592962707915   -0.0842661890844404   -0.002770558900321634
-0.010257259425553706   -0.08824587779199243   -0.0033079346318685247
-0.008463311495378618   -0.08858374890992804   -0.002810690153849433
-0.014455592962707915   -0.0842661890844404   -0.002770558900321634
-0.011602715999660517   -0.08470216114971539   -0.00263725339887998
-0.011729226592936431   -0.08480028885740849   -0.002830728886012227
-0.008463311495378618   -0.08858374890992804   -0.002810690153849433
-0.014455592962707915   -0.0842661890844404   -0.002770558900321634
-0.011729226592936431   -0.08480028885740849   -0.002830728886012227
-0.010257259425553706   -0.08824587779199243   -0.0033079346318685247
-0.008463311495378618   -0.08858374890992804   -0.002810690153849433
-0.011602715999660517   -0.08470216114971539   -0.00263725339887998
-0.00970239680955962   -0.08816486585537489   -0.0029383684040726918
-0.008187581711185023   -0.08856177910309586   -0.0025683865038732575
-0.011602715999660517   -0.08470216114971539   -0.00263725339887998
-0.014455592962707915   -0.0842661890844404   -0.002770558900321634
-0.00970239680955962   -0.08816486585537489   -0.0029383684040726918
-0.014090845978871055   -0.08422730430209803   -0.0024472517902209604
-0.008187581711185023   -0.08856177910309586   -0.0025683865038732575
-0.009192416112576143   -0.08815367671138047   -0.0025438202336665956
-0.014090845978871055   -0.08422730430209803   -0.0024472517902209604
-0.00970239680955962   -0.08816486585537489   -0.0029383684040726918
-0.008187581711185023   -0.08856177910309586   -0.0025683865038732575
-0.014090845978871055   -0.08422730430209803   -0.0024472517902209604
-0.011428092924958874   -0.08466012218160077   -0.002435253725599037
-0.011602715999660517   -0.08470216114971539   -0.00263725339887998
-0.008187581711185023   -0.08856177910309586   -0.0025683865038732575
-0.014090845978871055   -0.08422730430209803   -0.0024472517902209604
-0.011602715999660517   -0.08470216114971539   -0.00263725339887998
-0.00970239680955962   -0.08816486585537489   -0.0029383684040726918
-0.008187581711185023   -0.08856177910309586   -0.0025683865038732575
-0.011428092924958874   -0.08466012218160077   -0.002435253725599037
-0.009192416112576143   -0.08815367671138047   -0.0025438202336665956
-0.007928094664050893   -0.08859972048743453   -0.0023167034982249403
-0.011428092924958874   -0.08466012218160077   -0.002435253725599037
-0.014090845978871055   -0.08422730430209803   -0.0024472517902209604
-0.009192416112576143   -0.08815367671138047   -0.0025438202336665956
-0.013618097613205045   -0.08427584487697123   -0.0021091570020702476
-0.007928094664050893   -0.08859972048743453   -0.0023167034982249403
-0.008548397340991302   -0.0882600245626301   -0.002131115689396045
-0.013618097613205045   -0.08427584487697123   -0.0021091570020702476
-0.009192416112576143   -0.08815367671138047   -0.0025438202336665956
-0.007928094664050893   -0.08859972048743453   -0.0023167034982249403
-0.013618097613205045   -0.08427584487697123   -0.0021091570020702476
-0.011275600585211794   -0.08467424266799776   -0.0022190888468715487
-0.011428092924958874   -0.08466012218160077   -0.002435253725599037
-0.007928094664050893   -0.08859972048743453   -0.0023167034982249403
-0.013618097613205045   -0.08427584487697123   -0.0021091570020702476
-0.011428092924958874   -0.08466012218160077   -0.002435253725599037
-0.009192416112576143   -0.08815367671138047   -0.0025438202336665956
-0.0025927993108132053   -0.08479553980085443   -0.001634040142832469
0.00047522685028404286   -0.07866090569253788   -0.001351931481727295
-0.004852346590216794   -0.08505310633618056   -0.0019988254878173816
-0.002238197737767726   -0.08461613519970215   -0.001886984568334349
0.00047522685028404286   -0.07866090569253788   -0.001351931481727295
-0.0033331473394194945   -0.07884962310311014   -0.0017100093899515198
-0.004852346590216794   -0.08505310633618056   -0.0019988254878173816
-0.0032675298631253515   -0.07869766790097006   -0.0017983899886455594
-0.002238197737767726   -0.08461613519970215   -0.001886984568334349
-0.00472844161954055   -0.08490809910616007   -0.002110307755928456
-0.0032675298631253515   -0.07869766790097006   -0.0017983899886455594
-0.004852346590216794   -0.08505310633618056   -0.0019988254878173816
-0.002238197737767726   -0.08461613519970215   -0.001886984568334349
-0.0032675298631253515   -0.07869766790097006   -0.0017983899886455594
0.0007226196270888936   -0.07847866450637783   -0.0015531930896056873
0.00047522685028404286   -0.07866090569253788   -0.001351931481727295
-0.002238197737767726   -0.08461613519970215   -0.001886984568334349
-0.0032675298631253515   -0.07869766790097006   -0.0017983899886455594
0.00047522685028404286   -0.07866090569253788   -0.001351931481727295
-0.004852346590216794   -0.08505310633618056   -0.0019988254878173816
-0.002238197737767726   -0.08461613519970215   -0.001886984568334349
0.0007226196270888936   -0.07847866450637783   -0.0015531930896056873
-0.00472844161954055   -0.08490809910616007   -0.002110307755928456
-0.0019591729341867786   -0.08453050244881177   -0.0021249919399114947
0.0007226196270888936   -0.07847866450637783   -0.0015531930896056873
-0.0032675298631253515   -0.07869766790097006   -0.0017983899886455594
-0.00472844161954055   -0.08490809910616007   -0.002110307755928456
-0.0031928454540562146   -0.07859826881510107   -0.0018764487430223623
-0.0019591729341867786   -0.08453050244881177   -0.0021249919399114947
-0.004588995962266379   -0.08482758960621384   -0.0022117138851474407
-0.0031928454540562146   -0.07859826881510107   -0.0018764487430223623
-0.00472844161954055   -0.08490809910616007   -0.002110307755928456
-0.0019591729341867786   -0.08453050244881177   -0.0021249919399114947
-0.0031928454540562146   -0.07859826881510107   -0.0018764487430223623
0.0009045786869325778   -0.07837317365894328   -0.0017400077345857423
0.0007226196270888936   -0.07847866450637783   -0.0015531930896056873
-0.0019591729341867786   -0.08453050244881177   -0.0021249919399114947
-0.0031928454540562146   -0.07859826881510107   -0.0018764487430223623
0.0007226196270888936   -0.07847866450637783   -0.0015531930896056873
-0.00472844161954055   -0.08490809910616007   -0.002110307755928456
-0.0019591729341867786   -0.08453050244881177   -0.0021249919399114947
0.0009045786869325778   -0.07837317365894328   -0.0017400077345857423
-0.004588995962266379   -0.08482758960621384   -0.0022117138851474407
-0.0016545580116683733   -0.08451407649402887   -0.002347428767940917
0.0009045786869325778   -0.07837317365894328   -0.0017400077345857423
-0.0031928454540562146   -0.07859826881510107   -0.0018764487430223623
-0.004588995962266379   -0.08482758960621384   -0.0022117138851474407
-0.0031481990755611636   -0.07854848988905379   -0.0019452045150112267
-0.0016545580116683733   -0.08451407649402887   -0.002347428767940917
-0.004482069006980932   -0.08480933081372229   -0.0023033641609889904
-0.0031481990755611636   -0.07854848988905379   -0.0019452045150112267
-0.004588995962266379   -0.08482758960621384   -0.0022117138851474407
-0.0016545580116683733   -0.08451407649402887   -0.002347428767940917
-0.0031481990755611636   -0.07854848988905379   -0.0019452045150112267
0.0010992729107182427   -0.07832089443124558   -0.0019123031430040838
0.0009045786869325778   -0.07837317365894328   -0.0017400077345857423
-0.0016545580116683733   -0.08451407649402887   -0.002347428767940917
-0.0031481990755611636   -0.07854848988905379   -0.0019452045150112267
0.0009045786869325778   -0.07837317365894328   -0.0017400077345857423
-0.004588995962266379   -0.08482758960621384   -0.0022117138851474407
-0.004852346590216794   -0.08505310633618056   -0.0019988254878173816
-0.0033331473394194945   -0.07884962310311014   -0.0017100093899515198
-0.007082074846275382   -0.0851440414456246   -0.0022964423130052776
-0.00472844161954055   -0.08490809910616007   -0.002110307755928456
-0.0033331473394194945   -0.07884962310311014   -0.0017100093899515198
-0.007016671740022891   -0.07888570391622025   -0.0020051675024748924
-0.007082074846275382   -0.0851440414456246   -0.0022964423130052776
-0.006968409866193282   -0.0787552336725883   -0.0020074723583924617
-0.00472844161954055   -0.08490809910616007   -0.002110307755928456
-0.006977866361900112   -0.08501752814931934   -0.0023026238174384647
-0.006968409866193282   -0.0787552336725883   -0.0020074723583924617
-0.007082074846275382   -0.0851440414456246   -0.0022964423130052776
-0.00472844161954055   -0.08490809910616007   -0.002110307755928456
-0.006968409866193282   -0.0787552336725883   -0.0020074723583924617
-0.0032675298631253515   -0.07869766790097006   -0.0017983899886455594
-0.0033331473394194945   -0.07884962310311014   -0.0017100093899515198
-0.00472844161954055   -0.08490809910616007   -0.002110307755928456
-0.006968409866193282   -0.0787552336725883   -0.0020074723583924617
-0.0033331473394194945   -0.07884962310311014   -0.0017100093899515198
-0.007082074846275382   -0.0851440414456246   -0.0022964423130052776
-0.00472844161954055   -0.08490809910616007   -0.002110307755928456
-0.0032675298631253515   -0.07869766790097006   -0.0017983899886455594
-0.006977866361900112   -0.08501752814931934   -0.0023026238174384647
-0.004588995962266379   -0.08482758960621384   -0.0022117138851474407
-0.0032675298631253515   -0.07869766790097006   -0.0017983899886455594
-0.006968409866193282   -0.0787552336725883   -0.0020074723583924617
-0.006977866361900112   -0.08501752814931934   -0.0023026238174384647
-0.006918787127284581   -0.0786718065638162   -0.0019998895976378545
-0.004588995962266379   -0.08482758960621384   -0.0022117138851474407
-0.006870091251258967   -0.08494915916609147   -0.00229947435117452
-0.006918787127284581   -0.0786718065638162   -0.0019998895976378545
-0.006977866361900112   -0.08501752814931934   -0.0023026238174384647
-0.004588995962266379   -0.08482758960621384   -0.0022117138851474407
-0.006918787127284581   -0.0786718065638162   -0.0019998895976378545
-0.0031928454540562146   -0.07859826881510107   -0.0018764487430223623
-0.0032675298631253515   -0.07869766790097006   -0.0017983899886455594
-0.004588995962266379   -0.08482758960621384   -0.0022117138851474407
-0.006918787127284581   -0.0786718065638162   -0.0019998895976378545
-0.0032675298631253515   -0.07869766790097006   -0.0017983899886455594
-0.006977866361900112   -0.08501752814931934   -0.0023026238174384647
-0.004588995962266379   -0.08482758960621384   -0.0022117138851474407
-0.0031928454540562146   -0.07859826881510107   -0.0018764487430223623
-0.006870091251258967   -0.08494915916609147   -0.00229947435117452
-0.004482069006980932   -0.08480933081372229   -0.0023033641609889904
-0.0031928454540562146   -0.07859826881510107   -0.0018764487430223623
-0.006918787127284581   -0.0786718065638162   -0.0019998895976378545
-0.006870091251258967   -0.08494915916609147   -0.00229947435117452
-0.00687538292790097   -0.07863464149885754   -0.0019830749104197986
-0.004482069006980932   -0.08480933081372229   -0.0023033641609889904
-0.006766146577157828   -0.08493612086107495   -0.0022869031968595897
-0.00687538292790097   -0.07863464149885754   -0.0019830749104197986
-0.006870091251258967   -0.08494915916609147   -0.00229947435117452
-0.004482069006980932   -0.08480933081372229   -0.0023033641609889904
-0.00687538292790097   -0.07863464149885754   -0.0019830749104197986
-0.0031481990755611636   -0.07854848988905379   -0.0019452045150112267
-0.0031928454540562146   -0.07859826881510107   -0.0018764487430223623
-0.004482069006980932   -0.08480933081372229   -0.0023033641609889904
-0.00687538292790097   -0.07863464149885754   -0.0019830749104197986
-0.0031928454540562146   -0.07859826881510107   -0.0018764487430223623
-0.006870091251258967   -0.08494915916609147   -0.00229947435117452
-0.007082074846275382   -0.0851440414456246   -0.0022964423130052776
-0.007016671740022891   -0.07888570391622025   -0.0020051675024748924
-0.009296269651332883   -0.08506333994545916   -0.002574963337551345
-0.006977866361900112   -0.08501752814931934   -0.0023026238174384647
-0.007016671740022891   -0.07888570391622025   -0.0020051675024748924
-0.010642146731614741   -0.07876846813469505   -0.0022716090048210784
-0.009296269651332883   -0.08506333994545916   -0.002574963337551345
-0.010597212265486195   -0.07865588974560324   -0.0021899158458651828
-0.006977866361900112   -0.08501752814931934   -0.0023026238174384647
-0.009192884138711627   -0.08495099726526549   -0.002480182963832128
-0.010597212265486195   -0.07865588974560324   -0.0021899158458651828
-0.009296269651332883   -0.08506333994545916   -0.002574963337551345
-0.006977866361900112   -0.08501752814931934   -0.0023026238174384647
-0.010597212265486195   -0.07865588974560324   -0.0021899158458651828
-0.006968409866193282   -0.0787552336725883   -0.0020074723583924617
-0.007016671740022891   -0.07888570391622025   -0.0020051675024748924
-0.006977866361900112   -0.08501752814931934   -0.0023026238174384647
-0.010597212265486195   -0.07865588974560324   -0.0021899158458651828
-0.007016671740022891   -0.07888570391622025   -0.0020051675024748924
-0.009296269651332883   -0.08506333994545916   -0.002574963337551345
-0.006977866361900112   -0.08501752814931934   -0.0023026238174384647
-0.006968409866193282   -0.0787552336725883   -0.0020074723583924617
-0.009192884138711627   -0.08495099726526549   -0.002480182963832128
-0.006870091251258967   -0.08494915916609147   -0.00229947435117452
-0.006968409866193282   -0.0787552336725883   -0.0020074723583924617
-0.010597212265486195   -0.07865588974560324   -0.0021899158458651828
-0.009192884138711627   -0.08495099726526549   -0.002480182963832128
-0.010542917979138514   -0.07858983623195041   -0.0020985481157958564
-0.006870091251258967   -0.08494915916609147   -0.00229947435117452
-0.009076861145479894   -0.084895819631295   -0.002376208320881747
-0.010542917979138514   -0.07858983623195041   -0.0020985481157958564
-0.009192884138711627   -0.08495099726526549   -0.002480182963832128
-0.006870091251258967   -0.08494915916609147   -0.00229947435117452
-0.010542917979138514   -0.07858983623195041   -0.0020985481157958564
-0.006918787127284581   -0.0786718065638162   -0.0019998895976378545
-0.006968409866193282   -0.0787552336725883   -0.0020074723583924617
-0.006870091251258967   -0.08494915916609147   -0.00229947435117452
-0.010542917979138514   -0.07858983623195041   -0.0020985481157958564
-0.006968409866193282   -0.0787552336725883   -0.0020074723583924617
-0.009192884138711627   -0.08495099726526549   -0.002480182963832128
-0.006870091251258967   -0.08494915916609147   -0.00229947435117452
-0.006918787127284581   -0.0786718065638162   -0.0019998895976378545
-0.009076861145479894   -0.084895819631295   -0.002376208320881747
-0.006766146577157828   -0.08493612086107495   -0.0022869031968595897
-0.006918787127284581   -0.0786718065638162   -0.0019998895976378545
-0.010542917979138514   -0.07858983623195041   -0.0020985481157958564
-0.009076861145479894   -0.084895819631295   -0.002376208320881747
-0.010490099917882693   -0.07856813660171542   -0.0019978041023321386
-0.006766146577157828   -0.08493612086107495   -0.0022869031968595897
-0.008960340870248882   -0.08489228686465633   -0.0022619189481572267
-0.010490099917882693   -0.07856813660171542   -0.0019978041023321386
-0.009076861145479894   -0.084895819631295   -0.002376208320881747
-0.006766146577157828   -0.08493612086107495   -0.0022869031968595897
-0.010490099917882693   -0.07856813660171542   -0.0019978041023321386
-0.00687538292790097   -0.07863464149885754   -0.0019830749104197986
-0.006918787127284581   -0.0786718065638162   -0.0019998895976378545
-0.006766146577157828   -0.08493612086107495   -0.0022869031968595897
-0.010490099917882693   -0.07856813660171542   -0.0019978041023321386
-0.006918787127284581   -0.0786718065638162   -0.0019998895976378545
-0.009076861145479894   -0.084895819631295   -0.002376208320881747
-0.009296269651332883   -0.08506333994545916   -0.002574963337551345
-0.010642146731614741   -0.07876846813469505   -0.0022716090048210784
-0.011729226592936431   -0.08480028885740849   -0.002830728886012227
-0.009192884138711627   -0.08495099726526549   -0.002480182963832128
-0.010642146731614741   -0.07876846813469505   -0.0022716090048210784
-0.01444170128950139   -0.07850209094736742   -0.0025082840881671064
-0.011729226592936431   -0.08480028885740849   -0.002830728886012227
-0.014383051398221727   -0.07840661041273131   -0.002342494886082565
-0.009192884138711627   -0.08495099726526549   -0.002480182963832128
-0.011602715999660517   -0.08470216114971539   -0.00263725339887998
-0.014383051398221727   -0.07840661041273131   -0.002342494886082565
-0.011729226592936431   -0.08480028885740849   -0.002830728886012227
-0.009192884138711627   -0.08495099726526549   -0.002480182963832128
-0.014383051398221727   -0.07840661041273131   -0.002342494886082565
-0.010597212265486195   -0.07865588974560324   -0.0021899158458651828
-0.010642146731614741   -0.07876846813469505   -0.0022716090048210784
-0.009192884138711627   -0.08495099726526549   -0.002480182963832128
-0.014383051398221727   -0.07840661041273131   -0.002342494886082565
-0.010642146731614741   -0.07876846813469505   -0.0022716090048210784
-0.011729226592936431   -0.08480028885740849   -0.002830728886012227
-0.009192884138711627   -0.08495099726526549   -0.002480182963832128
-0.010597212265486195   -0.07865588974560324   -0.0021899158458651828
-0.011602715999660517   -0.08470216114971539   -0.00263725339887998
-0.009076861145479894   -0.084895819631295   -0.002376208320881747
-0.010597212265486195   -0.07865588974560324   -0.0021899158458651828
-0.014383051398221727   -0.07840661041273131   -0.002342494886082565
-0.011602715999660517   -0.08470216114971539   -0.00263725339887998
-0.014283650588662652   -0.07835630845555927   -0.00216851549713899
-0.009076861145479894   -0.084895819631295   -0.002376208320881747
-0.011428092924958874   -0.08466012218160077   -0.002435253725599037
-0.014283650588662652   -0.07835630845555927   -0.00216851549713899
-0.011602715999660517   -0.08470216114971539   -0.00263725339887998
-0.009076861145479894   -0.084895819631295   -0.002376208320881747
-0.014283650588662652   -0.07835630845555927   -0.00216851549713899
-0.010542917979138514   -0.07858983623195041   -0.0020985481157958564
-0.010597212265486195   -0.07865588974560324   -0.0021899158458651828
-0.009076861145479894   -0.084895819631295   -0.002376208320881747
-0.014283650588662652   -0.07835630845555927   -0.00216851549713899
-0.010597212265486195   -0.07865588974560324   -0.0021899158458651828
-0.011602715999660517   -0.08470216114971539   -0.00263725339887998
-0.009076861145479894   -0.084895819631295   -0.002376208320881747
-0.010542917979138514   -0.07858983623195041   -0.0020985481157958564
-0.011428092924958874   -0.08466012218160077   -0.002435253725599037
-0.008960340870248882   -0.08489228686465633   -0.0022619189481572267
-0.010542917979138514   -0.07858983623195041   -0.0020985481157958564
-0.014283650588662652   -0.07835630845555927   -0.00216851549713899
-0.011428092924958874   -0.08466012218160077   -0.002435253725599037
-0.014202855010802434   -0.07835383538878968   -0.0019837969678477814
-0.008960340870248882   -0.08489228686465633   -0.0022619189481572267
-0.011275600585211794   -0.08467424266799776   -0.0022190888468715487
-0.014202855010802434   -0.07835383538878968   -0.0019837969678477814
-0.011428092924958874   -0.08466012218160077   -0.002435253725599037
-0.008960340870248882   -0.08489228686465633   -0.0022619189481572267
-0.014202855010802434   -0.07835383538878968   -0.0019837969678477814
-0.010490099917882693   -0.07856813660171542   -0.0019978041023321386
-0.010542917979138514   -0.07858983623195041   -0.0020985481157958564
-0.008960340870248882   -0.08489228686465633   -0.0022619189481572267
-0.014202855010802434   -0.07835383538878968   -0.0019837969678477814
-0.010542917979138514   -0.07858983623195041   -0.0020985481157958564
-0.011428092924958874   -0.08466012218160077   -0.002435253725599037
-0.011729226592936431   -0.08480028885740849   -0.002830728886012227
-0.01444170128950139   -0.07850209094736742   -0.0025082840881671064
-0.014862357792202869   -0.08437248288891087   -0.0030760006914152325
-0.011602715999660517   -0.08470216114971539   -0.00263725339887998
-0.01444170128950139   -0.07850209094736742   -0.0025082840881671064
-0.01887296021181208   -0.0781186984450404   -0.002728799053407735
-0.014862357792202869   -0.08437248288891087   -0.0030760006914152325
-0.01857305566485217   -0.07801919283594523   -0.0024693337419387463
-0.011602715999660517   -0.08470216114971539   -0.00263725339887998
-0.014455592962707915   -0.0842661890844404   -0.002770558900321634
-0.01857305566485217   -0.07801919283594523   -0.0024693337419387463
-0.014862357792202869   -0.08437248288891087   -0.0030760006914152325
-0.011602715999660517   -0.08470216114971539   -0.00263725339887998
-0.01857305566485217   -0.07801919283594523   -0.0024693337419387463
-0.014383051398221727   -0.07840661041273131   -0.002342494886082565
-0.01444170128950139   -0.07850209094736742   -0.0025082840881671064
-0.011602715999660517   -0.08470216114971539   -0.00263725339887998
-0.01857305566485217   -0.07801919283594523   -0.0024693337419387463
-0.01444170128950139   -0.07850209094736742   -0.0025082840881671064
-0.014862357792202869   -0.08437248288891087   -0.0030760006914152325
-0.011602715999660517   -0.08470216114971539   -0.00263725339887998
-0.014383051398221727   -0.07840661041273131   -0.002342494886082565
-0.014455592962707915   -0.0842661890844404   -0.002770558900321634
-0.011428092924958874   -0.08466012218160077   -0.002435253725599037
-0.014383051398221727   -0.07840661041273131   -0.002342494886082565
-0.01857305566485217   -0.07801919283594523   -0.0024693337419387463
-0.014455592962707915   -0.0842661890844404   -0.002770558900321634
-0.01831266883129443   -0.07797316648845683   -0.0021963712701937596
-0.011428092924958874   -0.08466012218160077   -0.002435253725599037
-0.014090845978871055   -0.08422730430209803   -0.0024472517902209604
-0.01831266883129443   -0.07797316648845683   -0.0021963712701937596
-0.014455592962707915   -0.0842661890844404   -0.002770558900321634
-0.011428092924958874   -0.08466012218160077   -0.002435253725599037
-0.01831266883129443   -0.07797316648845683   -0.0021963712701937596
-0.014283650588662652   -0.07835630845555927   -0.00216851549713899
-0.014383051398221727   -0.07840661041273131   -0.002342494886082565
-0.011428092924958874   -0.08466012218160077   -0.002435253725599037
-0.01831266883129443   -0.07797316648845683   -0.0021963712701937596
-0.014383051398221727   -0.07840661041273131   -0.002342494886082565
-0.014455592962707915   -0.0842661890844404   -0.002770558900321634
-0.011428092924958874   -0.08466012218160077   -0.002435253725599037
-0.014283650588662652   -0.07835630845555927   -0.00216851549713899
-0.014090845978871055   -0.08422730430209803   -0.0024472517902209604
-0.011275600585211794   -0.08467424266799776   -0.0022190888468715487
-0.014283650588662652   -0.07835630845555927   -0.00216851549713899
-0.01831266883129443   -0.07797316648845683   -0.0021963712701937596
-0.014090845978871055   -0.08422730430209803   -0.0024472517902209604
-0.017961817245344985   -0.07800026623648558   -0.0019116523125316054
-0.011275600585211794   -0.08467424266799776   -0.0022190888468715487
-0.013618097613205045   -0.08427584487697123   -0.0021091570020702476
-0.017961817245344985   -0.07800026623648558   -0.0019116523125316054
-0.014090845978871055   -0.08422730430209803   -0.0024472517902209604
-0.011275600585211794   -0.08467424266799776   -0.0022190888468715487
-0.017961817245344985   -0.07800026623648558   -0.0019116523125316054
-0.014202855010802434   -0.07835383538878968   -0.0019837969678477814
-0.014283650588662652   -0.07835630845555927   -0.00216851549713899
-0.011275600585211794   -0.08467424266799776   -0.0022190888468715487
-0.017961817245344985   -0.07800026623648558   -0.0019116523125316054
-0.014283650588662652   -0.07835630845555927   -0.00216851549713899
-0.014090845978871055   -0.08422730430209803   -0.0024472517902209604
0.00047522685028404286   -0.07866090569253788   -0.001351931481727295
0.0028026797760845766   -0.07033707818089549   -0.0010303193533816937
-0.0033331473394194945   -0.07884962310311014   -0.0017100093899515198
0.0007226196270888936   -0.07847866450637783   -0.0015531930896056873
0.0028026797760845766   -0.07033707818089549   -0.0010303193533816937
-0.0022372936039507588   -0.0704616771290543   -0.0013720811067250659
-0.0033331473394194945   -0.07884962310311014   -0.0017100093899515198
-0.0022237205606149535   -0.07031053816149695   -0.0014332875449563406
0.0007226196270888936   -0.07847866450637783   -0.0015531930896056873
-0.0032675298631253515   -0.07869766790097006   -0.0017983899886455594
-0.0022237205606149535   -0.07031053816149695   -0.0014332875449563406
-0.0033331473394194945   -0.07884962310311014   -0.0017100093899515198
0.0007226196270888936   -0.07847866450637783   -0.0015531930896056873
-0.0022237205606149535   -0.07031053816149695   -0.0014332875449563406
0.0029493895362663575   -0.0701592634643111   -0.0011790380495612454
0.0028026797760845766   -0.07033707818089549   -0.0010303193533816937
0.0007226196270888936   -0.07847866450637783   -0.0015531930896056873
-0.0022237205606149535   -0.07031053816149695   -0.0014332875449563406
0.0028026797760845766   -0.07033707818089549   -0.0010303193533816937
-0.0033331473394194945   -0.07884962310311014   -0.0017100093899515198
0.0007226196270888936   -0.07847866450637783   -0.0015531930896056873
0.0029493895362663575   -0.0701592634643111   -0.0011790380495612454
-0.0032675298631253515   -0.07869766790097006   -0.0017983899886455594
0.0009045786869325778   -0.07837317365894328   -0.0017400077345857423
0.0029493895362663575   -0.0701592634643111   -0.0011790380495612454
-0.0022237205606149535   -0.07031053816149695   -0.0014332875449563406
-0.0032675298631253515   -0.07869766790097006   -0.0017983899886455594
-0.0022064681243931686   -0.07020082615585677   -0.0014850682289268135
0.0009045786869325778   -0.07837317365894328   -0.0017400077345857423
-0.0031928454540562146   -0.07859826881510107   -0.0018764487430223623
-0.0022064681243931686   -0.07020082615585677   -0.0014850682289268135
-0.0032675298631253515   -0.07869766790097006   -0.0017983899886455594
0.0009045786869325778   -0.07837317365894328   -0.0017400077345857423
-0.0022064681243931686   -0.07020082615585677   -0.0014850682289268135
0.0030431263136823303   -0.07004241823253374   -0.001314438313513648
0.0029493895362663575   -0.0701592634643111   -0.0011790380495612454
0.0009045786869325778   -0.07837317365894328   -0.0017400077345857423
-0.0022064681243931686   -0.07020082615585677   -0.0014850682289268135
0.0029493895362663575   -0.0701592634643111   -0.0011790380495612454
-0.0032675298631253515   -0.07869766790097006   -0.0017983899886455594
0.0009045786869325778   -0.07837317365894328   -0.0017400077345857423
0.0030431263136823303   -0.07004241823253374   -0.001314438313513648
-0.0031928454540562146   -0.07859826881510107   -0.0018764487430223623
0.0010992729107182427   -0.07832089443124558   -0.0019123031430040838
0.0030431263136823303   -0.07004241823253374   -0.001314438313513648
-0.0022064681243931686   -0.07020082615585677   -0.0014850682289268135
-0.0031928454540562146   -0.07859826881510107   -0.0018764487430223623
-0.002214845451402269   -0.07012903849288246   -0.001528110978569646
0.0010992729107182427   -0.07832089443124558   -0.0019123031430040838
-0.0031481990755611636   -0.07854848988905379   -0.0019452045150112267
-0.002214845451402269   -0.07012903849288246   -0.001528110978569646
-0.0031928454540562146   -0.07859826881510107   -0.0018764487430223623
0.0010992729107182427   -0.07832089443124558   -0.0019123031430040838
-0.002214845451402269   -0.07012903849288246   -0.001528110978569646
0.003139273205760174   -0.06996393248313186   -0.001436797918501822
0.0030431263136823303   -0.07004241823253374   -0.001314438313513648
0.0010992729107182427   -0.07832089443124558   -0.0019123031430040838
-0.002214845451402269   -0.07012903849288246   -0.001528110978569646
0.0030431263136823303   -0.07004241823253374   -0.001314438313513648
-0.0031928454540562146   -0.07859826881510107   -0.0018764487430223623
-0.0033331473394194945   -0.07884962310311014   -0.0017100093899515198
-0.0022372936039507588   -0.0704616771290543   -0.0013720811067250659
-0.007016671740022891   -0.07888570391622025   -0.0020051675024748924
-0.0032675298631253515   -0.07869766790097006   -0.0017983899886455594
-0.0022372936039507588   -0.0704616771290543   -0.0013720811067250659
-0.007086633039549281   -0.07046225183974157   -0.0016540926135179923
-0.007016671740022891   -0.07888570391622025   -0.0020051675024748924
-0.007087293252093787   -0.07033432828426676   -0.0016483197524502192
-0.0032675298631253515   -0.07869766790097006   -0.0017983899886455594
-0.006968409866193282   -0.0787552336725883   -0.0020074723583924617
-0.007087293252093787   -0.07033432828426676   -0.0016483197524502192
-0.007016671740022891   -0.07888570391622025   -0.0020051675024748924
-0.0032675298631253515   -0.07869766790097006   -0.0017983899886455594
-0.007087293252093787   -0.07033432828426676   -0.0016483197524502192
-0.0022237205606149535   -0.07031053816149695   -0.0014332875449563406
-0.0022372936039507588   -0.0704616771290543   -0.0013720811067250659
-0.0032675298631253515   -0.07869766790097006   -0.0017983899886455594
-0.007087293252093787   -0.07033432828426676   -0.0016483197524502192
-0.0022372936039507588   -0.0704616771290543   -0.0013720811067250659
-0.007016671740022891   -0.07888570391622025   -0.0020051675024748924
-0.0032675298631253515   -0.07869766790097006   -0.0017983899886455594
-0.0022237205606149535   -0.07031053816149695   -0.0014332875449563406
-0.006968409866193282   -0.0787552336725883   -0.0020074723583924617
-0.0031928454540562146   -0.07859826881510107   -0.0018764487430223623
-0.0022237205606149535   -0.07031053816149695   -0.0014332875449563406
-0.007087293252093787   -0.07033432828426676   -0.0016483197524502192
-0.006968409866193282   -0.0787552336725883   -0.0020074723583924617
-0.007087630630790416   -0.0702429279297171   -0.0016331597558975788
-0.0031928454540562146   -0.07859826881510107   -0.0018764487430223623
-0.006918787127284581   -0.0786718065638162   -0.0019998895976378545
-0.007087630630790416   -0.0702429279297171   -0.0016331597558975788
-0.006968409866193282   -0.0787552336725883   -0.0020074723583924617
-0.0031928454540562146   -0.07859826881510107   -0.0018764487430223623
-0.007087630630790416   -0.0702429279297171   -0.0016331597558975788
-0.0022064681243931686   -0.07020082615585677   -0.0014850682289268135
-0.0022237205606149535   -0.07031053816149695   -0.0014332875449563406
-0.0031928454540562146   -0.07859826881510107   -0.0018764487430223623
-0.007087630630790416   -0.0702429279297171   -0.0016331597558975788
-0.0022237205606149535   -0.07031053816149695   -0.0014332875449563406
-0.006968409866193282   -0.0787552336725883   -0.0020074723583924617
-0.0031928454540562146   -0.07859826881510107   -0.0018764487430223623
-0.0022064681243931686   -0.07020082615585677   -0.0014850682289268135
-0.006918787127284581   -0.0786718065638162   -0.0019998895976378545
-0.0031481990755611636   -0.07854848988905379   -0.0019452045150112267
-0.0022064681243931686   -0.07020082615585677   -0.0014850682289268135
-0.007087630630790416   -0.0702429279297171   -0.0016331597558975788
-0.006918787127284581   -0.0786718065638162   -0.0019998895976378545
-0.007094455850191642   -0.07018811451701823   -0.0016090970976369893
-0.0031481990755611636   -0.07854848988905379   -0.0019452045150112267
-0.00687538292790097   -0.07863464149885754   -0.0019830749104197986
-0.007094455850191642   -0.07018811451701823   -0.0016090970976369893
-0.006918787127284581   -0.0786718065638162   -0.0019998895976378545
-0.0031481990755611636   -0.07854848988905379   -0.0019452045150112267
-0.007094455850191642   -0.07018811451701823   -0.0016090970976369893
-0.002214845451402269   -0.07012903849288246   -0.001528110978569646
-0.0022064681243931686   -0.07020082615585677   -0.0014850682289268135
-0.0031481990755611636   -0.07854848988905379   -0.0019452045150112267
-0.007094455850191642   -0.07018811451701823   -0.0016090970976369893
-0.0022064681243931686   -0.07020082615585677   -0.0014850682289268135
-0.006918787127284581   -0.0786718065638162   -0.0019998895976378545
-0.007016671740022891   -0.07888570391622025   -0.0020051675024748924
-0.007086633039549281   -0.07046225183974157   -0.0016540926135179923
-0.010642146731614741   -0.07876846813469505   -0.0022716090048210784
-0.006968409866193282   -0.0787552336725883   -0.0020074723583924617
-0.007086633039549281   -0.07046225183974157   -0.0016540926135179923
-0.011853466637831298   -0.07034160823356063   -0.0019011741749950853
-0.010642146731614741   -0.07876846813469505   -0.0022716090048210784
-0.011857710704040186   -0.07023409731915282   -0.0018292281601629977
-0.006968409866193282   -0.0787552336725883   -0.0020074723583924617
-0.010597212265486195   -0.07865588974560324   -0.0021899158458651828
-0.011857710704040186   -0.07023409731915282   -0.0018292281601629977
-0.010642146731614741   -0.07876846813469505   -0.0022716090048210784
-0.006968409866193282   -0.0787552336725883   -0.0020074723583924617
-0.011857710704040186   -0.07023409731915282   -0.0018292281601629977
-0.007087293252093787   -0.07033432828426676   -0.0016483197524502192
-0.007086633039549281   -0.07046225183974157   -0.0016540926135179923
-0.006968409866193282   -0.0787552336725883   -0.0020074723583924617
-0.011857710704040186   -0.07023409731915282   -0.0018292281601629977
-0.007086633039549281   -0.07046225183974157   -0.0016540926135179923
-0.010642146731614741   -0.07876846813469505   -0.0022716090048210784
-0.006968409866193282   -0.0787552336725883   -0.0020074723583924617
-0.007087293252093787   -0.07033432828426676   -0.0016483197524502192
-0.010597212265486195   -0.07865588974560324   -0.0021899158458651828
-0.006918787127284581   -0.0786718065638162   -0.0019998895976378545
-0.007087293252093787   -0.07033432828426676   -0.0016483197524502192
-0.011857710704040186   -0.07023409731915282   -0.0018292281601629977
-0.010597212265486195   -0.07865588974560324   -0.0021899158458651828
-0.011853826790542534   -0.07016278626982361   -0.0017480758776237276
-0.006918787127284581   -0.0786718065638162   -0.0019998895976378545
-0.010542917979138514   -0.07858983623195041   -0.0020985481157958564
-0.011853826790542534   -0.07016278626982361   -0.0017480758776237276
-0.010597212265486195   -0.07865588974560324   -0.0021899158458651828
-0.006918787127284581   -0.0786718065638162   -0.0019998895976378545
-0.011853826790542534   -0.07016278626982361   -0.0017480758776237276
-0.007087630630790416   -0.0702429279297171   -0.0016331597558975788
-0.007087293252093787   -0.07033432828426676   -0.0016483197524502192
-0.006918787127284581   -0.0786718065638162   -0.0019998895976378545
-0.011853826790542534   -0.07016278626982361   -0.0017480758776237276
-0.007087293252093787   -0.07033432828426676   -0.0016483197524502192
-0.010597212265486195   -0.07865588974560324   -0.0021899158458651828
-0.006918787127284581   -0.0786718065638162   -0.0019998895976378545
-0.007087630630790416   -0.0702429279297171   -0.0016331597558975788
-0.010542917979138514   -0.07858983623195041   -0.0020985481157958564
-0.00687538292790097   -0.07863464149885754   -0.0019830749104197986
-0.007087630630790416   -0.0702429279297171   -0.0016331597558975788
-0.011853826790542534   -0.07016278626982361   -0.0017480758776237276
-0.010542917979138514   -0.07858983623195041   -0.0020985481157958564
-0.011851402476036166   -0.07012703698515149   -0.0016579864244208986
-0.00687538292790097   -0.07863464149885754   -0.0019830749104197986
-0.010490099917882693   -0.07856813660171542   -0.0019978041023321386
-0.011851402476036166   -0.07012703698515149   -0.0016579864244208986
-0.010542917979138514   -0.07858983623195041   -0.0020985481157958564
-0.00687538292790097   -0.07863464149885754   -0.0019830749104197986
-0.011851402476036166   -0.07012703698515149   -0.0016579864244208986
-0.007094455850191642   -0.07018811451701823   -0.0016090970976369893
-0.007087630630790416   -0.0702429279297171   -0.0016331597558975788
-0.00687538292790097   -0.07863464149885754   -0.0019830749104197986
-0.011851402476036166   -0.07012703698515149   -0.0016579864244208986
-0.007087630630790416   -0.0702429279297171   -0.0016331597558975788
-0.010542917979138514   -0.07858983623195041   -0.0020985481157958564
-0.010642146731614741   -0.07876846813469505   -0.0022716090048210784
-0.011853466637831298   -0.07034160823356063   -0.0019011741749950853
-0.01444170128950139   -0.07850209094736742   -0.0025082840881671064
-0.010597212265486195   -0.07865588974560324   -0.0021899158458651828
-0.011853466637831298   -0.07034160823356063   -0.0019011741749950853
-0.016768973902022075   -0.07010433198937735   -0.0021137674451291353
-0.01444170128950139   -0.07850209094736742   -0.0025082840881671064
-0.016763235256016557   -0.07001638231054601   -0.0019748684922492646
-0.010597212265486195   -0.07865588974560324   -0.0021899158458651828
-0.014383051398221727   -0.07840661041273131   -0.002342494886082565
-0.016763235256016557   -0.07001638231054601   -0.0019748684922492646
-0.01444170128950139   -0.07850209094736742   -0.0025082840881671064
-0.010597212265486195   -0.07865588974560324   -0.0021899158458651828
-0.016763235256016557   -0.07001638231054601   -0.0019748684922492646
-0.011857710704040186   -0.07023409731915282   -0.0018292281601629977
-0.011853466637831298   -0.07034160823356063   -0.0019011741749950853
-0.010597212265486195   -0.07865588974560324   -0.0021899158458651828
-0.016763235256016557   -0.07001638231054601   -0.0019748684922492646
-0.011853466637831298   -0.07034160823356063   -0.0019011741749950853
-0.01444170128950139   -0.07850209094736742   -0.0025082840881671064
-0.010597212265486195   -0.07865588974560324   -0.0021899158458651828
-0.011857710704040186   -0.07023409731915282   -0.0018292281601629977
-0.014383051398221727   -0.07840661041273131   -0.002342494886082565
-0.010542917979138514   -0.07858983623195041   -0.0020985481157958564
-0.011857710704040186   -0.07023409731915282   -0.0018292281601629977
-0.016763235256016557   -0.07001638231054601   -0.0019748684922492646
-0.014383051398221727   -0.07840661041273131   -0.002342494886082565
-0.0167220912706092   -0.06996328601033067   -0.0018281501468109616
-0.010542917979138514   -0.07858983623195041   -0.0020985481157958564
-0.014283650588662652   -0.07835630845555927   -0.00216851549713899
-0.0167220912706092   -0.06996328601033067   -0.0018281501468109616
-0.014383051398221727   -0.07840661041273131   -0.002342494886082565
-0.010542917979138514   -0.07858983623195041   -0.0020985481157958564
-0.0167220912706092   -0.06996328601033067   -0.0018281501468109616
-0.011853826790542534   -0.07016278626982361   -0.0017480758776237276
-0.011857710704040186   -0.07023409731915282   -0.0018292281601629977
-0.010542917979138514   -0.07858983623195041   -0.0020985481157958564
-0.0167220912706092   -0.06996328601033067   -0.0018281501468109616
-0.011857710704040186   -0.07023409731915282   -0.0018292281601629977
-0.014383051398221727   -0.07840661041273131   -0.002342494886082565
-0.010542917979138514   -0.07858983623195041   -0.0020985481157958564
-0.011853826790542534   -0.07016278626982361   -0.0017480758776237276
-0.014283650588662652   -0.07835630845555927   -0.00216851549713899
-0.010490099917882693   -0.07856813660171542   -0.0019978041023321386
-0.011853826790542534   -0.07016278626982361   -0.0017480758776237276
-0.0167220912706092   -0.06996328601033067   -0.0018281501468109616
-0.014283650588662652   -0.07835630845555927   -0.00216851549713899
-0.016694574759983538   -0.06994873739510095   -0.0016717779020182595
-0.010490099917882693   -0.07856813660171542   -0.0019978041023321386
-0.014202855010802434   -0.07835383538878968   -0.0019837969678477814
-0.016694574759983538   -0.06994873739510095   -0.0016717779020182595
-0.014283650588662652   -0.07835630845555927   -0.00216851549713899
-0.010490099917882693   -0.07856813660171542   -0.0019978041023321386
-0.016694574759983538   -0.06994873739510095   -0.0016717779020182595
-0.011851402476036166   -0.07012703698515149   -0.0016579864244208986
-0.011853826790542534   -0.07016278626982361   -0.0017480758776237276
-0.010490099917882693   -0.07856813660171542   -0.0019978041023321386
-0.016694574759983538   -0.06994873739510095   -0.0016717779020182595
-0.011853826790542534   -0.07016278626982361   -0.0017480758776237276
-0.014283650588662652   -0.07835630845555927   -0.00216851549713899
-0.01444170128950139   -0.07850209094736742   -0.0025082840881671064
-0.016768973902022075   -0.07010433198937735   -0.0021137674451291353
-0.01887296021181208   -0.0781186984450404   -0.002728799053407735
-0.014383051398221727   -0.07840661041273131   -0.002342494886082565
-0.016768973902022075   -0.07010433198937735   -0.0021137674451291353
-0.022259483946281966   -0.06977748056695825   -0.0023053785997823135
-0.01887296021181208   -0.0781186984450404   -0.002728799053407735
-0.022054647142680454   -0.0696912107314217   -0.002092946359115793
-0.014383051398221727   -0.07840661041273131   -0.002342494886082565
-0.01857305566485217   -0.07801919283594523   -0.0024693337419387463
-0.022054647142680454   -0.0696912107314217   -0.002092946359115793
-0.01887296021181208   -0.0781186984450404   -0.002728799053407735
-0.014383051398221727   -0.07840661041273131   -0.002342494886082565
-0.022054647142680454   -0.0696912107314217   -0.002092946359115793
-0.016763235256016557   -0.07001638231054601   -0.0019748684922492646
-0.016768973902022075   -0.07010433198937735   -0.0021137674451291353
-0.014383051398221727   -0.07840661041273131   -0.002342494886082565
-0.022054647142680454   -0.0696912107314217   -0.002092946359115793
-0.016768973902022075   -0.07010433198937735   -0.0021137674451291353
-0.01887296021181208   -0.0781186984450404   -0.002728799053407735
-0.014383051398221727   -0.07840661041273131   -0.002342494886082565
-0.016763235256016557   -0.07001638231054601   -0.0019748684922492646
-0.01857305566485217   -0.07801919283594523   -0.0024693337419387463
-0.014283650588662652   -0.07835630845555927   -0.00216851549713899
-0.016763235256016557   -0.07001638231054601   -0.0019748684922492646
-0.022054647142680454   -0.0696912107314217   -0.002092946359115793
-0.01857305566485217   -0.07801919283594523   -0.0024693337419387463
-0.02187940125759648   -0.0696447559520361   -0.0018673773309650448
-0.014283650588662652   -0.07835630845555927   -0.00216851549713899
-0.01831266883129443   -0.07797316648845683   -0.0021963712701937596
-0.02187940125759648   -0.0696447559520361   -0.0018673773309650448
-0.01857305566485217   -0.07801919283594523   -0.0024693337419387463
-0.014283650588662652   -0.07835630845555927   -0.00216851549713899
-0.02187940125759648   -0.0696447559520361   -0.0018673773309650448
-0.0167220912706092   -0.06996328601033067   -0.0018281501468109616
-0.016763235256016557   -0.07001638231054601   -0.0019748684922492646
-0.014283650588662652   -0.07835630845555927   -0.00216851549713899
-0.02187940125759648   -0.0696447559520361   -0.0018673773309650448
-0.016763235256016557   -0.07001638231054601   -0.0019748684922492646
-0.01857305566485217   -0.07801919283594523   -0.0024693337419387463
-0.014283650588662652   -0.07835630845555927   -0.00216851549713899
-0.0167220912706092   -0.06996328601033067   -0.0018281501468109616
-0.01831266883129443   -0.07797316648845683   -0.0021963712701937596
-0.014202855010802434   -0.07835383538878968   -0.0019837969678477814
-0.0167220912706092   -0.06996328601033067   -0.0018281501468109616
-0.02187940125759648   -0.0696447559520361   -0.0018673773309650448
-0.01831266883129443   -0.07797316648845683   -0.0021963712701937596
-0.021626401796332993   -0.06965946790100125   -0.0016304693183623732
-0.014202855010802434   -0.07835383538878968   -0.0019837969678477814
-0.017961817245344985   -0.07800026623648558   -0.0019116523125316054
-0.021626401796332993   -0.06965946790100125   -0.0016304693183623732
-0.01831266883129443   -0.07797316648845683   -0.0021963712701937596
-0.014202855010802434   -0.07835383538878968   -0.0019837969678477814
-0.021626401796332993   -0.06965946790100125   -0.0016304693183623732
-0.016694574759983538   -0.06994873739510095   -0.0016717779020182595
-0.0167220912706092   -0.06996328601033067   -0.0018281501468109616
-0.014202855010802434   -0.07835383538878968   -0.0019837969678477814
-0.021626401796332993   -0.06965946790100125   -0.0016304693183623732
-0.0167220912706092   -0.06996328601033067   -0.0018281501468109616
-0.01831266883129443   -0.07797316648845683   -0.0021963712701937596
0.0028026797760845766   -0.07033707818089549   -0.0010303193533816937
0.004404670777039505   -0.0603291379512479   -0.0006862493890784758
-0.0022372936039507588   -0.0704616771290543   -0.0013720811067250659
0.0029493895362663575   -0.0701592634643111   -0.0011790380495612454
0.004404670777039505   -0.0603291379512479   -0.0006862493890784758
-0.0015726627407331736   -0.06039025289557907   -0.0010078024318969205
-0.0022372936039507588   -0.0704616771290543   -0.0013720811067250659
-0.0016009278160542463   -0.060242785668769824   -0.001040719153027032
0.0029493895362663575   -0.0701592634643111   -0.0011790380495612454
-0.0022237205606149535   -0.07031053816149695   -0.0014332875449563406
-0.0016009278160542463   -0.060242785668769824   -0.001040719153027032
-0.0022372936039507588   -0.0704616771290543   -0.0013720811067250659
0.0029493895362663575   -0.0701592634643111   -0.0011790380495612454
-0.0016009278160542463   -0.060242785668769824   -0.001040719153027032
0.004462350305132411   -0.060157826944861194   -0.0007835455688300813
0.004404670777039505   -0.0603291379512479   -0.0006862493890784758
0.0029493895362663575   -0.0701592634643111   -0.0011790380495612454
-0.0016009278160542463   -0.060242785668769824   -0.001040719153027032
0.004404670777039505   -0.0603291379512479   -0.0006862493890784758
-0.0022372936039507588   -0.0704616771290543   -0.0013720811067250659
0.0029493895362663575   -0.0701592634643111   -0.0011790380495612454
0.004462350305132411   -0.060157826944861194   -0.0007835455688300813
-0.0022237205606149535   -0.07031053816149695   -0.0014332875449563406
0.0030431263136823303   -0.07004241823253374   -0.001314438313513648
0.004462350305132411   -0.060157826944861194   -0.0007835455688300813
-0.0016009278160542463   -0.060242785668769824   -0.001040719153027032
-0.0022237205606149535   -0.07031053816149695   -0.0014332875449563406
-0.0016306514616378168   -0.060125989027566495   -0.0010652288084035766
0.0030431263136823303   -0.07004241823253374   -0.001314438313513648
-0.0022064681243931686   -0.07020082615585677   -0.0014850682289268135
-0.0016306514616378168   -0.060125989027566495   -0.0010652288084035766
-0.0022237205606149535   -0.07031053816149695   -0.0014332875449563406
0.0030431263136823303   -0.07004241823253374   -0.001314438313513648
-0.0016306514616378168   -0.060125989027566495   -0.0010652288084035766
0.004479675304128137   -0.06003281268680858   -0.0008684406262844456
0.004462350305132411   -0.060157826944861194   -0.0007835455688300813
0.0030431263136823303   -0.07004241823253374   -0.001314438313513648
-0.0016306514616378168   -0.060125989027566495   -0.0010652288084035766
0.004462350305132411   -0.060157826944861194   -0.0007835455688300813
-0.0022237205606149535   -0.07031053816149695   -0.0014332875449563406
0.0030431263136823303   -0.07004241823253374   -0.001314438313513648
0.004479675304128137   -0.06003281268680858   -0.0008684406262844456
-0.0022064681243931686   -0.07020082615585677   -0.0014850682289268135
0.003139273205760174   -0.06996393248313186   -0.001436797918501822
0.004479675304128137   -0.06003281268680858   -0.0008684406262844456
-0.0016306514616378168   -0.060125989027566495   -0.0010652288084035766
-0.0022064681243931686   -0.07020082615585677   -0.0014850682289268135
-0.0016811319671382909   -0.06003620506642799   -0.0010816160792500194
0.003139273205760174   -0.06996393248313186   -0.001436797918501822
-0.002214845451402269   -0.07012903849288246   -0.001528110978569646
-0.0016811319671382909   -0.06003620506642799   -0.0010816160792500194
-0.0022064681243931686   -0.07020082615585677   -0.0014850682289268135
0.003139273205760174   -0.06996393248313186   -0.001436797918501822
-0.0016811319671382909   -0.06003620506642799   -0.0010816160792500194
0.004489179907871637   -0.059932135408488824   -0.0009415204930843901
0.004479675304128137   -0.06003281268680858   -0.0008684406262844456
0.003139273205760174   -0.06996393248313186   -0.001436797918501822
-0.0016811319671382909   -0.06003620506642799   -0.0010816160792500194
0.004479675304128137   -0.06003281268680858   -0.0008684406262844456
-0.0022064681243931686   -0.07020082615585677   -0.0014850682289268135
-0.0022372936039507588   -0.0704616771290543   -0.0013720811067250659
-0.0015726627407331736   -0.06039025289557907   -0.0010078024318969205
-0.007086633039549281   -0.07046225183974157   -0.0016540926135179923
-0.0022237205606149535   -0.07031053816149695   -0.0014332875449563406
-0.0015726627407331736   -0.06039025289557907   -0.0010078024318969205
-0.007301741633905005   -0.06035862401051867   -0.0012727716607701027
-0.007086633039549281   -0.07046225183974157   -0.0016540926135179923
-0.007340839030246874   -0.060235311969711956   -0.0012573191587520879
-0.0022237205606149535   -0.07031053816149695   -0.0014332875449563406
-0.007087293252093787   -0.07033432828426676   -0.0016483197524502192
-0.007340839030246874   -0.060235311969711956   -0.0012573191587520879
-0.007086633039549281   -0.07046225183974157   -0.0016540926135179923
-0.0022237205606149535   -0.07031053816149695   -0.0014332875449563406
-0.007340839030246874   -0.060235311969711956   -0.0012573191587520879
-0.0016009278160542463   -0.060242785668769824   -0.001040719153027032
-0.0015726627407331736   -0.06039025289557907   -0.0010078024318969205
-0.0022237205606149535   -0.07031053816149695   -0.0014332875449563406
-0.007340839030246874   -0.060235311969711956   -0.0012573191587520879
-0.0015726627407331736   -0.06039025289557907   -0.0010078024318969205
-0.007086633039549281   -0.07046225183974157   -0.0016540926135179923
-0.0022237205606149535   -0.07031053816149695   -0.0014332875449563406
-0.0016009278160542463   -0.060242785668769824   -0.001040719153027032
-0.007087293252093787   -0.07033432828426676   -0.0016483197524502192
-0.0022064681243931686   -0.07020082615585677   -0.0014850682289268135
-0.0016009278160542463   -0.060242785668769824   -0.001040719153027032
-0.007340839030246874   -0.060235311969711956   -0.0012573191587520879
-0.007087293252093787   -0.07033432828426676   -0.0016483197524502192
-0.007380472372079478   -0.06013829287337648   -0.0012332136522177693
-0.0022064681243931686   -0.07020082615585677   -0.0014850682289268135
-0.007087630630790416   -0.0702429279297171   -0.0016331597558975788
-0.007380472372079478   -0.06013829287337648   -0.0012332136522177693
-0.007087293252093787   -0.07033432828426676   -0.0016483197524502192
-0.0022064681243931686   -0.07020082615585677   -0.0014850682289268135
-0.007380472372079478   -0.06013829287337648   -0.0012332136522177693
-0.0016306514616378168   -0.060125989027566495   -0.0010652288084035766
-0.0016009278160542463   -0.060242785668769824   -0.001040719153027032
-0.0022064681243931686   -0.07020082615585677   -0.0014850682289268135
-0.007380472372079478   -0.06013829287337648   -0.0012332136522177693
-0.0016009278160542463   -0.060242785668769824   -0.001040719153027032
-0.007087293252093787   -0.07033432828426676   -0.0016483197524502192
-0.0022064681243931686   -0.07020082615585677   -0.0014850682289268135
-0.0016306514616378168   -0.060125989027566495   -0.0010652288084035766
-0.007087630630790416   -0.0702429279297171   -0.0016331597558975788
-0.002214845451402269   -0.07012903849288246   -0.001528110978569646
-0.0016306514616378168   -0.060125989027566495   -0.0010652288084035766
-0.007380472372079478   -0.06013829287337648   -0.0012332136522177693
-0.007087630630790416   -0.0702429279297171   -0.0016331597558975788
-0.0074262609228529395   -0.06006801419349571   -0.0012008699557935253
-0.002214845451402269   -0.07012903849288246   -0.001528110978569646
-0.007094455850191642   -0.07018811451701823   -0.0016090970976369893
-0.0074262609228529395   -0.06006801419349571   -0.0012008699557935253
-0.007087630630790416   -0.0702429279297171   -0.0016331597558975788
-0.002214845451402269   -0.07012903849288246   -0.001528110978569646
-0.0074262609228529395   -0.06006801419349571   -0.0012008699557935253
-0.0016811319671382909   -0.06003620506642799   -0.0010816160792500194
-0.0016306514616378168   -0.060125989027566495   -0.0010652288084035766
-0.002214845451402269   -0.07012903849288246   -0.001528110978569646
-0.0074262609228529395   -0.06006801419349571   -0.0012008699557935253
-0.0016306514616378168   -0.060125989027566495   -0.0010652288084035766
-0.007087630630790416   -0.0702429279297171   -0.0016331597558975788
-0.007086633039549281   -0.07046225183974157   -0.0016540926135179923
-0.007301741633905005   -0.06035862401051867   -0.0012727716607701027
-0.011853466637831298   -0.07034160823356063   -0.0019011741749950853
-0.007087293252093787   -0.07033432828426676   -0.0016483197524502192
-0.007301741633905005   -0.06035862401051867   -0.0012727716607701027
-0.012933873323865279   -0.0602399416945166   -0.001499576974831197
-0.011853466637831298   -0.07034160823356063   -0.0019011741749950853
-0.012976031649290428   -0.06013859290224833   -0.0014359844145882153
-0.007087293252093787   -0.07033432828426676   -0.0016483197524502192
-0.011857710704040186   -0.07023409731915282   -0.0018292281601629977
-0.012976031649290428   -0.06013859290224833   -0.0014359844145882153
-0.011853466637831298   -0.07034160823356063   -0.0019011741749950853
-0.007087293252093787   -0.07033432828426676   -0.0016483197524502192
-0.012976031649290428   -0.06013859290224833   -0.0014359844145882153
-0.007340839030246874   -0.060235311969711956   -0.0012573191587520879
-0.007301741633905005   -0.06035862401051867   -0.0012727716607701027
-0.007087293252093787   -0.07033432828426676   -0.0016483197524502192
-0.012976031649290428   -0.06013859290224833   -0.0014359844145882153
-0.007301741633905005   -0.06035862401051867   -0.0012727716607701027
-0.011853466637831298   -0.07034160823356063   -0.0019011741749950853
-0.007087293252093787   -0.07033432828426676   -0.0016483197524502192
-0.007340839030246874   -0.060235311969711956   -0.0012573191587520879
-0.011857710704040186   -0.07023409731915282   -0.0018292281601629977
-0.007087630630790416   -0.0702429279297171   -0.0016331597558975788
-0.007340839030246874   -0.060235311969711956   -0.0012573191587520879
-0.012976031649290428   -0.06013859290224833   -0.0014359844145882153
-0.011857710704040186   -0.07023409731915282   -0.0018292281601629977
-0.013010976874100704   -0.06006328554377183   -0.0013638907497455382
-0.007087630630790416   -0.0702429279297171   -0.0016331597558975788
-0.011853826790542534   -0.07016278626982361   -0.0017480758776237276
-0.013010976874100704   -0.06006328554377183   -0.0013638907497455382
-0.011857710704040186   -0.07023409731915282   -0.0018292281601629977
-0.007087630630790416   -0.0702429279297171   -0.0016331597558975788
-0.013010976874100704   -0.06006328554377183   -0.0013638907497455382
-0.007380472372079478   -0.06013829287337648   -0.0012332136522177693
-0.007340839030246874   -0.060235311969711956   -0.0012573191587520879
-0.007087630630790416   -0.0702429279297171   -0.0016331597558975788
-0.013010976874100704   -0.06006328554377183   -0.0013638907497455382
-0.007340839030246874   -0.060235311969711956   -0.0012573191587520879
-0.011857710704040186   -0.07023409731915282   -0.0018292281601629977
-0.007087630630790416   -0.0702429279297171   -0.0016331597558975788
-0.007380472372079478   -0.06013829287337648   -0.0012332136522177693
-0.011853826790542534   -0.07016278626982361   -0.0017480758776237276
-0.007094455850191642   -0.07018811451701823   -0.0016090970976369893
-0.007380472372079478   -0.06013829287337648   -0.0012332136522177693
-0.013010976874100704   -0.06006328554377183   -0.0013638907497455382
-0.011853826790542534   -0.07016278626982361   -0.0017480758776237276
-0.01304693267985409   -0.06001391140162999   -0.0012835470220657935
-0.007094455850191642   -0.07018811451701823   -0.0016090970976369893
-0.011851402476036166   -0.07012703698515149   -0.0016579864244208986
-0.01304693267985409   -0.06001391140162999   -0.0012835470220657935
-0.011853826790542534   -0.07016278626982361   -0.0017480758776237276
-0.007094455850191642   -0.07018811451701823   -0.0016090970976369893
-0.01304693267985409   -0.06001391140162999   -0.0012835470220657935
-0.0074262609228529395   -0.06006801419349571   -0.0012008699557935253
-0.007380472372079478   -0.06013829287337648   -0.0012332136522177693
-0.007094455850191642   -0.07018811451701823   -0.0016090970976369893
-0.01304693267985409   -0.06001391140162999   -0.0012835470220657935
-0.007380472372079478   -0.06013829287337648   -0.0012332136522177693
-0.011853826790542534   -0.07016278626982361   -0.0017480758776237276
-0.011853466637831298   -0.07034160823356063   -0.0019011741749950853
-0.012933873323865279   -0.0602399416945166   -0.001499576974831197
-0.016768973902022075   -0.07010433198937735   -0.0021137674451291353
-0.011857710704040186   -0.07023409731915282   -0.0018292281601629977
-0.012933873323865279   -0.0602399416945166   -0.001499576974831197
-0.01869997847353424   -0.06003658109374501   -0.0016890625267366737
-0.016768973902022075   -0.07010433198937735   -0.0021137674451291353
-0.018734900694285146   -0.0599566979638326   -0.0015766768555910556
-0.011857710704040186   -0.07023409731915282   -0.0018292281601629977
-0.016763235256016557   -0.07001638231054601   -0.0019748684922492646
-0.018734900694285146   -0.0599566979638326   -0.0015766768555910556
-0.016768973902022075   -0.07010433198937735   -0.0021137674451291353
-0.011857710704040186   -0.07023409731915282   -0.0018292281601629977
-0.018734900694285146   -0.0599566979638326   -0.0015766768555910556
-0.012976031649290428   -0.06013859290224833   -0.0014359844145882153
-0.012933873323865279   -0.0602399416945166   -0.001499576974831197
-0.011857710704040186   -0.07023409731915282   -0.0018292281601629977
-0.018734900694285146   -0.0599566979638326   -0.0015766768555910556
-0.012933873323865279   -0.0602399416945166   -0.001499576974831197
-0.016768973902022075   -0.07010433198937735   -0.0021137674451291353
-0.011857710704040186   -0.07023409731915282   -0.0018292281601629977
-0.012976031649290428   -0.06013859290224833   -0.0014359844145882153
-0.016763235256016557   -0.07001638231054601   -0.0019748684922492646
-0.011853826790542534   -0.07016278626982361   -0.0017480758776237276
-0.012976031649290428   -0.06013859290224833   -0.0014359844145882153
-0.018734900694285146   -0.0599566979638326   -0.0015766768555910556
-0.016763235256016557   -0.07001638231054601   -0.0019748684922492646
-0.018739525932675815   -0.05990124189904319   -0.0014569668145084512
-0.011853826790542534   -0.07016278626982361   -0.0017480758776237276
-0.0167220912706092   -0.06996328601033067   -0.0018281501468109616
-0.018739525932675815   -0.05990124189904319   -0.0014569668145084512
-0.016763235256016557   -0.07001638231054601   -0.0019748684922492646
-0.011853826790542534   -0.07016278626982361   -0.0017480758776237276
-0.018739525932675815   -0.05990124189904319   -0.0014569668145084512
-0.013010976874100704   -0.06006328554377183   -0.0013638907497455382
-0.012976031649290428   -0.06013859290224833   -0.0014359844145882153
-0.011853826790542534   -0.07016278626982361   -0.0017480758776237276
-0.018739525932675815   -0.05990124189904319   -0.0014569668145084512
-0.012976031649290428   -0.06013859290224833   -0.0014359844145882153
-0.016763235256016557   -0.07001638231054601   -0.0019748684922492646
-0.011853826790542534   -0.07016278626982361   -0.0017480758776237276
-0.013010976874100704   -0.06006328554377183   -0.0013638907497455382
-0.0167220912706092   -0.06996328601033067   -0.0018281501468109616
-0.011851402476036166   -0.07012703698515149   -0.0016579864244208986
-0.013010976874100704   -0.06006328554377183   -0.0013638907497455382
-0.018739525932675815   -0.05990124189904319   -0.0014569668145084512
-0.0167220912706092   -0.06996328601033067   -0.0018281501468109616
-0.018752715763496002   -0.05987404825732327   -0.0013283824248754943
-0.011851402476036166   -0.07012703698515149   -0.0016579864244208986
-0.016694574759983538   -0.06994873739510095   -0.0016717779020182595
-0.018752715763496002   -0.05987404825732327   -0.0013283824248754943
-0.0167220912706092   -0.06996328601033067   -0.0018281501468109616
-0.011851402476036166   -0.07012703698515149   -0.0016579864244208986
-0.018752715763496002   -0.05987404825732327   -0.0013283824248754943
-0.01304693267985409   -0.06001391140162999   -0.0012835470220657935
-0.013010976874100704   -0.06006328554377183   -0.0013638907497455382
-0.011851402476036166   -0.07012703698515149   -0.0016579864244208986
-0.018752715763496002   -0.05987404825732327   -0.0013283824248754943
-0.013010976874100704   -0.06006328554377183   -0.0013638907497455382
-0.0167220912706092   -0.06996328601033067   -0.0018281501468109616
-0.016768973902022075   -0.07010433198937735   -0.0021137674451291353
-0.01869997847353424   -0.06003658109374501   -0.0016890625267366737
-0.022259483946281966   -0.06977748056695825   -0.0023053785997823135
-0.016763235256016557   -0.07001638231054601   -0.0019748684922492646
-0.01869997847353424   -0.06003658109374501   -0.0016890625267366737
-0.024987562302448797   -0.05976999295646672   -0.0018509192354325109
-0.022259483946281966   -0.06977748056695825   -0.0023053785997823135
-0.024867705843489813   -0.05969702470129924   -0.0016869925869425317
-0.016763235256016557   -0.07001638231054601   -0.0019748684922492646
-0.022054647142680454   -0.0696912107314217   -0.002092946359115793
-0.024867705843489813   -0.05969702470129924   -0.0016869925869425317
-0.022259483946281966   -0.06977748056695825   -0.0023053785997823135
-0.016763235256016557   -0.07001638231054601   -0.0019748684922492646
-0.024867705843489813   -0.05969702470129924   -0.0016869925869425317
-0.018734900694285146   -0.0599566979638326   -0.0015766768555910556
-0.01869997847353424   -0.06003658109374501   -0.0016890625267366737
-0.016763235256016557   -0.07001638231054601   -0.0019748684922492646
-0.024867705843489813   -0.05969702470129924   -0.0016869925869425317
-0.01869997847353424   -0.06003658109374501   -0.0016890625267366737
-0.022259483946281966   -0.06977748056695825   -0.0023053785997823135
-0.016763235256016557   -0.07001638231054601   -0.0019748684922492646
-0.018734900694285146   -0.0599566979638326   -0.0015766768555910556
-0.022054647142680454   -0.0696912107314217   -0.002092946359115793
-0.0167220912706092   -0.06996328601033067   -0.0018281501468109616
-0.018734900694285146   -0.0599566979638326   -0.0015766768555910556
-0.024867705843489813   -0.05969702470129924   -0.0016869925869425317
-0.022054647142680454   -0.0696912107314217   -0.002092946359115793
-0.024766627734186704   -0.059649981816178206   -0.0015102815835108113
-0.0167220912706092   -0.06996328601033067   -0.0018281501468109616
-0.02187940125759648   -0.0696447559520361   -0.0018673773309650448
-0.024766627734186704   -0.059649981816178206   -0.0015102815835108113
-0.022054647142680454   -0.0696912107314217   -0.002092946359115793
-0.0167220912706092   -0.06996328601033067   -0.0018281501468109616
-0.024766627734186704   -0.059649981816178206   -0.0015102815835108113
-0.018739525932675815   -0.05990124189904319   -0.0014569668145084512
-0.018734900694285146   -0.0599566979638326   -0.0015766768555910556
-0.0167220912706092   -0.06996328601033067   -0.0018281501468109616
-0.024766627734186704   -0.059649981816178206   -0.0015102815835108113
-0.018734900694285146   -0.0599566979638326   -0.0015766768555910556
-0.022054647142680454   -0.0696912107314217   -0.002092946359115793
-0.0167220912706092   -0.06996328601033067   -0.0018281501468109616
-0.018739525932675815   -0.05990124189904319   -0.0014569668145084512
-0.02187940125759648   -0.0696447559520361   -0.0018673773309650448
-0.016694574759983538   -0.06994873739510095   -0.0016717779020182595
-0.018739525932675815   -0.05990124189904319   -0.0014569668145084512
-0.024766627734186704   -0.059649981816178206   -0.0015102815835108113
-0.02187940125759648   -0.0696447559520361   -0.0018673773309650448
-0.024599683601220022   -0.05965099027594501   -0.0013223788387352242
-0.016694574759983538   -0.06994873739510095   -0.0016717779020182595
-0.021626401796332993   -0.06965946790100125   -0.0016304693183623732
-0.024599683601220022   -0.05965099027594501   -0.0013223788387352242
-0.02187940125759648   -0.0696447559520361   -0.0018673773309650448
-0.016694574759983538   -0.06994873739510095   -0.0016717779020182595
-0.024599683601220022   -0.05965099027594501   -0.0013223788387352242
-0.018752715763496002   -0.05987404825732327   -0.0013283824248754943
-0.018739525932675815   -0.05990124189904319   -0.0014569668145084512
-0.016694574759983538   -0.06994873739510095   -0.0016717779020182595
-0.024599683601220022   -0.05965099027594501   -0.0013223788387352242
-0.018739525932675815   -0.05990124189904319   -0.0014569668145084512
-0.02187940125759648   -0.0696447559520361   -0.0018673773309650448
0.004404670777039505   -0.0603291379512479   -0.0006862493890784758
0.005292515457045578   -0.049102751128253415   -0.0003492586532421598
-0.0015726627407331736   -0.06039025289557907   -0.0010078024318969205
0.004462350305132411   -0.060157826944861194   -0.0007835455688300813
0.005292515457045578   -0.049102751128253415   -0.0003492586532421598
-0.0013412126746336424   -0.04910108527414472   -0.0006474989909924722
-0.0015726627407331736   -0.06039025289557907   -0.0010078024318969205
-0.0014007426626623408   -0.04895842020569993   -0.0006517915956797512
0.004462350305132411   -0.060157826944861194   -0.0007835455688300813
-0.0016009278160542463   -0.060242785668769824   -0.001040719153027032
-0.0014007426626623408   -0.04895842020569993   -0.0006517915956797512
-0.0015726627407331736   -0.06039025289557907   -0.0010078024318969205
0.004462350305132411   -0.060157826944861194   -0.0007835455688300813
-0.0014007426626623408   -0.04895842020569993   -0.0006517915956797512
0.005272935201338127   -0.048938730882291795   -0.0003957518863007795
0.005292515457045578   -0.049102751128253415   -0.0003492586532421598
0.004462350305132411   -0.060157826944861194   -0.0007835455688300813
-0.0014007426626623408   -0.04895842020569993   -0.0006517915956797512
0.005292515457045578   -0.049102751128253415   -0.0003492586532421598
-0.0015726627407331736   -0.06039025289557907   -0.0010078024318969205
0.004462350305132411   -0.060157826944861194   -0.0007835455688300813
0.005272935201338127   -0.048938730882291795   -0.0003957518863007795
-0.0016009278160542463   -0.060242785668769824   -0.001040719153027032
0.004479675304128137   -0.06003281268680858   -0.0008684406262844456
0.005272935201338127   -0.048938730882291795   -0.0003957518863007795
-0.0014007426626623408   -0.04895842020569993   -0.0006517915956797512
-0.0016009278160542463   -0.060242785668769824   -0.001040719153027032
-0.001466887569839178   -0.048835493460870585   -0.000648637008022802
0.004479675304128137   -0.06003281268680858   -0.0008684406262844456
-0.0016306514616378168   -0.060125989027566495   -0.0010652288084035766
-0.001466887569839178   -0.048835493460870585   -0.000648637008022802
-0.0016009278160542463   -0.060242785668769824   -0.001040719153027032
0.004479675304128137   -0.06003281268680858   -0.0008684406262844456
-0.001466887569839178   -0.048835493460870585   -0.000648637008022802
0.005224863173438609   -0.04880658287814804   -0.0004303086399499401
0.005272935201338127   -0.048938730882291795   -0.0003957518863007795
0.004479675304128137   -0.06003281268680858   -0.0008684406262844456
-0.001466887569839178   -0.048835493460870585   -0.000648637008022802
0.005272935201338127   -0.048938730882291795   -0.0003957518863007795
-0.0016009278160542463   -0.060242785668769824   -0.001040719153027032
0.004479675304128137   -0.06003281268680858   -0.0008684406262844456
0.005224863173438609   -0.04880658287814804   -0.0004303086399499401
-0.0016306514616378168   -0.060125989027566495   -0.0010652288084035766
0.004489179907871637   -0.059932135408488824   -0.0009415204930843901
0.005224863173438609   -0.04880658287814804   -0.0004303086399499401
-0.001466887569839178   -0.048835493460870585   -0.000648637008022802
-0.0016306514616378168   -0.060125989027566495   -0.0010652288084035766
-0.001548915908423105   -0.04872913143372101   -0.0006377416365369535
0.004489179907871637   -0.059932135408488824   -0.0009415204930843901
-0.0016811319671382909   -0.06003620506642799   -0.0010816160792500194
-0.001548915908423105   -0.04872913143372101   -0.0006377416365369535
-0.0016306514616378168   -0.060125989027566495   -0.0010652288084035766
0.004489179907871637   -0.059932135408488824   -0.0009415204930843901
-0.001548915908423105   -0.04872913143372101   -0.0006377416365369535
0.005157813694436312   -0.0486848347707766   -0.00045376242539191307
0.005224863173438609   -0.04880658287814804   -0.0004303086399499401
0.004489179907871637   -0.059932135408488824   -0.0009415204930843901
-0.001548915908423105   -0.04872913143372101   -0.0006377416365369535
0.005224863173438609   -0.04880658287814804   -0.0004303086399499401
-0.0016306514616378168   -0.060125989027566495   -0.0010652288084035766
-0.0015726627407331736   -0.06039025289557907   -0.0010078024318969205
-0.0013412126746336424   -0.04910108527414472   -0.0006474989909924722
-0.007301741633905005   -0.06035862401051867   -0.0012727716607701027
-0.0016009278160542463   -0.060242785668769824   -0.001040719153027032
-0.0013412126746336424   -0.04910108527414472   -0.0006474989909924722
-0.007668414933464801   -0.04904105747147099   -0.0008938483898694334
-0.007301741633905005   -0.06035862401051867   -0.0012727716607701027
-0.007734969108914756   -0.048922542198027524   -0.0008679186931147798
-0.0016009278160542463   -0.060242785668769824   -0.001040719153027032
-0.007340839030246874   -0.060235311969711956   -0.0012573191587520879
-0.007734969108914756   -0.048922542198027524   -0.0008679186931147798
-0.007301741633905005   -0.06035862401051867   -0.0012727716607701027
-0.0016009278160542463   -0.060242785668769824   -0.001040719153027032
-0.007734969108914756   -0.048922542198027524   -0.0008679186931147798
-0.0014007426626623408   -0.04895842020569993   -0.0006517915956797512
-0.0013412126746336424   -0.04910108527414472   -0.0006474989909924722
-0.0016009278160542463   -0.060242785668769824   -0.001040719153027032
-0.007734969108914756   -0.048922542198027524   -0.0008679186931147798
-0.0013412126746336424   -0.04910108527414472   -0.0006474989909924722
-0.007301741633905005   -0.06035862401051867   -0.0012727716607701027
-0.0016009278160542463   -0.060242785668769824   -0.001040719153027032
-0.0014007426626623408   -0.04895842020569993   -0.0006517915956797512
-0.007340839030246874   -0.060235311969711956   -0.0012573191587520879
-0.0016306514616378168   -0.060125989027566495   -0.0010652288084035766
-0.0014007426626623408   -0.04895842020569993   -0.0006517915956797512
-0.007734969108914756   -0.048922542198027524   -0.0008679186931147798
-0.007340839030246874   -0.060235311969711956   -0.0012573191587520879
-0.007802857350025322   -0.04882009581394505   -0.0008342336041003522
-0.0016306514616378168   -0.060125989027566495   -0.0010652288084035766
-0.007380472372079478   -0.06013829287337648   -0.0012332136522177693
-0.007802857350025322   -0.04882009581394505   -0.0008342336041003522
-0.007340839030246874   -0.060235311969711956   -0.0012573191587520879
-0.0016306514616378168   -0.060125989027566495   -0.0010652288084035766
-0.007802857350025322   -0.04882009581394505   -0.0008342336041003522
-0.001466887569839178   -0.048835493460870585   -0.000648637008022802
-0.0014007426626623408   -0.04895842020569993   -0.0006517915956797512
-0.0016306514616378168   -0.060125989027566495   -0.0010652288084035766
-0.007802857350025322   -0.04882009581394505   -0.0008342336041003522
-0.0014007426626623408   -0.04895842020569993   -0.0006517915956797512
-0.007340839030246874   -0.060235311969711956   -0.0012573191587520879
-0.0016306514616378168   -0.060125989027566495   -0.0010652288084035766
-0.001466887569839178   -0.048835493460870585   -0.000648637008022802
-0.007380472372079478   -0.06013829287337648   -0.0012332136522177693
-0.0016811319671382909   -0.06003620506642799   -0.0010816160792500194
-0.001466887569839178   -0.048835493460870585   -0.000648637008022802
-0.007802857350025322   -0.04882009581394505   -0.0008342336041003522
-0.007380472372079478   -0.06013829287337648   -0.0012332136522177693
-0.007876475090277314   -0.048734679577956026   -0.0007931544381993659
-0.0016811319671382909   -0.06003620506642799   -0.0010816160792500194
-0.0074262609228529395   -0.06006801419349571   -0.0012008699557935253
-0.007876475090277314   -0.048734679577956026   -0.0007931544381993659
-0.007380472372079478   -0.06013829287337648   -0.0012332136522177693
-0.0016811319671382909   -0.06003620506642799   -0.0010816160792500194
-0.007876475090277314   -0.048734679577956026   -0.0007931544381993659
-0.001548915908423105   -0.04872913143372101   -0.0006377416365369535
-0.001466887569839178   -0.048835493460870585   -0.000648637008022802
-0.0016811319671382909   -0.06003620506642799   -0.0010816160792500194
-0.007876475090277314   -0.048734679577956026   -0.0007931544381993659
-0.001466887569839178   -0.048835493460870585   -0.000648637008022802
-0.007380472372079478   -0.06013829287337648   -0.0012332136522177693
-0.007301741633905005   -0.06035862401051867   -0.0012727716607701027
-0.007668414933464801   -0.04904105747147099   -0.0008938483898694334
-0.012933873323865279   -0.0602399416945166   -0.001499576974831197
-0.007340839030246874   -0.060235311969711956   -0.0012573191587520879
-0.007668414933464801   -0.04904105747147099   -0.0008938483898694334
-0.013888623589870554   -0.04892922175383241   -0.0011017945288728272
-0.012933873323865279   -0.0602399416945166   -0.001499576974831197
-0.0139571185614293   -0.04883298463889682   -0.001045690156110364
-0.007340839030246874   -0.060235311969711956   -0.0012573191587520879
-0.012976031649290428   -0.06013859290224833   -0.0014359844145882153
-0.0139571185614293   -0.04883298463889682   -0.001045690156110364
-0.012933873323865279   -0.0602399416945166   -0.001499576974831197
-0.007340839030246874   -0.060235311969711956   -0.0012573191587520879
-0.0139571185614293   -0.04883298463889682   -0.001045690156110364
-0.007734969108914756   -0.048922542198027524   -0.0008679186931147798
-0.007668414933464801   -0.04904105747147099   -0.0008938483898694334
-0.007340839030246874   -0.060235311969711956   -0.0012573191587520879
-0.0139571185614293   -0.04883298463889682   -0.001045690156110364
-0.007668414933464801   -0.04904105747147099   -0.0008938483898694334
-0.012933873323865279   -0.0602399416945166   -0.001499576974831197
-0.007340839030246874   -0.060235311969711956   -0.0012573191587520879
-0.007734969108914756   -0.048922542198027524   -0.0008679186931147798
-0.012976031649290428   -0.06013859290224833   -0.0014359844145882153
-0.007380472372079478   -0.06013829287337648   -0.0012332136522177693
-0.007734969108914756   -0.048922542198027524   -0.0008679186931147798
-0.0139571185614293   -0.04883298463889682   -0.001045690156110364
-0.012976031649290428   -0.06013859290224833   -0.0014359844145882153
-0.014019266980367718   -0.0487527027474335   -0.000982010393074311
-0.007380472372079478   -0.06013829287337648   -0.0012332136522177693
-0.013010976874100704   -0.06006328554377183   -0.0013638907497455382
-0.014019266980367718   -0.0487527027474335   -0.000982010393074311
-0.012976031649290428   -0.06013859290224833   -0.0014359844145882153
-0.007380472372079478   -0.06013829287337648   -0.0012332136522177693
-0.014019266980367718   -0.0487527027474335   -0.000982010393074311
-0.007802857350025322   -0.04882009581394505   -0.0008342336041003522
-0.007734969108914756   -0.048922542198027524   -0.0008679186931147798
-0.007380472372079478   -0.06013829287337648   -0.0012332136522177693
-0.014019266980367718   -0.0487527027474335   -0.000982010393074311
-0.007734969108914756   -0.048922542198027524   -0.0008679186931147798
-0.012976031649290428   -0.06013859290224833   -0.0014359844145882153
-0.007380472372079478   -0.06013829287337648   -0.0012332136522177693
-0.007802857350025322   -0.04882009581394505   -0.0008342336041003522
-0.013010976874100704   -0.06006328554377183   -0.0013638907497455382
-0.0074262609228529395   -0.06006801419349571   -0.0012008699557935253
-0.007802857350025322   -0.04882009581394505   -0.0008342336041003522
-0.014019266980367718   -0.0487527027474335   -0.000982010393074311
-0.013010976874100704   -0.06006328554377183   -0.0013638907497455382
-0.014082003187245317   -0.04868851330511454   -0.0009110449798124573
-0.0074262609228529395   -0.06006801419349571   -0.0012008699557935253
-0.01304693267985409   -0.06001391140162999   -0.0012835470220657935
-0.014082003187245317   -0.04868851330511454   -0.0009110449798124573
-0.013010976874100704   -0.06006328554377183   -0.0013638907497455382
-0.0074262609228529395   -0.06006801419349571   -0.0012008699557935253
-0.014082003187245317   -0.04868851330511454   -0.0009110449798124573
-0.007876475090277314   -0.048734679577956026   -0.0007931544381993659
-0.007802857350025322   -0.04882009581394505   -0.0008342336041003522
-0.0074262609228529395   -0.06006801419349571   -0.0012008699557935253
-0.014082003187245317   -0.04868851330511454   -0.0009110449798124573
-0.007802857350025322   -0.04882009581394505   -0.0008342336041003522
-0.013010976874100704   -0.06006328554377183   -0.0013638907497455382
-0.012933873323865279   -0.0602399416945166   -0.001499576974831197
-0.013888623589870554   -0.04892922175383241   -0.0011017945288728272
-0.01869997847353424   -0.06003658109374501   -0.0016890625267366737
-0.012976031649290428   -0.06013859290224833   -0.0014359844145882153
-0.013888623589870554   -0.04892922175383241   -0.0011017945288728272
-0.020231979419884104   -0.04876319566145381   -0.001271790777359671
-0.01869997847353424   -0.06003658109374501   -0.0016890625267366737
-0.020295599119855654   -0.04868943238007854   -0.0011852822925494247
-0.012976031649290428   -0.06013859290224833   -0.0014359844145882153
-0.018734900694285146   -0.0599566979638326   -0.0015766768555910556
-0.020295599119855654   -0.04868943238007854   -0.0011852822925494247
-0.01869997847353424   -0.06003658109374501   -0.0016890625267366737
-0.012976031649290428   -0.06013859290224833   -0.0014359844145882153
-0.020295599119855654   -0.04868943238007854   -0.0011852822925494247
-0.0139571185614293   -0.04883298463889682   -0.001045690156110364
-0.013888623589870554   -0.04892922175383241   -0.0011017945288728272
-0.012976031649290428   -0.06013859290224833   -0.0014359844145882153
-0.020295599119855654   -0.04868943238007854   -0.0011852822925494247
-0.013888623589870554   -0.04892922175383241   -0.0011017945288728272
-0.01869997847353424   -0.06003658109374501   -0.0016890625267366737
-0.012976031649290428   -0.06013859290224833   -0.0014359844145882153
-0.0139571185614293   -0.04883298463889682   -0.001045690156110364
-0.018734900694285146   -0.0599566979638326   -0.0015766768555910556
-0.013010976874100704   -0.06006328554377183   -0.0013638907497455382
-0.0139571185614293   -0.04883298463889682   -0.001045690156110364
-0.020295599119855654   -0.04868943238007854   -0.0011852822925494247
-0.018734900694285146   -0.0599566979638326   -0.0015766768555910556
-0.020334221014395117   -0.04862957279772843   -0.0010922226306319003
-0.013010976874100704   -0.06006328554377183   -0.0013638907497455382
-0.018739525932675815   -0.05990124189904319   -0.0014569668145084512
-0.020334221014395117   -0.04862957279772843   -0.0010922226306319003
-0.018734900694285146   -0.0599566979638326   -0.0015766768555910556
-0.013010976874100704   -0.06006328554377183   -0.0013638907497455382
-0.020334221014395117   -0.04862957279772843   -0.0010922226306319003
-0.014019266980367718   -0.0487527027474335   -0.000982010393074311
-0.0139571185614293   -0.04883298463889682   -0.001045690156110364
-0.013010976874100704   -0.06006328554377183   -0.0013638907497455382
-0.020334221014395117   -0.04862957279772843   -0.0010922226306319003
-0.0139571185614293   -0.04883298463889682   -0.001045690156110364
-0.018734900694285146   -0.0599566979638326   -0.0015766768555910556
-0.013010976874100704   -0.06006328554377183   -0.0013638907497455382
-0.014019266980367718   -0.0487527027474335   -0.000982010393074311
-0.018739525932675815   -0.05990124189904319   -0.0014569668145084512
-0.01304693267985409   -0.06001391140162999   -0.0012835470220657935
-0.014019266980367718   -0.0487527027474335   -0.000982010393074311
-0.020334221014395117   -0.04862957279772843   -0.0010922226306319003
-0.018739525932675815   -0.05990124189904319   -0.0014569668145084512
-0.020376597765327145   -0.0485871971328762   -0.0009912562925550982
-0.01304693267985409   -0.06001391140162999   -0.0012835470220657935
-0.018752715763496002   -0.05987404825732327   -0.0013283824248754943
-0.020376597765327145   -0.0485871971328762   -0.0009912562925550982
-0.018739525932675815   -0.05990124189904319   -0.0014569668145084512
-0.01304693267985409   -0.06001391140162999   -0.0012835470220657935
-0.020376597765327145   -0.0485871971328762   -0.0009912562925550982
-0.014082003187245317   -0.04868851330511454   -0.0009110449798124573
-0.014019266980367718   -0.0487527027474335   -0.000982010393074311
-0.01304693267985409   -0.06001391140162999   -0.0012835470220657935
-0.020376597765327145   -0.0485871971328762   -0.0009912562925550982
-0.014019266980367718   -0.0487527027474335   -0.000982010393074311
-0.018739525932675815   -0.05990124189904319   -0.0014569668145084512
-0.01869997847353424   -0.06003658109374501   -0.0016890625267366737
-0.020231979419884104   -0.04876319566145381   -0.001271790777359671
-0.024987562302448797   -0.05976999295646672   -0.0018509192354325109
-0.018734900694285146   -0.0599566979638326   -0.0015766768555910556
-0.020231979419884104   -0.04876319566145381   -0.001271790777359671
-0.027039607831792767   -0.04855910033477969   -0.0014070252921394655
-0.024987562302448797   -0.05976999295646672   -0.0018509192354325109
-0.026993295933391476   -0.048496874946278565   -0.0012918708319604032
-0.018734900694285146   -0.0599566979638326   -0.0015766768555910556
-0.024867705843489813   -0.05969702470129924   -0.0016869925869425317
-0.026993295933391476   -0.048496874946278565   -0.0012918708319604032
-0.024987562302448797   -0.05976999295646672   -0.0018509192354325109
-0.018734900694285146   -0.0599566979638326   -0.0015766768555910556
-0.026993295933391476   -0.048496874946278565   -0.0012918708319604032
-0.020295599119855654   -0.04868943238007854   -0.0011852822925494247
-0.020231979419884104   -0.04876319566145381   -0.001271790777359671
-0.018734900694285146   -0.0599566979638326   -0.0015766768555910556
-0.026993295933391476   -0.048496874946278565   -0.0012918708319604032
-0.020231979419884104   -0.04876319566145381   -0.001271790777359671
-0.024987562302448797   -0.05976999295646672   -0.0018509192354325109
-0.018734900694285146   -0.0599566979638326   -0.0015766768555910556
-0.020295599119855654   -0.04868943238007854   -0.0011852822925494247
-0.024867705843489813   -0.05969702470129924   -0.0016869925869425317
-0.018739525932675815   -0.05990124189904319   -0.0014569668145084512
-0.020295599119855654   -0.04868943238007854   -0.0011852822925494247
-0.026993295933391476   -0.048496874946278565   -0.0012918708319604032
-0.024867705843489813   -0.05969702470129924   -0.0016869925869425317
-0.026955562561531764   -0.04844663431001272   -0.0011646956649416485
-0.018739525932675815   -0.05990124189904319   -0.0014569668145084512
-0.024766627734186704   -0.059649981816178206   -0.0015102815835108113
-0.026955562561531764   -0.04844663431001272   -0.0011646956649416485
-0.024867705843489813   -0.05969702470129924   -0.0016869925869425317
-0.018739525932675815   -0.05990124189904319   -0.0014569668145084512
-0.026955562561531764   -0.04844663431001272   -0.0011646956649416485
-0.020334221014395117   -0.04862957279772843   -0.0010922226306319003
-0.020295599119855654   -0.04868943238007854   -0.0011852822925494247
-0.018739525932675815   -0.05990124189904319   -0.0014569668145084512
-0.026955562561531764   -0.04844663431001272   -0.0011646956649416485
-0.020295599119855654   -0.04868943238007854   -0.0011852822925494247
-0.024867705843489813   -0.05969702470129924   -0.0016869925869425317
-0.018739525932675815   -0.05990124189904319   -0.0014569668145084512
-0.020334221014395117   -0.04862957279772843   -0.0010922226306319003
-0.024766627734186704   -0.059649981816178206   -0.0015102815835108113
-0.018752715763496002   -0.05987404825732327   -0.0013283824248754943
-0.020334221014395117   -0.04862957279772843   -0.0010922226306319003
-0.026955562561531764   -0.04844663431001272   -0.0011646956649416485
-0.024766627734186704   -0.059649981816178206   -0.0015102815835108113
-0.026864458482307802   -0.048430386644337374   -0.0010268714886903793
-0.018752715763496002   -0.05987404825732327   -0.0013283824248754943
-0.024599683601220022   -0.05965099027594501   -0.0013223788387352242
-0.026864458482307802   -0.048430386644337374   -0.0010268714886903793
-0.024766627734186704   -0.059649981816178206   -0.0015102815835108113
-0.018752715763496002   -0.05987404825732327   -0.0013283824248754943
-0.026864458482307802   -0.048430386644337374   -0.0010268714886903793
-0.020376597765327145   -0.0485871971328762   -0.0009912562925550982
-0.020334221014395117   -0.04862957279772843   -0.0010922226306319003
-0.018752715763496002   -0.05987404825732327   -0.0013283824248754943
-0.026864458482307802   -0.048430386644337374   -0.0010268714886903793
-0.020334221014395117   -0.04862957279772843   -0.0010922226306319003
-0.024766627734186704   -0.059649981816178206   -0.0015102815835108113
0.005292515457045578   -0.049102751128253415   -0.0003492586532421598
0.005467124622427116   -0.037104273536241475   -5.406471910844742e-05
-0.0013412126746336424   -0.04910108527414472   -0.0006474989909924722
0.005272935201338127   -0.048938730882291795   -0.0003957518863007795
0.005467124622427116   -0.037104273536241475   -5.406471910844742e-05
-0.0015412154898807714   -0.03704238173310054   -0.00032232148744062034
-0.0013412126746336424   -0.04910108527414472   -0.0006474989909924722
-0.0016228374395472218   -0.03690580428388897   -0.0002980246212133403
0.005272935201338127   -0.048938730882291795   -0.0003957518863007795
-0.0014007426626623408   -0.04895842020569993   -0.0006517915956797512
-0.0016228374395472218   -0.03690580428388897   -0.0002980246212133403
-0.0013412126746336424   -0.04910108527414472   -0.0006474989909924722
0.005272935201338127   -0.048938730882291795   -0.0003957518863007795
-0.0016228374395472218   -0.03690580428388897   -0.0002980246212133403
0.005380268128451713   -0.0369477764942562   -4.89108985253076e-05
0.005467124622427116   -0.037104273536241475   -5.406471910844742e-05
0.005272935201338127   -0.048938730882291795   -0.0003957518863007795
-0.0016228374395472218   -0.03690580428388897   -0.0002980246212133403
0.005467124622427116   -0.037104273536241475   -5.406471910844742e-05
-0.0013412126746336424   -0.04910108527414472   -0.0006474989909924722
0.005272935201338127   -0.048938730882291795   -0.0003957518863007795
0.005380268128451713   -0.0369477764942562   -4.89108985253076e-05
-0.0014007426626623408   -0.04895842020569993   -0.0006517915956797512
0.005224863173438609   -0.04880658287814804   -0.0004303086399499401
0.005380268128451713   -0.0369477764942562   -4.89108985253076e-05
-0.0016228374395472218   -0.03690580428388897   -0.0002980246212133403
-0.0014007426626623408   -0.04895842020569993   -0.0006517915956797512
-0.0017162644550831388   -0.036776802937096474   -0.00026698194053912874
0.005224863173438609   -0.04880658287814804   -0.0004303086399499401
-0.001466887569839178   -0.048835493460870585   -0.000648637008022802
-0.0017162644550831388   -0.036776802937096474   -0.00026698194053912874
-0.0014007426626623408   -0.04895842020569993   -0.0006517915956797512
0.005224863173438609   -0.04880658287814804   -0.0004303086399499401
-0.0017162644550831388   -0.036776802937096474   -0.00026698194053912874
0.005273839792180005   -0.036807790252826295   -2.996877446595627e-05
0.005380268128451713   -0.0369477764942562   -4.89108985253076e-05
0.005224863173438609   -0.04880658287814804   -0.0004303086399499401
-0.0017162644550831388   -0.036776802937096474   -0.00026698194053912874
0.005380268128451713   -0.0369477764942562   -4.89108985253076e-05
-0.0014007426626623408   -0.04895842020569993   -0.0006517915956797512
0.005224863173438609   -0.04880658287814804   -0.0004303086399499401
0.005273839792180005   -0.036807790252826295   -2.996877446595627e-05
-0.001466887569839178   -0.048835493460870585   -0.000648637008022802
0.005157813694436312   -0.0486848347707766   -0.00045376242539191307
0.005273839792180005   -0.036807790252826295   -2.996877446595627e-05
-0.0017162644550831388   -0.036776802937096474   -0.00026698194053912874
-0.001466887569839178   -0.048835493460870585   -0.000648637008022802
-0.0018210796680812123   -0.036653617127637886   -0.00022750151187773935
0.005157813694436312   -0.0486848347707766   -0.00045376242539191307
-0.001548915908423105   -0.04872913143372101   -0.0006377416365369535
-0.0018210796680812123   -0.036653617127637886   -0.00022750151187773935
-0.001466887569839178   -0.048835493460870585   -0.000648637008022802
0.005157813694436312   -0.0486848347707766   -0.00045376242539191307
-0.0018210796680812123   -0.036653617127637886   -0.00022750151187773935
0.00513359607839678   -0.03666128668900812   2.1362427141230706e-06
0.005273839792180005   -0.036807790252826295   -2.996877446595627e-05
0.005157813694436312   -0.0486848347707766   -0.00045376242539191307
-0.0018210796680812123   -0.036653617127637886   -0.00022750151187773935
0.005273839792180005   -0.036807790252826295   -2.996877446595627e-05
-0.001466887569839178   -0.048835493460870585   -0.000648637008022802
-0.0013412126746336424   -0.04910108527414472   -0.0006474989909924722
-0.0015412154898807714   -0.03704238173310054   -0.00032232148744062034
-0.007668414933464801   -0.04904105747147099   -0.0008938483898694334
-0.0014007426626623408   -0.04895842020569993   -0.0006517915956797512
-0.0015412154898807714   -0.03704238173310054   -0.00032232148744062034
-0.00818203834693932   -0.03697050939189883   -0.0005495536411229883
-0.007668414933464801   -0.04904105747147099   -0.0008938483898694334
-0.008265235346143027   -0.036856187752580406   -0.0005124963297079654
-0.0014007426626623408   -0.04895842020569993   -0.0006517915956797512
-0.007734969108914756   -0.048922542198027524   -0.0008679186931147798
-0.008265235346143027   -0.036856187752580406   -0.0005124963297079654
-0.007668414933464801   -0.04904105747147099   -0.0008938483898694334
-0.0014007426626623408   -0.04895842020569993   -0.0006517915956797512
-0.008265235346143027   -0.036856187752580406   -0.0005124963297079654
-0.0016228374395472218   -0.03690580428388897   -0.0002980246212133403
-0.0015412154898807714   -0.03704238173310054   -0.00032232148744062034
-0.0014007426626623408   -0.04895842020569993   -0.0006517915956797512
-0.008265235346143027   -0.036856187752580406   -0.0005124963297079654
-0.0015412154898807714   -0.03704238173310054   -0.00032232148744062034
-0.007668414933464801   -0.04904105747147099   -0.0008938483898694334
-0.0014007426626623408   -0.04895842020569993   -0.0006517915956797512
-0.0016228374395472218   -0.03690580428388897   -0.0002980246212133403
-0.007734969108914756   -0.048922542198027524   -0.0008679186931147798
-0.001466887569839178   -0.048835493460870585   -0.000648637008022802
-0.0016228374395472218   -0.03690580428388897   -0.0002980246212133403
-0.008265235346143027   -0.036856187752580406   -0.0005124963297079654
-0.007734969108914756   -0.048922542198027524   -0.0008679186931147798
-0.008350287144321853   -0.03674774897175714   -0.0004690144319378444
-0.001466887569839178   -0.048835493460870585   -0.000648637008022802
-0.007802857350025322   -0.04882009581394505   -0.0008342336041003522
-0.008350287144321853   -0.03674774897175714   -0.0004690144319378444
-0.007734969108914756   -0.048922542198027524   -0.0008679186931147798
-0.001466887569839178   -0.048835493460870585   -0.000648637008022802
-0.008350287144321853   -0.03674774897175714   -0.0004690144319378444
-0.0017162644550831388   -0.036776802937096474   -0.00026698194053912874
-0.0016228374395472218   -0.03690580428388897   -0.0002980246212133403
-0.001466887569839178   -0.048835493460870585   -0.000648637008022802
-0.008350287144321853   -0.03674774897175714   -0.0004690144319378444
-0.0016228374395472218   -0.03690580428388897   -0.0002980246212133403
-0.007734969108914756   -0.048922542198027524   -0.0008679186931147798
-0.001466887569839178   -0.048835493460870585   -0.000648637008022802
-0.0017162644550831388   -0.036776802937096474   -0.00026698194053912874
-0.007802857350025322   -0.04882009581394505   -0.0008342336041003522
-0.001548915908423105   -0.04872913143372101   -0.0006377416365369535
-0.0017162644550831388   -0.036776802937096474   -0.00026698194053912874
-0.008350287144321853   -0.03674774897175714   -0.0004690144319378444
-0.007802857350025322   -0.04882009581394505   -0.0008342336041003522
-0.008440734600895616   -0.036646859825839456   -0.0004190353872282386
-0.001548915908423105   -0.04872913143372101   -0.0006377416365369535
-0.007876475090277314   -0.048734679577956026   -0.0007931544381993659
-0.008440734600895616   -0.036646859825839456   -0.0004190353872282386
-0.007802857350025322   -0.04882009581394505   -0.0008342336041003522
-0.001548915908423105   -0.04872913143372101   -0.0006377416365369535
-0.008440734600895616   -0.036646859825839456   -0.0004190353872282386
-0.0018210796680812123   -0.036653617127637886   -0.00022750151187773935
-0.0017162644550831388   -0.036776802937096474   -0.00026698194053912874
-0.001548915908423105   -0.04872913143372101   -0.0006377416365369535
-0.008440734600895616   -0.036646859825839456   -0.0004190353872282386
-0.0017162644550831388   -0.036776802937096474   -0.00026698194053912874
-0.007802857350025322   -0.04882009581394505   -0.0008342336041003522
-0.007668414933464801   -0.04904105747147099   -0.0008938483898694334
-0.00818203834693932   -0.03697050939189883   -0.0005495536411229883
-0.013888623589870554   -0.04892922175383241   -0.0011017945288728272
-0.007734969108914756   -0.048922542198027524   -0.0008679186931147798
-0.00818203834693932   -0.03697050939189883   -0.0005495536411229883
-0.014714964001654854   -0.036884441763397925   -0.0007426530532177422
-0.013888623589870554   -0.04892922175383241   -0.0011017945288728272
-0.014797532720964205   -0.03679075910445459   -0.0006928339271578608
-0.007734969108914756   -0.048922542198027524   -0.0008679186931147798
-0.0139571185614293   -0.04883298463889682   -0.001045690156110364
-0.014797532720964205   -0.03679075910445459   -0.0006928339271578608
-0.013888623589870554   -0.04892922175383241   -0.0011017945288728272
-0.007734969108914756   -0.048922542198027524   -0.0008679186931147798
-0.014797532720964205   -0.03679075910445459   -0.0006928339271578608
-0.008265235346143027   -0.036856187752580406   -0.0005124963297079654
-0.00818203834693932   -0.03697050939189883   -0.0005495536411229883
-0.007734969108914756   -0.048922542198027524   -0.0008679186931147798
-0.014797532720964205   -0.03679075910445459   -0.0006928339271578608
-0.00818203834693932   -0.03697050939189883   -0.0005495536411229883
-0.013888623589870554   -0.04892922175383241   -0.0011017945288728272
-0.007734969108914756   -0.048922542198027524   -0.0008679186931147798
-0.008265235346143027   -0.036856187752580406   -0.0005124963297079654
-0.0139571185614293   -0.04883298463889682   -0.001045690156110364
-0.007802857350025322   -0.04882009581394505   -0.0008342336041003522
-0.008265235346143027   -0.036856187752580406   -0.0005124963297079654
-0.014797532720964205   -0.03679075910445459   -0.0006928339271578608
-0.0139571185614293   -0.04883298463889682   -0.001045690156110364
-0.014874766694343327   -0.03670329821937549   -0.0006368100710507574
-0.007802857350025322   -0.04882009581394505   -0.0008342336041003522
-0.014019266980367718   -0.0487527027474335   -0.000982010393074311
-0.014874766694343327   -0.03670329821937549   -0.0006368100710507574
-0.0139571185614293   -0.04883298463889682   -0.001045690156110364
-0.007802857350025322   -0.04882009581394505   -0.0008342336041003522
-0.014874766694343327   -0.03670329821937549   -0.0006368100710507574
-0.008350287144321853   -0.03674774897175714   -0.0004690144319378444
-0.008265235346143027   -0.036856187752580406   -0.0005124963297079654
-0.007802857350025322   -0.04882009581394505   -0.0008342336041003522
-0.014874766694343327   -0.03670329821937549   -0.0006368100710507574
-0.008265235346143027   -0.036856187752580406   -0.0005124963297079654
-0.0139571185614293   -0.04883298463889682   -0.001045690156110364
-0.007802857350025322   -0.04882009581394505   -0.0008342336041003522
-0.008350287144321853   -0.03674774897175714   -0.0004690144319378444
-0.014019266980367718   -0.0487527027474335   -0.000982010393074311
-0.007876475090277314   -0.048734679577956026   -0.0007931544381993659
-0.008350287144321853   -0.03674774897175714   -0.0004690144319378444
-0.014874766694343327   -0.03670329821937549   -0.0006368100710507574
-0.014019266980367718   -0.0487527027474335   -0.000982010393074311
-0.014952276686408405   -0.036622303380997   -0.0005748897443492905
-0.007876475090277314   -0.048734679577956026   -0.0007931544381993659
-0.014082003187245317   -0.04868851330511454   -0.0009110449798124573
-0.014952276686408405   -0.036622303380997   -0.0005748897443492905
-0.014019266980367718   -0.0487527027474335   -0.000982010393074311
-0.007876475090277314   -0.048734679577956026   -0.0007931544381993659
-0.014952276686408405   -0.036622303380997   -0.0005748897443492905
-0.008440734600895616   -0.036646859825839456   -0.0004190353872282386
-0.008350287144321853   -0.03674774897175714   -0.0004690144319378444
-0.007876475090277314   -0.048734679577956026   -0.0007931544381993659
-0.014952276686408405   -0.036622303380997   -0.0005748897443492905
-0.008350287144321853   -0.03674774897175714   -0.0004690144319378444
-0.014019266980367718   -0.0487527027474335   -0.000982010393074311
-0.013888623589870554   -0.04892922175383241   -0.0011017945288728272
-0.014714964001654854   -0.036884441763397925   -0.0007426530532177422
-0.020231979419884104   -0.04876319566145381   -0.001271790777359671
-0.0139571185614293   -0.04883298463889682   -0.001045690156110364
-0.014714964001654854   -0.036884441763397925   -0.0007426530532177422
-0.02136580782168359   -0.03676816548690006   -0.0008999714105402723
-0.020231979419884104   -0.04876319566145381   -0.001271790777359671
-0.021444887389658576   -0.03669619855024671   -0.0008375416260292505
-0.0139571185614293   -0.04883298463889682   -0.001045690156110364
-0.020295599119855654   -0.04868943238007854   -0.0011852822925494247
-0.021444887389658576   -0.03669619855024671   -0.0008375416260292505
-0.020231979419884104   -0.04876319566145381   -0.001271790777359671
-0.0139571185614293   -0.04883298463889682   -0.001045690156110364
-0.021444887389658576   -0.03669619855024671   -0.0008375416260292505
-0.014797532720964205   -0.03679075910445459   -0.0006928339271578608
-0.014714964001654854   -0.036884441763397925   -0.0007426530532177422
-0.0139571185614293   -0.04883298463889682   -0.001045690156110364
-0.021444887389658576   -0.03669619855024671   -0.0008375416260292505
-0.014714964001654854   -0.036884441763397925   -0.0007426530532177422
-0.020231979419884104   -0.04876319566145381   -0.001271790777359671
-0.0139571185614293   -0.04883298463889682   -0.001045690156110364
-0.014797532720964205   -0.03679075910445459   -0.0006928339271578608
-0.020295599119855654   -0.04868943238007854   -0.0011852822925494247
-0.014019266980367718   -0.0487527027474335   -0.000982010393074311
-0.014797532720964205   -0.03679075910445459   -0.0006928339271578608
-0.021444887389658576   -0.03669619855024671   -0.0008375416260292505
-0.020295599119855654   -0.04868943238007854   -0.0011852822925494247
-0.021504897853581548   -0.03662804885468619   -0.0007699354740513496
-0.014019266980367718   -0.0487527027474335   -0.000982010393074311
-0.020334221014395117   -0.04862957279772843   -0.0010922226306319003
-0.021504897853581548   -0.03662804885468619   -0.0007699354740513496
-0.020295599119855654   -0.04868943238007854   -0.0011852822925494247
-0.014019266980367718   -0.0487527027474335   -0.000982010393074311
-0.021504897853581548   -0.03662804885468619   -0.0007699354740513496
-0.014874766694343327   -0.03670329821937549   -0.0006368100710507574
-0.014797532720964205   -0.03679075910445459   -0.0006928339271578608
-0.014019266980367718   -0.0487527027474335   -0.000982010393074311
-0.021504897853581548   -0.03662804885468619   -0.0007699354740513496
-0.014797532720964205   -0.03679075910445459   -0.0006928339271578608
-0.020295599119855654   -0.04868943238007854   -0.0011852822925494247
-0.014019266980367718   -0.0487527027474335   -0.000982010393074311
-0.014874766694343327   -0.03670329821937549   -0.0006368100710507574
-0.020334221014395117   -0.04862957279772843   -0.0010922226306319003
-0.014082003187245317   -0.04868851330511454   -0.0009110449798124573
-0.014874766694343327   -0.03670329821937549   -0.0006368100710507574
-0.021504897853581548   -0.03662804885468619   -0.0007699354740513496
-0.020334221014395117   -0.04862957279772843   -0.0010922226306319003
-0.021564426743881794   -0.036566718031996376   -0.0006957985910183534
-0.014082003187245317   -0.04868851330511454   -0.0009110449798124573
-0.020376597765327145   -0.0485871971328762   -0.0009912562925550982
-0.021564426743881794   -0.036566718031996376   -0.0006957985910183534
-0.020334221014395117   -0.04862957279772843   -0.0010922226306319003
-0.014082003187245317   -0.04868851330511454   -0.0009110449798124573
-0.021564426743881794   -0.036566718031996376   -0.0006957985910183534
-0.014952276686408405   -0.036622303380997   -0.0005748897443492905
-0.014874766694343327   -0.03670329821937549   -0.0006368100710507574
-0.014082003187245317   -0.04868851330511454   -0.0009110449798124573
-0.021564426743881794   -0.036566718031996376   -0.0006957985910183534
-0.014874766694343327   -0.03670329821937549   -0.0006368100710507574
-0.020334221014395117   -0.04862957279772843   -0.0010922226306319003
-0.020231979419884104   -0.04876319566145381   -0.001271790777359671
-0.02136580782168359   -0.03676816548690006   -0.0008999714105402723
-0.027039607831792767   -0.04855910033477969   -0.0014070252921394655
-0.020295599119855654   -0.04868943238007854   -0.0011852822925494247
-0.02136580782168359   -0.03676816548690006   -0.0008999714105402723
-0.02841419712746687   -0.03663092524591765   -0.0010168588645016639
-0.027039607831792767   -0.04855910033477969   -0.0014070252921394655
-0.02842662980054916   -0.036573410630323384   -0.0009479961407459803
-0.020295599119855654   -0.04868943238007854   -0.0011852822925494247
-0.026993295933391476   -0.048496874946278565   -0.0012918708319604032
-0.02842662980054916   -0.036573410630323384   -0.0009479961407459803
-0.027039607831792767   -0.04855910033477969   -0.0014070252921394655
-0.020295599119855654   -0.04868943238007854   -0.0011852822925494247
-0.02842662980054916   -0.036573410630323384   -0.0009479961407459803
-0.021444887389658576   -0.03669619855024671   -0.0008375416260292505
-0.02136580782168359   -0.03676816548690006   -0.0008999714105402723
-0.020295599119855654   -0.04868943238007854   -0.0011852822925494247
-0.02842662980054916   -0.036573410630323384   -0.0009479961407459803
-0.02136580782168359   -0.03676816548690006   -0.0008999714105402723
-0.027039607831792767   -0.04855910033477969   -0.0014070252921394655
-0.020295599119855654   -0.04868943238007854   -0.0011852822925494247
-0.021444887389658576   -0.03669619855024671   -0.0008375416260292505
-0.026993295933391476   -0.048496874946278565   -0.0012918708319604032
-0.020334221014395117   -0.04862957279772843   -0.0010922226306319003
-0.021444887389658576   -0.03669619855024671   -0.0008375416260292505
-0.02842662980054916   -0.036573410630323384   -0.0009479961407459803
-0.026993295933391476   -0.048496874946278565   -0.0012918708319604032
-0.02843934912064308   -0.03651517805449715   -0.0008687061243533922
-0.020334221014395117   -0.04862957279772843   -0.0010922226306319003
-0.026955562561531764   -0.04844663431001272   -0.0011646956649416485
-0.02843934912064308   -0.03651517805449715   -0.0008687061243533922
-0.026993295933391476   -0.048496874946278565   -0.0012918708319604032
-0.020334221014395117   -0.04862957279772843   -0.0010922226306319003
-0.02843934912064308   -0.03651517805449715   -0.0008687061243533922
-0.021504897853581548   -0.03662804885468619   -0.0007699354740513496
-0.021444887389658576   -0.03669619855024671   -0.0008375416260292505
-0.020334221014395117   -0.04862957279772843   -0.0010922226306319003
-0.02843934912064308   -0.03651517805449715   -0.0008687061243533922
-0.021444887389658576   -0.03669619855024671   -0.0008375416260292505
-0.026993295933391476   -0.048496874946278565   -0.0012918708319604032
-0.020334221014395117   -0.04862957279772843   -0.0010922226306319003
-0.021504897853581548   -0.03662804885468619   -0.0007699354740513496
-0.026955562561531764   -0.04844663431001272   -0.0011646956649416485
-0.020376597765327145   -0.0485871971328762   -0.0009912562925550982
-0.021504897853581548   -0.03662804885468619   -0.0007699354740513496
-0.02843934912064308   -0.03651517805449715   -0.0008687061243533922
-0.026955562561531764   -0.04844663431001272   -0.0011646956649416485
-0.028412527957954875   -0.03647657873123901   -0.0007802287512378337
-0.020376597765327145   -0.0485871971328762   -0.0009912562925550982
-0.026864458482307802   -0.048430386644337374   -0.0010268714886903793
-0.028412527957954875   -0.03647657873123901   -0.0007802287512378337
-0.026955562561531764   -0.04844663431001272   -0.0011646956649416485
-0.020376597765327145   -0.0485871971328762   -0.0009912562925550982
-0.028412527957954875   -0.03647657873123901   -0.0007802287512378337
-0.021564426743881794   -0.036566718031996376   -0.0006957985910183534
-0.021504897853581548   -0.03662804885468619   -0.0007699354740513496
-0.020376597765327145   -0.0485871971328762   -0.0009912562925550982
-0.028412527957954875   -0.03647657873123901   -0.0007802287512378337
-0.021504897853581548   -0.03662804885468619   -0.0007699354740513496
-0.026955562561531764   -0.04844663431001272   -0.0011646956649416485
0.005467124622427116   -0.037104273536241475   -5.406471910844742e-05
0.004898160975422913   -0.024752558014291985   0.00014964533836760822
-0.0015412154898807714   -0.03704238173310054   -0.00032232148744062034
0.005380268128451713   -0.0369477764942562   -4.89108985253076e-05
0.004898160975422913   -0.024752558014291985   0.00014964533836760822
-0.002160706289264313   -0.02463595540884877   -6.37521335381402e-05
-0.0015412154898807714   -0.03704238173310054   -0.00032232148744062034
-0.002258123530576722   -0.024512254838788897   -1.3174129064898212e-05
0.005380268128451713   -0.0369477764942562   -4.89108985253076e-05
-0.0016228374395472218   -0.03690580428388897   -0.0002980246212133403
-0.002258123530576722   -0.024512254838788897   -1.3174129064898212e-05
-0.0015412154898807714   -0.03704238173310054   -0.00032232148744062034
0.005380268128451713   -0.0369477764942562   -4.89108985253076e-05
-0.002258123530576722   -0.024512254838788897   -1.3174129064898212e-05
0.004744562140394086   -0.02460341192025593   0.00021273479612377925
0.004898160975422913   -0.024752558014291985   0.00014964533836760822
0.005380268128451713   -0.0369477764942562   -4.89108985253076e-05
-0.002258123530576722   -0.024512254838788897   -1.3174129064898212e-05
0.004898160975422913   -0.024752558014291985   0.00014964533836760822
-0.0015412154898807714   -0.03704238173310054   -0.00032232148744062034
0.005380268128451713   -0.0369477764942562   -4.89108985253076e-05
0.004744562140394086   -0.02460341192025593   0.00021273479612377925
-0.0016228374395472218   -0.03690580428388897   -0.0002980246212133403
0.005273839792180005   -0.036807790252826295   -2.996877446595627e-05
0.004744562140394086   -0.02460341192025593   0.00021273479612377925
-0.002258123530576722   -0.024512254838788897   -1.3174129064898212e-05
-0.0016228374395472218   -0.03690580428388897   -0.0002980246212133403
-0.0023720565264648227   -0.024381664368411028   4.638009578251099e-05
0.005273839792180005   -0.036807790252826295   -2.996877446595627e-05
-0.0017162644550831388   -0.036776802937096474   -0.00026698194053912874
-0.0023720565264648227   -0.024381664368411028   4.638009578251099e-05
-0.0016228374395472218   -0.03690580428388897   -0.0002980246212133403
0.005273839792180005   -0.036807790252826295   -2.996877446595627e-05
-0.0023720565264648227   -0.024381664368411028   4.638009578251099e-05
0.004573252295020994   -0.024455207668145344   0.00030322748557383097
0.004744562140394086   -0.02460341192025593   0.00021273479612377925
0.005273839792180005   -0.036807790252826295   -2.996877446595627e-05
-0.0023720565264648227   -0.024381664368411028   4.638009578251099e-05
0.004744562140394086   -0.02460341192025593   0.00021273479612377925
-0.0016228374395472218   -0.03690580428388897   -0.0002980246212133403
0.005273839792180005   -0.036807790252826295   -2.996877446595627e-05
0.004573252295020994   -0.024455207668145344   0.00030322748557383097
-0.0017162644550831388   -0.036776802937096474   -0.00026698194053912874
0.00513359607839678   -0.03666128668900812   2.1362427141230706e-06
0.004573252295020994   -0.024455207668145344   0.00030322748557383097
-0.0023720565264648227   -0.024381664368411028   4.638009578251099e-05
-0.0017162644550831388   -0.036776802937096474   -0.00026698194053912874
-0.002489873417301249   -0.024242973273223174   0.00011478622662067674
0.00513359607839678   -0.03666128668900812   2.1362427141230706e-06
-0.0018210796680812123   -0.036653617127637886   -0.00022750151187773935
-0.002489873417301249   -0.024242973273223174   0.00011478622662067674
-0.0017162644550831388   -0.036776802937096474   -0.00026698194053912874
0.00513359607839678   -0.03666128668900812   2.1362427141230706e-06
-0.002489873417301249   -0.024242973273223174   0.00011478622662067674
0.004363947605444458   -0.024273180955531513   0.0004027810687620037
0.004573252295020994   -0.024455207668145344   0.00030322748557383097
0.00513359607839678   -0.03666128668900812   2.1362427141230706e-06
-0.002489873417301249   -0.024242973273223174   0.00011478622662067674
0.004573252295020994   -0.024455207668145344   0.00030322748557383097
-0.0017162644550831388   -0.036776802937096474   -0.00026698194053912874
-0.0015412154898807714   -0.03704238173310054   -0.00032232148744062034
-0.002160706289264313   -0.02463595540884877   -6.37521335381402e-05
-0.00818203834693932   -0.03697050939189883   -0.0005495536411229883
-0.0016228374395472218   -0.03690580428388897   -0.0002980246212133403
-0.002160706289264313   -0.02463595540884877   -6.37521335381402e-05
-0.008808312022102667   -0.02460578911482656   -0.0002695363205767944
-0.00818203834693932   -0.03697050939189883   -0.0005495536411229883
-0.008896318029862155   -0.024497752519667723   -0.00022254436759910982
-0.0016228374395472218   -0.03690580428388897   -0.0002980246212133403
-0.008265235346143027   -0.036856187752580406   -0.0005124963297079654
-0.008896318029862155   -0.024497752519667723   -0.00022254436759910982
-0.00818203834693932   -0.03697050939189883   -0.0005495536411229883
-0.0016228374395472218   -0.03690580428388897   -0.0002980246212133403
-0.008896318029862155   -0.024497752519667723   -0.00022254436759910982
-0.002258123530576722   -0.024512254838788897   -1.3174129064898212e-05
-0.002160706289264313   -0.02463595540884877   -6.37521335381402e-05
-0.0016228374395472218   -0.03690580428388897   -0.0002980246212133403
-0.008896318029862155   -0.024497752519667723   -0.00022254436759910982
-0.002160706289264313   -0.02463595540884877   -6.37521335381402e-05
-0.00818203834693932   -0.03697050939189883   -0.0005495536411229883
-0.0016228374395472218   -0.03690580428388897   -0.0002980246212133403
-0.002258123530576722   -0.024512254838788897   -1.3174129064898212e-05
-0.008265235346143027   -0.036856187752580406   -0.0005124963297079654
-0.0017162644550831388   -0.036776802937096474   -0.00026698194053912874
-0.002258123530576722   -0.024512254838788897   -1.3174129064898212e-05
-0.008896318029862155   -0.024497752519667723   -0.00022254436759910982
-0.008265235346143027   -0.036856187752580406   -0.0005124963297079654
-0.00898734273790173   -0.02438536040777847   -0.00017090334670309335
-0.0017162644550831388   -0.036776802937096474   -0.00026698194053912874
-0.008350287144321853   -0.03674774897175714   -0.0004690144319378444
-0.00898734273790173   -0.02438536040777847   -0.00017090334670309335
-0.008265235346143027   -0.036856187752580406   -0.0005124963297079654
-0.0017162644550831388   -0.036776802937096474   -0.00026698194053912874
-0.00898734273790173   -0.02438536040777847   -0.00017090334670309335
-0.0023720565264648227   -0.024381664368411028   4.638009578251099e-05
-0.002258123530576722   -0.024512254838788897   -1.3174129064898212e-05
-0.0017162644550831388   -0.036776802937096474   -0.00026698194053912874
-0.00898734273790173   -0.02438536040777847   -0.00017090334670309335
-0.002258123530576722   -0.024512254838788897   -1.3174129064898212e-05
-0.008265235346143027   -0.036856187752580406   -0.0005124963297079654
-0.0017162644550831388   -0.036776802937096474   -0.00026698194053912874
-0.0023720565264648227   -0.024381664368411028   4.638009578251099e-05
-0.008350287144321853   -0.03674774897175714   -0.0004690144319378444
-0.0018210796680812123   -0.036653617127637886   -0.00022750151187773935
-0.0023720565264648227   -0.024381664368411028   4.638009578251099e-05
-0.00898734273790173   -0.02438536040777847   -0.00017090334670309335
-0.008350287144321853   -0.03674774897175714   -0.0004690144319378444
-0.009082093563898467   -0.02427060493587338   -0.00011368114175145145
-0.0018210796680812123   -0.036653617127637886   -0.00022750151187773935
-0.008440734600895616   -0.036646859825839456   -0.0004190353872282386
-0.009082093563898467   -0.02427060493587338   -0.00011368114175145145
-0.008350287144321853   -0.03674774897175714   -0.0004690144319378444
-0.0018210796680812123   -0.036653617127637886   -0.00022750151187773935
-0.009082093563898467   -0.02427060493587338   -0.00011368114175145145
-0.002489873417301249   -0.024242973273223174   0.00011478622662067674
-0.0023720565264648227   -0.024381664368411028   4.638009578251099e-05
-0.0018210796680812123   -0.036653617127637886   -0.00022750151187773935
-0.009082093563898467   -0.02427060493587338   -0.00011368114175145145
-0.0023720565264648227   -0.024381664368411028   4.638009578251099e-05
-0.008350287144321853   -0.03674774897175714   -0.0004690144319378444
-0.00818203834693932   -0.03697050939189883   -0.0005495536411229883
-0.008808312022102667   -0.02460578911482656   -0.0002695363205767944
-0.014714964001654854   -0.036884441763397925   -0.0007426530532177422
-0.008265235346143027   -0.036856187752580406   -0.0005124963297079654
-0.008808312022102667   -0.02460578911482656   -0.0002695363205767944
-0.015388065298764313   -0.024597417669925317   -0.00045560203348805363
-0.014714964001654854   -0.036884441763397925   -0.0007426530532177422
-0.015472173416744745   -0.024502634114310744   -0.000410830105927132
-0.008265235346143027   -0.036856187752580406   -0.0005124963297079654
-0.014797532720964205   -0.03679075910445459   -0.0006928339271578608
-0.015472173416744745   -0.024502634114310744   -0.000410830105927132
-0.014714964001654854   -0.036884441763397925   -0.0007426530532177422
-0.008265235346143027   -0.036856187752580406   -0.0005124963297079654
-0.015472173416744745   -0.024502634114310744   -0.000410830105927132
-0.008896318029862155   -0.024497752519667723   -0.00022254436759910982
-0.008808312022102667   -0.02460578911482656   -0.0002695363205767944
-0.008265235346143027   -0.036856187752580406   -0.0005124963297079654
-0.015472173416744745   -0.024502634114310744   -0.000410830105927132
-0.008808312022102667   -0.02460578911482656   -0.0002695363205767944
-0.014714964001654854   -0.036884441763397925   -0.0007426530532177422
-0.008265235346143027   -0.036856187752580406   -0.0005124963297079654
-0.008896318029862155   -0.024497752519667723   -0.00022254436759910982
-0.014797532720964205   -0.03679075910445459   -0.0006928339271578608
-0.008350287144321853   -0.03674774897175714   -0.0004690144319378444
-0.008896318029862155   -0.024497752519667723   -0.00022254436759910982
-0.015472173416744745   -0.024502634114310744   -0.000410830105927132
-0.014797532720964205   -0.03679075910445459   -0.0006928339271578608
-0.015552293813861605   -0.024406113734169274   -0.0003619951537293913
-0.008350287144321853   -0.03674774897175714   -0.0004690144319378444
-0.014874766694343327   -0.03670329821937549   -0.0006368100710507574
-0.015552293813861605   -0.024406113734169274   -0.0003619951537293913
-0.014797532720964205   -0.03679075910445459   -0.0006928339271578608
-0.008350287144321853   -0.03674774897175714   -0.0004690144319378444
-0.015552293813861605   -0.024406113734169274   -0.0003619951537293913
-0.00898734273790173   -0.02438536040777847   -0.00017090334670309335
-0.008896318029862155   -0.024497752519667723   -0.00022254436759910982
-0.008350287144321853   -0.03674774897175714   -0.0004690144319378444
-0.015552293813861605   -0.024406113734169274   -0.0003619951537293913
-0.008896318029862155   -0.024497752519667723   -0.00022254436759910982
-0.014797532720964205   -0.03679075910445459   -0.0006928339271578608
-0.008350287144321853   -0.03674774897175714   -0.0004690144319378444
-0.00898734273790173   -0.02438536040777847   -0.00017090334670309335
-0.014874766694343327   -0.03670329821937549   -0.0006368100710507574
-0.008440734600895616   -0.036646859825839456   -0.0004190353872282386
-0.00898734273790173   -0.02438536040777847   -0.00017090334670309335
-0.015552293813861605   -0.024406113734169274   -0.0003619951537293913
-0.014874766694343327   -0.03670329821937549   -0.0006368100710507574
-0.01563160677660944   -0.0243073094871386   -0.00030932961331158376
-0.008440734600895616   -0.036646859825839456   -0.0004190353872282386
-0.014952276686408405   -0.036622303380997   -0.0005748897443492905
-0.01563160677660944   -0.0243073094871386   -0.00030932961331158376
-0.014874766694343327   -0.03670329821937549   -0.0006368100710507574
-0.008440734600895616   -0.036646859825839456   -0.0004190353872282386
-0.01563160677660944   -0.0243073094871386   -0.00030932961331158376
-0.009082093563898467   -0.02427060493587338   -0.00011368114175145145
-0.00898734273790173   -0.02438536040777847   -0.00017090334670309335
-0.008440734600895616   -0.036646859825839456   -0.0004190353872282386
-0.01563160677660944   -0.0243073094871386   -0.00030932961331158376
-0.00898734273790173   -0.02438536040777847   -0.00017090334670309335
-0.014874766694343327   -0.03670329821937549   -0.0006368100710507574
-0.014714964001654854   -0.036884441763397925   -0.0007426530532177422
-0.015388065298764313   -0.024597417669925317   -0.00045560203348805363
-0.02136580782168359   -0.03676816548690006   -0.0008999714105402723
-0.014797532720964205   -0.03679075910445459   -0.0006928339271578608
-0.015388065298764313   -0.024597417669925317   -0.00045560203348805363
-0.022107157153146498   -0.024559272023882705   -0.0006120070447182864
-0.02136580782168359   -0.03676816548690006   -0.0008999714105402723
-0.022187340165869637   -0.024481941646440034   -0.0005696738061760806
-0.014797532720964205   -0.03679075910445459   -0.0006928339271578608
-0.021444887389658576   -0.03669619855024671   -0.0008375416260292505
-0.022187340165869637   -0.024481941646440034   -0.0005696738061760806
-0.02136580782168359   -0.03676816548690006   -0.0008999714105402723
-0.014797532720964205   -0.03679075910445459   -0.0006928339271578608
-0.022187340165869637   -0.024481941646440034   -0.0005696738061760806
-0.015472173416744745   -0.024502634114310744   -0.000410830105927132
-0.015388065298764313   -0.024597417669925317   -0.00045560203348805363
-0.014797532720964205   -0.03679075910445459   -0.0006928339271578608
-0.022187340165869637   -0.024481941646440034   -0.0005696738061760806
-0.015388065298764313   -0.024597417669925317   -0.00045560203348805363
-0.02136580782168359   -0.03676816548690006   -0.0008999714105402723
-0.014797532720964205   -0.03679075910445459   -0.0006928339271578608
-0.015472173416744745   -0.024502634114310744   -0.000410830105927132
-0.021444887389658576   -0.03669619855024671   -0.0008375416260292505
-0.014874766694343327   -0.03670329821937549   -0.0006368100710507574
-0.015472173416744745   -0.024502634114310744   -0.000410830105927132
-0.022187340165869637   -0.024481941646440034   -0.0005696738061760806
-0.021444887389658576   -0.03669619855024671   -0.0008375416260292505
-0.02225530878556178   -0.024400361740937588   -0.000524461975298808
-0.014874766694343327   -0.03670329821937549   -0.0006368100710507574
-0.021504897853581548   -0.03662804885468619   -0.0007699354740513496
-0.02225530878556178   -0.024400361740937588   -0.000524461975298808
-0.021444887389658576   -0.03669619855024671   -0.0008375416260292505
-0.014874766694343327   -0.03670329821937549   -0.0006368100710507574
-0.02225530878556178   -0.024400361740937588   -0.000524461975298808
-0.015552293813861605   -0.024406113734169274   -0.0003619951537293913
-0.015472173416744745   -0.024502634114310744   -0.000410830105927132
-0.014874766694343327   -0.03670329821937549   -0.0006368100710507574
-0.02225530878556178   -0.024400361740937588   -0.000524461975298808
-0.015472173416744745   -0.024502634114310744   -0.000410830105927132
-0.021444887389658576   -0.03669619855024671   -0.0008375416260292505
-0.014874766694343327   -0.03670329821937549   -0.0006368100710507574
-0.015552293813861605   -0.024406113734169274   -0.0003619951537293913
-0.021504897853581548   -0.03662804885468619   -0.0007699354740513496
-0.014952276686408405   -0.036622303380997   -0.0005748897443492905
-0.015552293813861605   -0.024406113734169274   -0.0003619951537293913
-0.02225530878556178   -0.024400361740937588   -0.000524461975298808
-0.021504897853581548   -0.03662804885468619   -0.0007699354740513496
-0.022319550800264546   -0.024316615599713362   -0.00047511142869214896
-0.014952276686408405   -0.036622303380997   -0.0005748897443492905
-0.021564426743881794   -0.036566718031996376   -0.0006957985910183534
-0.022319550800264546   -0.024316615599713362   -0.00047511142869214896
-0.021504897853581548   -0.03662804885468619   -0.0007699354740513496
-0.014952276686408405   -0.036622303380997   -0.0005748897443492905
-0.022319550800264546   -0.024316615599713362   -0.00047511142869214896
-0.01563160677660944   -0.0243073094871386   -0.00030932961331158376
-0.015552293813861605   -0.024406113734169274   -0.0003619951537293913
-0.014952276686408405   -0.036622303380997   -0.0005748897443492905
-0.022319550800264546   -0.024316615599713362   -0.00047511142869214896
-0.015552293813861605   -0.024406113734169274   -0.0003619951537293913
-0.021504897853581548   -0.03662804885468619   -0.0007699354740513496
-0.02136580782168359   -0.03676816548690006   -0.0008999714105402723
-0.022107157153146498   -0.024559272023882705   -0.0006120070447182864
-0.02841419712746687   -0.03663092524591765   -0.0010168588645016639
-0.021444887389658576   -0.03669619855024671   -0.0008375416260292505
-0.022107157153146498   -0.024559272023882705   -0.0006120070447182864
-0.029144777453774244   -0.024496513489849374   -0.0007279089768768268
-0.02841419712746687   -0.03663092524591765   -0.0010168588645016639
-0.029194770219133706   -0.024431520458722582   -0.0006962514018780852
-0.021444887389658576   -0.03669619855024671   -0.0008375416260292505
-0.02842662980054916   -0.036573410630323384   -0.0009479961407459803
-0.029194770219133706   -0.024431520458722582   -0.0006962514018780852
-0.02841419712746687   -0.03663092524591765   -0.0010168588645016639
-0.021444887389658576   -0.03669619855024671   -0.0008375416260292505
-0.029194770219133706   -0.024431520458722582   -0.0006962514018780852
-0.022187340165869637   -0.024481941646440034   -0.0005696738061760806
-0.022107157153146498   -0.024559272023882705   -0.0006120070447182864
-0.021444887389658576   -0.03669619855024671   -0.0008375416260292505
-0.029194770219133706   -0.024431520458722582   -0.0006962514018780852
-0.022107157153146498   -0.024559272023882705   -0.0006120070447182864
-0.02841419712746687   -0.03663092524591765   -0.0010168588645016639
-0.021444887389658576   -0.03669619855024671   -0.0008375416260292505
-0.022187340165869637   -0.024481941646440034   -0.0005696738061760806
-0.02842662980054916   -0.036573410630323384   -0.0009479961407459803
-0.021504897853581548   -0.03662804885468619   -0.0007699354740513496
-0.022187340165869637   -0.024481941646440034   -0.0005696738061760806
-0.029194770219133706   -0.024431520458722582   -0.0006962514018780852
-0.02842662980054916   -0.036573410630323384   -0.0009479961407459803
-0.029240482737804396   -0.02435801122926622   -0.0006575185311121996
-0.021504897853581548   -0.03662804885468619   -0.0007699354740513496
-0.02843934912064308   -0.03651517805449715   -0.0008687061243533922
-0.029240482737804396   -0.02435801122926622   -0.0006575185311121996
-0.02842662980054916   -0.036573410630323384   -0.0009479961407459803
-0.021504897853581548   -0.03662804885468619   -0.0007699354740513496
-0.029240482737804396   -0.02435801122926622   -0.0006575185311121996
-0.02225530878556178   -0.024400361740937588   -0.000524461975298808
-0.022187340165869637   -0.024481941646440034   -0.0005696738061760806
-0.021504897853581548   -0.03662804885468619   -0.0007699354740513496
-0.029240482737804396   -0.02435801122926622   -0.0006575185311121996
-0.022187340165869637   -0.024481941646440034   -0.0005696738061760806
-0.02842662980054916   -0.036573410630323384   -0.0009479961407459803
-0.021504897853581548   -0.03662804885468619   -0.0007699354740513496
-0.02225530878556178   -0.024400361740937588   -0.000524461975298808
-0.02843934912064308   -0.03651517805449715   -0.0008687061243533922
-0.021564426743881794   -0.036566718031996376   -0.0006957985910183534
-0.02225530878556178   -0.024400361740937588   -0.000524461975298808
-0.029240482737804396   -0.02435801122926622   -0.0006575185311121996
-0.02843934912064308   -0.03651517805449715   -0.0008687061243533922
-0.029262814944487417   -0.02429045595646199   -0.0006134866706555493
-0.021564426743881794   -0.036566718031996376   -0.0006957985910183534
-0.028412527957954875   -0.03647657873123901   -0.0007802287512378337
-0.029262814944487417   -0.02429045595646199   -0.0006134866706555493
-0.02843934912064308   -0.03651517805449715   -0.0008687061243533922
-0.021564426743881794   -0.036566718031996376   -0.0006957985910183534
-0.029262814944487417   -0.02429045595646199   -0.0006134866706555493
-0.022319550800264546   -0.024316615599713362   -0.00047511142869214896
-0.02225530878556178   -0.024400361740937588   -0.000524461975298808
-0.021564426743881794   -0.036566718031996376   -0.0006957985910183534
-0.029262814944487417   -0.02429045595646199   -0.0006134866706555493
-0.02225530878556178   -0.024400361740937588   -0.000524461975298808
-0.02843934912064308   -0.03651517805449715   -0.0008687061243533922
0.004898160975422913   -0.024752558014291985   0.00014964533836760822
0.003430274984212864   -0.01242741286731678   0.00016059465567577492
-0.002160706289264313   -0.02463595540884877   -6.37521335381402e-05
0.004744562140394086   -0.02460341192025593   0.00021273479612377925
0.003430274984212864   -0.01242741286731678   0.00016059465567577492
-0.0031502508767058965   -0.012265848463610401   8.097230997560527e-05
-0.002160706289264313   -0.02463595540884877   -6.37521335381402e-05
-0.003247092594416396   -0.012203178605845468   0.00015114892904046805
0.004744562140394086   -0.02460341192025593   0.00021273479612377925
-0.002258123530576722   -0.024512254838788897   -1.3174129064898212e-05
-0.003247092594416396   -0.012203178605845468   0.00015114892904046805
-0.002160706289264313   -0.02463595540884877   -6.37521335381402e-05
0.004744562140394086   -0.02460341192025593   0.00021273479612377925
-0.003247092594416396   -0.012203178605845468   0.00015114892904046805
0.0031285018556657866   -0.012269080966073364   0.00033440638213895973
0.003430274984212864   -0.01242741286731678   0.00016059465567577492
0.004744562140394086   -0.02460341192025593   0.00021273479612377925
-0.003247092594416396   -0.012203178605845468   0.00015114892904046805
0.003430274984212864   -0.01242741286731678   0.00016059465567577492
-0.002160706289264313   -0.02463595540884877   -6.37521335381402e-05
0.004744562140394086   -0.02460341192025593   0.00021273479612377925
0.0031285018556657866   -0.012269080966073364   0.00033440638213895973
-0.002258123530576722   -0.024512254838788897   -1.3174129064898212e-05
0.004573252295020994   -0.024455207668145344   0.00030322748557383097
0.0031285018556657866   -0.012269080966073364   0.00033440638213895973
-0.003247092594416396   -0.012203178605845468   0.00015114892904046805
-0.002258123530576722   -0.024512254838788897   -1.3174129064898212e-05
-0.003374256033550424   -0.012091943873936658   0.00023633140995656555
0.004573252295020994   -0.024455207668145344   0.00030322748557383097
-0.0023720565264648227   -0.024381664368411028   4.638009578251099e-05
-0.003374256033550424   -0.012091943873936658   0.00023633140995656555
-0.002258123530576722   -0.024512254838788897   -1.3174129064898212e-05
0.004573252295020994   -0.024455207668145344   0.00030322748557383097
-0.003374256033550424   -0.012091943873936658   0.00023633140995656555
0.002951740433906115   -0.01213939435491372   0.00046417766595756467
0.0031285018556657866   -0.012269080966073364   0.00033440638213895973
0.004573252295020994   -0.024455207668145344   0.00030322748557383097
-0.003374256033550424   -0.012091943873936658   0.00023633140995656555
0.0031285018556657866   -0.012269080966073364   0.00033440638213895973
-0.002258123530576722   -0.024512254838788897   -1.3174129064898212e-05
0.004573252295020994   -0.024455207668145344   0.00030322748557383097
0.002951740433906115   -0.01213939435491372   0.00046417766595756467
-0.0023720565264648227   -0.024381664368411028   4.638009578251099e-05
0.004363947605444458   -0.024273180955531513   0.0004027810687620037
0.002951740433906115   -0.01213939435491372   0.00046417766595756467
-0.003374256033550424   -0.012091943873936658   0.00023633140995656555
-0.0023720565264648227   -0.024381664368411028   4.638009578251099e-05
-0.003481118165983755   -0.01197227429648725   0.00031132326223075216
0.004363947605444458   -0.024273180955531513   0.0004027810687620037
-0.002489873417301249   -0.024242973273223174   0.00011478622662067674
-0.003481118165983755   -0.01197227429648725   0.00031132326223075216
-0.0023720565264648227   -0.024381664368411028   4.638009578251099e-05
0.004363947605444458   -0.024273180955531513   0.0004027810687620037
-0.003481118165983755   -0.01197227429648725   0.00031132326223075216
0.0027252938819554103   -0.011941350591788824   0.0006127417586115339
0.002951740433906115   -0.01213939435491372   0.00046417766595756467
0.004363947605444458   -0.024273180955531513   0.0004027810687620037
-0.003481118165983755   -0.01197227429648725   0.00031132326223075216
0.002951740433906115   -0.01213939435491372   0.00046417766595756467
-0.0023720565264648227   -0.024381664368411028   4.638009578251099e-05
-0.002160706289264313   -0.02463595540884877   -6.37521335381402e-05
-0.0031502508767058965   -0.012265848463610401   8.097230997560527e-05
-0.008808312022102667   -0.02460578911482656   -0.0002695363205767944
-0.002258123530576722   -0.024512254838788897   -1.3174129064898212e-05
-0.0031502508767058965   -0.012265848463610401   8.097230997560527e-05
-0.009414791243095575   -0.012446837711085967   -8.300301161548606e-05
-0.008808312022102667   -0.02460578911482656   -0.0002695363205767944
-0.009503862912318271   -0.01235126719759763   -3.3334041999612247e-05
-0.002258123530576722   -0.024512254838788897   -1.3174129064898212e-05
-0.008896318029862155   -0.024497752519667723   -0.00022254436759910982
-0.009503862912318271   -0.01235126719759763   -3.3334041999612247e-05
-0.008808312022102667   -0.02460578911482656   -0.0002695363205767944
-0.002258123530576722   -0.024512254838788897   -1.3174129064898212e-05
-0.009503862912318271   -0.01235126719759763   -3.3334041999612247e-05
-0.003247092594416396   -0.012203178605845468   0.00015114892904046805
-0.0031502508767058965   -0.012265848463610401   8.097230997560527e-05
-0.002258123530576722   -0.024512254838788897   -1.3174129064898212e-05
-0.009503862912318271   -0.01235126719759763   -3.3334041999612247e-05
-0.0031502508767058965   -0.012265848463610401   8.097230997560527e-05
-0.008808312022102667   -0.02460578911482656   -0.0002695363205767944
-0.002258123530576722   -0.024512254838788897   -1.3174129064898212e-05
-0.003247092594416396   -0.012203178605845468   0.00015114892904046805
-0.008896318029862155   -0.024497752519667723   -0.00022254436759910982
-0.0023720565264648227   -0.024381664368411028   4.638009578251099e-05
-0.003247092594416396   -0.012203178605845468   0.00015114892904046805
-0.009503862912318271   -0.01235126719759763   -3.3334041999612247e-05
-0.008896318029862155   -0.024497752519667723   -0.00022254436759910982
-0.009597043089350957   -0.012243427625226918   1.9204476076712227e-05
-0.0023720565264648227   -0.024381664368411028   4.638009578251099e-05
-0.00898734273790173   -0.02438536040777847   -0.00017090334670309335
-0.009597043089350957   -0.012243427625226918   1.9204476076712227e-05
-0.008896318029862155   -0.024497752519667723   -0.00022254436759910982
-0.0023720565264648227   -0.024381664368411028   4.638009578251099e-05
-0.009597043089350957   -0.012243427625226918   1.9204476076712227e-05
-0.003374256033550424   -0.012091943873936658   0.00023633140995656555
-0.003247092594416396   -0.012203178605845468   0.00015114892904046805
-0.0023720565264648227   -0.024381664368411028   4.638009578251099e-05
-0.009597043089350957   -0.012243427625226918   1.9204476076712227e-05
-0.003247092594416396   -0.012203178605845468   0.00015114892904046805
-0.008896318029862155   -0.024497752519667723   -0.00022254436759910982
-0.0023720565264648227   -0.024381664368411028   4.638009578251099e-05
-0.003374256033550424   -0.012091943873936658   0.00023633140995656555
-0.00898734273790173   -0.02438536040777847   -0.00017090334670309335
-0.002489873417301249   -0.024242973273223174   0.00011478622662067674
-0.003374256033550424   -0.012091943873936658   0.00023633140995656555
-0.009597043089350957   -0.012243427625226918   1.9204476076712227e-05
-0.00898734273790173   -0.02438536040777847   -0.00017090334670309335
-0.009685565417563564   -0.012125236320606903   7.713022610493434e-05
-0.002489873417301249   -0.024242973273223174   0.00011478622662067674
-0.009082093563898467   -0.02427060493587338   -0.00011368114175145145
-0.009685565417563564   -0.012125236320606903   7.713022610493434e-05
-0.00898734273790173   -0.02438536040777847   -0.00017090334670309335
-0.002489873417301249   -0.024242973273223174   0.00011478622662067674
-0.009685565417563564   -0.012125236320606903   7.713022610493434e-05
-0.003481118165983755   -0.01197227429648725   0.00031132326223075216
-0.003374256033550424   -0.012091943873936658   0.00023633140995656555
-0.002489873417301249   -0.024242973273223174   0.00011478622662067674
-0.009685565417563564   -0.012125236320606903   7.713022610493434e-05
-0.003374256033550424   -0.012091943873936658   0.00023633140995656555
-0.00898734273790173   -0.02438536040777847   -0.00017090334670309335
-0.008808312022102667   -0.02460578911482656   -0.0002695363205767944
-0.009414791243095575   -0.012446837711085967   -8.300301161548606e-05
-0.015388065298764313   -0.024597417669925317   -0.00045560203348805363
-0.008896318029862155   -0.024497752519667723   -0.00022254436759910982
-0.009414791243095575   -0.012446837711085967   -8.300301161548606e-05
-0.015833582854434633   -0.012588213600111985   -0.0002645677884553009
-0.015388065298764313   -0.024597417669925317   -0.00045560203348805363
-0.015913538641662985   -0.012490114310475633   -0.00022611442740580134
-0.008896318029862155   -0.024497752519667723   -0.00022254436759910982
-0.015472173416744745   -0.024502634114310744   -0.000410830105927132
-0.015913538641662985   -0.012490114310475633   -0.00022611442740580134
-0.015388065298764313   -0.024597417669925317   -0.00045560203348805363
-0.008896318029862155   -0.024497752519667723   -0.00022254436759910982
-0.015913538641662985   -0.012490114310475633   -0.00022611442740580134
-0.009503862912318271   -0.01235126719759763   -3.3334041999612247e-05
-0.009414791243095575   -0.012446837711085967   -8.300301161548606e-05
-0.008896318029862155   -0.024497752519667723   -0.00022254436759910982
-0.015913538641662985   -0.012490114310475633   -0.00022611442740580134
-0.009414791243095575   -0.012446837711085967   -8.300301161548606e-05
-0.015388065298764313   -0.024597417669925317   -0.00045560203348805363
-0.008896318029862155   -0.024497752519667723   -0.00022254436759910982
-0.009503862912318271   -0.01235126719759763   -3.3334041999612247e-05
-0.015472173416744745   -0.024502634114310744   -0.000410830105927132
-0.00898734273790173   -0.02438536040777847   -0.00017090334670309335
-0.009503862912318271   -0.01235126719759763   -3.3334041999612247e-05
-0.015913538641662985   -0.012490114310475633   -0.00022611442740580134
-0.015472173416744745   -0.024502634114310744   -0.000410830105927132
-0.015990039381429066   -0.012386535493092337   -0.00018780607387174083
-0.00898734273790173   -0.02438536040777847   -0.00017090334670309335
-0.015552293813861605   -0.024406113734169274   -0.0003619951537293913
-0.015990039381429066   -0.012386535493092337   -0.00018780607387174083
-0.015472173416744745   -0.024502634114310744   -0.000410830105927132
-0.00898734273790173   -0.02438536040777847   -0.00017090334670309335
-0.015990039381429066   -0.012386535493092337   -0.00018780607387174083
-0.009597043089350957   -0.012243427625226918   1.9204476076712227e-05
-0.009503862912318271   -0.01235126719759763   -3.3334041999612247e-05
-0.00898734273790173   -0.02438536040777847   -0.00017090334670309335
-0.015990039381429066   -0.012386535493092337   -0.00018780607387174083
-0.009503862912318271   -0.01235126719759763   -3.3334041999612247e-05
-0.015472173416744745   -0.024502634114310744   -0.000410830105927132
-0.00898734273790173   -0.02438536040777847   -0.00017090334670309335
-0.009597043089350957   -0.012243427625226918   1.9204476076712227e-05
-0.015552293813861605   -0.024406113734169274   -0.0003619951537293913
-0.009082093563898467   -0.02427060493587338   -0.00011368114175145145
-0.009597043089350957   -0.012243427625226918   1.9204476076712227e-05
-0.015990039381429066   -0.012386535493092337   -0.00018780607387174083
-0.015552293813861605   -0.024406113734169274   -0.0003619951537293913
-0.016060528113701556   -0.012274414753730964   -0.00014612103793577025
-0.009082093563898467   -0.02427060493587338   -0.00011368114175145145
-0.01563160677660944   -0.0243073094871386   -0.00030932961331158376
-0.016060528113701556   -0.012274414753730964   -0.00014612103793577025
-0.015552293813861605   -0.024406113734169274   -0.0003619951537293913
-0.009082093563898467   -0.02427060493587338   -0.00011368114175145145
-0.016060528113701556   -0.012274414753730964   -0.00014612103793577025
-0.009685565417563564   -0.012125236320606903   7.713022610493434e-05
-0.009597043089350957   -0.012243427625226918   1.9204476076712227e-05
-0.009082093563898467   -0.02427060493587338   -0.00011368114175145145
-0.016060528113701556   -0.012274414753730964   -0.00014612103793577025
-0.009597043089350957   -0.012243427625226918   1.9204476076712227e-05
-0.015552293813861605   -0.024406113734169274   -0.0003619951537293913
-0.015388065298764313   -0.024597417669925317   -0.00045560203348805363
-0.015833582854434633   -0.012588213600111985   -0.0002645677884553009
-0.022107157153146498   -0.024559272023882705   -0.0006120070447182864
-0.015472173416744745   -0.024502634114310744   -0.000410830105927132
-0.015833582854434633   -0.012588213600111985   -0.0002645677884553009
-0.022477821411333452   -0.012646184562121235   -0.00043222790238090164
-0.022107157153146498   -0.024559272023882705   -0.0006120070447182864
-0.022549845272270146   -0.012558012615115039   -0.00040422760116910024
-0.015472173416744745   -0.024502634114310744   -0.000410830105927132
-0.022187340165869637   -0.024481941646440034   -0.0005696738061760806
-0.022549845272270146   -0.012558012615115039   -0.00040422760116910024
-0.022107157153146498   -0.024559272023882705   -0.0006120070447182864
-0.015472173416744745   -0.024502634114310744   -0.000410830105927132
-0.022549845272270146   -0.012558012615115039   -0.00040422760116910024
-0.015913538641662985   -0.012490114310475633   -0.00022611442740580134
-0.015833582854434633   -0.012588213600111985   -0.0002645677884553009
-0.015472173416744745   -0.024502634114310744   -0.000410830105927132
-0.022549845272270146   -0.012558012615115039   -0.00040422760116910024
-0.015833582854434633   -0.012588213600111985   -0.0002645677884553009
-0.022107157153146498   -0.024559272023882705   -0.0006120070447182864
-0.015472173416744745   -0.024502634114310744   -0.000410830105927132
-0.015913538641662985   -0.012490114310475633   -0.00022611442740580134
-0.022187340165869637   -0.024481941646440034   -0.0005696738061760806
-0.015552293813861605   -0.024406113734169274   -0.0003619951537293913
-0.015913538641662985   -0.012490114310475633   -0.00022611442740580134
-0.022549845272270146   -0.012558012615115039   -0.00040422760116910024
-0.022187340165869637   -0.024481941646440034   -0.0005696738061760806
-0.022614024331785547   -0.012462023262037799   -0.00037704453017651385
-0.015552293813861605   -0.024406113734169274   -0.0003619951537293913
-0.02225530878556178   -0.024400361740937588   -0.000524461975298808
-0.022614024331785547   -0.012462023262037799   -0.00037704453017651385
-0.022187340165869637   -0.024481941646440034   -0.0005696738061760806
-0.015552293813861605   -0.024406113734169274   -0.0003619951537293913
-0.022614024331785547   -0.012462023262037799   -0.00037704453017651385
-0.015990039381429066   -0.012386535493092337   -0.00018780607387174083
-0.015913538641662985   -0.012490114310475633   -0.00022611442740580134
-0.015552293813861605   -0.024406113734169274   -0.0003619951537293913
-0.022614024331785547   -0.012462023262037799   -0.00037704453017651385
-0.015913538641662985   -0.012490114310475633   -0.00022611442740580134
-0.022187340165869637   -0.024481941646440034   -0.0005696738061760806
-0.015552293813861605   -0.024406113734169274   -0.0003619951537293913
-0.015990039381429066   -0.012386535493092337   -0.00018780607387174083
-0.02225530878556178   -0.024400361740937588   -0.000524461975298808
-0.01563160677660944   -0.0243073094871386   -0.00030932961331158376
-0.015990039381429066   -0.012386535493092337   -0.00018780607387174083
-0.022614024331785547   -0.012462023262037799   -0.00037704453017651385
-0.02225530878556178   -0.024400361740937588   -0.000524461975298808
-0.022672132156334672   -0.012359865690768598   -0.00034907651710296714
-0.01563160677660944   -0.0243073094871386   -0.00030932961331158376
-0.022319550800264546   -0.024316615599713362   -0.00047511142869214896
-0.022672132156334672   -0.012359865690768598   -0.00034907651710296714
-0.02225530878556178   -0.024400361740937588   -0.000524461975298808
-0.01563160677660944   -0.0243073094871386   -0.00030932961331158376
-0.022672132156334672   -0.012359865690768598   -0.00034907651710296714
-0.016060528113701556   -0.012274414753730964   -0.00014612103793577025
-0.015990039381429066   -0.012386535493092337   -0.00018780607387174083
-0.01563160677660944   -0.0243073094871386   -0.00030932961331158376
-0.022672132156334672   -0.012359865690768598   -0.00034907651710296714
-0.015990039381429066   -0.012386535493092337   -0.00018780607387174083
-0.02225530878556178   -0.024400361740937588   -0.000524461975298808
-0.022107157153146498   -0.024559272023882705   -0.0006120070447182864
-0.022477821411333452   -0.012646184562121235   -0.00043222790238090164
-0.029144777453774244   -0.024496513489849374   -0.0007279089768768268
-0.022187340165869637   -0.024481941646440034   -0.0005696738061760806
-0.022477821411333452   -0.012646184562121235   -0.00043222790238090164
-0.02935793377555376   -0.01265273809464781   -0.0005715657514221724
-0.029144777453774244   -0.024496513489849374   -0.0007279089768768268
-0.029419878428549543   -0.012567122030071627   -0.0005596063296931031
-0.022187340165869637   -0.024481941646440034   -0.0005696738061760806
-0.029194770219133706   -0.024431520458722582   -0.0006962514018780852
-0.029419878428549543   -0.012567122030071627   -0.0005596063296931031
-0.029144777453774244   -0.024496513489849374   -0.0007279089768768268
-0.022187340165869637   -0.024481941646440034   -0.0005696738061760806
-0.029419878428549543   -0.012567122030071627   -0.0005596063296931031
-0.022549845272270146   -0.012558012615115039   -0.00040422760116910024
-0.022477821411333452   -0.012646184562121235   -0.00043222790238090164
-0.022187340165869637   -0.024481941646440034   -0.0005696738061760806
-0.029419878428549543   -0.012567122030071627   -0.0005596063296931031
-0.022477821411333452   -0.012646184562121235   -0.00043222790238090164
-0.029144777453774244   -0.024496513489849374   -0.0007279089768768268
-0.022187340165869637   -0.024481941646440034   -0.0005696738061760806
-0.022549845272270146   -0.012558012615115039   -0.00040422760116910024
-0.029194770219133706   -0.024431520458722582   -0.0006962514018780852
-0.02225530878556178   -0.024400361740937588   -0.000524461975298808
-0.022549845272270146   -0.012558012615115039   -0.00040422760116910024
-0.029419878428549543   -0.012567122030071627   -0.0005596063296931031
-0.029194770219133706   -0.024431520458722582   -0.0006962514018780852
-0.02947537533497289   -0.012474601916494129   -0.0005456305762574814
-0.02225530878556178   -0.024400361740937588   -0.000524461975298808
-0.029240482737804396   -0.02435801122926622   -0.0006575185311121996
-0.02947537533497289   -0.012474601916494129   -0.0005456305762574814
-0.029194770219133706   -0.024431520458722582   -0.0006962514018780852
-0.02225530878556178   -0.024400361740937588   -0.000524461975298808
-0.02947537533497289   -0.012474601916494129   -0.0005456305762574814
-0.022614024331785547   -0.012462023262037799   -0.00037704453017651385
-0.022549845272270146   -0.012558012615115039   -0.00040422760116910024
-0.02225530878556178   -0.024400361740937588   -0.000524461975298808
-0.02947537533497289   -0.012474601916494129   -0.0005456305762574814
-0.022549845272270146   -0.012558012615115039   -0.00040422760116910024
-0.029194770219133706   -0.024431520458722582   -0.0006962514018780852
-0.02225530878556178   -0.024400361740937588   -0.000524461975298808
-0.022614024331785547   -0.012462023262037799   -0.00037704453017651385
-0.029240482737804396   -0.02435801122926622   -0.0006575185311121996
-0.022319550800264546   -0.024316615599713362   -0.00047511142869214896
-0.022614024331785547   -0.012462023262037799   -0.00037704453017651385
-0.02947537533497289   -0.012474601916494129   -0.0005456305762574814
-0.029240482737804396   -0.02435801122926622   -0.0006575185311121996
-0.029522123394273632   -0.012376622851721   -0.0005326718279543217
-0.022319550800264546   -0.024316615599713362   -0.00047511142869214896
-0.029262814944487417   -0.02429045595646199   -0.0006134866706555493
-0.029522123394273632   -0.012376622851721   -0.0005326718279543217
-0.029240482737804396   -0.02435801122926622   -0.0006575185311121996
-0.022319550800264546   -0.024316615599713362   -0.00047511142869214896
-0.029522123394273632   -0.012376622851721   -0.0005326718279543217
-0.022672132156334672   -0.012359865690768598   -0.00034907651710296714
-0.022614024331785547   -0.012462023262037799   -0.00037704453017651385
-0.022319550800264546   -0.024316615599713362   -0.00047511142869214896
-0.029522123394273632   -0.012376622851721   -0.0005326718279543217
-0.022614024331785547   -0.012462023262037799   -0.00037704453017651385
-0.029240482737804396   -0.02435801122926622   -0.0006575185311121996
0.003430274984212864   -0.01242741286731678   0.00016059465567577492
0.0   0.0   0.0
-0.0031502508767058965   -0.012265848463610401   8.097230997560527e-05
0.0031285018556657866   -0.012269080966073364   0.00033440638213895973
0.0   0.0   0.0
-0.003957835084171216   -0.0009982967393540937   -3.457998159663278e-05
-0.0031502508767058965   -0.012265848463610401   8.097230997560527e-05
-0.004194194405138105   -0.0007748029567303417   0.00010122761592237897
0.0031285018556657866   -0.012269080966073364   0.00033440638213895973
-0.003247092594416396   -0.012203178605845468   0.00015114892904046805
-0.004194194405138105   -0.0007748029567303417   0.00010122761592237897
-0.0031502508767058965   -0.012265848463610401   8.097230997560527e-05
0.0031285018556657866   -0.012269080966073364   0.00033440638213895973
-0.004194194405138105   -0.0007748029567303417   0.00010122761592237897
0.0   0.0   0.0
0.0   0.0   0.0
0.0031285018556657866   -0.012269080966073364   0.00033440638213895973
-0.004194194405138105   -0.0007748029567303417   0.00010122761592237897
0.0   0.0   0.0
-0.0031502508767058965   -0.012265848463610401   8.097230997560527e-05
0.0031285018556657866   -0.012269080966073364   0.00033440638213895973
0.0   0.0   0.0
-0.003247092594416396   -0.012203178605845468   0.00015114892904046805
0.002951740433906115   -0.01213939435491372   0.00046417766595756467
0.0   0.0   0.0
-0.004194194405138105   -0.0007748029567303417   0.00010122761592237897
-0.003247092594416396   -0.012203178605845468   0.00015114892904046805
-0.004342375893808498   -0.0006669615450604993   0.0001794497579406585
0.002951740433906115   -0.01213939435491372   0.00046417766595756467
-0.003374256033550424   -0.012091943873936658   0.00023633140995656555
-0.004342375893808498   -0.0006669615450604993   0.0001794497579406585
-0.003247092594416396   -0.012203178605845468   0.00015114892904046805
0.002951740433906115   -0.01213939435491372   0.00046417766595756467
-0.004342375893808498   -0.0006669615450604993   0.0001794497579406585
0.0   0.0   0.0
0.0   0.0   0.0
0.002951740433906115   -0.01213939435491372   0.00046417766595756467
-0.004342375893808498   -0.0006669615450604993   0.0001794497579406585
0.0   0.0   0.0
-0.003247092594416396   -0.012203178605845468   0.00015114892904046805
0.002951740433906115   -0.01213939435491372   0.00046417766595756467
0.0   0.0   0.0
-0.003374256033550424   -0.012091943873936658   0.00023633140995656555
0.0027252938819554103   -0.011941350591788824   0.0006127417586115339
0.0   0.0   0.0
-0.004342375893808498   -0.0006669615450604993   0.0001794497579406585
-0.003374256033550424   -0.012091943873936658   0.00023633140995656555
-0.004540774045847236   -0.0005238448931222499   0.00026920253066890857
0.0027252938819554103   -0.011941350591788824   0.0006127417586115339
-0.003481118165983755   -0.01197227429648725   0.00031132326223075216
-0.004540774045847236   -0.0005238448931222499   0.00026920253066890857
-0.003374256033550424   -0.012091943873936658   0.00023633140995656555
0.0027252938819554103   -0.011941350591788824   0.0006127417586115339
-0.004540774045847236   -0.0005238448931222499   0.00026920253066890857
0.0   0.0   0.0
0.0   0.0   0.0
0.0027252938819554103   -0.011941350591788824   0.0006127417586115339
-0.004540774045847236   -0.0005238448931222499   0.00026920253066890857
0.0   0.0   0.0
-0.003374256033550424   -0.012091943873936658   0.00023633140995656555
-0.0031502508767058965   -0.012265848463610401   8.097230997560527e-05
-0.003957835084171216   -0.0009982967393540937   -3.457998159663278e-05
-0.009414791243095575   -0.012446837711085967   -8.300301161548606e-05
-0.003247092594416396   -0.012203178605845468   0.00015114892904046805
-0.003957835084171216   -0.0009982967393540937   -3.457998159663278e-05
-0.00969644647182292   -0.001305713807220801   -3.443906737799674e-05
-0.009414791243095575   -0.012446837711085967   -8.300301161548606e-05
-0.009818032838431119   -0.0011832430521339604   1.1821907632944319e-07
-0.003247092594416396   -0.012203178605845468   0.00015114892904046805
-0.009503862912318271   -0.01235126719759763   -3.3334041999612247e-05
-0.009818032838431119   -0.0011832430521339604   1.1821907632944319e-07
-0.009414791243095575   -0.012446837711085967   -8.300301161548606e-05
-0.003247092594416396   -0.012203178605845468   0.00015114892904046805
-0.009818032838431119   -0.0011832430521339604   1.1821907632944319e-07
-0.004194194405138105   -0.0007748029567303417   0.00010122761592237897
-0.003957835084171216   -0.0009982967393540937   -3.457998159663278e-05
-0.003247092594416396   -0.012203178605845468   0.00015114892904046805
-0.009818032838431119   -0.0011832430521339604   1.1821907632944319e-07
-0.003957835084171216   -0.0009982967393540937   -3.457998159663278e-05
-0.009414791243095575   -0.012446837711085967   -8.300301161548606e-05
-0.003247092594416396   -0.012203178605845468   0.00015114892904046805
-0.004194194405138105   -0.0007748029567303417   0.00010122761592237897
-0.009503862912318271   -0.01235126719759763   -3.3334041999612247e-05
-0.003374256033550424   -0.012091943873936658   0.00023633140995656555
-0.004194194405138105   -0.0007748029567303417   0.00010122761592237897
-0.009818032838431119   -0.0011832430521339604   1.1821907632944319e-07
-0.009503862912318271   -0.01235126719759763   -3.3334041999612247e-05
-0.009939034086905987   -0.0010400340795154817   6.221357359354469e-05
-0.003374256033550424   -0.012091943873936658   0.00023633140995656555
-0.009597043089350957   -0.012243427625226918   1.9204476076712227e-05
-0.009939034086905987   -0.0010400340795154817   6.221357359354469e-05
-0.009503862912318271   -0.01235126719759763   -3.3334041999612247e-05
-0.003374256033550424   -0.012091943873936658   0.00023633140995656555
-0.009939034086905987   -0.0010400340795154817   6.221357359354469e-05
-0.004342375893808498   -0.0006669615450604993   0.0001794497579406585
-0.004194194405138105   -0.0007748029567303417   0.00010122761592237897
-0.003374256033550424   -0.012091943873936658   0.00023633140995656555
-0.009939034086905987   -0.0010400340795154817   6.221357359354469e-05
-0.004194194405138105   -0.0007748029567303417   0.00010122761592237897
-0.009503862912318271   -0.01235126719759763   -3.3334041999612247e-05
-0.003374256033550424   -0.012091943873936658   0.00023633140995656555
-0.004342375893808498   -0.0006669615450604993   0.0001794497579406585
-0.009597043089350957   -0.012243427625226918   1.9204476076712227e-05
-0.003481118165983755   -0.01197227429648725   0.00031132326223075216
-0.004342375893808498   -0.0006669615450604993   0.0001794497579406585
-0.009939034086905987   -0.0010400340795154817   6.221357359354469e-05
-0.009597043089350957   -0.012243427625226918   1.9204476076712227e-05
-0.01007273388373323   -0.0008746604234969808   0.00012154829073906674
-0.003481118165983755   -0.01197227429648725   0.00031132326223075216
-0.009685565417563564   -0.012125236320606903   7.713022610493434e-05
-0.01007273388373323   -0.0008746604234969808   0.00012154829073906674
-0.009597043089350957   -0.012243427625226918   1.9204476076712227e-05
-0.003481118165983755   -0.01197227429648725   0.00031132326223075216
-0.01007273388373323   -0.0008746604234969808   0.00012154829073906674
-0.004540774045847236   -0.0005238448931222499   0.00026920253066890857
-0.004342375893808498   -0.0006669615450604993   0.0001794497579406585
-0.003481118165983755   -0.01197227429648725   0.00031132326223075216
-0.01007273388373323   -0.0008746604234969808   0.00012154829073906674
-0.004342375893808498   -0.0006669615450604993   0.0001794497579406585
-0.009597043089350957   -0.012243427625226918   1.9204476076712227e-05
-0.009414791243095575   -0.012446837711085967   -8.300301161548606e-05
-0.00969644647182292   -0.001305713807220801   -3.443906737799674e-05
-0.015833582854434633   -0.012588213600111985   -0.0002645677884553009
-0.009503862912318271   -0.01235126719759763   -3.3334041999612247e-05
-0.00969644647182292   -0.001305713807220801   -3.443906737799674e-05
-0.015990514845755702   -0.0013904396247626182   -0.00015006726978260303
-0.015833582854434633   -0.012588213600111985   -0.0002645677884553009
-0.016064140978916477   -0.0012945269109894844   -0.00014064896057333146
-0.009503862912318271   -0.01235126719759763   -3.3334041999612247e-05
-0.015913538641662985   -0.012490114310475633   -0.00022611442740580134
-0.016064140978916477   -0.0012945269109894844   -0.00014064896057333146
-0.015833582854434633   -0.012588213600111985   -0.0002645677884553009
-0.009503862912318271   -0.01235126719759763   -3.3334041999612247e-05
-0.016064140978916477   -0.0012945269109894844   -0.00014064896057333146
-0.009818032838431119   -0.0011832430521339604   1.1821907632944319e-07
-0.00969644647182292   -0.001305713807220801   -3.443906737799674e-05
-0.009503862912318271   -0.01235126719759763   -3.3334041999612247e-05
-0.016064140978916477   -0.0012945269109894844   -0.00014064896057333146
-0.00969644647182292   -0.001305713807220801   -3.443906737799674e-05
-0.015833582854434633   -0.012588213600111985   -0.0002645677884553009
-0.009503862912318271   -0.01235126719759763   -3.3334041999612247e-05
-0.009818032838431119   -0.0011832430521339604   1.1821907632944319e-07
-0.015913538641662985   -0.012490114310475633   -0.00022611442740580134
-0.009597043089350957   -0.012243427625226918   1.9204476076712227e-05
-0.009818032838431119   -0.0011832430521339604   1.1821907632944319e-07
-0.016064140978916477   -0.0012945269109894844   -0.00014064896057333146
-0.015913538641662985   -0.012490114310475633   -0.00022611442740580134
-0.016140672005289715   -0.0011834108938205126   -0.00012403186991223153
-0.009597043089350957   -0.012243427625226918   1.9204476076712227e-05
-0.015990039381429066   -0.012386535493092337   -0.00018780607387174083
-0.016140672005289715   -0.0011834108938205126   -0.00012403186991223153
-0.015913538641662985   -0.012490114310475633   -0.00022611442740580134
-0.009597043089350957   -0.012243427625226918   1.9204476076712227e-05
-0.016140672005289715   -0.0011834108938205126   -0.00012403186991223153
-0.009939034086905987   -0.0010400340795154817   6.221357359354469e-05
-0.009818032838431119   -0.0011832430521339604   1.1821907632944319e-07
-0.009597043089350957   -0.012243427625226918   1.9204476076712227e-05
-0.016140672005289715   -0.0011834108938205126   -0.00012403186991223153
-0.009818032838431119   -0.0011832430521339604   1.1821907632944319e-07
-0.015913538641662985   -0.012490114310475633   -0.00022611442740580134
-0.009597043089350957   -0.012243427625226918   1.9204476076712227e-05
-0.009939034086905987   -0.0010400340795154817   6.221357359354469e-05
-0.015990039381429066   -0.012386535493092337   -0.00018780607387174083
-0.009685565417563564   -0.012125236320606903   7.713022610493434e-05
-0.009939034086905987   -0.0010400340795154817   6.221357359354469e-05
-0.016140672005289715   -0.0011834108938205126   -0.00012403186991223153
-0.015990039381429066   -0.012386535493092337   -0.00018780607387174083
-0.016213047135455266   -0.0010485576053725033   -0.00010204630215009115
-0.009685565417563564   -0.012125236320606903   7.713022610493434e-05
-0.016060528113701556   -0.012274414753730964   -0.00014612103793577025
-0.016213047135455266   -0.0010485576053725033   -0.00010204630215009115
-0.015990039381429066   -0.012386535493092337   -0.00018780607387174083
-0.009685565417563564   -0.012125236320606903   7.713022610493434e-05
-0.016213047135455266   -0.0010485576053725033   -0.00010204630215009115
-0.01007273388373323   -0.0008746604234969808   0.00012154829073906674
-0.009939034086905987   -0.0010400340795154817   6.221357359354469e-05
-0.009685565417563564   -0.012125236320606903   7.713022610493434e-05
-0.016213047135455266   -0.0010485576053725033   -0.00010204630215009115
-0.009939034086905987   -0.0010400340795154817   6.221357359354469e-05
-0.015990039381429066   -0.012386535493092337   -0.00018780607387174083
-0.015833582854434633   -0.012588213600111985   -0.0002645677884553009
-0.015990514845755702   -0.0013904396247626182   -0.00015006726978260303
-0.022477821411333452   -0.012646184562121235   -0.00043222790238090164
-0.015913538641662985   -0.012490114310475633   -0.00022611442740580134
-0.015990514845755702   -0.0013904396247626182   -0.00015006726978260303
-0.02259392913840079   -0.001374534812204333   -0.000315316822675118
-0.022477821411333452   -0.012646184562121235   -0.00043222790238090164
-0.022643619816938177   -0.0012880393826558642   -0.00031130778662323463
-0.015913538641662985   -0.012490114310475633   -0.00022611442740580134
-0.022549845272270146   -0.012558012615115039   -0.00040422760116910024
-0.022643619816938177   -0.0012880393826558642   -0.00031130778662323463
-0.022477821411333452   -0.012646184562121235   -0.00043222790238090164
-0.015913538641662985   -0.012490114310475633   -0.00022611442740580134
-0.022643619816938177   -0.0012880393826558642   -0.00031130778662323463
-0.016064140978916477   -0.0012945269109894844   -0.00014064896057333146
-0.015990514845755702   -0.0013904396247626182   -0.00015006726978260303
-0.015913538641662985   -0.012490114310475633   -0.00022611442740580134
-0.022643619816938177   -0.0012880393826558642   -0.00031130778662323463
-0.015990514845755702   -0.0013904396247626182   -0.00015006726978260303
-0.022477821411333452   -0.012646184562121235   -0.00043222790238090164
-0.015913538641662985   -0.012490114310475633   -0.00022611442740580134
-0.016064140978916477   -0.0012945269109894844   -0.00014064896057333146
-0.022549845272270146   -0.012558012615115039   -0.00040422760116910024
-0.015990039381429066   -0.012386535493092337   -0.00018780607387174083
-0.016064140978916477   -0.0012945269109894844   -0.00014064896057333146
-0.022643619816938177   -0.0012880393826558642   -0.00031130778662323463
-0.022549845272270146   -0.012558012615115039   -0.00040422760116910024
-0.02269547056189197   -0.0011919630434507617   -0.0003086488944165786
-0.015990039381429066   -0.012386535493092337   -0.00018780607387174083
-0.022614024331785547   -0.012462023262037799   -0.00037704453017651385
-0.02269547056189197   -0.0011919630434507617   -0.0003086488944165786
-0.022549845272270146   -0.012558012615115039   -0.00040422760116910024
-0.015990039381429066   -0.012386535493092337   -0.00018780607387174083
-0.02269547056189197   -0.0011919630434507617   -0.0003086488944165786
-0.016140672005289715   -0.0011834108938205126   -0.00012403186991223153
-0.016064140978916477   -0.0012945269109894844   -0.00014064896057333146
-0.015990039381429066   -0.012386535493092337   -0.00018780607387174083
-0.02269547056189197   -0.0011919630434507617   -0.0003086488944165786
-0.016064140978916477   -0.0012945269109894844   -0.00014064896057333146
-0.022549845272270146   -0.012558012615115039   -0.00040422760116910024
-0.015990039381429066   -0.012386535493092337   -0.00018780607387174083
-0.016140672005289715   -0.0011834108938205126   -0.00012403186991223153
-0.022614024331785547   -0.012462023262037799   -0.00037704453017651385
-0.016060528113701556   -0.012274414753730964   -0.00014612103793577025
-0.016140672005289715   -0.0011834108938205126   -0.00012403186991223153
-0.02269547056189197   -0.0011919630434507617   -0.0003086488944165786
-0.022614024331785547   -0.012462023262037799   -0.00037704453017651385
-0.022734657620178574   -0.0010881381623984994   -0.0003075731434869761
-0.016060528113701556   -0.012274414753730964   -0.00014612103793577025
-0.022672132156334672   -0.012359865690768598   -0.00034907651710296714
-0.022734657620178574   -0.0010881381623984994   -0.0003075731434869761
-0.022614024331785547   -0.012462023262037799   -0.00037704453017651385
-0.016060528113701556   -0.012274414753730964   -0.00014612103793577025
-0.022734657620178574   -0.0010881381623984994   -0.0003075731434869761
-0.016213047135455266   -0.0010485576053725033   -0.00010204630215009115
-0.016140672005289715   -0.0011834108938205126   -0.00012403186991223153
-0.016060528113701556   -0.012274414753730964   -0.00014612103793577025
-0.022734657620178574   -0.0010881381623984994   -0.0003075731434869761
-0.016140672005289715   -0.0011834108938205126   -0.00012403186991223153
-0.022614024331785547   -0.012462023262037799   -0.00037704453017651385
-0.022477821411333452   -0.012646184562121235   -0.00043222790238090164
-0.02259392913840079   -0.001374534812204333   -0.000315316822675118
-0.02935793377555376   -0.01265273809464781   -0.0005715657514221724
-0.022549845272270146   -0.012558012615115039   -0.00040422760116910024
-0.02259392913840079   -0.001374534812204333   -0.000315316822675118
-0.029379076742688685   -0.0013644500775761808   -0.0004778990916275311
-0.02935793377555376   -0.01265273809464781   -0.0005715657514221724
-0.02941907401823586   -0.0012705491355672956   -0.00047788941322682933
-0.022549845272270146   -0.012558012615115039   -0.00040422760116910024
-0.029419878428549543   -0.012567122030071627   -0.0005596063296931031
-0.02941907401823586   -0.0012705491355672956   -0.00047788941322682933
-0.02935793377555376   -0.01265273809464781   -0.0005715657514221724
-0.022549845272270146   -0.012558012615115039   -0.00040422760116910024
-0.02941907401823586   -0.0012705491355672956   -0.00047788941322682933
-0.022643619816938177   -0.0012880393826558642   -0.00031130778662323463
-0.02259392913840079   -0.001374534812204333   -0.000315316822675118
-0.022549845272270146   -0.012558012615115039   -0.00040422760116910024
-0.02941907401823586   -0.0012705491355672956   -0.00047788941322682933
-0.02259392913840079   -0.001374534812204333   -0.000315316822675118
-0.02935793377555376   -0.01265273809464781   -0.0005715657514221724
-0.022549845272270146   -0.012558012615115039   -0.00040422760116910024
-0.022643619816938177   -0.0012880393826558642   -0.00031130778662323463
-0.029419878428549543   -0.012567122030071627   -0.0005596063296931031
-0.022614024331785547   -0.012462023262037799   -0.00037704453017651385
-0.022643619816938177   -0.0012880393826558642   -0.00031130778662323463
-0.02941907401823586   -0.0012705491355672956   -0.00047788941322682933
-0.029419878428549543   -0.012567122030071627   -0.0005596063296931031
-0.029462997751964388   -0.0011768743514099453   -0.00048519972420601294
-0.022614024331785547   -0.012462023262037799   -0.00037704453017651385
-0.02947537533497289   -0.012474601916494129   -0.0005456305762574814
-0.029462997751964388   -0.0011768743514099453   -0.00048519972420601294
-0.029419878428549543   -0.012567122030071627   -0.0005596063296931031
-0.022614024331785547   -0.012462023262037799   -0.00037704453017651385
-0.029462997751964388   -0.0011768743514099453   -0.00048519972420601294
-0.02269547056189197   -0.0011919630434507617   -0.0003086488944165786
-0.022643619816938177   -0.0012880393826558642   -0.00031130778662323463
-0.022614024331785547   -0.012462023262037799   -0.00037704453017651385
-0.029462997751964388   -0.0011768743514099453   -0.00048519972420601294
-0.022643619816938177   -0.0012880393826558642   -0.00031130778662323463
-0.029419878428549543   -0.012567122030071627   -0.0005596063296931031
-0.022614024331785547   -0.012462023262037799   -0.00037704453017651385
-0.02269547056189197   -0.0011919630434507617   -0.0003086488944165786
-0.02947537533497289   -0.012474601916494129   -0.0005456305762574814
-0.022672132156334672   -0.012359865690768598   -0.00034907651710296714
-0.02269547056189197   -0.0011919630434507617   -0.0003086488944165786
-0.029462997751964388   -0.0011768743514099453   -0.00048519972420601294
-0.02947537533497289   -0.012474601916494129   -0.0005456305762574814
-0.02949529390063359   -0.0010749822871285058   -0.0004930037766486435
-0.022672132156334672   -0.012359865690768598   -0.00034907651710296714
-0.029522123394273632   -0.012376622851721   -0.0005326718279543217
-0.02949529390063359   -0.0010749822871285058   -0.0004930037766486435
-0.02947537533497289   -0.012474601916494129   -0.0005456305762574814
-0.022672132156334672   -0.012359865690768598   -0.00034907651710296714
-0.02949529390063359   -0.0010749822871285058   -0.0004930037766486435
-0.022734657620178574   -0.0010881381623984994   -0.0003075731434869761
-0.02269547056189197   -0.0011919630434507617   -0.0003086488944165786
-0.022672132156334672   -0.012359865690768598   -0.00034907651710296714
-0.02949529390063359   -0.0010749822871285058   -0.0004930037766486435
-0.02269547056189197   -0.0011919630434507617   -0.0003086488944165786
-0.02947537533497289   -0.012474601916494129   -0.0005456305762574814
              </DataArray>   
          </PointData>  
       </Piece>  
   </UnstructuredGrid> 
</VTKFile> 
