<?xml version="1.0"?> 
<VTKFile type="UnstructuredGrid"> 
   <UnstructuredGrid> 
      <Piece NumberOfPoints="6000"  NumberOfCells="1500">  
          <Points>  
             <DataArray type="Float64" NumberOfComponents="3" format="ascii">   
-500.0   0.0   0.0
-450.0   0.0   0.0
-500.0   30.0   0.0
-500.0   0.0   16.666666666666668
-450.0   0.0   0.0
-450.0   30.0   0.0
-500.0   30.0   0.0
-450.0   30.0   16.666666666666668
-500.0   0.0   16.666666666666668
-500.0   30.0   16.666666666666668
-450.0   30.0   16.666666666666668
-500.0   30.0   0.0
-500.0   0.0   16.666666666666668
-450.0   30.0   16.666666666666668
-450.0   0.0   16.666666666666668
-450.0   0.0   0.0
-500.0   0.0   16.666666666666668
-450.0   30.0   16.666666666666668
-450.0   0.0   0.0
-500.0   30.0   0.0
-500.0   0.0   16.666666666666668
-450.0   0.0   16.666666666666668
-500.0   30.0   16.666666666666668
-500.0   0.0   33.333333333333336
-450.0   0.0   16.666666666666668
-450.0   30.0   16.666666666666668
-500.0   30.0   16.666666666666668
-450.0   30.0   33.333333333333336
-500.0   0.0   33.333333333333336
-500.0   30.0   33.333333333333336
-450.0   30.0   33.333333333333336
-500.0   30.0   16.666666666666668
-500.0   0.0   33.333333333333336
-450.0   30.0   33.333333333333336
-450.0   0.0   33.333333333333336
-450.0   0.0   16.666666666666668
-500.0   0.0   33.333333333333336
-450.0   30.0   33.333333333333336
-450.0   0.0   16.666666666666668
-500.0   30.0   16.666666666666668
-500.0   0.0   33.333333333333336
-450.0   0.0   33.333333333333336
-500.0   30.0   33.333333333333336
-500.0   0.0   50.0
-450.0   0.0   33.333333333333336
-450.0   30.0   33.333333333333336
-500.0   30.0   33.333333333333336
-450.0   30.0   50.0
-500.0   0.0   50.0
-500.0   30.0   50.0
-450.0   30.0   50.0
-500.0   30.0   33.333333333333336
-500.0   0.0   50.0
-450.0   30.0   50.0
-450.0   0.0   50.0
-450.0   0.0   33.333333333333336
-500.0   0.0   50.0
-450.0   30.0   50.0
-450.0   0.0   33.333333333333336
-500.0   30.0   33.333333333333336
-500.0   30.0   0.0
-450.0   30.0   0.0
-500.0   60.0   0.0
-500.0   30.0   16.666666666666668
-450.0   30.0   0.0
-450.0   60.0   0.0
-500.0   60.0   0.0
-450.0   60.0   16.666666666666668
-500.0   30.0   16.666666666666668
-500.0   60.0   16.666666666666668
-450.0   60.0   16.666666666666668
-500.0   60.0   0.0
-500.0   30.0   16.666666666666668
-450.0   60.0   16.666666666666668
-450.0   30.0   16.666666666666668
-450.0   30.0   0.0
-500.0   30.0   16.666666666666668
-450.0   60.0   16.666666666666668
-450.0   30.0   0.0
-500.0   60.0   0.0
-500.0   30.0   16.666666666666668
-450.0   30.0   16.666666666666668
-500.0   60.0   16.666666666666668
-500.0   30.0   33.333333333333336
-450.0   30.0   16.666666666666668
-450.0   60.0   16.666666666666668
-500.0   60.0   16.666666666666668
-450.0   60.0   33.333333333333336
-500.0   30.0   33.333333333333336
-500.0   60.0   33.333333333333336
-450.0   60.0   33.333333333333336
-500.0   60.0   16.666666666666668
-500.0   30.0   33.333333333333336
-450.0   60.0   33.333333333333336
-450.0   30.0   33.333333333333336
-450.0   30.0   16.666666666666668
-500.0   30.0   33.333333333333336
-450.0   60.0   33.333333333333336
-450.0   30.0   16.666666666666668
-500.0   60.0   16.666666666666668
-500.0   30.0   33.333333333333336
-450.0   30.0   33.333333333333336
-500.0   60.0   33.333333333333336
-500.0   30.0   50.0
-450.0   30.0   33.333333333333336
-450.0   60.0   33.333333333333336
-500.0   60.0   33.333333333333336
-450.0   60.0   50.0
-500.0   30.0   50.0
-500.0   60.0   50.0
-450.0   60.0   50.0
-500.0   60.0   33.333333333333336
-500.0   30.0   50.0
-450.0   60.0   50.0
-450.0   30.0   50.0
-450.0   30.0   33.333333333333336
-500.0   30.0   50.0
-450.0   60.0   50.0
-450.0   30.0   33.333333333333336
-500.0   60.0   33.333333333333336
-500.0   60.0   0.0
-450.0   60.0   0.0
-500.0   90.0   0.0
-500.0   60.0   16.666666666666668
-450.0   60.0   0.0
-450.0   90.0   0.0
-500.0   90.0   0.0
-450.0   90.0   16.666666666666668
-500.0   60.0   16.666666666666668
-500.0   90.0   16.666666666666668
-450.0   90.0   16.666666666666668
-500.0   90.0   0.0
-500.0   60.0   16.666666666666668
-450.0   90.0   16.666666666666668
-450.0   60.0   16.666666666666668
-450.0   60.0   0.0
-500.0   60.0   16.666666666666668
-450.0   90.0   16.666666666666668
-450.0   60.0   0.0
-500.0   90.0   0.0
-500.0   60.0   16.666666666666668
-450.0   60.0   16.666666666666668
-500.0   90.0   16.666666666666668
-500.0   60.0   33.333333333333336
-450.0   60.0   16.666666666666668
-450.0   90.0   16.666666666666668
-500.0   90.0   16.666666666666668
-450.0   90.0   33.333333333333336
-500.0   60.0   33.333333333333336
-500.0   90.0   33.333333333333336
-450.0   90.0   33.333333333333336
-500.0   90.0   16.666666666666668
-500.0   60.0   33.333333333333336
-450.0   90.0   33.333333333333336
-450.0   60.0   33.333333333333336
-450.0   60.0   16.666666666666668
-500.0   60.0   33.333333333333336
-450.0   90.0   33.333333333333336
-450.0   60.0   16.666666666666668
-500.0   90.0   16.666666666666668
-500.0   60.0   33.333333333333336
-450.0   60.0   33.333333333333336
-500.0   90.0   33.333333333333336
-500.0   60.0   50.0
-450.0   60.0   33.333333333333336
-450.0   90.0   33.333333333333336
-500.0   90.0   33.333333333333336
-450.0   90.0   50.0
-500.0   60.0   50.0
-500.0   90.0   50.0
-450.0   90.0   50.0
-500.0   90.0   33.333333333333336
-500.0   60.0   50.0
-450.0   90.0   50.0
-450.0   60.0   50.0
-450.0   60.0   33.333333333333336
-500.0   60.0   50.0
-450.0   90.0   50.0
-450.0   60.0   33.333333333333336
-500.0   90.0   33.333333333333336
-500.0   90.0   0.0
-450.0   90.0   0.0
-500.0   120.0   0.0
-500.0   90.0   16.666666666666668
-450.0   90.0   0.0
-450.0   120.0   0.0
-500.0   120.0   0.0
-450.0   120.0   16.666666666666668
-500.0   90.0   16.666666666666668
-500.0   120.0   16.666666666666668
-450.0   120.0   16.666666666666668
-500.0   120.0   0.0
-500.0   90.0   16.666666666666668
-450.0   120.0   16.666666666666668
-450.0   90.0   16.666666666666668
-450.0   90.0   0.0
-500.0   90.0   16.666666666666668
-450.0   120.0   16.666666666666668
-450.0   90.0   0.0
-500.0   120.0   0.0
-500.0   90.0   16.666666666666668
-450.0   90.0   16.666666666666668
-500.0   120.0   16.666666666666668
-500.0   90.0   33.333333333333336
-450.0   90.0   16.666666666666668
-450.0   120.0   16.666666666666668
-500.0   120.0   16.666666666666668
-450.0   120.0   33.333333333333336
-500.0   90.0   33.333333333333336
-500.0   120.0   33.333333333333336
-450.0   120.0   33.333333333333336
-500.0   120.0   16.666666666666668
-500.0   90.0   33.333333333333336
-450.0   120.0   33.333333333333336
-450.0   90.0   33.333333333333336
-450.0   90.0   16.666666666666668
-500.0   90.0   33.333333333333336
-450.0   120.0   33.333333333333336
-450.0   90.0   16.666666666666668
-500.0   120.0   16.666666666666668
-500.0   90.0   33.333333333333336
-450.0   90.0   33.333333333333336
-500.0   120.0   33.333333333333336
-500.0   90.0   50.0
-450.0   90.0   33.333333333333336
-450.0   120.0   33.333333333333336
-500.0   120.0   33.333333333333336
-450.0   120.0   50.0
-500.0   90.0   50.0
-500.0   120.0   50.0
-450.0   120.0   50.0
-500.0   120.0   33.333333333333336
-500.0   90.0   50.0
-450.0   120.0   50.0
-450.0   90.0   50.0
-450.0   90.0   33.333333333333336
-500.0   90.0   50.0
-450.0   120.0   50.0
-450.0   90.0   33.333333333333336
-500.0   120.0   33.333333333333336
-500.0   120.0   0.0
-450.0   120.0   0.0
-500.0   150.0   0.0
-500.0   120.0   16.666666666666668
-450.0   120.0   0.0
-450.0   150.0   0.0
-500.0   150.0   0.0
-450.0   150.0   16.666666666666668
-500.0   120.0   16.666666666666668
-500.0   150.0   16.666666666666668
-450.0   150.0   16.666666666666668
-500.0   150.0   0.0
-500.0   120.0   16.666666666666668
-450.0   150.0   16.666666666666668
-450.0   120.0   16.666666666666668
-450.0   120.0   0.0
-500.0   120.0   16.666666666666668
-450.0   150.0   16.666666666666668
-450.0   120.0   0.0
-500.0   150.0   0.0
-500.0   120.0   16.666666666666668
-450.0   120.0   16.666666666666668
-500.0   150.0   16.666666666666668
-500.0   120.0   33.333333333333336
-450.0   120.0   16.666666666666668
-450.0   150.0   16.666666666666668
-500.0   150.0   16.666666666666668
-450.0   150.0   33.333333333333336
-500.0   120.0   33.333333333333336
-500.0   150.0   33.333333333333336
-450.0   150.0   33.333333333333336
-500.0   150.0   16.666666666666668
-500.0   120.0   33.333333333333336
-450.0   150.0   33.333333333333336
-450.0   120.0   33.333333333333336
-450.0   120.0   16.666666666666668
-500.0   120.0   33.333333333333336
-450.0   150.0   33.333333333333336
-450.0   120.0   16.666666666666668
-500.0   150.0   16.666666666666668
-500.0   120.0   33.333333333333336
-450.0   120.0   33.333333333333336
-500.0   150.0   33.333333333333336
-500.0   120.0   50.0
-450.0   120.0   33.333333333333336
-450.0   150.0   33.333333333333336
-500.0   150.0   33.333333333333336
-450.0   150.0   50.0
-500.0   120.0   50.0
-500.0   150.0   50.0
-450.0   150.0   50.0
-500.0   150.0   33.333333333333336
-500.0   120.0   50.0
-450.0   150.0   50.0
-450.0   120.0   50.0
-450.0   120.0   33.333333333333336
-500.0   120.0   50.0
-450.0   150.0   50.0
-450.0   120.0   33.333333333333336
-500.0   150.0   33.333333333333336
-450.0   0.0   0.0
-400.0   0.0   0.0
-450.0   30.0   0.0
-450.0   0.0   16.666666666666668
-400.0   0.0   0.0
-400.0   30.0   0.0
-450.0   30.0   0.0
-400.0   30.0   16.666666666666668
-450.0   0.0   16.666666666666668
-450.0   30.0   16.666666666666668
-400.0   30.0   16.666666666666668
-450.0   30.0   0.0
-450.0   0.0   16.666666666666668
-400.0   30.0   16.666666666666668
-400.0   0.0   16.666666666666668
-400.0   0.0   0.0
-450.0   0.0   16.666666666666668
-400.0   30.0   16.666666666666668
-400.0   0.0   0.0
-450.0   30.0   0.0
-450.0   0.0   16.666666666666668
-400.0   0.0   16.666666666666668
-450.0   30.0   16.666666666666668
-450.0   0.0   33.333333333333336
-400.0   0.0   16.666666666666668
-400.0   30.0   16.666666666666668
-450.0   30.0   16.666666666666668
-400.0   30.0   33.333333333333336
-450.0   0.0   33.333333333333336
-450.0   30.0   33.333333333333336
-400.0   30.0   33.333333333333336
-450.0   30.0   16.666666666666668
-450.0   0.0   33.333333333333336
-400.0   30.0   33.333333333333336
-400.0   0.0   33.333333333333336
-400.0   0.0   16.666666666666668
-450.0   0.0   33.333333333333336
-400.0   30.0   33.333333333333336
-400.0   0.0   16.666666666666668
-450.0   30.0   16.666666666666668
-450.0   0.0   33.333333333333336
-400.0   0.0   33.333333333333336
-450.0   30.0   33.333333333333336
-450.0   0.0   50.0
-400.0   0.0   33.333333333333336
-400.0   30.0   33.333333333333336
-450.0   30.0   33.333333333333336
-400.0   30.0   50.0
-450.0   0.0   50.0
-450.0   30.0   50.0
-400.0   30.0   50.0
-450.0   30.0   33.333333333333336
-450.0   0.0   50.0
-400.0   30.0   50.0
-400.0   0.0   50.0
-400.0   0.0   33.333333333333336
-450.0   0.0   50.0
-400.0   30.0   50.0
-400.0   0.0   33.333333333333336
-450.0   30.0   33.333333333333336
-450.0   30.0   0.0
-400.0   30.0   0.0
-450.0   60.0   0.0
-450.0   30.0   16.666666666666668
-400.0   30.0   0.0
-400.0   60.0   0.0
-450.0   60.0   0.0
-400.0   60.0   16.666666666666668
-450.0   30.0   16.666666666666668
-450.0   60.0   16.666666666666668
-400.0   60.0   16.666666666666668
-450.0   60.0   0.0
-450.0   30.0   16.666666666666668
-400.0   60.0   16.666666666666668
-400.0   30.0   16.666666666666668
-400.0   30.0   0.0
-450.0   30.0   16.666666666666668
-400.0   60.0   16.666666666666668
-400.0   30.0   0.0
-450.0   60.0   0.0
-450.0   30.0   16.666666666666668
-400.0   30.0   16.666666666666668
-450.0   60.0   16.666666666666668
-450.0   30.0   33.333333333333336
-400.0   30.0   16.666666666666668
-400.0   60.0   16.666666666666668
-450.0   60.0   16.666666666666668
-400.0   60.0   33.333333333333336
-450.0   30.0   33.333333333333336
-450.0   60.0   33.333333333333336
-400.0   60.0   33.333333333333336
-450.0   60.0   16.666666666666668
-450.0   30.0   33.333333333333336
-400.0   60.0   33.333333333333336
-400.0   30.0   33.333333333333336
-400.0   30.0   16.666666666666668
-450.0   30.0   33.333333333333336
-400.0   60.0   33.333333333333336
-400.0   30.0   16.666666666666668
-450.0   60.0   16.666666666666668
-450.0   30.0   33.333333333333336
-400.0   30.0   33.333333333333336
-450.0   60.0   33.333333333333336
-450.0   30.0   50.0
-400.0   30.0   33.333333333333336
-400.0   60.0   33.333333333333336
-450.0   60.0   33.333333333333336
-400.0   60.0   50.0
-450.0   30.0   50.0
-450.0   60.0   50.0
-400.0   60.0   50.0
-450.0   60.0   33.333333333333336
-450.0   30.0   50.0
-400.0   60.0   50.0
-400.0   30.0   50.0
-400.0   30.0   33.333333333333336
-450.0   30.0   50.0
-400.0   60.0   50.0
-400.0   30.0   33.333333333333336
-450.0   60.0   33.333333333333336
-450.0   60.0   0.0
-400.0   60.0   0.0
-450.0   90.0   0.0
-450.0   60.0   16.666666666666668
-400.0   60.0   0.0
-400.0   90.0   0.0
-450.0   90.0   0.0
-400.0   90.0   16.666666666666668
-450.0   60.0   16.666666666666668
-450.0   90.0   16.666666666666668
-400.0   90.0   16.666666666666668
-450.0   90.0   0.0
-450.0   60.0   16.666666666666668
-400.0   90.0   16.666666666666668
-400.0   60.0   16.666666666666668
-400.0   60.0   0.0
-450.0   60.0   16.666666666666668
-400.0   90.0   16.666666666666668
-400.0   60.0   0.0
-450.0   90.0   0.0
-450.0   60.0   16.666666666666668
-400.0   60.0   16.666666666666668
-450.0   90.0   16.666666666666668
-450.0   60.0   33.333333333333336
-400.0   60.0   16.666666666666668
-400.0   90.0   16.666666666666668
-450.0   90.0   16.666666666666668
-400.0   90.0   33.333333333333336
-450.0   60.0   33.333333333333336
-450.0   90.0   33.333333333333336
-400.0   90.0   33.333333333333336
-450.0   90.0   16.666666666666668
-450.0   60.0   33.333333333333336
-400.0   90.0   33.333333333333336
-400.0   60.0   33.333333333333336
-400.0   60.0   16.666666666666668
-450.0   60.0   33.333333333333336
-400.0   90.0   33.333333333333336
-400.0   60.0   16.666666666666668
-450.0   90.0   16.666666666666668
-450.0   60.0   33.333333333333336
-400.0   60.0   33.333333333333336
-450.0   90.0   33.333333333333336
-450.0   60.0   50.0
-400.0   60.0   33.333333333333336
-400.0   90.0   33.333333333333336
-450.0   90.0   33.333333333333336
-400.0   90.0   50.0
-450.0   60.0   50.0
-450.0   90.0   50.0
-400.0   90.0   50.0
-450.0   90.0   33.333333333333336
-450.0   60.0   50.0
-400.0   90.0   50.0
-400.0   60.0   50.0
-400.0   60.0   33.333333333333336
-450.0   60.0   50.0
-400.0   90.0   50.0
-400.0   60.0   33.333333333333336
-450.0   90.0   33.333333333333336
-450.0   90.0   0.0
-400.0   90.0   0.0
-450.0   120.0   0.0
-450.0   90.0   16.666666666666668
-400.0   90.0   0.0
-400.0   120.0   0.0
-450.0   120.0   0.0
-400.0   120.0   16.666666666666668
-450.0   90.0   16.666666666666668
-450.0   120.0   16.666666666666668
-400.0   120.0   16.666666666666668
-450.0   120.0   0.0
-450.0   90.0   16.666666666666668
-400.0   120.0   16.666666666666668
-400.0   90.0   16.666666666666668
-400.0   90.0   0.0
-450.0   90.0   16.666666666666668
-400.0   120.0   16.666666666666668
-400.0   90.0   0.0
-450.0   120.0   0.0
-450.0   90.0   16.666666666666668
-400.0   90.0   16.666666666666668
-450.0   120.0   16.666666666666668
-450.0   90.0   33.333333333333336
-400.0   90.0   16.666666666666668
-400.0   120.0   16.666666666666668
-450.0   120.0   16.666666666666668
-400.0   120.0   33.333333333333336
-450.0   90.0   33.333333333333336
-450.0   120.0   33.333333333333336
-400.0   120.0   33.333333333333336
-450.0   120.0   16.666666666666668
-450.0   90.0   33.333333333333336
-400.0   120.0   33.333333333333336
-400.0   90.0   33.333333333333336
-400.0   90.0   16.666666666666668
-450.0   90.0   33.333333333333336
-400.0   120.0   33.333333333333336
-400.0   90.0   16.666666666666668
-450.0   120.0   16.666666666666668
-450.0   90.0   33.333333333333336
-400.0   90.0   33.333333333333336
-450.0   120.0   33.333333333333336
-450.0   90.0   50.0
-400.0   90.0   33.333333333333336
-400.0   120.0   33.333333333333336
-450.0   120.0   33.333333333333336
-400.0   120.0   50.0
-450.0   90.0   50.0
-450.0   120.0   50.0
-400.0   120.0   50.0
-450.0   120.0   33.333333333333336
-450.0   90.0   50.0
-400.0   120.0   50.0
-400.0   90.0   50.0
-400.0   90.0   33.333333333333336
-450.0   90.0   50.0
-400.0   120.0   50.0
-400.0   90.0   33.333333333333336
-450.0   120.0   33.333333333333336
-450.0   120.0   0.0
-400.0   120.0   0.0
-450.0   150.0   0.0
-450.0   120.0   16.666666666666668
-400.0   120.0   0.0
-400.0   150.0   0.0
-450.0   150.0   0.0
-400.0   150.0   16.666666666666668
-450.0   120.0   16.666666666666668
-450.0   150.0   16.666666666666668
-400.0   150.0   16.666666666666668
-450.0   150.0   0.0
-450.0   120.0   16.666666666666668
-400.0   150.0   16.666666666666668
-400.0   120.0   16.666666666666668
-400.0   120.0   0.0
-450.0   120.0   16.666666666666668
-400.0   150.0   16.666666666666668
-400.0   120.0   0.0
-450.0   150.0   0.0
-450.0   120.0   16.666666666666668
-400.0   120.0   16.666666666666668
-450.0   150.0   16.666666666666668
-450.0   120.0   33.333333333333336
-400.0   120.0   16.666666666666668
-400.0   150.0   16.666666666666668
-450.0   150.0   16.666666666666668
-400.0   150.0   33.333333333333336
-450.0   120.0   33.333333333333336
-450.0   150.0   33.333333333333336
-400.0   150.0   33.333333333333336
-450.0   150.0   16.666666666666668
-450.0   120.0   33.333333333333336
-400.0   150.0   33.333333333333336
-400.0   120.0   33.333333333333336
-400.0   120.0   16.666666666666668
-450.0   120.0   33.333333333333336
-400.0   150.0   33.333333333333336
-400.0   120.0   16.666666666666668
-450.0   150.0   16.666666666666668
-450.0   120.0   33.333333333333336
-400.0   120.0   33.333333333333336
-450.0   150.0   33.333333333333336
-450.0   120.0   50.0
-400.0   120.0   33.333333333333336
-400.0   150.0   33.333333333333336
-450.0   150.0   33.333333333333336
-400.0   150.0   50.0
-450.0   120.0   50.0
-450.0   150.0   50.0
-400.0   150.0   50.0
-450.0   150.0   33.333333333333336
-450.0   120.0   50.0
-400.0   150.0   50.0
-400.0   120.0   50.0
-400.0   120.0   33.333333333333336
-450.0   120.0   50.0
-400.0   150.0   50.0
-400.0   120.0   33.333333333333336
-450.0   150.0   33.333333333333336
-400.0   0.0   0.0
-350.0   0.0   0.0
-400.0   30.0   0.0
-400.0   0.0   16.666666666666668
-350.0   0.0   0.0
-350.0   30.0   0.0
-400.0   30.0   0.0
-350.0   30.0   16.666666666666668
-400.0   0.0   16.666666666666668
-400.0   30.0   16.666666666666668
-350.0   30.0   16.666666666666668
-400.0   30.0   0.0
-400.0   0.0   16.666666666666668
-350.0   30.0   16.666666666666668
-350.0   0.0   16.666666666666668
-350.0   0.0   0.0
-400.0   0.0   16.666666666666668
-350.0   30.0   16.666666666666668
-350.0   0.0   0.0
-400.0   30.0   0.0
-400.0   0.0   16.666666666666668
-350.0   0.0   16.666666666666668
-400.0   30.0   16.666666666666668
-400.0   0.0   33.333333333333336
-350.0   0.0   16.666666666666668
-350.0   30.0   16.666666666666668
-400.0   30.0   16.666666666666668
-350.0   30.0   33.333333333333336
-400.0   0.0   33.333333333333336
-400.0   30.0   33.333333333333336
-350.0   30.0   33.333333333333336
-400.0   30.0   16.666666666666668
-400.0   0.0   33.333333333333336
-350.0   30.0   33.333333333333336
-350.0   0.0   33.333333333333336
-350.0   0.0   16.666666666666668
-400.0   0.0   33.333333333333336
-350.0   30.0   33.333333333333336
-350.0   0.0   16.666666666666668
-400.0   30.0   16.666666666666668
-400.0   0.0   33.333333333333336
-350.0   0.0   33.333333333333336
-400.0   30.0   33.333333333333336
-400.0   0.0   50.0
-350.0   0.0   33.333333333333336
-350.0   30.0   33.333333333333336
-400.0   30.0   33.333333333333336
-350.0   30.0   50.0
-400.0   0.0   50.0
-400.0   30.0   50.0
-350.0   30.0   50.0
-400.0   30.0   33.333333333333336
-400.0   0.0   50.0
-350.0   30.0   50.0
-350.0   0.0   50.0
-350.0   0.0   33.333333333333336
-400.0   0.0   50.0
-350.0   30.0   50.0
-350.0   0.0   33.333333333333336
-400.0   30.0   33.333333333333336
-400.0   30.0   0.0
-350.0   30.0   0.0
-400.0   60.0   0.0
-400.0   30.0   16.666666666666668
-350.0   30.0   0.0
-350.0   60.0   0.0
-400.0   60.0   0.0
-350.0   60.0   16.666666666666668
-400.0   30.0   16.666666666666668
-400.0   60.0   16.666666666666668
-350.0   60.0   16.666666666666668
-400.0   60.0   0.0
-400.0   30.0   16.666666666666668
-350.0   60.0   16.666666666666668
-350.0   30.0   16.666666666666668
-350.0   30.0   0.0
-400.0   30.0   16.666666666666668
-350.0   60.0   16.666666666666668
-350.0   30.0   0.0
-400.0   60.0   0.0
-400.0   30.0   16.666666666666668
-350.0   30.0   16.666666666666668
-400.0   60.0   16.666666666666668
-400.0   30.0   33.333333333333336
-350.0   30.0   16.666666666666668
-350.0   60.0   16.666666666666668
-400.0   60.0   16.666666666666668
-350.0   60.0   33.333333333333336
-400.0   30.0   33.333333333333336
-400.0   60.0   33.333333333333336
-350.0   60.0   33.333333333333336
-400.0   60.0   16.666666666666668
-400.0   30.0   33.333333333333336
-350.0   60.0   33.333333333333336
-350.0   30.0   33.333333333333336
-350.0   30.0   16.666666666666668
-400.0   30.0   33.333333333333336
-350.0   60.0   33.333333333333336
-350.0   30.0   16.666666666666668
-400.0   60.0   16.666666666666668
-400.0   30.0   33.333333333333336
-350.0   30.0   33.333333333333336
-400.0   60.0   33.333333333333336
-400.0   30.0   50.0
-350.0   30.0   33.333333333333336
-350.0   60.0   33.333333333333336
-400.0   60.0   33.333333333333336
-350.0   60.0   50.0
-400.0   30.0   50.0
-400.0   60.0   50.0
-350.0   60.0   50.0
-400.0   60.0   33.333333333333336
-400.0   30.0   50.0
-350.0   60.0   50.0
-350.0   30.0   50.0
-350.0   30.0   33.333333333333336
-400.0   30.0   50.0
-350.0   60.0   50.0
-350.0   30.0   33.333333333333336
-400.0   60.0   33.333333333333336
-400.0   60.0   0.0
-350.0   60.0   0.0
-400.0   90.0   0.0
-400.0   60.0   16.666666666666668
-350.0   60.0   0.0
-350.0   90.0   0.0
-400.0   90.0   0.0
-350.0   90.0   16.666666666666668
-400.0   60.0   16.666666666666668
-400.0   90.0   16.666666666666668
-350.0   90.0   16.666666666666668
-400.0   90.0   0.0
-400.0   60.0   16.666666666666668
-350.0   90.0   16.666666666666668
-350.0   60.0   16.666666666666668
-350.0   60.0   0.0
-400.0   60.0   16.666666666666668
-350.0   90.0   16.666666666666668
-350.0   60.0   0.0
-400.0   90.0   0.0
-400.0   60.0   16.666666666666668
-350.0   60.0   16.666666666666668
-400.0   90.0   16.666666666666668
-400.0   60.0   33.333333333333336
-350.0   60.0   16.666666666666668
-350.0   90.0   16.666666666666668
-400.0   90.0   16.666666666666668
-350.0   90.0   33.333333333333336
-400.0   60.0   33.333333333333336
-400.0   90.0   33.333333333333336
-350.0   90.0   33.333333333333336
-400.0   90.0   16.666666666666668
-400.0   60.0   33.333333333333336
-350.0   90.0   33.333333333333336
-350.0   60.0   33.333333333333336
-350.0   60.0   16.666666666666668
-400.0   60.0   33.333333333333336
-350.0   90.0   33.333333333333336
-350.0   60.0   16.666666666666668
-400.0   90.0   16.666666666666668
-400.0   60.0   33.333333333333336
-350.0   60.0   33.333333333333336
-400.0   90.0   33.333333333333336
-400.0   60.0   50.0
-350.0   60.0   33.333333333333336
-350.0   90.0   33.333333333333336
-400.0   90.0   33.333333333333336
-350.0   90.0   50.0
-400.0   60.0   50.0
-400.0   90.0   50.0
-350.0   90.0   50.0
-400.0   90.0   33.333333333333336
-400.0   60.0   50.0
-350.0   90.0   50.0
-350.0   60.0   50.0
-350.0   60.0   33.333333333333336
-400.0   60.0   50.0
-350.0   90.0   50.0
-350.0   60.0   33.333333333333336
-400.0   90.0   33.333333333333336
-400.0   90.0   0.0
-350.0   90.0   0.0
-400.0   120.0   0.0
-400.0   90.0   16.666666666666668
-350.0   90.0   0.0
-350.0   120.0   0.0
-400.0   120.0   0.0
-350.0   120.0   16.666666666666668
-400.0   90.0   16.666666666666668
-400.0   120.0   16.666666666666668
-350.0   120.0   16.666666666666668
-400.0   120.0   0.0
-400.0   90.0   16.666666666666668
-350.0   120.0   16.666666666666668
-350.0   90.0   16.666666666666668
-350.0   90.0   0.0
-400.0   90.0   16.666666666666668
-350.0   120.0   16.666666666666668
-350.0   90.0   0.0
-400.0   120.0   0.0
-400.0   90.0   16.666666666666668
-350.0   90.0   16.666666666666668
-400.0   120.0   16.666666666666668
-400.0   90.0   33.333333333333336
-350.0   90.0   16.666666666666668
-350.0   120.0   16.666666666666668
-400.0   120.0   16.666666666666668
-350.0   120.0   33.333333333333336
-400.0   90.0   33.333333333333336
-400.0   120.0   33.333333333333336
-350.0   120.0   33.333333333333336
-400.0   120.0   16.666666666666668
-400.0   90.0   33.333333333333336
-350.0   120.0   33.333333333333336
-350.0   90.0   33.333333333333336
-350.0   90.0   16.666666666666668
-400.0   90.0   33.333333333333336
-350.0   120.0   33.333333333333336
-350.0   90.0   16.666666666666668
-400.0   120.0   16.666666666666668
-400.0   90.0   33.333333333333336
-350.0   90.0   33.333333333333336
-400.0   120.0   33.333333333333336
-400.0   90.0   50.0
-350.0   90.0   33.333333333333336
-350.0   120.0   33.333333333333336
-400.0   120.0   33.333333333333336
-350.0   120.0   50.0
-400.0   90.0   50.0
-400.0   120.0   50.0
-350.0   120.0   50.0
-400.0   120.0   33.333333333333336
-400.0   90.0   50.0
-350.0   120.0   50.0
-350.0   90.0   50.0
-350.0   90.0   33.333333333333336
-400.0   90.0   50.0
-350.0   120.0   50.0
-350.0   90.0   33.333333333333336
-400.0   120.0   33.333333333333336
-400.0   120.0   0.0
-350.0   120.0   0.0
-400.0   150.0   0.0
-400.0   120.0   16.666666666666668
-350.0   120.0   0.0
-350.0   150.0   0.0
-400.0   150.0   0.0
-350.0   150.0   16.666666666666668
-400.0   120.0   16.666666666666668
-400.0   150.0   16.666666666666668
-350.0   150.0   16.666666666666668
-400.0   150.0   0.0
-400.0   120.0   16.666666666666668
-350.0   150.0   16.666666666666668
-350.0   120.0   16.666666666666668
-350.0   120.0   0.0
-400.0   120.0   16.666666666666668
-350.0   150.0   16.666666666666668
-350.0   120.0   0.0
-400.0   150.0   0.0
-400.0   120.0   16.666666666666668
-350.0   120.0   16.666666666666668
-400.0   150.0   16.666666666666668
-400.0   120.0   33.333333333333336
-350.0   120.0   16.666666666666668
-350.0   150.0   16.666666666666668
-400.0   150.0   16.666666666666668
-350.0   150.0   33.333333333333336
-400.0   120.0   33.333333333333336
-400.0   150.0   33.333333333333336
-350.0   150.0   33.333333333333336
-400.0   150.0   16.666666666666668
-400.0   120.0   33.333333333333336
-350.0   150.0   33.333333333333336
-350.0   120.0   33.333333333333336
-350.0   120.0   16.666666666666668
-400.0   120.0   33.333333333333336
-350.0   150.0   33.333333333333336
-350.0   120.0   16.666666666666668
-400.0   150.0   16.666666666666668
-400.0   120.0   33.333333333333336
-350.0   120.0   33.333333333333336
-400.0   150.0   33.333333333333336
-400.0   120.0   50.0
-350.0   120.0   33.333333333333336
-350.0   150.0   33.333333333333336
-400.0   150.0   33.333333333333336
-350.0   150.0   50.0
-400.0   120.0   50.0
-400.0   150.0   50.0
-350.0   150.0   50.0
-400.0   150.0   33.333333333333336
-400.0   120.0   50.0
-350.0   150.0   50.0
-350.0   120.0   50.0
-350.0   120.0   33.333333333333336
-400.0   120.0   50.0
-350.0   150.0   50.0
-350.0   120.0   33.333333333333336
-400.0   150.0   33.333333333333336
-350.0   0.0   0.0
-300.0   0.0   0.0
-350.0   30.0   0.0
-350.0   0.0   16.666666666666668
-300.0   0.0   0.0
-300.0   30.0   0.0
-350.0   30.0   0.0
-300.0   30.0   16.666666666666668
-350.0   0.0   16.666666666666668
-350.0   30.0   16.666666666666668
-300.0   30.0   16.666666666666668
-350.0   30.0   0.0
-350.0   0.0   16.666666666666668
-300.0   30.0   16.666666666666668
-300.0   0.0   16.666666666666668
-300.0   0.0   0.0
-350.0   0.0   16.666666666666668
-300.0   30.0   16.666666666666668
-300.0   0.0   0.0
-350.0   30.0   0.0
-350.0   0.0   16.666666666666668
-300.0   0.0   16.666666666666668
-350.0   30.0   16.666666666666668
-350.0   0.0   33.333333333333336
-300.0   0.0   16.666666666666668
-300.0   30.0   16.666666666666668
-350.0   30.0   16.666666666666668
-300.0   30.0   33.333333333333336
-350.0   0.0   33.333333333333336
-350.0   30.0   33.333333333333336
-300.0   30.0   33.333333333333336
-350.0   30.0   16.666666666666668
-350.0   0.0   33.333333333333336
-300.0   30.0   33.333333333333336
-300.0   0.0   33.333333333333336
-300.0   0.0   16.666666666666668
-350.0   0.0   33.333333333333336
-300.0   30.0   33.333333333333336
-300.0   0.0   16.666666666666668
-350.0   30.0   16.666666666666668
-350.0   0.0   33.333333333333336
-300.0   0.0   33.333333333333336
-350.0   30.0   33.333333333333336
-350.0   0.0   50.0
-300.0   0.0   33.333333333333336
-300.0   30.0   33.333333333333336
-350.0   30.0   33.333333333333336
-300.0   30.0   50.0
-350.0   0.0   50.0
-350.0   30.0   50.0
-300.0   30.0   50.0
-350.0   30.0   33.333333333333336
-350.0   0.0   50.0
-300.0   30.0   50.0
-300.0   0.0   50.0
-300.0   0.0   33.333333333333336
-350.0   0.0   50.0
-300.0   30.0   50.0
-300.0   0.0   33.333333333333336
-350.0   30.0   33.333333333333336
-350.0   30.0   0.0
-300.0   30.0   0.0
-350.0   60.0   0.0
-350.0   30.0   16.666666666666668
-300.0   30.0   0.0
-300.0   60.0   0.0
-350.0   60.0   0.0
-300.0   60.0   16.666666666666668
-350.0   30.0   16.666666666666668
-350.0   60.0   16.666666666666668
-300.0   60.0   16.666666666666668
-350.0   60.0   0.0
-350.0   30.0   16.666666666666668
-300.0   60.0   16.666666666666668
-300.0   30.0   16.666666666666668
-300.0   30.0   0.0
-350.0   30.0   16.666666666666668
-300.0   60.0   16.666666666666668
-300.0   30.0   0.0
-350.0   60.0   0.0
-350.0   30.0   16.666666666666668
-300.0   30.0   16.666666666666668
-350.0   60.0   16.666666666666668
-350.0   30.0   33.333333333333336
-300.0   30.0   16.666666666666668
-300.0   60.0   16.666666666666668
-350.0   60.0   16.666666666666668
-300.0   60.0   33.333333333333336
-350.0   30.0   33.333333333333336
-350.0   60.0   33.333333333333336
-300.0   60.0   33.333333333333336
-350.0   60.0   16.666666666666668
-350.0   30.0   33.333333333333336
-300.0   60.0   33.333333333333336
-300.0   30.0   33.333333333333336
-300.0   30.0   16.666666666666668
-350.0   30.0   33.333333333333336
-300.0   60.0   33.333333333333336
-300.0   30.0   16.666666666666668
-350.0   60.0   16.666666666666668
-350.0   30.0   33.333333333333336
-300.0   30.0   33.333333333333336
-350.0   60.0   33.333333333333336
-350.0   30.0   50.0
-300.0   30.0   33.333333333333336
-300.0   60.0   33.333333333333336
-350.0   60.0   33.333333333333336
-300.0   60.0   50.0
-350.0   30.0   50.0
-350.0   60.0   50.0
-300.0   60.0   50.0
-350.0   60.0   33.333333333333336
-350.0   30.0   50.0
-300.0   60.0   50.0
-300.0   30.0   50.0
-300.0   30.0   33.333333333333336
-350.0   30.0   50.0
-300.0   60.0   50.0
-300.0   30.0   33.333333333333336
-350.0   60.0   33.333333333333336
-350.0   60.0   0.0
-300.0   60.0   0.0
-350.0   90.0   0.0
-350.0   60.0   16.666666666666668
-300.0   60.0   0.0
-300.0   90.0   0.0
-350.0   90.0   0.0
-300.0   90.0   16.666666666666668
-350.0   60.0   16.666666666666668
-350.0   90.0   16.666666666666668
-300.0   90.0   16.666666666666668
-350.0   90.0   0.0
-350.0   60.0   16.666666666666668
-300.0   90.0   16.666666666666668
-300.0   60.0   16.666666666666668
-300.0   60.0   0.0
-350.0   60.0   16.666666666666668
-300.0   90.0   16.666666666666668
-300.0   60.0   0.0
-350.0   90.0   0.0
-350.0   60.0   16.666666666666668
-300.0   60.0   16.666666666666668
-350.0   90.0   16.666666666666668
-350.0   60.0   33.333333333333336
-300.0   60.0   16.666666666666668
-300.0   90.0   16.666666666666668
-350.0   90.0   16.666666666666668
-300.0   90.0   33.333333333333336
-350.0   60.0   33.333333333333336
-350.0   90.0   33.333333333333336
-300.0   90.0   33.333333333333336
-350.0   90.0   16.666666666666668
-350.0   60.0   33.333333333333336
-300.0   90.0   33.333333333333336
-300.0   60.0   33.333333333333336
-300.0   60.0   16.666666666666668
-350.0   60.0   33.333333333333336
-300.0   90.0   33.333333333333336
-300.0   60.0   16.666666666666668
-350.0   90.0   16.666666666666668
-350.0   60.0   33.333333333333336
-300.0   60.0   33.333333333333336
-350.0   90.0   33.333333333333336
-350.0   60.0   50.0
-300.0   60.0   33.333333333333336
-300.0   90.0   33.333333333333336
-350.0   90.0   33.333333333333336
-300.0   90.0   50.0
-350.0   60.0   50.0
-350.0   90.0   50.0
-300.0   90.0   50.0
-350.0   90.0   33.333333333333336
-350.0   60.0   50.0
-300.0   90.0   50.0
-300.0   60.0   50.0
-300.0   60.0   33.333333333333336
-350.0   60.0   50.0
-300.0   90.0   50.0
-300.0   60.0   33.333333333333336
-350.0   90.0   33.333333333333336
-350.0   90.0   0.0
-300.0   90.0   0.0
-350.0   120.0   0.0
-350.0   90.0   16.666666666666668
-300.0   90.0   0.0
-300.0   120.0   0.0
-350.0   120.0   0.0
-300.0   120.0   16.666666666666668
-350.0   90.0   16.666666666666668
-350.0   120.0   16.666666666666668
-300.0   120.0   16.666666666666668
-350.0   120.0   0.0
-350.0   90.0   16.666666666666668
-300.0   120.0   16.666666666666668
-300.0   90.0   16.666666666666668
-300.0   90.0   0.0
-350.0   90.0   16.666666666666668
-300.0   120.0   16.666666666666668
-300.0   90.0   0.0
-350.0   120.0   0.0
-350.0   90.0   16.666666666666668
-300.0   90.0   16.666666666666668
-350.0   120.0   16.666666666666668
-350.0   90.0   33.333333333333336
-300.0   90.0   16.666666666666668
-300.0   120.0   16.666666666666668
-350.0   120.0   16.666666666666668
-300.0   120.0   33.333333333333336
-350.0   90.0   33.333333333333336
-350.0   120.0   33.333333333333336
-300.0   120.0   33.333333333333336
-350.0   120.0   16.666666666666668
-350.0   90.0   33.333333333333336
-300.0   120.0   33.333333333333336
-300.0   90.0   33.333333333333336
-300.0   90.0   16.666666666666668
-350.0   90.0   33.333333333333336
-300.0   120.0   33.333333333333336
-300.0   90.0   16.666666666666668
-350.0   120.0   16.666666666666668
-350.0   90.0   33.333333333333336
-300.0   90.0   33.333333333333336
-350.0   120.0   33.333333333333336
-350.0   90.0   50.0
-300.0   90.0   33.333333333333336
-300.0   120.0   33.333333333333336
-350.0   120.0   33.333333333333336
-300.0   120.0   50.0
-350.0   90.0   50.0
-350.0   120.0   50.0
-300.0   120.0   50.0
-350.0   120.0   33.333333333333336
-350.0   90.0   50.0
-300.0   120.0   50.0
-300.0   90.0   50.0
-300.0   90.0   33.333333333333336
-350.0   90.0   50.0
-300.0   120.0   50.0
-300.0   90.0   33.333333333333336
-350.0   120.0   33.333333333333336
-350.0   120.0   0.0
-300.0   120.0   0.0
-350.0   150.0   0.0
-350.0   120.0   16.666666666666668
-300.0   120.0   0.0
-300.0   150.0   0.0
-350.0   150.0   0.0
-300.0   150.0   16.666666666666668
-350.0   120.0   16.666666666666668
-350.0   150.0   16.666666666666668
-300.0   150.0   16.666666666666668
-350.0   150.0   0.0
-350.0   120.0   16.666666666666668
-300.0   150.0   16.666666666666668
-300.0   120.0   16.666666666666668
-300.0   120.0   0.0
-350.0   120.0   16.666666666666668
-300.0   150.0   16.666666666666668
-300.0   120.0   0.0
-350.0   150.0   0.0
-350.0   120.0   16.666666666666668
-300.0   120.0   16.666666666666668
-350.0   150.0   16.666666666666668
-350.0   120.0   33.333333333333336
-300.0   120.0   16.666666666666668
-300.0   150.0   16.666666666666668
-350.0   150.0   16.666666666666668
-300.0   150.0   33.333333333333336
-350.0   120.0   33.333333333333336
-350.0   150.0   33.333333333333336
-300.0   150.0   33.333333333333336
-350.0   150.0   16.666666666666668
-350.0   120.0   33.333333333333336
-300.0   150.0   33.333333333333336
-300.0   120.0   33.333333333333336
-300.0   120.0   16.666666666666668
-350.0   120.0   33.333333333333336
-300.0   150.0   33.333333333333336
-300.0   120.0   16.666666666666668
-350.0   150.0   16.666666666666668
-350.0   120.0   33.333333333333336
-300.0   120.0   33.333333333333336
-350.0   150.0   33.333333333333336
-350.0   120.0   50.0
-300.0   120.0   33.333333333333336
-300.0   150.0   33.333333333333336
-350.0   150.0   33.333333333333336
-300.0   150.0   50.0
-350.0   120.0   50.0
-350.0   150.0   50.0
-300.0   150.0   50.0
-350.0   150.0   33.333333333333336
-350.0   120.0   50.0
-300.0   150.0   50.0
-300.0   120.0   50.0
-300.0   120.0   33.333333333333336
-350.0   120.0   50.0
-300.0   150.0   50.0
-300.0   120.0   33.333333333333336
-350.0   150.0   33.333333333333336
-300.0   0.0   0.0
-250.0   0.0   0.0
-300.0   30.0   0.0
-300.0   0.0   16.666666666666668
-250.0   0.0   0.0
-250.0   30.0   0.0
-300.0   30.0   0.0
-250.0   30.0   16.666666666666668
-300.0   0.0   16.666666666666668
-300.0   30.0   16.666666666666668
-250.0   30.0   16.666666666666668
-300.0   30.0   0.0
-300.0   0.0   16.666666666666668
-250.0   30.0   16.666666666666668
-250.0   0.0   16.666666666666668
-250.0   0.0   0.0
-300.0   0.0   16.666666666666668
-250.0   30.0   16.666666666666668
-250.0   0.0   0.0
-300.0   30.0   0.0
-300.0   0.0   16.666666666666668
-250.0   0.0   16.666666666666668
-300.0   30.0   16.666666666666668
-300.0   0.0   33.333333333333336
-250.0   0.0   16.666666666666668
-250.0   30.0   16.666666666666668
-300.0   30.0   16.666666666666668
-250.0   30.0   33.333333333333336
-300.0   0.0   33.333333333333336
-300.0   30.0   33.333333333333336
-250.0   30.0   33.333333333333336
-300.0   30.0   16.666666666666668
-300.0   0.0   33.333333333333336
-250.0   30.0   33.333333333333336
-250.0   0.0   33.333333333333336
-250.0   0.0   16.666666666666668
-300.0   0.0   33.333333333333336
-250.0   30.0   33.333333333333336
-250.0   0.0   16.666666666666668
-300.0   30.0   16.666666666666668
-300.0   0.0   33.333333333333336
-250.0   0.0   33.333333333333336
-300.0   30.0   33.333333333333336
-300.0   0.0   50.0
-250.0   0.0   33.333333333333336
-250.0   30.0   33.333333333333336
-300.0   30.0   33.333333333333336
-250.0   30.0   50.0
-300.0   0.0   50.0
-300.0   30.0   50.0
-250.0   30.0   50.0
-300.0   30.0   33.333333333333336
-300.0   0.0   50.0
-250.0   30.0   50.0
-250.0   0.0   50.0
-250.0   0.0   33.333333333333336
-300.0   0.0   50.0
-250.0   30.0   50.0
-250.0   0.0   33.333333333333336
-300.0   30.0   33.333333333333336
-300.0   30.0   0.0
-250.0   30.0   0.0
-300.0   60.0   0.0
-300.0   30.0   16.666666666666668
-250.0   30.0   0.0
-250.0   60.0   0.0
-300.0   60.0   0.0
-250.0   60.0   16.666666666666668
-300.0   30.0   16.666666666666668
-300.0   60.0   16.666666666666668
-250.0   60.0   16.666666666666668
-300.0   60.0   0.0
-300.0   30.0   16.666666666666668
-250.0   60.0   16.666666666666668
-250.0   30.0   16.666666666666668
-250.0   30.0   0.0
-300.0   30.0   16.666666666666668
-250.0   60.0   16.666666666666668
-250.0   30.0   0.0
-300.0   60.0   0.0
-300.0   30.0   16.666666666666668
-250.0   30.0   16.666666666666668
-300.0   60.0   16.666666666666668
-300.0   30.0   33.333333333333336
-250.0   30.0   16.666666666666668
-250.0   60.0   16.666666666666668
-300.0   60.0   16.666666666666668
-250.0   60.0   33.333333333333336
-300.0   30.0   33.333333333333336
-300.0   60.0   33.333333333333336
-250.0   60.0   33.333333333333336
-300.0   60.0   16.666666666666668
-300.0   30.0   33.333333333333336
-250.0   60.0   33.333333333333336
-250.0   30.0   33.333333333333336
-250.0   30.0   16.666666666666668
-300.0   30.0   33.333333333333336
-250.0   60.0   33.333333333333336
-250.0   30.0   16.666666666666668
-300.0   60.0   16.666666666666668
-300.0   30.0   33.333333333333336
-250.0   30.0   33.333333333333336
-300.0   60.0   33.333333333333336
-300.0   30.0   50.0
-250.0   30.0   33.333333333333336
-250.0   60.0   33.333333333333336
-300.0   60.0   33.333333333333336
-250.0   60.0   50.0
-300.0   30.0   50.0
-300.0   60.0   50.0
-250.0   60.0   50.0
-300.0   60.0   33.333333333333336
-300.0   30.0   50.0
-250.0   60.0   50.0
-250.0   30.0   50.0
-250.0   30.0   33.333333333333336
-300.0   30.0   50.0
-250.0   60.0   50.0
-250.0   30.0   33.333333333333336
-300.0   60.0   33.333333333333336
-300.0   60.0   0.0
-250.0   60.0   0.0
-300.0   90.0   0.0
-300.0   60.0   16.666666666666668
-250.0   60.0   0.0
-250.0   90.0   0.0
-300.0   90.0   0.0
-250.0   90.0   16.666666666666668
-300.0   60.0   16.666666666666668
-300.0   90.0   16.666666666666668
-250.0   90.0   16.666666666666668
-300.0   90.0   0.0
-300.0   60.0   16.666666666666668
-250.0   90.0   16.666666666666668
-250.0   60.0   16.666666666666668
-250.0   60.0   0.0
-300.0   60.0   16.666666666666668
-250.0   90.0   16.666666666666668
-250.0   60.0   0.0
-300.0   90.0   0.0
-300.0   60.0   16.666666666666668
-250.0   60.0   16.666666666666668
-300.0   90.0   16.666666666666668
-300.0   60.0   33.333333333333336
-250.0   60.0   16.666666666666668
-250.0   90.0   16.666666666666668
-300.0   90.0   16.666666666666668
-250.0   90.0   33.333333333333336
-300.0   60.0   33.333333333333336
-300.0   90.0   33.333333333333336
-250.0   90.0   33.333333333333336
-300.0   90.0   16.666666666666668
-300.0   60.0   33.333333333333336
-250.0   90.0   33.333333333333336
-250.0   60.0   33.333333333333336
-250.0   60.0   16.666666666666668
-300.0   60.0   33.333333333333336
-250.0   90.0   33.333333333333336
-250.0   60.0   16.666666666666668
-300.0   90.0   16.666666666666668
-300.0   60.0   33.333333333333336
-250.0   60.0   33.333333333333336
-300.0   90.0   33.333333333333336
-300.0   60.0   50.0
-250.0   60.0   33.333333333333336
-250.0   90.0   33.333333333333336
-300.0   90.0   33.333333333333336
-250.0   90.0   50.0
-300.0   60.0   50.0
-300.0   90.0   50.0
-250.0   90.0   50.0
-300.0   90.0   33.333333333333336
-300.0   60.0   50.0
-250.0   90.0   50.0
-250.0   60.0   50.0
-250.0   60.0   33.333333333333336
-300.0   60.0   50.0
-250.0   90.0   50.0
-250.0   60.0   33.333333333333336
-300.0   90.0   33.333333333333336
-300.0   90.0   0.0
-250.0   90.0   0.0
-300.0   120.0   0.0
-300.0   90.0   16.666666666666668
-250.0   90.0   0.0
-250.0   120.0   0.0
-300.0   120.0   0.0
-250.0   120.0   16.666666666666668
-300.0   90.0   16.666666666666668
-300.0   120.0   16.666666666666668
-250.0   120.0   16.666666666666668
-300.0   120.0   0.0
-300.0   90.0   16.666666666666668
-250.0   120.0   16.666666666666668
-250.0   90.0   16.666666666666668
-250.0   90.0   0.0
-300.0   90.0   16.666666666666668
-250.0   120.0   16.666666666666668
-250.0   90.0   0.0
-300.0   120.0   0.0
-300.0   90.0   16.666666666666668
-250.0   90.0   16.666666666666668
-300.0   120.0   16.666666666666668
-300.0   90.0   33.333333333333336
-250.0   90.0   16.666666666666668
-250.0   120.0   16.666666666666668
-300.0   120.0   16.666666666666668
-250.0   120.0   33.333333333333336
-300.0   90.0   33.333333333333336
-300.0   120.0   33.333333333333336
-250.0   120.0   33.333333333333336
-300.0   120.0   16.666666666666668
-300.0   90.0   33.333333333333336
-250.0   120.0   33.333333333333336
-250.0   90.0   33.333333333333336
-250.0   90.0   16.666666666666668
-300.0   90.0   33.333333333333336
-250.0   120.0   33.333333333333336
-250.0   90.0   16.666666666666668
-300.0   120.0   16.666666666666668
-300.0   90.0   33.333333333333336
-250.0   90.0   33.333333333333336
-300.0   120.0   33.333333333333336
-300.0   90.0   50.0
-250.0   90.0   33.333333333333336
-250.0   120.0   33.333333333333336
-300.0   120.0   33.333333333333336
-250.0   120.0   50.0
-300.0   90.0   50.0
-300.0   120.0   50.0
-250.0   120.0   50.0
-300.0   120.0   33.333333333333336
-300.0   90.0   50.0
-250.0   120.0   50.0
-250.0   90.0   50.0
-250.0   90.0   33.333333333333336
-300.0   90.0   50.0
-250.0   120.0   50.0
-250.0   90.0   33.333333333333336
-300.0   120.0   33.333333333333336
-300.0   120.0   0.0
-250.0   120.0   0.0
-300.0   150.0   0.0
-300.0   120.0   16.666666666666668
-250.0   120.0   0.0
-250.0   150.0   0.0
-300.0   150.0   0.0
-250.0   150.0   16.666666666666668
-300.0   120.0   16.666666666666668
-300.0   150.0   16.666666666666668
-250.0   150.0   16.666666666666668
-300.0   150.0   0.0
-300.0   120.0   16.666666666666668
-250.0   150.0   16.666666666666668
-250.0   120.0   16.666666666666668
-250.0   120.0   0.0
-300.0   120.0   16.666666666666668
-250.0   150.0   16.666666666666668
-250.0   120.0   0.0
-300.0   150.0   0.0
-300.0   120.0   16.666666666666668
-250.0   120.0   16.666666666666668
-300.0   150.0   16.666666666666668
-300.0   120.0   33.333333333333336
-250.0   120.0   16.666666666666668
-250.0   150.0   16.666666666666668
-300.0   150.0   16.666666666666668
-250.0   150.0   33.333333333333336
-300.0   120.0   33.333333333333336
-300.0   150.0   33.333333333333336
-250.0   150.0   33.333333333333336
-300.0   150.0   16.666666666666668
-300.0   120.0   33.333333333333336
-250.0   150.0   33.333333333333336
-250.0   120.0   33.333333333333336
-250.0   120.0   16.666666666666668
-300.0   120.0   33.333333333333336
-250.0   150.0   33.333333333333336
-250.0   120.0   16.666666666666668
-300.0   150.0   16.666666666666668
-300.0   120.0   33.333333333333336
-250.0   120.0   33.333333333333336
-300.0   150.0   33.333333333333336
-300.0   120.0   50.0
-250.0   120.0   33.333333333333336
-250.0   150.0   33.333333333333336
-300.0   150.0   33.333333333333336
-250.0   150.0   50.0
-300.0   120.0   50.0
-300.0   150.0   50.0
-250.0   150.0   50.0
-300.0   150.0   33.333333333333336
-300.0   120.0   50.0
-250.0   150.0   50.0
-250.0   120.0   50.0
-250.0   120.0   33.333333333333336
-300.0   120.0   50.0
-250.0   150.0   50.0
-250.0   120.0   33.333333333333336
-300.0   150.0   33.333333333333336
-250.0   0.0   0.0
-200.0   0.0   0.0
-250.0   30.0   0.0
-250.0   0.0   16.666666666666668
-200.0   0.0   0.0
-200.0   30.0   0.0
-250.0   30.0   0.0
-200.0   30.0   16.666666666666668
-250.0   0.0   16.666666666666668
-250.0   30.0   16.666666666666668
-200.0   30.0   16.666666666666668
-250.0   30.0   0.0
-250.0   0.0   16.666666666666668
-200.0   30.0   16.666666666666668
-200.0   0.0   16.666666666666668
-200.0   0.0   0.0
-250.0   0.0   16.666666666666668
-200.0   30.0   16.666666666666668
-200.0   0.0   0.0
-250.0   30.0   0.0
-250.0   0.0   16.666666666666668
-200.0   0.0   16.666666666666668
-250.0   30.0   16.666666666666668
-250.0   0.0   33.333333333333336
-200.0   0.0   16.666666666666668
-200.0   30.0   16.666666666666668
-250.0   30.0   16.666666666666668
-200.0   30.0   33.333333333333336
-250.0   0.0   33.333333333333336
-250.0   30.0   33.333333333333336
-200.0   30.0   33.333333333333336
-250.0   30.0   16.666666666666668
-250.0   0.0   33.333333333333336
-200.0   30.0   33.333333333333336
-200.0   0.0   33.333333333333336
-200.0   0.0   16.666666666666668
-250.0   0.0   33.333333333333336
-200.0   30.0   33.333333333333336
-200.0   0.0   16.666666666666668
-250.0   30.0   16.666666666666668
-250.0   0.0   33.333333333333336
-200.0   0.0   33.333333333333336
-250.0   30.0   33.333333333333336
-250.0   0.0   50.0
-200.0   0.0   33.333333333333336
-200.0   30.0   33.333333333333336
-250.0   30.0   33.333333333333336
-200.0   30.0   50.0
-250.0   0.0   50.0
-250.0   30.0   50.0
-200.0   30.0   50.0
-250.0   30.0   33.333333333333336
-250.0   0.0   50.0
-200.0   30.0   50.0
-200.0   0.0   50.0
-200.0   0.0   33.333333333333336
-250.0   0.0   50.0
-200.0   30.0   50.0
-200.0   0.0   33.333333333333336
-250.0   30.0   33.333333333333336
-250.0   30.0   0.0
-200.0   30.0   0.0
-250.0   60.0   0.0
-250.0   30.0   16.666666666666668
-200.0   30.0   0.0
-200.0   60.0   0.0
-250.0   60.0   0.0
-200.0   60.0   16.666666666666668
-250.0   30.0   16.666666666666668
-250.0   60.0   16.666666666666668
-200.0   60.0   16.666666666666668
-250.0   60.0   0.0
-250.0   30.0   16.666666666666668
-200.0   60.0   16.666666666666668
-200.0   30.0   16.666666666666668
-200.0   30.0   0.0
-250.0   30.0   16.666666666666668
-200.0   60.0   16.666666666666668
-200.0   30.0   0.0
-250.0   60.0   0.0
-250.0   30.0   16.666666666666668
-200.0   30.0   16.666666666666668
-250.0   60.0   16.666666666666668
-250.0   30.0   33.333333333333336
-200.0   30.0   16.666666666666668
-200.0   60.0   16.666666666666668
-250.0   60.0   16.666666666666668
-200.0   60.0   33.333333333333336
-250.0   30.0   33.333333333333336
-250.0   60.0   33.333333333333336
-200.0   60.0   33.333333333333336
-250.0   60.0   16.666666666666668
-250.0   30.0   33.333333333333336
-200.0   60.0   33.333333333333336
-200.0   30.0   33.333333333333336
-200.0   30.0   16.666666666666668
-250.0   30.0   33.333333333333336
-200.0   60.0   33.333333333333336
-200.0   30.0   16.666666666666668
-250.0   60.0   16.666666666666668
-250.0   30.0   33.333333333333336
-200.0   30.0   33.333333333333336
-250.0   60.0   33.333333333333336
-250.0   30.0   50.0
-200.0   30.0   33.333333333333336
-200.0   60.0   33.333333333333336
-250.0   60.0   33.333333333333336
-200.0   60.0   50.0
-250.0   30.0   50.0
-250.0   60.0   50.0
-200.0   60.0   50.0
-250.0   60.0   33.333333333333336
-250.0   30.0   50.0
-200.0   60.0   50.0
-200.0   30.0   50.0
-200.0   30.0   33.333333333333336
-250.0   30.0   50.0
-200.0   60.0   50.0
-200.0   30.0   33.333333333333336
-250.0   60.0   33.333333333333336
-250.0   60.0   0.0
-200.0   60.0   0.0
-250.0   90.0   0.0
-250.0   60.0   16.666666666666668
-200.0   60.0   0.0
-200.0   90.0   0.0
-250.0   90.0   0.0
-200.0   90.0   16.666666666666668
-250.0   60.0   16.666666666666668
-250.0   90.0   16.666666666666668
-200.0   90.0   16.666666666666668
-250.0   90.0   0.0
-250.0   60.0   16.666666666666668
-200.0   90.0   16.666666666666668
-200.0   60.0   16.666666666666668
-200.0   60.0   0.0
-250.0   60.0   16.666666666666668
-200.0   90.0   16.666666666666668
-200.0   60.0   0.0
-250.0   90.0   0.0
-250.0   60.0   16.666666666666668
-200.0   60.0   16.666666666666668
-250.0   90.0   16.666666666666668
-250.0   60.0   33.333333333333336
-200.0   60.0   16.666666666666668
-200.0   90.0   16.666666666666668
-250.0   90.0   16.666666666666668
-200.0   90.0   33.333333333333336
-250.0   60.0   33.333333333333336
-250.0   90.0   33.333333333333336
-200.0   90.0   33.333333333333336
-250.0   90.0   16.666666666666668
-250.0   60.0   33.333333333333336
-200.0   90.0   33.333333333333336
-200.0   60.0   33.333333333333336
-200.0   60.0   16.666666666666668
-250.0   60.0   33.333333333333336
-200.0   90.0   33.333333333333336
-200.0   60.0   16.666666666666668
-250.0   90.0   16.666666666666668
-250.0   60.0   33.333333333333336
-200.0   60.0   33.333333333333336
-250.0   90.0   33.333333333333336
-250.0   60.0   50.0
-200.0   60.0   33.333333333333336
-200.0   90.0   33.333333333333336
-250.0   90.0   33.333333333333336
-200.0   90.0   50.0
-250.0   60.0   50.0
-250.0   90.0   50.0
-200.0   90.0   50.0
-250.0   90.0   33.333333333333336
-250.0   60.0   50.0
-200.0   90.0   50.0
-200.0   60.0   50.0
-200.0   60.0   33.333333333333336
-250.0   60.0   50.0
-200.0   90.0   50.0
-200.0   60.0   33.333333333333336
-250.0   90.0   33.333333333333336
-250.0   90.0   0.0
-200.0   90.0   0.0
-250.0   120.0   0.0
-250.0   90.0   16.666666666666668
-200.0   90.0   0.0
-200.0   120.0   0.0
-250.0   120.0   0.0
-200.0   120.0   16.666666666666668
-250.0   90.0   16.666666666666668
-250.0   120.0   16.666666666666668
-200.0   120.0   16.666666666666668
-250.0   120.0   0.0
-250.0   90.0   16.666666666666668
-200.0   120.0   16.666666666666668
-200.0   90.0   16.666666666666668
-200.0   90.0   0.0
-250.0   90.0   16.666666666666668
-200.0   120.0   16.666666666666668
-200.0   90.0   0.0
-250.0   120.0   0.0
-250.0   90.0   16.666666666666668
-200.0   90.0   16.666666666666668
-250.0   120.0   16.666666666666668
-250.0   90.0   33.333333333333336
-200.0   90.0   16.666666666666668
-200.0   120.0   16.666666666666668
-250.0   120.0   16.666666666666668
-200.0   120.0   33.333333333333336
-250.0   90.0   33.333333333333336
-250.0   120.0   33.333333333333336
-200.0   120.0   33.333333333333336
-250.0   120.0   16.666666666666668
-250.0   90.0   33.333333333333336
-200.0   120.0   33.333333333333336
-200.0   90.0   33.333333333333336
-200.0   90.0   16.666666666666668
-250.0   90.0   33.333333333333336
-200.0   120.0   33.333333333333336
-200.0   90.0   16.666666666666668
-250.0   120.0   16.666666666666668
-250.0   90.0   33.333333333333336
-200.0   90.0   33.333333333333336
-250.0   120.0   33.333333333333336
-250.0   90.0   50.0
-200.0   90.0   33.333333333333336
-200.0   120.0   33.333333333333336
-250.0   120.0   33.333333333333336
-200.0   120.0   50.0
-250.0   90.0   50.0
-250.0   120.0   50.0
-200.0   120.0   50.0
-250.0   120.0   33.333333333333336
-250.0   90.0   50.0
-200.0   120.0   50.0
-200.0   90.0   50.0
-200.0   90.0   33.333333333333336
-250.0   90.0   50.0
-200.0   120.0   50.0
-200.0   90.0   33.333333333333336
-250.0   120.0   33.333333333333336
-250.0   120.0   0.0
-200.0   120.0   0.0
-250.0   150.0   0.0
-250.0   120.0   16.666666666666668
-200.0   120.0   0.0
-200.0   150.0   0.0
-250.0   150.0   0.0
-200.0   150.0   16.666666666666668
-250.0   120.0   16.666666666666668
-250.0   150.0   16.666666666666668
-200.0   150.0   16.666666666666668
-250.0   150.0   0.0
-250.0   120.0   16.666666666666668
-200.0   150.0   16.666666666666668
-200.0   120.0   16.666666666666668
-200.0   120.0   0.0
-250.0   120.0   16.666666666666668
-200.0   150.0   16.666666666666668
-200.0   120.0   0.0
-250.0   150.0   0.0
-250.0   120.0   16.666666666666668
-200.0   120.0   16.666666666666668
-250.0   150.0   16.666666666666668
-250.0   120.0   33.333333333333336
-200.0   120.0   16.666666666666668
-200.0   150.0   16.666666666666668
-250.0   150.0   16.666666666666668
-200.0   150.0   33.333333333333336
-250.0   120.0   33.333333333333336
-250.0   150.0   33.333333333333336
-200.0   150.0   33.333333333333336
-250.0   150.0   16.666666666666668
-250.0   120.0   33.333333333333336
-200.0   150.0   33.333333333333336
-200.0   120.0   33.333333333333336
-200.0   120.0   16.666666666666668
-250.0   120.0   33.333333333333336
-200.0   150.0   33.333333333333336
-200.0   120.0   16.666666666666668
-250.0   150.0   16.666666666666668
-250.0   120.0   33.333333333333336
-200.0   120.0   33.333333333333336
-250.0   150.0   33.333333333333336
-250.0   120.0   50.0
-200.0   120.0   33.333333333333336
-200.0   150.0   33.333333333333336
-250.0   150.0   33.333333333333336
-200.0   150.0   50.0
-250.0   120.0   50.0
-250.0   150.0   50.0
-200.0   150.0   50.0
-250.0   150.0   33.333333333333336
-250.0   120.0   50.0
-200.0   150.0   50.0
-200.0   120.0   50.0
-200.0   120.0   33.333333333333336
-250.0   120.0   50.0
-200.0   150.0   50.0
-200.0   120.0   33.333333333333336
-250.0   150.0   33.333333333333336
-200.0   0.0   0.0
-150.0   0.0   0.0
-200.0   30.0   0.0
-200.0   0.0   16.666666666666668
-150.0   0.0   0.0
-150.0   30.0   0.0
-200.0   30.0   0.0
-150.0   30.0   16.666666666666668
-200.0   0.0   16.666666666666668
-200.0   30.0   16.666666666666668
-150.0   30.0   16.666666666666668
-200.0   30.0   0.0
-200.0   0.0   16.666666666666668
-150.0   30.0   16.666666666666668
-150.0   0.0   16.666666666666668
-150.0   0.0   0.0
-200.0   0.0   16.666666666666668
-150.0   30.0   16.666666666666668
-150.0   0.0   0.0
-200.0   30.0   0.0
-200.0   0.0   16.666666666666668
-150.0   0.0   16.666666666666668
-200.0   30.0   16.666666666666668
-200.0   0.0   33.333333333333336
-150.0   0.0   16.666666666666668
-150.0   30.0   16.666666666666668
-200.0   30.0   16.666666666666668
-150.0   30.0   33.333333333333336
-200.0   0.0   33.333333333333336
-200.0   30.0   33.333333333333336
-150.0   30.0   33.333333333333336
-200.0   30.0   16.666666666666668
-200.0   0.0   33.333333333333336
-150.0   30.0   33.333333333333336
-150.0   0.0   33.333333333333336
-150.0   0.0   16.666666666666668
-200.0   0.0   33.333333333333336
-150.0   30.0   33.333333333333336
-150.0   0.0   16.666666666666668
-200.0   30.0   16.666666666666668
-200.0   0.0   33.333333333333336
-150.0   0.0   33.333333333333336
-200.0   30.0   33.333333333333336
-200.0   0.0   50.0
-150.0   0.0   33.333333333333336
-150.0   30.0   33.333333333333336
-200.0   30.0   33.333333333333336
-150.0   30.0   50.0
-200.0   0.0   50.0
-200.0   30.0   50.0
-150.0   30.0   50.0
-200.0   30.0   33.333333333333336
-200.0   0.0   50.0
-150.0   30.0   50.0
-150.0   0.0   50.0
-150.0   0.0   33.333333333333336
-200.0   0.0   50.0
-150.0   30.0   50.0
-150.0   0.0   33.333333333333336
-200.0   30.0   33.333333333333336
-200.0   30.0   0.0
-150.0   30.0   0.0
-200.0   60.0   0.0
-200.0   30.0   16.666666666666668
-150.0   30.0   0.0
-150.0   60.0   0.0
-200.0   60.0   0.0
-150.0   60.0   16.666666666666668
-200.0   30.0   16.666666666666668
-200.0   60.0   16.666666666666668
-150.0   60.0   16.666666666666668
-200.0   60.0   0.0
-200.0   30.0   16.666666666666668
-150.0   60.0   16.666666666666668
-150.0   30.0   16.666666666666668
-150.0   30.0   0.0
-200.0   30.0   16.666666666666668
-150.0   60.0   16.666666666666668
-150.0   30.0   0.0
-200.0   60.0   0.0
-200.0   30.0   16.666666666666668
-150.0   30.0   16.666666666666668
-200.0   60.0   16.666666666666668
-200.0   30.0   33.333333333333336
-150.0   30.0   16.666666666666668
-150.0   60.0   16.666666666666668
-200.0   60.0   16.666666666666668
-150.0   60.0   33.333333333333336
-200.0   30.0   33.333333333333336
-200.0   60.0   33.333333333333336
-150.0   60.0   33.333333333333336
-200.0   60.0   16.666666666666668
-200.0   30.0   33.333333333333336
-150.0   60.0   33.333333333333336
-150.0   30.0   33.333333333333336
-150.0   30.0   16.666666666666668
-200.0   30.0   33.333333333333336
-150.0   60.0   33.333333333333336
-150.0   30.0   16.666666666666668
-200.0   60.0   16.666666666666668
-200.0   30.0   33.333333333333336
-150.0   30.0   33.333333333333336
-200.0   60.0   33.333333333333336
-200.0   30.0   50.0
-150.0   30.0   33.333333333333336
-150.0   60.0   33.333333333333336
-200.0   60.0   33.333333333333336
-150.0   60.0   50.0
-200.0   30.0   50.0
-200.0   60.0   50.0
-150.0   60.0   50.0
-200.0   60.0   33.333333333333336
-200.0   30.0   50.0
-150.0   60.0   50.0
-150.0   30.0   50.0
-150.0   30.0   33.333333333333336
-200.0   30.0   50.0
-150.0   60.0   50.0
-150.0   30.0   33.333333333333336
-200.0   60.0   33.333333333333336
-200.0   60.0   0.0
-150.0   60.0   0.0
-200.0   90.0   0.0
-200.0   60.0   16.666666666666668
-150.0   60.0   0.0
-150.0   90.0   0.0
-200.0   90.0   0.0
-150.0   90.0   16.666666666666668
-200.0   60.0   16.666666666666668
-200.0   90.0   16.666666666666668
-150.0   90.0   16.666666666666668
-200.0   90.0   0.0
-200.0   60.0   16.666666666666668
-150.0   90.0   16.666666666666668
-150.0   60.0   16.666666666666668
-150.0   60.0   0.0
-200.0   60.0   16.666666666666668
-150.0   90.0   16.666666666666668
-150.0   60.0   0.0
-200.0   90.0   0.0
-200.0   60.0   16.666666666666668
-150.0   60.0   16.666666666666668
-200.0   90.0   16.666666666666668
-200.0   60.0   33.333333333333336
-150.0   60.0   16.666666666666668
-150.0   90.0   16.666666666666668
-200.0   90.0   16.666666666666668
-150.0   90.0   33.333333333333336
-200.0   60.0   33.333333333333336
-200.0   90.0   33.333333333333336
-150.0   90.0   33.333333333333336
-200.0   90.0   16.666666666666668
-200.0   60.0   33.333333333333336
-150.0   90.0   33.333333333333336
-150.0   60.0   33.333333333333336
-150.0   60.0   16.666666666666668
-200.0   60.0   33.333333333333336
-150.0   90.0   33.333333333333336
-150.0   60.0   16.666666666666668
-200.0   90.0   16.666666666666668
-200.0   60.0   33.333333333333336
-150.0   60.0   33.333333333333336
-200.0   90.0   33.333333333333336
-200.0   60.0   50.0
-150.0   60.0   33.333333333333336
-150.0   90.0   33.333333333333336
-200.0   90.0   33.333333333333336
-150.0   90.0   50.0
-200.0   60.0   50.0
-200.0   90.0   50.0
-150.0   90.0   50.0
-200.0   90.0   33.333333333333336
-200.0   60.0   50.0
-150.0   90.0   50.0
-150.0   60.0   50.0
-150.0   60.0   33.333333333333336
-200.0   60.0   50.0
-150.0   90.0   50.0
-150.0   60.0   33.333333333333336
-200.0   90.0   33.333333333333336
-200.0   90.0   0.0
-150.0   90.0   0.0
-200.0   120.0   0.0
-200.0   90.0   16.666666666666668
-150.0   90.0   0.0
-150.0   120.0   0.0
-200.0   120.0   0.0
-150.0   120.0   16.666666666666668
-200.0   90.0   16.666666666666668
-200.0   120.0   16.666666666666668
-150.0   120.0   16.666666666666668
-200.0   120.0   0.0
-200.0   90.0   16.666666666666668
-150.0   120.0   16.666666666666668
-150.0   90.0   16.666666666666668
-150.0   90.0   0.0
-200.0   90.0   16.666666666666668
-150.0   120.0   16.666666666666668
-150.0   90.0   0.0
-200.0   120.0   0.0
-200.0   90.0   16.666666666666668
-150.0   90.0   16.666666666666668
-200.0   120.0   16.666666666666668
-200.0   90.0   33.333333333333336
-150.0   90.0   16.666666666666668
-150.0   120.0   16.666666666666668
-200.0   120.0   16.666666666666668
-150.0   120.0   33.333333333333336
-200.0   90.0   33.333333333333336
-200.0   120.0   33.333333333333336
-150.0   120.0   33.333333333333336
-200.0   120.0   16.666666666666668
-200.0   90.0   33.333333333333336
-150.0   120.0   33.333333333333336
-150.0   90.0   33.333333333333336
-150.0   90.0   16.666666666666668
-200.0   90.0   33.333333333333336
-150.0   120.0   33.333333333333336
-150.0   90.0   16.666666666666668
-200.0   120.0   16.666666666666668
-200.0   90.0   33.333333333333336
-150.0   90.0   33.333333333333336
-200.0   120.0   33.333333333333336
-200.0   90.0   50.0
-150.0   90.0   33.333333333333336
-150.0   120.0   33.333333333333336
-200.0   120.0   33.333333333333336
-150.0   120.0   50.0
-200.0   90.0   50.0
-200.0   120.0   50.0
-150.0   120.0   50.0
-200.0   120.0   33.333333333333336
-200.0   90.0   50.0
-150.0   120.0   50.0
-150.0   90.0   50.0
-150.0   90.0   33.333333333333336
-200.0   90.0   50.0
-150.0   120.0   50.0
-150.0   90.0   33.333333333333336
-200.0   120.0   33.333333333333336
-200.0   120.0   0.0
-150.0   120.0   0.0
-200.0   150.0   0.0
-200.0   120.0   16.666666666666668
-150.0   120.0   0.0
-150.0   150.0   0.0
-200.0   150.0   0.0
-150.0   150.0   16.666666666666668
-200.0   120.0   16.666666666666668
-200.0   150.0   16.666666666666668
-150.0   150.0   16.666666666666668
-200.0   150.0   0.0
-200.0   120.0   16.666666666666668
-150.0   150.0   16.666666666666668
-150.0   120.0   16.666666666666668
-150.0   120.0   0.0
-200.0   120.0   16.666666666666668
-150.0   150.0   16.666666666666668
-150.0   120.0   0.0
-200.0   150.0   0.0
-200.0   120.0   16.666666666666668
-150.0   120.0   16.666666666666668
-200.0   150.0   16.666666666666668
-200.0   120.0   33.333333333333336
-150.0   120.0   16.666666666666668
-150.0   150.0   16.666666666666668
-200.0   150.0   16.666666666666668
-150.0   150.0   33.333333333333336
-200.0   120.0   33.333333333333336
-200.0   150.0   33.333333333333336
-150.0   150.0   33.333333333333336
-200.0   150.0   16.666666666666668
-200.0   120.0   33.333333333333336
-150.0   150.0   33.333333333333336
-150.0   120.0   33.333333333333336
-150.0   120.0   16.666666666666668
-200.0   120.0   33.333333333333336
-150.0   150.0   33.333333333333336
-150.0   120.0   16.666666666666668
-200.0   150.0   16.666666666666668
-200.0   120.0   33.333333333333336
-150.0   120.0   33.333333333333336
-200.0   150.0   33.333333333333336
-200.0   120.0   50.0
-150.0   120.0   33.333333333333336
-150.0   150.0   33.333333333333336
-200.0   150.0   33.333333333333336
-150.0   150.0   50.0
-200.0   120.0   50.0
-200.0   150.0   50.0
-150.0   150.0   50.0
-200.0   150.0   33.333333333333336
-200.0   120.0   50.0
-150.0   150.0   50.0
-150.0   120.0   50.0
-150.0   120.0   33.333333333333336
-200.0   120.0   50.0
-150.0   150.0   50.0
-150.0   120.0   33.333333333333336
-200.0   150.0   33.333333333333336
-150.0   0.0   0.0
-100.0   0.0   0.0
-150.0   30.0   0.0
-150.0   0.0   16.666666666666668
-100.0   0.0   0.0
-100.0   30.0   0.0
-150.0   30.0   0.0
-100.0   30.0   16.666666666666668
-150.0   0.0   16.666666666666668
-150.0   30.0   16.666666666666668
-100.0   30.0   16.666666666666668
-150.0   30.0   0.0
-150.0   0.0   16.666666666666668
-100.0   30.0   16.666666666666668
-100.0   0.0   16.666666666666668
-100.0   0.0   0.0
-150.0   0.0   16.666666666666668
-100.0   30.0   16.666666666666668
-100.0   0.0   0.0
-150.0   30.0   0.0
-150.0   0.0   16.666666666666668
-100.0   0.0   16.666666666666668
-150.0   30.0   16.666666666666668
-150.0   0.0   33.333333333333336
-100.0   0.0   16.666666666666668
-100.0   30.0   16.666666666666668
-150.0   30.0   16.666666666666668
-100.0   30.0   33.333333333333336
-150.0   0.0   33.333333333333336
-150.0   30.0   33.333333333333336
-100.0   30.0   33.333333333333336
-150.0   30.0   16.666666666666668
-150.0   0.0   33.333333333333336
-100.0   30.0   33.333333333333336
-100.0   0.0   33.333333333333336
-100.0   0.0   16.666666666666668
-150.0   0.0   33.333333333333336
-100.0   30.0   33.333333333333336
-100.0   0.0   16.666666666666668
-150.0   30.0   16.666666666666668
-150.0   0.0   33.333333333333336
-100.0   0.0   33.333333333333336
-150.0   30.0   33.333333333333336
-150.0   0.0   50.0
-100.0   0.0   33.333333333333336
-100.0   30.0   33.333333333333336
-150.0   30.0   33.333333333333336
-100.0   30.0   50.0
-150.0   0.0   50.0
-150.0   30.0   50.0
-100.0   30.0   50.0
-150.0   30.0   33.333333333333336
-150.0   0.0   50.0
-100.0   30.0   50.0
-100.0   0.0   50.0
-100.0   0.0   33.333333333333336
-150.0   0.0   50.0
-100.0   30.0   50.0
-100.0   0.0   33.333333333333336
-150.0   30.0   33.333333333333336
-150.0   30.0   0.0
-100.0   30.0   0.0
-150.0   60.0   0.0
-150.0   30.0   16.666666666666668
-100.0   30.0   0.0
-100.0   60.0   0.0
-150.0   60.0   0.0
-100.0   60.0   16.666666666666668
-150.0   30.0   16.666666666666668
-150.0   60.0   16.666666666666668
-100.0   60.0   16.666666666666668
-150.0   60.0   0.0
-150.0   30.0   16.666666666666668
-100.0   60.0   16.666666666666668
-100.0   30.0   16.666666666666668
-100.0   30.0   0.0
-150.0   30.0   16.666666666666668
-100.0   60.0   16.666666666666668
-100.0   30.0   0.0
-150.0   60.0   0.0
-150.0   30.0   16.666666666666668
-100.0   30.0   16.666666666666668
-150.0   60.0   16.666666666666668
-150.0   30.0   33.333333333333336
-100.0   30.0   16.666666666666668
-100.0   60.0   16.666666666666668
-150.0   60.0   16.666666666666668
-100.0   60.0   33.333333333333336
-150.0   30.0   33.333333333333336
-150.0   60.0   33.333333333333336
-100.0   60.0   33.333333333333336
-150.0   60.0   16.666666666666668
-150.0   30.0   33.333333333333336
-100.0   60.0   33.333333333333336
-100.0   30.0   33.333333333333336
-100.0   30.0   16.666666666666668
-150.0   30.0   33.333333333333336
-100.0   60.0   33.333333333333336
-100.0   30.0   16.666666666666668
-150.0   60.0   16.666666666666668
-150.0   30.0   33.333333333333336
-100.0   30.0   33.333333333333336
-150.0   60.0   33.333333333333336
-150.0   30.0   50.0
-100.0   30.0   33.333333333333336
-100.0   60.0   33.333333333333336
-150.0   60.0   33.333333333333336
-100.0   60.0   50.0
-150.0   30.0   50.0
-150.0   60.0   50.0
-100.0   60.0   50.0
-150.0   60.0   33.333333333333336
-150.0   30.0   50.0
-100.0   60.0   50.0
-100.0   30.0   50.0
-100.0   30.0   33.333333333333336
-150.0   30.0   50.0
-100.0   60.0   50.0
-100.0   30.0   33.333333333333336
-150.0   60.0   33.333333333333336
-150.0   60.0   0.0
-100.0   60.0   0.0
-150.0   90.0   0.0
-150.0   60.0   16.666666666666668
-100.0   60.0   0.0
-100.0   90.0   0.0
-150.0   90.0   0.0
-100.0   90.0   16.666666666666668
-150.0   60.0   16.666666666666668
-150.0   90.0   16.666666666666668
-100.0   90.0   16.666666666666668
-150.0   90.0   0.0
-150.0   60.0   16.666666666666668
-100.0   90.0   16.666666666666668
-100.0   60.0   16.666666666666668
-100.0   60.0   0.0
-150.0   60.0   16.666666666666668
-100.0   90.0   16.666666666666668
-100.0   60.0   0.0
-150.0   90.0   0.0
-150.0   60.0   16.666666666666668
-100.0   60.0   16.666666666666668
-150.0   90.0   16.666666666666668
-150.0   60.0   33.333333333333336
-100.0   60.0   16.666666666666668
-100.0   90.0   16.666666666666668
-150.0   90.0   16.666666666666668
-100.0   90.0   33.333333333333336
-150.0   60.0   33.333333333333336
-150.0   90.0   33.333333333333336
-100.0   90.0   33.333333333333336
-150.0   90.0   16.666666666666668
-150.0   60.0   33.333333333333336
-100.0   90.0   33.333333333333336
-100.0   60.0   33.333333333333336
-100.0   60.0   16.666666666666668
-150.0   60.0   33.333333333333336
-100.0   90.0   33.333333333333336
-100.0   60.0   16.666666666666668
-150.0   90.0   16.666666666666668
-150.0   60.0   33.333333333333336
-100.0   60.0   33.333333333333336
-150.0   90.0   33.333333333333336
-150.0   60.0   50.0
-100.0   60.0   33.333333333333336
-100.0   90.0   33.333333333333336
-150.0   90.0   33.333333333333336
-100.0   90.0   50.0
-150.0   60.0   50.0
-150.0   90.0   50.0
-100.0   90.0   50.0
-150.0   90.0   33.333333333333336
-150.0   60.0   50.0
-100.0   90.0   50.0
-100.0   60.0   50.0
-100.0   60.0   33.333333333333336
-150.0   60.0   50.0
-100.0   90.0   50.0
-100.0   60.0   33.333333333333336
-150.0   90.0   33.333333333333336
-150.0   90.0   0.0
-100.0   90.0   0.0
-150.0   120.0   0.0
-150.0   90.0   16.666666666666668
-100.0   90.0   0.0
-100.0   120.0   0.0
-150.0   120.0   0.0
-100.0   120.0   16.666666666666668
-150.0   90.0   16.666666666666668
-150.0   120.0   16.666666666666668
-100.0   120.0   16.666666666666668
-150.0   120.0   0.0
-150.0   90.0   16.666666666666668
-100.0   120.0   16.666666666666668
-100.0   90.0   16.666666666666668
-100.0   90.0   0.0
-150.0   90.0   16.666666666666668
-100.0   120.0   16.666666666666668
-100.0   90.0   0.0
-150.0   120.0   0.0
-150.0   90.0   16.666666666666668
-100.0   90.0   16.666666666666668
-150.0   120.0   16.666666666666668
-150.0   90.0   33.333333333333336
-100.0   90.0   16.666666666666668
-100.0   120.0   16.666666666666668
-150.0   120.0   16.666666666666668
-100.0   120.0   33.333333333333336
-150.0   90.0   33.333333333333336
-150.0   120.0   33.333333333333336
-100.0   120.0   33.333333333333336
-150.0   120.0   16.666666666666668
-150.0   90.0   33.333333333333336
-100.0   120.0   33.333333333333336
-100.0   90.0   33.333333333333336
-100.0   90.0   16.666666666666668
-150.0   90.0   33.333333333333336
-100.0   120.0   33.333333333333336
-100.0   90.0   16.666666666666668
-150.0   120.0   16.666666666666668
-150.0   90.0   33.333333333333336
-100.0   90.0   33.333333333333336
-150.0   120.0   33.333333333333336
-150.0   90.0   50.0
-100.0   90.0   33.333333333333336
-100.0   120.0   33.333333333333336
-150.0   120.0   33.333333333333336
-100.0   120.0   50.0
-150.0   90.0   50.0
-150.0   120.0   50.0
-100.0   120.0   50.0
-150.0   120.0   33.333333333333336
-150.0   90.0   50.0
-100.0   120.0   50.0
-100.0   90.0   50.0
-100.0   90.0   33.333333333333336
-150.0   90.0   50.0
-100.0   120.0   50.0
-100.0   90.0   33.333333333333336
-150.0   120.0   33.333333333333336
-150.0   120.0   0.0
-100.0   120.0   0.0
-150.0   150.0   0.0
-150.0   120.0   16.666666666666668
-100.0   120.0   0.0
-100.0   150.0   0.0
-150.0   150.0   0.0
-100.0   150.0   16.666666666666668
-150.0   120.0   16.666666666666668
-150.0   150.0   16.666666666666668
-100.0   150.0   16.666666666666668
-150.0   150.0   0.0
-150.0   120.0   16.666666666666668
-100.0   150.0   16.666666666666668
-100.0   120.0   16.666666666666668
-100.0   120.0   0.0
-150.0   120.0   16.666666666666668
-100.0   150.0   16.666666666666668
-100.0   120.0   0.0
-150.0   150.0   0.0
-150.0   120.0   16.666666666666668
-100.0   120.0   16.666666666666668
-150.0   150.0   16.666666666666668
-150.0   120.0   33.333333333333336
-100.0   120.0   16.666666666666668
-100.0   150.0   16.666666666666668
-150.0   150.0   16.666666666666668
-100.0   150.0   33.333333333333336
-150.0   120.0   33.333333333333336
-150.0   150.0   33.333333333333336
-100.0   150.0   33.333333333333336
-150.0   150.0   16.666666666666668
-150.0   120.0   33.333333333333336
-100.0   150.0   33.333333333333336
-100.0   120.0   33.333333333333336
-100.0   120.0   16.666666666666668
-150.0   120.0   33.333333333333336
-100.0   150.0   33.333333333333336
-100.0   120.0   16.666666666666668
-150.0   150.0   16.666666666666668
-150.0   120.0   33.333333333333336
-100.0   120.0   33.333333333333336
-150.0   150.0   33.333333333333336
-150.0   120.0   50.0
-100.0   120.0   33.333333333333336
-100.0   150.0   33.333333333333336
-150.0   150.0   33.333333333333336
-100.0   150.0   50.0
-150.0   120.0   50.0
-150.0   150.0   50.0
-100.0   150.0   50.0
-150.0   150.0   33.333333333333336
-150.0   120.0   50.0
-100.0   150.0   50.0
-100.0   120.0   50.0
-100.0   120.0   33.333333333333336
-150.0   120.0   50.0
-100.0   150.0   50.0
-100.0   120.0   33.333333333333336
-150.0   150.0   33.333333333333336
-100.0   0.0   0.0
-50.0   0.0   0.0
-100.0   30.0   0.0
-100.0   0.0   16.666666666666668
-50.0   0.0   0.0
-50.0   30.0   0.0
-100.0   30.0   0.0
-50.0   30.0   16.666666666666668
-100.0   0.0   16.666666666666668
-100.0   30.0   16.666666666666668
-50.0   30.0   16.666666666666668
-100.0   30.0   0.0
-100.0   0.0   16.666666666666668
-50.0   30.0   16.666666666666668
-50.0   0.0   16.666666666666668
-50.0   0.0   0.0
-100.0   0.0   16.666666666666668
-50.0   30.0   16.666666666666668
-50.0   0.0   0.0
-100.0   30.0   0.0
-100.0   0.0   16.666666666666668
-50.0   0.0   16.666666666666668
-100.0   30.0   16.666666666666668
-100.0   0.0   33.333333333333336
-50.0   0.0   16.666666666666668
-50.0   30.0   16.666666666666668
-100.0   30.0   16.666666666666668
-50.0   30.0   33.333333333333336
-100.0   0.0   33.333333333333336
-100.0   30.0   33.333333333333336
-50.0   30.0   33.333333333333336
-100.0   30.0   16.666666666666668
-100.0   0.0   33.333333333333336
-50.0   30.0   33.333333333333336
-50.0   0.0   33.333333333333336
-50.0   0.0   16.666666666666668
-100.0   0.0   33.333333333333336
-50.0   30.0   33.333333333333336
-50.0   0.0   16.666666666666668
-100.0   30.0   16.666666666666668
-100.0   0.0   33.333333333333336
-50.0   0.0   33.333333333333336
-100.0   30.0   33.333333333333336
-100.0   0.0   50.0
-50.0   0.0   33.333333333333336
-50.0   30.0   33.333333333333336
-100.0   30.0   33.333333333333336
-50.0   30.0   50.0
-100.0   0.0   50.0
-100.0   30.0   50.0
-50.0   30.0   50.0
-100.0   30.0   33.333333333333336
-100.0   0.0   50.0
-50.0   30.0   50.0
-50.0   0.0   50.0
-50.0   0.0   33.333333333333336
-100.0   0.0   50.0
-50.0   30.0   50.0
-50.0   0.0   33.333333333333336
-100.0   30.0   33.333333333333336
-100.0   30.0   0.0
-50.0   30.0   0.0
-100.0   60.0   0.0
-100.0   30.0   16.666666666666668
-50.0   30.0   0.0
-50.0   60.0   0.0
-100.0   60.0   0.0
-50.0   60.0   16.666666666666668
-100.0   30.0   16.666666666666668
-100.0   60.0   16.666666666666668
-50.0   60.0   16.666666666666668
-100.0   60.0   0.0
-100.0   30.0   16.666666666666668
-50.0   60.0   16.666666666666668
-50.0   30.0   16.666666666666668
-50.0   30.0   0.0
-100.0   30.0   16.666666666666668
-50.0   60.0   16.666666666666668
-50.0   30.0   0.0
-100.0   60.0   0.0
-100.0   30.0   16.666666666666668
-50.0   30.0   16.666666666666668
-100.0   60.0   16.666666666666668
-100.0   30.0   33.333333333333336
-50.0   30.0   16.666666666666668
-50.0   60.0   16.666666666666668
-100.0   60.0   16.666666666666668
-50.0   60.0   33.333333333333336
-100.0   30.0   33.333333333333336
-100.0   60.0   33.333333333333336
-50.0   60.0   33.333333333333336
-100.0   60.0   16.666666666666668
-100.0   30.0   33.333333333333336
-50.0   60.0   33.333333333333336
-50.0   30.0   33.333333333333336
-50.0   30.0   16.666666666666668
-100.0   30.0   33.333333333333336
-50.0   60.0   33.333333333333336
-50.0   30.0   16.666666666666668
-100.0   60.0   16.666666666666668
-100.0   30.0   33.333333333333336
-50.0   30.0   33.333333333333336
-100.0   60.0   33.333333333333336
-100.0   30.0   50.0
-50.0   30.0   33.333333333333336
-50.0   60.0   33.333333333333336
-100.0   60.0   33.333333333333336
-50.0   60.0   50.0
-100.0   30.0   50.0
-100.0   60.0   50.0
-50.0   60.0   50.0
-100.0   60.0   33.333333333333336
-100.0   30.0   50.0
-50.0   60.0   50.0
-50.0   30.0   50.0
-50.0   30.0   33.333333333333336
-100.0   30.0   50.0
-50.0   60.0   50.0
-50.0   30.0   33.333333333333336
-100.0   60.0   33.333333333333336
-100.0   60.0   0.0
-50.0   60.0   0.0
-100.0   90.0   0.0
-100.0   60.0   16.666666666666668
-50.0   60.0   0.0
-50.0   90.0   0.0
-100.0   90.0   0.0
-50.0   90.0   16.666666666666668
-100.0   60.0   16.666666666666668
-100.0   90.0   16.666666666666668
-50.0   90.0   16.666666666666668
-100.0   90.0   0.0
-100.0   60.0   16.666666666666668
-50.0   90.0   16.666666666666668
-50.0   60.0   16.666666666666668
-50.0   60.0   0.0
-100.0   60.0   16.666666666666668
-50.0   90.0   16.666666666666668
-50.0   60.0   0.0
-100.0   90.0   0.0
-100.0   60.0   16.666666666666668
-50.0   60.0   16.666666666666668
-100.0   90.0   16.666666666666668
-100.0   60.0   33.333333333333336
-50.0   60.0   16.666666666666668
-50.0   90.0   16.666666666666668
-100.0   90.0   16.666666666666668
-50.0   90.0   33.333333333333336
-100.0   60.0   33.333333333333336
-100.0   90.0   33.333333333333336
-50.0   90.0   33.333333333333336
-100.0   90.0   16.666666666666668
-100.0   60.0   33.333333333333336
-50.0   90.0   33.333333333333336
-50.0   60.0   33.333333333333336
-50.0   60.0   16.666666666666668
-100.0   60.0   33.333333333333336
-50.0   90.0   33.333333333333336
-50.0   60.0   16.666666666666668
-100.0   90.0   16.666666666666668
-100.0   60.0   33.333333333333336
-50.0   60.0   33.333333333333336
-100.0   90.0   33.333333333333336
-100.0   60.0   50.0
-50.0   60.0   33.333333333333336
-50.0   90.0   33.333333333333336
-100.0   90.0   33.333333333333336
-50.0   90.0   50.0
-100.0   60.0   50.0
-100.0   90.0   50.0
-50.0   90.0   50.0
-100.0   90.0   33.333333333333336
-100.0   60.0   50.0
-50.0   90.0   50.0
-50.0   60.0   50.0
-50.0   60.0   33.333333333333336
-100.0   60.0   50.0
-50.0   90.0   50.0
-50.0   60.0   33.333333333333336
-100.0   90.0   33.333333333333336
-100.0   90.0   0.0
-50.0   90.0   0.0
-100.0   120.0   0.0
-100.0   90.0   16.666666666666668
-50.0   90.0   0.0
-50.0   120.0   0.0
-100.0   120.0   0.0
-50.0   120.0   16.666666666666668
-100.0   90.0   16.666666666666668
-100.0   120.0   16.666666666666668
-50.0   120.0   16.666666666666668
-100.0   120.0   0.0
-100.0   90.0   16.666666666666668
-50.0   120.0   16.666666666666668
-50.0   90.0   16.666666666666668
-50.0   90.0   0.0
-100.0   90.0   16.666666666666668
-50.0   120.0   16.666666666666668
-50.0   90.0   0.0
-100.0   120.0   0.0
-100.0   90.0   16.666666666666668
-50.0   90.0   16.666666666666668
-100.0   120.0   16.666666666666668
-100.0   90.0   33.333333333333336
-50.0   90.0   16.666666666666668
-50.0   120.0   16.666666666666668
-100.0   120.0   16.666666666666668
-50.0   120.0   33.333333333333336
-100.0   90.0   33.333333333333336
-100.0   120.0   33.333333333333336
-50.0   120.0   33.333333333333336
-100.0   120.0   16.666666666666668
-100.0   90.0   33.333333333333336
-50.0   120.0   33.333333333333336
-50.0   90.0   33.333333333333336
-50.0   90.0   16.666666666666668
-100.0   90.0   33.333333333333336
-50.0   120.0   33.333333333333336
-50.0   90.0   16.666666666666668
-100.0   120.0   16.666666666666668
-100.0   90.0   33.333333333333336
-50.0   90.0   33.333333333333336
-100.0   120.0   33.333333333333336
-100.0   90.0   50.0
-50.0   90.0   33.333333333333336
-50.0   120.0   33.333333333333336
-100.0   120.0   33.333333333333336
-50.0   120.0   50.0
-100.0   90.0   50.0
-100.0   120.0   50.0
-50.0   120.0   50.0
-100.0   120.0   33.333333333333336
-100.0   90.0   50.0
-50.0   120.0   50.0
-50.0   90.0   50.0
-50.0   90.0   33.333333333333336
-100.0   90.0   50.0
-50.0   120.0   50.0
-50.0   90.0   33.333333333333336
-100.0   120.0   33.333333333333336
-100.0   120.0   0.0
-50.0   120.0   0.0
-100.0   150.0   0.0
-100.0   120.0   16.666666666666668
-50.0   120.0   0.0
-50.0   150.0   0.0
-100.0   150.0   0.0
-50.0   150.0   16.666666666666668
-100.0   120.0   16.666666666666668
-100.0   150.0   16.666666666666668
-50.0   150.0   16.666666666666668
-100.0   150.0   0.0
-100.0   120.0   16.666666666666668
-50.0   150.0   16.666666666666668
-50.0   120.0   16.666666666666668
-50.0   120.0   0.0
-100.0   120.0   16.666666666666668
-50.0   150.0   16.666666666666668
-50.0   120.0   0.0
-100.0   150.0   0.0
-100.0   120.0   16.666666666666668
-50.0   120.0   16.666666666666668
-100.0   150.0   16.666666666666668
-100.0   120.0   33.333333333333336
-50.0   120.0   16.666666666666668
-50.0   150.0   16.666666666666668
-100.0   150.0   16.666666666666668
-50.0   150.0   33.333333333333336
-100.0   120.0   33.333333333333336
-100.0   150.0   33.333333333333336
-50.0   150.0   33.333333333333336
-100.0   150.0   16.666666666666668
-100.0   120.0   33.333333333333336
-50.0   150.0   33.333333333333336
-50.0   120.0   33.333333333333336
-50.0   120.0   16.666666666666668
-100.0   120.0   33.333333333333336
-50.0   150.0   33.333333333333336
-50.0   120.0   16.666666666666668
-100.0   150.0   16.666666666666668
-100.0   120.0   33.333333333333336
-50.0   120.0   33.333333333333336
-100.0   150.0   33.333333333333336
-100.0   120.0   50.0
-50.0   120.0   33.333333333333336
-50.0   150.0   33.333333333333336
-100.0   150.0   33.333333333333336
-50.0   150.0   50.0
-100.0   120.0   50.0
-100.0   150.0   50.0
-50.0   150.0   50.0
-100.0   150.0   33.333333333333336
-100.0   120.0   50.0
-50.0   150.0   50.0
-50.0   120.0   50.0
-50.0   120.0   33.333333333333336
-100.0   120.0   50.0
-50.0   150.0   50.0
-50.0   120.0   33.333333333333336
-100.0   150.0   33.333333333333336
-50.0   0.0   0.0
0.0   0.0   0.0
-50.0   30.0   0.0
-50.0   0.0   16.666666666666668
0.0   0.0   0.0
0.0   30.0   0.0
-50.0   30.0   0.0
0.0   30.0   16.666666666666668
-50.0   0.0   16.666666666666668
-50.0   30.0   16.666666666666668
0.0   30.0   16.666666666666668
-50.0   30.0   0.0
-50.0   0.0   16.666666666666668
0.0   30.0   16.666666666666668
0.0   0.0   16.666666666666668
0.0   0.0   0.0
-50.0   0.0   16.666666666666668
0.0   30.0   16.666666666666668
0.0   0.0   0.0
-50.0   30.0   0.0
-50.0   0.0   16.666666666666668
0.0   0.0   16.666666666666668
-50.0   30.0   16.666666666666668
-50.0   0.0   33.333333333333336
0.0   0.0   16.666666666666668
0.0   30.0   16.666666666666668
-50.0   30.0   16.666666666666668
0.0   30.0   33.333333333333336
-50.0   0.0   33.333333333333336
-50.0   30.0   33.333333333333336
0.0   30.0   33.333333333333336
-50.0   30.0   16.666666666666668
-50.0   0.0   33.333333333333336
0.0   30.0   33.333333333333336
0.0   0.0   33.333333333333336
0.0   0.0   16.666666666666668
-50.0   0.0   33.333333333333336
0.0   30.0   33.333333333333336
0.0   0.0   16.666666666666668
-50.0   30.0   16.666666666666668
-50.0   0.0   33.333333333333336
0.0   0.0   33.333333333333336
-50.0   30.0   33.333333333333336
-50.0   0.0   50.0
0.0   0.0   33.333333333333336
0.0   30.0   33.333333333333336
-50.0   30.0   33.333333333333336
0.0   30.0   50.0
-50.0   0.0   50.0
-50.0   30.0   50.0
0.0   30.0   50.0
-50.0   30.0   33.333333333333336
-50.0   0.0   50.0
0.0   30.0   50.0
0.0   0.0   50.0
0.0   0.0   33.333333333333336
-50.0   0.0   50.0
0.0   30.0   50.0
0.0   0.0   33.333333333333336
-50.0   30.0   33.333333333333336
-50.0   30.0   0.0
0.0   30.0   0.0
-50.0   60.0   0.0
-50.0   30.0   16.666666666666668
0.0   30.0   0.0
0.0   60.0   0.0
-50.0   60.0   0.0
0.0   60.0   16.666666666666668
-50.0   30.0   16.666666666666668
-50.0   60.0   16.666666666666668
0.0   60.0   16.666666666666668
-50.0   60.0   0.0
-50.0   30.0   16.666666666666668
0.0   60.0   16.666666666666668
0.0   30.0   16.666666666666668
0.0   30.0   0.0
-50.0   30.0   16.666666666666668
0.0   60.0   16.666666666666668
0.0   30.0   0.0
-50.0   60.0   0.0
-50.0   30.0   16.666666666666668
0.0   30.0   16.666666666666668
-50.0   60.0   16.666666666666668
-50.0   30.0   33.333333333333336
0.0   30.0   16.666666666666668
0.0   60.0   16.666666666666668
-50.0   60.0   16.666666666666668
0.0   60.0   33.333333333333336
-50.0   30.0   33.333333333333336
-50.0   60.0   33.333333333333336
0.0   60.0   33.333333333333336
-50.0   60.0   16.666666666666668
-50.0   30.0   33.333333333333336
0.0   60.0   33.333333333333336
0.0   30.0   33.333333333333336
0.0   30.0   16.666666666666668
-50.0   30.0   33.333333333333336
0.0   60.0   33.333333333333336
0.0   30.0   16.666666666666668
-50.0   60.0   16.666666666666668
-50.0   30.0   33.333333333333336
0.0   30.0   33.333333333333336
-50.0   60.0   33.333333333333336
-50.0   30.0   50.0
0.0   30.0   33.333333333333336
0.0   60.0   33.333333333333336
-50.0   60.0   33.333333333333336
0.0   60.0   50.0
-50.0   30.0   50.0
-50.0   60.0   50.0
0.0   60.0   50.0
-50.0   60.0   33.333333333333336
-50.0   30.0   50.0
0.0   60.0   50.0
0.0   30.0   50.0
0.0   30.0   33.333333333333336
-50.0   30.0   50.0
0.0   60.0   50.0
0.0   30.0   33.333333333333336
-50.0   60.0   33.333333333333336
-50.0   60.0   0.0
0.0   60.0   0.0
-50.0   90.0   0.0
-50.0   60.0   16.666666666666668
0.0   60.0   0.0
0.0   90.0   0.0
-50.0   90.0   0.0
0.0   90.0   16.666666666666668
-50.0   60.0   16.666666666666668
-50.0   90.0   16.666666666666668
0.0   90.0   16.666666666666668
-50.0   90.0   0.0
-50.0   60.0   16.666666666666668
0.0   90.0   16.666666666666668
0.0   60.0   16.666666666666668
0.0   60.0   0.0
-50.0   60.0   16.666666666666668
0.0   90.0   16.666666666666668
0.0   60.0   0.0
-50.0   90.0   0.0
-50.0   60.0   16.666666666666668
0.0   60.0   16.666666666666668
-50.0   90.0   16.666666666666668
-50.0   60.0   33.333333333333336
0.0   60.0   16.666666666666668
0.0   90.0   16.666666666666668
-50.0   90.0   16.666666666666668
0.0   90.0   33.333333333333336
-50.0   60.0   33.333333333333336
-50.0   90.0   33.333333333333336
0.0   90.0   33.333333333333336
-50.0   90.0   16.666666666666668
-50.0   60.0   33.333333333333336
0.0   90.0   33.333333333333336
0.0   60.0   33.333333333333336
0.0   60.0   16.666666666666668
-50.0   60.0   33.333333333333336
0.0   90.0   33.333333333333336
0.0   60.0   16.666666666666668
-50.0   90.0   16.666666666666668
-50.0   60.0   33.333333333333336
0.0   60.0   33.333333333333336
-50.0   90.0   33.333333333333336
-50.0   60.0   50.0
0.0   60.0   33.333333333333336
0.0   90.0   33.333333333333336
-50.0   90.0   33.333333333333336
0.0   90.0   50.0
-50.0   60.0   50.0
-50.0   90.0   50.0
0.0   90.0   50.0
-50.0   90.0   33.333333333333336
-50.0   60.0   50.0
0.0   90.0   50.0
0.0   60.0   50.0
0.0   60.0   33.333333333333336
-50.0   60.0   50.0
0.0   90.0   50.0
0.0   60.0   33.333333333333336
-50.0   90.0   33.333333333333336
-50.0   90.0   0.0
0.0   90.0   0.0
-50.0   120.0   0.0
-50.0   90.0   16.666666666666668
0.0   90.0   0.0
0.0   120.0   0.0
-50.0   120.0   0.0
0.0   120.0   16.666666666666668
-50.0   90.0   16.666666666666668
-50.0   120.0   16.666666666666668
0.0   120.0   16.666666666666668
-50.0   120.0   0.0
-50.0   90.0   16.666666666666668
0.0   120.0   16.666666666666668
0.0   90.0   16.666666666666668
0.0   90.0   0.0
-50.0   90.0   16.666666666666668
0.0   120.0   16.666666666666668
0.0   90.0   0.0
-50.0   120.0   0.0
-50.0   90.0   16.666666666666668
0.0   90.0   16.666666666666668
-50.0   120.0   16.666666666666668
-50.0   90.0   33.333333333333336
0.0   90.0   16.666666666666668
0.0   120.0   16.666666666666668
-50.0   120.0   16.666666666666668
0.0   120.0   33.333333333333336
-50.0   90.0   33.333333333333336
-50.0   120.0   33.333333333333336
0.0   120.0   33.333333333333336
-50.0   120.0   16.666666666666668
-50.0   90.0   33.333333333333336
0.0   120.0   33.333333333333336
0.0   90.0   33.333333333333336
0.0   90.0   16.666666666666668
-50.0   90.0   33.333333333333336
0.0   120.0   33.333333333333336
0.0   90.0   16.666666666666668
-50.0   120.0   16.666666666666668
-50.0   90.0   33.333333333333336
0.0   90.0   33.333333333333336
-50.0   120.0   33.333333333333336
-50.0   90.0   50.0
0.0   90.0   33.333333333333336
0.0   120.0   33.333333333333336
-50.0   120.0   33.333333333333336
0.0   120.0   50.0
-50.0   90.0   50.0
-50.0   120.0   50.0
0.0   120.0   50.0
-50.0   120.0   33.333333333333336
-50.0   90.0   50.0
0.0   120.0   50.0
0.0   90.0   50.0
0.0   90.0   33.333333333333336
-50.0   90.0   50.0
0.0   120.0   50.0
0.0   90.0   33.333333333333336
-50.0   120.0   33.333333333333336
-50.0   120.0   0.0
0.0   120.0   0.0
-50.0   150.0   0.0
-50.0   120.0   16.666666666666668
0.0   120.0   0.0
0.0   150.0   0.0
-50.0   150.0   0.0
0.0   150.0   16.666666666666668
-50.0   120.0   16.666666666666668
-50.0   150.0   16.666666666666668
0.0   150.0   16.666666666666668
-50.0   150.0   0.0
-50.0   120.0   16.666666666666668
0.0   150.0   16.666666666666668
0.0   120.0   16.666666666666668
0.0   120.0   0.0
-50.0   120.0   16.666666666666668
0.0   150.0   16.666666666666668
0.0   120.0   0.0
-50.0   150.0   0.0
-50.0   120.0   16.666666666666668
0.0   120.0   16.666666666666668
-50.0   150.0   16.666666666666668
-50.0   120.0   33.333333333333336
0.0   120.0   16.666666666666668
0.0   150.0   16.666666666666668
-50.0   150.0   16.666666666666668
0.0   150.0   33.333333333333336
-50.0   120.0   33.333333333333336
-50.0   150.0   33.333333333333336
0.0   150.0   33.333333333333336
-50.0   150.0   16.666666666666668
-50.0   120.0   33.333333333333336
0.0   150.0   33.333333333333336
0.0   120.0   33.333333333333336
0.0   120.0   16.666666666666668
-50.0   120.0   33.333333333333336
0.0   150.0   33.333333333333336
0.0   120.0   16.666666666666668
-50.0   150.0   16.666666666666668
-50.0   120.0   33.333333333333336
0.0   120.0   33.333333333333336
-50.0   150.0   33.333333333333336
-50.0   120.0   50.0
0.0   120.0   33.333333333333336
0.0   150.0   33.333333333333336
-50.0   150.0   33.333333333333336
0.0   150.0   50.0
-50.0   120.0   50.0
-50.0   150.0   50.0
0.0   150.0   50.0
-50.0   150.0   33.333333333333336
-50.0   120.0   50.0
0.0   150.0   50.0
0.0   120.0   50.0
0.0   120.0   33.333333333333336
-50.0   120.0   50.0
0.0   150.0   50.0
0.0   120.0   33.333333333333336
-50.0   150.0   33.333333333333336
0.0   0.0   0.0
50.0   0.0   0.0
0.0   30.0   0.0
0.0   0.0   16.666666666666668
50.0   0.0   0.0
50.0   30.0   0.0
0.0   30.0   0.0
50.0   30.0   16.666666666666668
0.0   0.0   16.666666666666668
0.0   30.0   16.666666666666668
50.0   30.0   16.666666666666668
0.0   30.0   0.0
0.0   0.0   16.666666666666668
50.0   30.0   16.666666666666668
50.0   0.0   16.666666666666668
50.0   0.0   0.0
0.0   0.0   16.666666666666668
50.0   30.0   16.666666666666668
50.0   0.0   0.0
0.0   30.0   0.0
0.0   0.0   16.666666666666668
50.0   0.0   16.666666666666668
0.0   30.0   16.666666666666668
0.0   0.0   33.333333333333336
50.0   0.0   16.666666666666668
50.0   30.0   16.666666666666668
0.0   30.0   16.666666666666668
50.0   30.0   33.333333333333336
0.0   0.0   33.333333333333336
0.0   30.0   33.333333333333336
50.0   30.0   33.333333333333336
0.0   30.0   16.666666666666668
0.0   0.0   33.333333333333336
50.0   30.0   33.333333333333336
50.0   0.0   33.333333333333336
50.0   0.0   16.666666666666668
0.0   0.0   33.333333333333336
50.0   30.0   33.333333333333336
50.0   0.0   16.666666666666668
0.0   30.0   16.666666666666668
0.0   0.0   33.333333333333336
50.0   0.0   33.333333333333336
0.0   30.0   33.333333333333336
0.0   0.0   50.0
50.0   0.0   33.333333333333336
50.0   30.0   33.333333333333336
0.0   30.0   33.333333333333336
50.0   30.0   50.0
0.0   0.0   50.0
0.0   30.0   50.0
50.0   30.0   50.0
0.0   30.0   33.333333333333336
0.0   0.0   50.0
50.0   30.0   50.0
50.0   0.0   50.0
50.0   0.0   33.333333333333336
0.0   0.0   50.0
50.0   30.0   50.0
50.0   0.0   33.333333333333336
0.0   30.0   33.333333333333336
0.0   30.0   0.0
50.0   30.0   0.0
0.0   60.0   0.0
0.0   30.0   16.666666666666668
50.0   30.0   0.0
50.0   60.0   0.0
0.0   60.0   0.0
50.0   60.0   16.666666666666668
0.0   30.0   16.666666666666668
0.0   60.0   16.666666666666668
50.0   60.0   16.666666666666668
0.0   60.0   0.0
0.0   30.0   16.666666666666668
50.0   60.0   16.666666666666668
50.0   30.0   16.666666666666668
50.0   30.0   0.0
0.0   30.0   16.666666666666668
50.0   60.0   16.666666666666668
50.0   30.0   0.0
0.0   60.0   0.0
0.0   30.0   16.666666666666668
50.0   30.0   16.666666666666668
0.0   60.0   16.666666666666668
0.0   30.0   33.333333333333336
50.0   30.0   16.666666666666668
50.0   60.0   16.666666666666668
0.0   60.0   16.666666666666668
50.0   60.0   33.333333333333336
0.0   30.0   33.333333333333336
0.0   60.0   33.333333333333336
50.0   60.0   33.333333333333336
0.0   60.0   16.666666666666668
0.0   30.0   33.333333333333336
50.0   60.0   33.333333333333336
50.0   30.0   33.333333333333336
50.0   30.0   16.666666666666668
0.0   30.0   33.333333333333336
50.0   60.0   33.333333333333336
50.0   30.0   16.666666666666668
0.0   60.0   16.666666666666668
0.0   30.0   33.333333333333336
50.0   30.0   33.333333333333336
0.0   60.0   33.333333333333336
0.0   30.0   50.0
50.0   30.0   33.333333333333336
50.0   60.0   33.333333333333336
0.0   60.0   33.333333333333336
50.0   60.0   50.0
0.0   30.0   50.0
0.0   60.0   50.0
50.0   60.0   50.0
0.0   60.0   33.333333333333336
0.0   30.0   50.0
50.0   60.0   50.0
50.0   30.0   50.0
50.0   30.0   33.333333333333336
0.0   30.0   50.0
50.0   60.0   50.0
50.0   30.0   33.333333333333336
0.0   60.0   33.333333333333336
0.0   60.0   0.0
50.0   60.0   0.0
0.0   90.0   0.0
0.0   60.0   16.666666666666668
50.0   60.0   0.0
50.0   90.0   0.0
0.0   90.0   0.0
50.0   90.0   16.666666666666668
0.0   60.0   16.666666666666668
0.0   90.0   16.666666666666668
50.0   90.0   16.666666666666668
0.0   90.0   0.0
0.0   60.0   16.666666666666668
50.0   90.0   16.666666666666668
50.0   60.0   16.666666666666668
50.0   60.0   0.0
0.0   60.0   16.666666666666668
50.0   90.0   16.666666666666668
50.0   60.0   0.0
0.0   90.0   0.0
0.0   60.0   16.666666666666668
50.0   60.0   16.666666666666668
0.0   90.0   16.666666666666668
0.0   60.0   33.333333333333336
50.0   60.0   16.666666666666668
50.0   90.0   16.666666666666668
0.0   90.0   16.666666666666668
50.0   90.0   33.333333333333336
0.0   60.0   33.333333333333336
0.0   90.0   33.333333333333336
50.0   90.0   33.333333333333336
0.0   90.0   16.666666666666668
0.0   60.0   33.333333333333336
50.0   90.0   33.333333333333336
50.0   60.0   33.333333333333336
50.0   60.0   16.666666666666668
0.0   60.0   33.333333333333336
50.0   90.0   33.333333333333336
50.0   60.0   16.666666666666668
0.0   90.0   16.666666666666668
0.0   60.0   33.333333333333336
50.0   60.0   33.333333333333336
0.0   90.0   33.333333333333336
0.0   60.0   50.0
50.0   60.0   33.333333333333336
50.0   90.0   33.333333333333336
0.0   90.0   33.333333333333336
50.0   90.0   50.0
0.0   60.0   50.0
0.0   90.0   50.0
50.0   90.0   50.0
0.0   90.0   33.333333333333336
0.0   60.0   50.0
50.0   90.0   50.0
50.0   60.0   50.0
50.0   60.0   33.333333333333336
0.0   60.0   50.0
50.0   90.0   50.0
50.0   60.0   33.333333333333336
0.0   90.0   33.333333333333336
0.0   90.0   0.0
50.0   90.0   0.0
0.0   120.0   0.0
0.0   90.0   16.666666666666668
50.0   90.0   0.0
50.0   120.0   0.0
0.0   120.0   0.0
50.0   120.0   16.666666666666668
0.0   90.0   16.666666666666668
0.0   120.0   16.666666666666668
50.0   120.0   16.666666666666668
0.0   120.0   0.0
0.0   90.0   16.666666666666668
50.0   120.0   16.666666666666668
50.0   90.0   16.666666666666668
50.0   90.0   0.0
0.0   90.0   16.666666666666668
50.0   120.0   16.666666666666668
50.0   90.0   0.0
0.0   120.0   0.0
0.0   90.0   16.666666666666668
50.0   90.0   16.666666666666668
0.0   120.0   16.666666666666668
0.0   90.0   33.333333333333336
50.0   90.0   16.666666666666668
50.0   120.0   16.666666666666668
0.0   120.0   16.666666666666668
50.0   120.0   33.333333333333336
0.0   90.0   33.333333333333336
0.0   120.0   33.333333333333336
50.0   120.0   33.333333333333336
0.0   120.0   16.666666666666668
0.0   90.0   33.333333333333336
50.0   120.0   33.333333333333336
50.0   90.0   33.333333333333336
50.0   90.0   16.666666666666668
0.0   90.0   33.333333333333336
50.0   120.0   33.333333333333336
50.0   90.0   16.666666666666668
0.0   120.0   16.666666666666668
0.0   90.0   33.333333333333336
50.0   90.0   33.333333333333336
0.0   120.0   33.333333333333336
0.0   90.0   50.0
50.0   90.0   33.333333333333336
50.0   120.0   33.333333333333336
0.0   120.0   33.333333333333336
50.0   120.0   50.0
0.0   90.0   50.0
0.0   120.0   50.0
50.0   120.0   50.0
0.0   120.0   33.333333333333336
0.0   90.0   50.0
50.0   120.0   50.0
50.0   90.0   50.0
50.0   90.0   33.333333333333336
0.0   90.0   50.0
50.0   120.0   50.0
50.0   90.0   33.333333333333336
0.0   120.0   33.333333333333336
0.0   120.0   0.0
50.0   120.0   0.0
0.0   150.0   0.0
0.0   120.0   16.666666666666668
50.0   120.0   0.0
50.0   150.0   0.0
0.0   150.0   0.0
50.0   150.0   16.666666666666668
0.0   120.0   16.666666666666668
0.0   150.0   16.666666666666668
50.0   150.0   16.666666666666668
0.0   150.0   0.0
0.0   120.0   16.666666666666668
50.0   150.0   16.666666666666668
50.0   120.0   16.666666666666668
50.0   120.0   0.0
0.0   120.0   16.666666666666668
50.0   150.0   16.666666666666668
50.0   120.0   0.0
0.0   150.0   0.0
0.0   120.0   16.666666666666668
50.0   120.0   16.666666666666668
0.0   150.0   16.666666666666668
0.0   120.0   33.333333333333336
50.0   120.0   16.666666666666668
50.0   150.0   16.666666666666668
0.0   150.0   16.666666666666668
50.0   150.0   33.333333333333336
0.0   120.0   33.333333333333336
0.0   150.0   33.333333333333336
50.0   150.0   33.333333333333336
0.0   150.0   16.666666666666668
0.0   120.0   33.333333333333336
50.0   150.0   33.333333333333336
50.0   120.0   33.333333333333336
50.0   120.0   16.666666666666668
0.0   120.0   33.333333333333336
50.0   150.0   33.333333333333336
50.0   120.0   16.666666666666668
0.0   150.0   16.666666666666668
0.0   120.0   33.333333333333336
50.0   120.0   33.333333333333336
0.0   150.0   33.333333333333336
0.0   120.0   50.0
50.0   120.0   33.333333333333336
50.0   150.0   33.333333333333336
0.0   150.0   33.333333333333336
50.0   150.0   50.0
0.0   120.0   50.0
0.0   150.0   50.0
50.0   150.0   50.0
0.0   150.0   33.333333333333336
0.0   120.0   50.0
50.0   150.0   50.0
50.0   120.0   50.0
50.0   120.0   33.333333333333336
0.0   120.0   50.0
50.0   150.0   50.0
50.0   120.0   33.333333333333336
0.0   150.0   33.333333333333336
50.0   0.0   0.0
100.0   0.0   0.0
50.0   30.0   0.0
50.0   0.0   16.666666666666668
100.0   0.0   0.0
100.0   30.0   0.0
50.0   30.0   0.0
100.0   30.0   16.666666666666668
50.0   0.0   16.666666666666668
50.0   30.0   16.666666666666668
100.0   30.0   16.666666666666668
50.0   30.0   0.0
50.0   0.0   16.666666666666668
100.0   30.0   16.666666666666668
100.0   0.0   16.666666666666668
100.0   0.0   0.0
50.0   0.0   16.666666666666668
100.0   30.0   16.666666666666668
100.0   0.0   0.0
50.0   30.0   0.0
50.0   0.0   16.666666666666668
100.0   0.0   16.666666666666668
50.0   30.0   16.666666666666668
50.0   0.0   33.333333333333336
100.0   0.0   16.666666666666668
100.0   30.0   16.666666666666668
50.0   30.0   16.666666666666668
100.0   30.0   33.333333333333336
50.0   0.0   33.333333333333336
50.0   30.0   33.333333333333336
100.0   30.0   33.333333333333336
50.0   30.0   16.666666666666668
50.0   0.0   33.333333333333336
100.0   30.0   33.333333333333336
100.0   0.0   33.333333333333336
100.0   0.0   16.666666666666668
50.0   0.0   33.333333333333336
100.0   30.0   33.333333333333336
100.0   0.0   16.666666666666668
50.0   30.0   16.666666666666668
50.0   0.0   33.333333333333336
100.0   0.0   33.333333333333336
50.0   30.0   33.333333333333336
50.0   0.0   50.0
100.0   0.0   33.333333333333336
100.0   30.0   33.333333333333336
50.0   30.0   33.333333333333336
100.0   30.0   50.0
50.0   0.0   50.0
50.0   30.0   50.0
100.0   30.0   50.0
50.0   30.0   33.333333333333336
50.0   0.0   50.0
100.0   30.0   50.0
100.0   0.0   50.0
100.0   0.0   33.333333333333336
50.0   0.0   50.0
100.0   30.0   50.0
100.0   0.0   33.333333333333336
50.0   30.0   33.333333333333336
50.0   30.0   0.0
100.0   30.0   0.0
50.0   60.0   0.0
50.0   30.0   16.666666666666668
100.0   30.0   0.0
100.0   60.0   0.0
50.0   60.0   0.0
100.0   60.0   16.666666666666668
50.0   30.0   16.666666666666668
50.0   60.0   16.666666666666668
100.0   60.0   16.666666666666668
50.0   60.0   0.0
50.0   30.0   16.666666666666668
100.0   60.0   16.666666666666668
100.0   30.0   16.666666666666668
100.0   30.0   0.0
50.0   30.0   16.666666666666668
100.0   60.0   16.666666666666668
100.0   30.0   0.0
50.0   60.0   0.0
50.0   30.0   16.666666666666668
100.0   30.0   16.666666666666668
50.0   60.0   16.666666666666668
50.0   30.0   33.333333333333336
100.0   30.0   16.666666666666668
100.0   60.0   16.666666666666668
50.0   60.0   16.666666666666668
100.0   60.0   33.333333333333336
50.0   30.0   33.333333333333336
50.0   60.0   33.333333333333336
100.0   60.0   33.333333333333336
50.0   60.0   16.666666666666668
50.0   30.0   33.333333333333336
100.0   60.0   33.333333333333336
100.0   30.0   33.333333333333336
100.0   30.0   16.666666666666668
50.0   30.0   33.333333333333336
100.0   60.0   33.333333333333336
100.0   30.0   16.666666666666668
50.0   60.0   16.666666666666668
50.0   30.0   33.333333333333336
100.0   30.0   33.333333333333336
50.0   60.0   33.333333333333336
50.0   30.0   50.0
100.0   30.0   33.333333333333336
100.0   60.0   33.333333333333336
50.0   60.0   33.333333333333336
100.0   60.0   50.0
50.0   30.0   50.0
50.0   60.0   50.0
100.0   60.0   50.0
50.0   60.0   33.333333333333336
50.0   30.0   50.0
100.0   60.0   50.0
100.0   30.0   50.0
100.0   30.0   33.333333333333336
50.0   30.0   50.0
100.0   60.0   50.0
100.0   30.0   33.333333333333336
50.0   60.0   33.333333333333336
50.0   60.0   0.0
100.0   60.0   0.0
50.0   90.0   0.0
50.0   60.0   16.666666666666668
100.0   60.0   0.0
100.0   90.0   0.0
50.0   90.0   0.0
100.0   90.0   16.666666666666668
50.0   60.0   16.666666666666668
50.0   90.0   16.666666666666668
100.0   90.0   16.666666666666668
50.0   90.0   0.0
50.0   60.0   16.666666666666668
100.0   90.0   16.666666666666668
100.0   60.0   16.666666666666668
100.0   60.0   0.0
50.0   60.0   16.666666666666668
100.0   90.0   16.666666666666668
100.0   60.0   0.0
50.0   90.0   0.0
50.0   60.0   16.666666666666668
100.0   60.0   16.666666666666668
50.0   90.0   16.666666666666668
50.0   60.0   33.333333333333336
100.0   60.0   16.666666666666668
100.0   90.0   16.666666666666668
50.0   90.0   16.666666666666668
100.0   90.0   33.333333333333336
50.0   60.0   33.333333333333336
50.0   90.0   33.333333333333336
100.0   90.0   33.333333333333336
50.0   90.0   16.666666666666668
50.0   60.0   33.333333333333336
100.0   90.0   33.333333333333336
100.0   60.0   33.333333333333336
100.0   60.0   16.666666666666668
50.0   60.0   33.333333333333336
100.0   90.0   33.333333333333336
100.0   60.0   16.666666666666668
50.0   90.0   16.666666666666668
50.0   60.0   33.333333333333336
100.0   60.0   33.333333333333336
50.0   90.0   33.333333333333336
50.0   60.0   50.0
100.0   60.0   33.333333333333336
100.0   90.0   33.333333333333336
50.0   90.0   33.333333333333336
100.0   90.0   50.0
50.0   60.0   50.0
50.0   90.0   50.0
100.0   90.0   50.0
50.0   90.0   33.333333333333336
50.0   60.0   50.0
100.0   90.0   50.0
100.0   60.0   50.0
100.0   60.0   33.333333333333336
50.0   60.0   50.0
100.0   90.0   50.0
100.0   60.0   33.333333333333336
50.0   90.0   33.333333333333336
50.0   90.0   0.0
100.0   90.0   0.0
50.0   120.0   0.0
50.0   90.0   16.666666666666668
100.0   90.0   0.0
100.0   120.0   0.0
50.0   120.0   0.0
100.0   120.0   16.666666666666668
50.0   90.0   16.666666666666668
50.0   120.0   16.666666666666668
100.0   120.0   16.666666666666668
50.0   120.0   0.0
50.0   90.0   16.666666666666668
100.0   120.0   16.666666666666668
100.0   90.0   16.666666666666668
100.0   90.0   0.0
50.0   90.0   16.666666666666668
100.0   120.0   16.666666666666668
100.0   90.0   0.0
50.0   120.0   0.0
50.0   90.0   16.666666666666668
100.0   90.0   16.666666666666668
50.0   120.0   16.666666666666668
50.0   90.0   33.333333333333336
100.0   90.0   16.666666666666668
100.0   120.0   16.666666666666668
50.0   120.0   16.666666666666668
100.0   120.0   33.333333333333336
50.0   90.0   33.333333333333336
50.0   120.0   33.333333333333336
100.0   120.0   33.333333333333336
50.0   120.0   16.666666666666668
50.0   90.0   33.333333333333336
100.0   120.0   33.333333333333336
100.0   90.0   33.333333333333336
100.0   90.0   16.666666666666668
50.0   90.0   33.333333333333336
100.0   120.0   33.333333333333336
100.0   90.0   16.666666666666668
50.0   120.0   16.666666666666668
50.0   90.0   33.333333333333336
100.0   90.0   33.333333333333336
50.0   120.0   33.333333333333336
50.0   90.0   50.0
100.0   90.0   33.333333333333336
100.0   120.0   33.333333333333336
50.0   120.0   33.333333333333336
100.0   120.0   50.0
50.0   90.0   50.0
50.0   120.0   50.0
100.0   120.0   50.0
50.0   120.0   33.333333333333336
50.0   90.0   50.0
100.0   120.0   50.0
100.0   90.0   50.0
100.0   90.0   33.333333333333336
50.0   90.0   50.0
100.0   120.0   50.0
100.0   90.0   33.333333333333336
50.0   120.0   33.333333333333336
50.0   120.0   0.0
100.0   120.0   0.0
50.0   150.0   0.0
50.0   120.0   16.666666666666668
100.0   120.0   0.0
100.0   150.0   0.0
50.0   150.0   0.0
100.0   150.0   16.666666666666668
50.0   120.0   16.666666666666668
50.0   150.0   16.666666666666668
100.0   150.0   16.666666666666668
50.0   150.0   0.0
50.0   120.0   16.666666666666668
100.0   150.0   16.666666666666668
100.0   120.0   16.666666666666668
100.0   120.0   0.0
50.0   120.0   16.666666666666668
100.0   150.0   16.666666666666668
100.0   120.0   0.0
50.0   150.0   0.0
50.0   120.0   16.666666666666668
100.0   120.0   16.666666666666668
50.0   150.0   16.666666666666668
50.0   120.0   33.333333333333336
100.0   120.0   16.666666666666668
100.0   150.0   16.666666666666668
50.0   150.0   16.666666666666668
100.0   150.0   33.333333333333336
50.0   120.0   33.333333333333336
50.0   150.0   33.333333333333336
100.0   150.0   33.333333333333336
50.0   150.0   16.666666666666668
50.0   120.0   33.333333333333336
100.0   150.0   33.333333333333336
100.0   120.0   33.333333333333336
100.0   120.0   16.666666666666668
50.0   120.0   33.333333333333336
100.0   150.0   33.333333333333336
100.0   120.0   16.666666666666668
50.0   150.0   16.666666666666668
50.0   120.0   33.333333333333336
100.0   120.0   33.333333333333336
50.0   150.0   33.333333333333336
50.0   120.0   50.0
100.0   120.0   33.333333333333336
100.0   150.0   33.333333333333336
50.0   150.0   33.333333333333336
100.0   150.0   50.0
50.0   120.0   50.0
50.0   150.0   50.0
100.0   150.0   50.0
50.0   150.0   33.333333333333336
50.0   120.0   50.0
100.0   150.0   50.0
100.0   120.0   50.0
100.0   120.0   33.333333333333336
50.0   120.0   50.0
100.0   150.0   50.0
100.0   120.0   33.333333333333336
50.0   150.0   33.333333333333336
100.0   0.0   0.0
150.0   0.0   0.0
100.0   30.0   0.0
100.0   0.0   16.666666666666668
150.0   0.0   0.0
150.0   30.0   0.0
100.0   30.0   0.0
150.0   30.0   16.666666666666668
100.0   0.0   16.666666666666668
100.0   30.0   16.666666666666668
150.0   30.0   16.666666666666668
100.0   30.0   0.0
100.0   0.0   16.666666666666668
150.0   30.0   16.666666666666668
150.0   0.0   16.666666666666668
150.0   0.0   0.0
100.0   0.0   16.666666666666668
150.0   30.0   16.666666666666668
150.0   0.0   0.0
100.0   30.0   0.0
100.0   0.0   16.666666666666668
150.0   0.0   16.666666666666668
100.0   30.0   16.666666666666668
100.0   0.0   33.333333333333336
150.0   0.0   16.666666666666668
150.0   30.0   16.666666666666668
100.0   30.0   16.666666666666668
150.0   30.0   33.333333333333336
100.0   0.0   33.333333333333336
100.0   30.0   33.333333333333336
150.0   30.0   33.333333333333336
100.0   30.0   16.666666666666668
100.0   0.0   33.333333333333336
150.0   30.0   33.333333333333336
150.0   0.0   33.333333333333336
150.0   0.0   16.666666666666668
100.0   0.0   33.333333333333336
150.0   30.0   33.333333333333336
150.0   0.0   16.666666666666668
100.0   30.0   16.666666666666668
100.0   0.0   33.333333333333336
150.0   0.0   33.333333333333336
100.0   30.0   33.333333333333336
100.0   0.0   50.0
150.0   0.0   33.333333333333336
150.0   30.0   33.333333333333336
100.0   30.0   33.333333333333336
150.0   30.0   50.0
100.0   0.0   50.0
100.0   30.0   50.0
150.0   30.0   50.0
100.0   30.0   33.333333333333336
100.0   0.0   50.0
150.0   30.0   50.0
150.0   0.0   50.0
150.0   0.0   33.333333333333336
100.0   0.0   50.0
150.0   30.0   50.0
150.0   0.0   33.333333333333336
100.0   30.0   33.333333333333336
100.0   30.0   0.0
150.0   30.0   0.0
100.0   60.0   0.0
100.0   30.0   16.666666666666668
150.0   30.0   0.0
150.0   60.0   0.0
100.0   60.0   0.0
150.0   60.0   16.666666666666668
100.0   30.0   16.666666666666668
100.0   60.0   16.666666666666668
150.0   60.0   16.666666666666668
100.0   60.0   0.0
100.0   30.0   16.666666666666668
150.0   60.0   16.666666666666668
150.0   30.0   16.666666666666668
150.0   30.0   0.0
100.0   30.0   16.666666666666668
150.0   60.0   16.666666666666668
150.0   30.0   0.0
100.0   60.0   0.0
100.0   30.0   16.666666666666668
150.0   30.0   16.666666666666668
100.0   60.0   16.666666666666668
100.0   30.0   33.333333333333336
150.0   30.0   16.666666666666668
150.0   60.0   16.666666666666668
100.0   60.0   16.666666666666668
150.0   60.0   33.333333333333336
100.0   30.0   33.333333333333336
100.0   60.0   33.333333333333336
150.0   60.0   33.333333333333336
100.0   60.0   16.666666666666668
100.0   30.0   33.333333333333336
150.0   60.0   33.333333333333336
150.0   30.0   33.333333333333336
150.0   30.0   16.666666666666668
100.0   30.0   33.333333333333336
150.0   60.0   33.333333333333336
150.0   30.0   16.666666666666668
100.0   60.0   16.666666666666668
100.0   30.0   33.333333333333336
150.0   30.0   33.333333333333336
100.0   60.0   33.333333333333336
100.0   30.0   50.0
150.0   30.0   33.333333333333336
150.0   60.0   33.333333333333336
100.0   60.0   33.333333333333336
150.0   60.0   50.0
100.0   30.0   50.0
100.0   60.0   50.0
150.0   60.0   50.0
100.0   60.0   33.333333333333336
100.0   30.0   50.0
150.0   60.0   50.0
150.0   30.0   50.0
150.0   30.0   33.333333333333336
100.0   30.0   50.0
150.0   60.0   50.0
150.0   30.0   33.333333333333336
100.0   60.0   33.333333333333336
100.0   60.0   0.0
150.0   60.0   0.0
100.0   90.0   0.0
100.0   60.0   16.666666666666668
150.0   60.0   0.0
150.0   90.0   0.0
100.0   90.0   0.0
150.0   90.0   16.666666666666668
100.0   60.0   16.666666666666668
100.0   90.0   16.666666666666668
150.0   90.0   16.666666666666668
100.0   90.0   0.0
100.0   60.0   16.666666666666668
150.0   90.0   16.666666666666668
150.0   60.0   16.666666666666668
150.0   60.0   0.0
100.0   60.0   16.666666666666668
150.0   90.0   16.666666666666668
150.0   60.0   0.0
100.0   90.0   0.0
100.0   60.0   16.666666666666668
150.0   60.0   16.666666666666668
100.0   90.0   16.666666666666668
100.0   60.0   33.333333333333336
150.0   60.0   16.666666666666668
150.0   90.0   16.666666666666668
100.0   90.0   16.666666666666668
150.0   90.0   33.333333333333336
100.0   60.0   33.333333333333336
100.0   90.0   33.333333333333336
150.0   90.0   33.333333333333336
100.0   90.0   16.666666666666668
100.0   60.0   33.333333333333336
150.0   90.0   33.333333333333336
150.0   60.0   33.333333333333336
150.0   60.0   16.666666666666668
100.0   60.0   33.333333333333336
150.0   90.0   33.333333333333336
150.0   60.0   16.666666666666668
100.0   90.0   16.666666666666668
100.0   60.0   33.333333333333336
150.0   60.0   33.333333333333336
100.0   90.0   33.333333333333336
100.0   60.0   50.0
150.0   60.0   33.333333333333336
150.0   90.0   33.333333333333336
100.0   90.0   33.333333333333336
150.0   90.0   50.0
100.0   60.0   50.0
100.0   90.0   50.0
150.0   90.0   50.0
100.0   90.0   33.333333333333336
100.0   60.0   50.0
150.0   90.0   50.0
150.0   60.0   50.0
150.0   60.0   33.333333333333336
100.0   60.0   50.0
150.0   90.0   50.0
150.0   60.0   33.333333333333336
100.0   90.0   33.333333333333336
100.0   90.0   0.0
150.0   90.0   0.0
100.0   120.0   0.0
100.0   90.0   16.666666666666668
150.0   90.0   0.0
150.0   120.0   0.0
100.0   120.0   0.0
150.0   120.0   16.666666666666668
100.0   90.0   16.666666666666668
100.0   120.0   16.666666666666668
150.0   120.0   16.666666666666668
100.0   120.0   0.0
100.0   90.0   16.666666666666668
150.0   120.0   16.666666666666668
150.0   90.0   16.666666666666668
150.0   90.0   0.0
100.0   90.0   16.666666666666668
150.0   120.0   16.666666666666668
150.0   90.0   0.0
100.0   120.0   0.0
100.0   90.0   16.666666666666668
150.0   90.0   16.666666666666668
100.0   120.0   16.666666666666668
100.0   90.0   33.333333333333336
150.0   90.0   16.666666666666668
150.0   120.0   16.666666666666668
100.0   120.0   16.666666666666668
150.0   120.0   33.333333333333336
100.0   90.0   33.333333333333336
100.0   120.0   33.333333333333336
150.0   120.0   33.333333333333336
100.0   120.0   16.666666666666668
100.0   90.0   33.333333333333336
150.0   120.0   33.333333333333336
150.0   90.0   33.333333333333336
150.0   90.0   16.666666666666668
100.0   90.0   33.333333333333336
150.0   120.0   33.333333333333336
150.0   90.0   16.666666666666668
100.0   120.0   16.666666666666668
100.0   90.0   33.333333333333336
150.0   90.0   33.333333333333336
100.0   120.0   33.333333333333336
100.0   90.0   50.0
150.0   90.0   33.333333333333336
150.0   120.0   33.333333333333336
100.0   120.0   33.333333333333336
150.0   120.0   50.0
100.0   90.0   50.0
100.0   120.0   50.0
150.0   120.0   50.0
100.0   120.0   33.333333333333336
100.0   90.0   50.0
150.0   120.0   50.0
150.0   90.0   50.0
150.0   90.0   33.333333333333336
100.0   90.0   50.0
150.0   120.0   50.0
150.0   90.0   33.333333333333336
100.0   120.0   33.333333333333336
100.0   120.0   0.0
150.0   120.0   0.0
100.0   150.0   0.0
100.0   120.0   16.666666666666668
150.0   120.0   0.0
150.0   150.0   0.0
100.0   150.0   0.0
150.0   150.0   16.666666666666668
100.0   120.0   16.666666666666668
100.0   150.0   16.666666666666668
150.0   150.0   16.666666666666668
100.0   150.0   0.0
100.0   120.0   16.666666666666668
150.0   150.0   16.666666666666668
150.0   120.0   16.666666666666668
150.0   120.0   0.0
100.0   120.0   16.666666666666668
150.0   150.0   16.666666666666668
150.0   120.0   0.0
100.0   150.0   0.0
100.0   120.0   16.666666666666668
150.0   120.0   16.666666666666668
100.0   150.0   16.666666666666668
100.0   120.0   33.333333333333336
150.0   120.0   16.666666666666668
150.0   150.0   16.666666666666668
100.0   150.0   16.666666666666668
150.0   150.0   33.333333333333336
100.0   120.0   33.333333333333336
100.0   150.0   33.333333333333336
150.0   150.0   33.333333333333336
100.0   150.0   16.666666666666668
100.0   120.0   33.333333333333336
150.0   150.0   33.333333333333336
150.0   120.0   33.333333333333336
150.0   120.0   16.666666666666668
100.0   120.0   33.333333333333336
150.0   150.0   33.333333333333336
150.0   120.0   16.666666666666668
100.0   150.0   16.666666666666668
100.0   120.0   33.333333333333336
150.0   120.0   33.333333333333336
100.0   150.0   33.333333333333336
100.0   120.0   50.0
150.0   120.0   33.333333333333336
150.0   150.0   33.333333333333336
100.0   150.0   33.333333333333336
150.0   150.0   50.0
100.0   120.0   50.0
100.0   150.0   50.0
150.0   150.0   50.0
100.0   150.0   33.333333333333336
100.0   120.0   50.0
150.0   150.0   50.0
150.0   120.0   50.0
150.0   120.0   33.333333333333336
100.0   120.0   50.0
150.0   150.0   50.0
150.0   120.0   33.333333333333336
100.0   150.0   33.333333333333336
150.0   0.0   0.0
200.0   0.0   0.0
150.0   30.0   0.0
150.0   0.0   16.666666666666668
200.0   0.0   0.0
200.0   30.0   0.0
150.0   30.0   0.0
200.0   30.0   16.666666666666668
150.0   0.0   16.666666666666668
150.0   30.0   16.666666666666668
200.0   30.0   16.666666666666668
150.0   30.0   0.0
150.0   0.0   16.666666666666668
200.0   30.0   16.666666666666668
200.0   0.0   16.666666666666668
200.0   0.0   0.0
150.0   0.0   16.666666666666668
200.0   30.0   16.666666666666668
200.0   0.0   0.0
150.0   30.0   0.0
150.0   0.0   16.666666666666668
200.0   0.0   16.666666666666668
150.0   30.0   16.666666666666668
150.0   0.0   33.333333333333336
200.0   0.0   16.666666666666668
200.0   30.0   16.666666666666668
150.0   30.0   16.666666666666668
200.0   30.0   33.333333333333336
150.0   0.0   33.333333333333336
150.0   30.0   33.333333333333336
200.0   30.0   33.333333333333336
150.0   30.0   16.666666666666668
150.0   0.0   33.333333333333336
200.0   30.0   33.333333333333336
200.0   0.0   33.333333333333336
200.0   0.0   16.666666666666668
150.0   0.0   33.333333333333336
200.0   30.0   33.333333333333336
200.0   0.0   16.666666666666668
150.0   30.0   16.666666666666668
150.0   0.0   33.333333333333336
200.0   0.0   33.333333333333336
150.0   30.0   33.333333333333336
150.0   0.0   50.0
200.0   0.0   33.333333333333336
200.0   30.0   33.333333333333336
150.0   30.0   33.333333333333336
200.0   30.0   50.0
150.0   0.0   50.0
150.0   30.0   50.0
200.0   30.0   50.0
150.0   30.0   33.333333333333336
150.0   0.0   50.0
200.0   30.0   50.0
200.0   0.0   50.0
200.0   0.0   33.333333333333336
150.0   0.0   50.0
200.0   30.0   50.0
200.0   0.0   33.333333333333336
150.0   30.0   33.333333333333336
150.0   30.0   0.0
200.0   30.0   0.0
150.0   60.0   0.0
150.0   30.0   16.666666666666668
200.0   30.0   0.0
200.0   60.0   0.0
150.0   60.0   0.0
200.0   60.0   16.666666666666668
150.0   30.0   16.666666666666668
150.0   60.0   16.666666666666668
200.0   60.0   16.666666666666668
150.0   60.0   0.0
150.0   30.0   16.666666666666668
200.0   60.0   16.666666666666668
200.0   30.0   16.666666666666668
200.0   30.0   0.0
150.0   30.0   16.666666666666668
200.0   60.0   16.666666666666668
200.0   30.0   0.0
150.0   60.0   0.0
150.0   30.0   16.666666666666668
200.0   30.0   16.666666666666668
150.0   60.0   16.666666666666668
150.0   30.0   33.333333333333336
200.0   30.0   16.666666666666668
200.0   60.0   16.666666666666668
150.0   60.0   16.666666666666668
200.0   60.0   33.333333333333336
150.0   30.0   33.333333333333336
150.0   60.0   33.333333333333336
200.0   60.0   33.333333333333336
150.0   60.0   16.666666666666668
150.0   30.0   33.333333333333336
200.0   60.0   33.333333333333336
200.0   30.0   33.333333333333336
200.0   30.0   16.666666666666668
150.0   30.0   33.333333333333336
200.0   60.0   33.333333333333336
200.0   30.0   16.666666666666668
150.0   60.0   16.666666666666668
150.0   30.0   33.333333333333336
200.0   30.0   33.333333333333336
150.0   60.0   33.333333333333336
150.0   30.0   50.0
200.0   30.0   33.333333333333336
200.0   60.0   33.333333333333336
150.0   60.0   33.333333333333336
200.0   60.0   50.0
150.0   30.0   50.0
150.0   60.0   50.0
200.0   60.0   50.0
150.0   60.0   33.333333333333336
150.0   30.0   50.0
200.0   60.0   50.0
200.0   30.0   50.0
200.0   30.0   33.333333333333336
150.0   30.0   50.0
200.0   60.0   50.0
200.0   30.0   33.333333333333336
150.0   60.0   33.333333333333336
150.0   60.0   0.0
200.0   60.0   0.0
150.0   90.0   0.0
150.0   60.0   16.666666666666668
200.0   60.0   0.0
200.0   90.0   0.0
150.0   90.0   0.0
200.0   90.0   16.666666666666668
150.0   60.0   16.666666666666668
150.0   90.0   16.666666666666668
200.0   90.0   16.666666666666668
150.0   90.0   0.0
150.0   60.0   16.666666666666668
200.0   90.0   16.666666666666668
200.0   60.0   16.666666666666668
200.0   60.0   0.0
150.0   60.0   16.666666666666668
200.0   90.0   16.666666666666668
200.0   60.0   0.0
150.0   90.0   0.0
150.0   60.0   16.666666666666668
200.0   60.0   16.666666666666668
150.0   90.0   16.666666666666668
150.0   60.0   33.333333333333336
200.0   60.0   16.666666666666668
200.0   90.0   16.666666666666668
150.0   90.0   16.666666666666668
200.0   90.0   33.333333333333336
150.0   60.0   33.333333333333336
150.0   90.0   33.333333333333336
200.0   90.0   33.333333333333336
150.0   90.0   16.666666666666668
150.0   60.0   33.333333333333336
200.0   90.0   33.333333333333336
200.0   60.0   33.333333333333336
200.0   60.0   16.666666666666668
150.0   60.0   33.333333333333336
200.0   90.0   33.333333333333336
200.0   60.0   16.666666666666668
150.0   90.0   16.666666666666668
150.0   60.0   33.333333333333336
200.0   60.0   33.333333333333336
150.0   90.0   33.333333333333336
150.0   60.0   50.0
200.0   60.0   33.333333333333336
200.0   90.0   33.333333333333336
150.0   90.0   33.333333333333336
200.0   90.0   50.0
150.0   60.0   50.0
150.0   90.0   50.0
200.0   90.0   50.0
150.0   90.0   33.333333333333336
150.0   60.0   50.0
200.0   90.0   50.0
200.0   60.0   50.0
200.0   60.0   33.333333333333336
150.0   60.0   50.0
200.0   90.0   50.0
200.0   60.0   33.333333333333336
150.0   90.0   33.333333333333336
150.0   90.0   0.0
200.0   90.0   0.0
150.0   120.0   0.0
150.0   90.0   16.666666666666668
200.0   90.0   0.0
200.0   120.0   0.0
150.0   120.0   0.0
200.0   120.0   16.666666666666668
150.0   90.0   16.666666666666668
150.0   120.0   16.666666666666668
200.0   120.0   16.666666666666668
150.0   120.0   0.0
150.0   90.0   16.666666666666668
200.0   120.0   16.666666666666668
200.0   90.0   16.666666666666668
200.0   90.0   0.0
150.0   90.0   16.666666666666668
200.0   120.0   16.666666666666668
200.0   90.0   0.0
150.0   120.0   0.0
150.0   90.0   16.666666666666668
200.0   90.0   16.666666666666668
150.0   120.0   16.666666666666668
150.0   90.0   33.333333333333336
200.0   90.0   16.666666666666668
200.0   120.0   16.666666666666668
150.0   120.0   16.666666666666668
200.0   120.0   33.333333333333336
150.0   90.0   33.333333333333336
150.0   120.0   33.333333333333336
200.0   120.0   33.333333333333336
150.0   120.0   16.666666666666668
150.0   90.0   33.333333333333336
200.0   120.0   33.333333333333336
200.0   90.0   33.333333333333336
200.0   90.0   16.666666666666668
150.0   90.0   33.333333333333336
200.0   120.0   33.333333333333336
200.0   90.0   16.666666666666668
150.0   120.0   16.666666666666668
150.0   90.0   33.333333333333336
200.0   90.0   33.333333333333336
150.0   120.0   33.333333333333336
150.0   90.0   50.0
200.0   90.0   33.333333333333336
200.0   120.0   33.333333333333336
150.0   120.0   33.333333333333336
200.0   120.0   50.0
150.0   90.0   50.0
150.0   120.0   50.0
200.0   120.0   50.0
150.0   120.0   33.333333333333336
150.0   90.0   50.0
200.0   120.0   50.0
200.0   90.0   50.0
200.0   90.0   33.333333333333336
150.0   90.0   50.0
200.0   120.0   50.0
200.0   90.0   33.333333333333336
150.0   120.0   33.333333333333336
150.0   120.0   0.0
200.0   120.0   0.0
150.0   150.0   0.0
150.0   120.0   16.666666666666668
200.0   120.0   0.0
200.0   150.0   0.0
150.0   150.0   0.0
200.0   150.0   16.666666666666668
150.0   120.0   16.666666666666668
150.0   150.0   16.666666666666668
200.0   150.0   16.666666666666668
150.0   150.0   0.0
150.0   120.0   16.666666666666668
200.0   150.0   16.666666666666668
200.0   120.0   16.666666666666668
200.0   120.0   0.0
150.0   120.0   16.666666666666668
200.0   150.0   16.666666666666668
200.0   120.0   0.0
150.0   150.0   0.0
150.0   120.0   16.666666666666668
200.0   120.0   16.666666666666668
150.0   150.0   16.666666666666668
150.0   120.0   33.333333333333336
200.0   120.0   16.666666666666668
200.0   150.0   16.666666666666668
150.0   150.0   16.666666666666668
200.0   150.0   33.333333333333336
150.0   120.0   33.333333333333336
150.0   150.0   33.333333333333336
200.0   150.0   33.333333333333336
150.0   150.0   16.666666666666668
150.0   120.0   33.333333333333336
200.0   150.0   33.333333333333336
200.0   120.0   33.333333333333336
200.0   120.0   16.666666666666668
150.0   120.0   33.333333333333336
200.0   150.0   33.333333333333336
200.0   120.0   16.666666666666668
150.0   150.0   16.666666666666668
150.0   120.0   33.333333333333336
200.0   120.0   33.333333333333336
150.0   150.0   33.333333333333336
150.0   120.0   50.0
200.0   120.0   33.333333333333336
200.0   150.0   33.333333333333336
150.0   150.0   33.333333333333336
200.0   150.0   50.0
150.0   120.0   50.0
150.0   150.0   50.0
200.0   150.0   50.0
150.0   150.0   33.333333333333336
150.0   120.0   50.0
200.0   150.0   50.0
200.0   120.0   50.0
200.0   120.0   33.333333333333336
150.0   120.0   50.0
200.0   150.0   50.0
200.0   120.0   33.333333333333336
150.0   150.0   33.333333333333336
200.0   0.0   0.0
250.0   0.0   0.0
200.0   30.0   0.0
200.0   0.0   16.666666666666668
250.0   0.0   0.0
250.0   30.0   0.0
200.0   30.0   0.0
250.0   30.0   16.666666666666668
200.0   0.0   16.666666666666668
200.0   30.0   16.666666666666668
250.0   30.0   16.666666666666668
200.0   30.0   0.0
200.0   0.0   16.666666666666668
250.0   30.0   16.666666666666668
250.0   0.0   16.666666666666668
250.0   0.0   0.0
200.0   0.0   16.666666666666668
250.0   30.0   16.666666666666668
250.0   0.0   0.0
200.0   30.0   0.0
200.0   0.0   16.666666666666668
250.0   0.0   16.666666666666668
200.0   30.0   16.666666666666668
200.0   0.0   33.333333333333336
250.0   0.0   16.666666666666668
250.0   30.0   16.666666666666668
200.0   30.0   16.666666666666668
250.0   30.0   33.333333333333336
200.0   0.0   33.333333333333336
200.0   30.0   33.333333333333336
250.0   30.0   33.333333333333336
200.0   30.0   16.666666666666668
200.0   0.0   33.333333333333336
250.0   30.0   33.333333333333336
250.0   0.0   33.333333333333336
250.0   0.0   16.666666666666668
200.0   0.0   33.333333333333336
250.0   30.0   33.333333333333336
250.0   0.0   16.666666666666668
200.0   30.0   16.666666666666668
200.0   0.0   33.333333333333336
250.0   0.0   33.333333333333336
200.0   30.0   33.333333333333336
200.0   0.0   50.0
250.0   0.0   33.333333333333336
250.0   30.0   33.333333333333336
200.0   30.0   33.333333333333336
250.0   30.0   50.0
200.0   0.0   50.0
200.0   30.0   50.0
250.0   30.0   50.0
200.0   30.0   33.333333333333336
200.0   0.0   50.0
250.0   30.0   50.0
250.0   0.0   50.0
250.0   0.0   33.333333333333336
200.0   0.0   50.0
250.0   30.0   50.0
250.0   0.0   33.333333333333336
200.0   30.0   33.333333333333336
200.0   30.0   0.0
250.0   30.0   0.0
200.0   60.0   0.0
200.0   30.0   16.666666666666668
250.0   30.0   0.0
250.0   60.0   0.0
200.0   60.0   0.0
250.0   60.0   16.666666666666668
200.0   30.0   16.666666666666668
200.0   60.0   16.666666666666668
250.0   60.0   16.666666666666668
200.0   60.0   0.0
200.0   30.0   16.666666666666668
250.0   60.0   16.666666666666668
250.0   30.0   16.666666666666668
250.0   30.0   0.0
200.0   30.0   16.666666666666668
250.0   60.0   16.666666666666668
250.0   30.0   0.0
200.0   60.0   0.0
200.0   30.0   16.666666666666668
250.0   30.0   16.666666666666668
200.0   60.0   16.666666666666668
200.0   30.0   33.333333333333336
250.0   30.0   16.666666666666668
250.0   60.0   16.666666666666668
200.0   60.0   16.666666666666668
250.0   60.0   33.333333333333336
200.0   30.0   33.333333333333336
200.0   60.0   33.333333333333336
250.0   60.0   33.333333333333336
200.0   60.0   16.666666666666668
200.0   30.0   33.333333333333336
250.0   60.0   33.333333333333336
250.0   30.0   33.333333333333336
250.0   30.0   16.666666666666668
200.0   30.0   33.333333333333336
250.0   60.0   33.333333333333336
250.0   30.0   16.666666666666668
200.0   60.0   16.666666666666668
200.0   30.0   33.333333333333336
250.0   30.0   33.333333333333336
200.0   60.0   33.333333333333336
200.0   30.0   50.0
250.0   30.0   33.333333333333336
250.0   60.0   33.333333333333336
200.0   60.0   33.333333333333336
250.0   60.0   50.0
200.0   30.0   50.0
200.0   60.0   50.0
250.0   60.0   50.0
200.0   60.0   33.333333333333336
200.0   30.0   50.0
250.0   60.0   50.0
250.0   30.0   50.0
250.0   30.0   33.333333333333336
200.0   30.0   50.0
250.0   60.0   50.0
250.0   30.0   33.333333333333336
200.0   60.0   33.333333333333336
200.0   60.0   0.0
250.0   60.0   0.0
200.0   90.0   0.0
200.0   60.0   16.666666666666668
250.0   60.0   0.0
250.0   90.0   0.0
200.0   90.0   0.0
250.0   90.0   16.666666666666668
200.0   60.0   16.666666666666668
200.0   90.0   16.666666666666668
250.0   90.0   16.666666666666668
200.0   90.0   0.0
200.0   60.0   16.666666666666668
250.0   90.0   16.666666666666668
250.0   60.0   16.666666666666668
250.0   60.0   0.0
200.0   60.0   16.666666666666668
250.0   90.0   16.666666666666668
250.0   60.0   0.0
200.0   90.0   0.0
200.0   60.0   16.666666666666668
250.0   60.0   16.666666666666668
200.0   90.0   16.666666666666668
200.0   60.0   33.333333333333336
250.0   60.0   16.666666666666668
250.0   90.0   16.666666666666668
200.0   90.0   16.666666666666668
250.0   90.0   33.333333333333336
200.0   60.0   33.333333333333336
200.0   90.0   33.333333333333336
250.0   90.0   33.333333333333336
200.0   90.0   16.666666666666668
200.0   60.0   33.333333333333336
250.0   90.0   33.333333333333336
250.0   60.0   33.333333333333336
250.0   60.0   16.666666666666668
200.0   60.0   33.333333333333336
250.0   90.0   33.333333333333336
250.0   60.0   16.666666666666668
200.0   90.0   16.666666666666668
200.0   60.0   33.333333333333336
250.0   60.0   33.333333333333336
200.0   90.0   33.333333333333336
200.0   60.0   50.0
250.0   60.0   33.333333333333336
250.0   90.0   33.333333333333336
200.0   90.0   33.333333333333336
250.0   90.0   50.0
200.0   60.0   50.0
200.0   90.0   50.0
250.0   90.0   50.0
200.0   90.0   33.333333333333336
200.0   60.0   50.0
250.0   90.0   50.0
250.0   60.0   50.0
250.0   60.0   33.333333333333336
200.0   60.0   50.0
250.0   90.0   50.0
250.0   60.0   33.333333333333336
200.0   90.0   33.333333333333336
200.0   90.0   0.0
250.0   90.0   0.0
200.0   120.0   0.0
200.0   90.0   16.666666666666668
250.0   90.0   0.0
250.0   120.0   0.0
200.0   120.0   0.0
250.0   120.0   16.666666666666668
200.0   90.0   16.666666666666668
200.0   120.0   16.666666666666668
250.0   120.0   16.666666666666668
200.0   120.0   0.0
200.0   90.0   16.666666666666668
250.0   120.0   16.666666666666668
250.0   90.0   16.666666666666668
250.0   90.0   0.0
200.0   90.0   16.666666666666668
250.0   120.0   16.666666666666668
250.0   90.0   0.0
200.0   120.0   0.0
200.0   90.0   16.666666666666668
250.0   90.0   16.666666666666668
200.0   120.0   16.666666666666668
200.0   90.0   33.333333333333336
250.0   90.0   16.666666666666668
250.0   120.0   16.666666666666668
200.0   120.0   16.666666666666668
250.0   120.0   33.333333333333336
200.0   90.0   33.333333333333336
200.0   120.0   33.333333333333336
250.0   120.0   33.333333333333336
200.0   120.0   16.666666666666668
200.0   90.0   33.333333333333336
250.0   120.0   33.333333333333336
250.0   90.0   33.333333333333336
250.0   90.0   16.666666666666668
200.0   90.0   33.333333333333336
250.0   120.0   33.333333333333336
250.0   90.0   16.666666666666668
200.0   120.0   16.666666666666668
200.0   90.0   33.333333333333336
250.0   90.0   33.333333333333336
200.0   120.0   33.333333333333336
200.0   90.0   50.0
250.0   90.0   33.333333333333336
250.0   120.0   33.333333333333336
200.0   120.0   33.333333333333336
250.0   120.0   50.0
200.0   90.0   50.0
200.0   120.0   50.0
250.0   120.0   50.0
200.0   120.0   33.333333333333336
200.0   90.0   50.0
250.0   120.0   50.0
250.0   90.0   50.0
250.0   90.0   33.333333333333336
200.0   90.0   50.0
250.0   120.0   50.0
250.0   90.0   33.333333333333336
200.0   120.0   33.333333333333336
200.0   120.0   0.0
250.0   120.0   0.0
200.0   150.0   0.0
200.0   120.0   16.666666666666668
250.0   120.0   0.0
250.0   150.0   0.0
200.0   150.0   0.0
250.0   150.0   16.666666666666668
200.0   120.0   16.666666666666668
200.0   150.0   16.666666666666668
250.0   150.0   16.666666666666668
200.0   150.0   0.0
200.0   120.0   16.666666666666668
250.0   150.0   16.666666666666668
250.0   120.0   16.666666666666668
250.0   120.0   0.0
200.0   120.0   16.666666666666668
250.0   150.0   16.666666666666668
250.0   120.0   0.0
200.0   150.0   0.0
200.0   120.0   16.666666666666668
250.0   120.0   16.666666666666668
200.0   150.0   16.666666666666668
200.0   120.0   33.333333333333336
250.0   120.0   16.666666666666668
250.0   150.0   16.666666666666668
200.0   150.0   16.666666666666668
250.0   150.0   33.333333333333336
200.0   120.0   33.333333333333336
200.0   150.0   33.333333333333336
250.0   150.0   33.333333333333336
200.0   150.0   16.666666666666668
200.0   120.0   33.333333333333336
250.0   150.0   33.333333333333336
250.0   120.0   33.333333333333336
250.0   120.0   16.666666666666668
200.0   120.0   33.333333333333336
250.0   150.0   33.333333333333336
250.0   120.0   16.666666666666668
200.0   150.0   16.666666666666668
200.0   120.0   33.333333333333336
250.0   120.0   33.333333333333336
200.0   150.0   33.333333333333336
200.0   120.0   50.0
250.0   120.0   33.333333333333336
250.0   150.0   33.333333333333336
200.0   150.0   33.333333333333336
250.0   150.0   50.0
200.0   120.0   50.0
200.0   150.0   50.0
250.0   150.0   50.0
200.0   150.0   33.333333333333336
200.0   120.0   50.0
250.0   150.0   50.0
250.0   120.0   50.0
250.0   120.0   33.333333333333336
200.0   120.0   50.0
250.0   150.0   50.0
250.0   120.0   33.333333333333336
200.0   150.0   33.333333333333336
250.0   0.0   0.0
300.0   0.0   0.0
250.0   30.0   0.0
250.0   0.0   16.666666666666668
300.0   0.0   0.0
300.0   30.0   0.0
250.0   30.0   0.0
300.0   30.0   16.666666666666668
250.0   0.0   16.666666666666668
250.0   30.0   16.666666666666668
300.0   30.0   16.666666666666668
250.0   30.0   0.0
250.0   0.0   16.666666666666668
300.0   30.0   16.666666666666668
300.0   0.0   16.666666666666668
300.0   0.0   0.0
250.0   0.0   16.666666666666668
300.0   30.0   16.666666666666668
300.0   0.0   0.0
250.0   30.0   0.0
250.0   0.0   16.666666666666668
300.0   0.0   16.666666666666668
250.0   30.0   16.666666666666668
250.0   0.0   33.333333333333336
300.0   0.0   16.666666666666668
300.0   30.0   16.666666666666668
250.0   30.0   16.666666666666668
300.0   30.0   33.333333333333336
250.0   0.0   33.333333333333336
250.0   30.0   33.333333333333336
300.0   30.0   33.333333333333336
250.0   30.0   16.666666666666668
250.0   0.0   33.333333333333336
300.0   30.0   33.333333333333336
300.0   0.0   33.333333333333336
300.0   0.0   16.666666666666668
250.0   0.0   33.333333333333336
300.0   30.0   33.333333333333336
300.0   0.0   16.666666666666668
250.0   30.0   16.666666666666668
250.0   0.0   33.333333333333336
300.0   0.0   33.333333333333336
250.0   30.0   33.333333333333336
250.0   0.0   50.0
300.0   0.0   33.333333333333336
300.0   30.0   33.333333333333336
250.0   30.0   33.333333333333336
300.0   30.0   50.0
250.0   0.0   50.0
250.0   30.0   50.0
300.0   30.0   50.0
250.0   30.0   33.333333333333336
250.0   0.0   50.0
300.0   30.0   50.0
300.0   0.0   50.0
300.0   0.0   33.333333333333336
250.0   0.0   50.0
300.0   30.0   50.0
300.0   0.0   33.333333333333336
250.0   30.0   33.333333333333336
250.0   30.0   0.0
300.0   30.0   0.0
250.0   60.0   0.0
250.0   30.0   16.666666666666668
300.0   30.0   0.0
300.0   60.0   0.0
250.0   60.0   0.0
300.0   60.0   16.666666666666668
250.0   30.0   16.666666666666668
250.0   60.0   16.666666666666668
300.0   60.0   16.666666666666668
250.0   60.0   0.0
250.0   30.0   16.666666666666668
300.0   60.0   16.666666666666668
300.0   30.0   16.666666666666668
300.0   30.0   0.0
250.0   30.0   16.666666666666668
300.0   60.0   16.666666666666668
300.0   30.0   0.0
250.0   60.0   0.0
250.0   30.0   16.666666666666668
300.0   30.0   16.666666666666668
250.0   60.0   16.666666666666668
250.0   30.0   33.333333333333336
300.0   30.0   16.666666666666668
300.0   60.0   16.666666666666668
250.0   60.0   16.666666666666668
300.0   60.0   33.333333333333336
250.0   30.0   33.333333333333336
250.0   60.0   33.333333333333336
300.0   60.0   33.333333333333336
250.0   60.0   16.666666666666668
250.0   30.0   33.333333333333336
300.0   60.0   33.333333333333336
300.0   30.0   33.333333333333336
300.0   30.0   16.666666666666668
250.0   30.0   33.333333333333336
300.0   60.0   33.333333333333336
300.0   30.0   16.666666666666668
250.0   60.0   16.666666666666668
250.0   30.0   33.333333333333336
300.0   30.0   33.333333333333336
250.0   60.0   33.333333333333336
250.0   30.0   50.0
300.0   30.0   33.333333333333336
300.0   60.0   33.333333333333336
250.0   60.0   33.333333333333336
300.0   60.0   50.0
250.0   30.0   50.0
250.0   60.0   50.0
300.0   60.0   50.0
250.0   60.0   33.333333333333336
250.0   30.0   50.0
300.0   60.0   50.0
300.0   30.0   50.0
300.0   30.0   33.333333333333336
250.0   30.0   50.0
300.0   60.0   50.0
300.0   30.0   33.333333333333336
250.0   60.0   33.333333333333336
250.0   60.0   0.0
300.0   60.0   0.0
250.0   90.0   0.0
250.0   60.0   16.666666666666668
300.0   60.0   0.0
300.0   90.0   0.0
250.0   90.0   0.0
300.0   90.0   16.666666666666668
250.0   60.0   16.666666666666668
250.0   90.0   16.666666666666668
300.0   90.0   16.666666666666668
250.0   90.0   0.0
250.0   60.0   16.666666666666668
300.0   90.0   16.666666666666668
300.0   60.0   16.666666666666668
300.0   60.0   0.0
250.0   60.0   16.666666666666668
300.0   90.0   16.666666666666668
300.0   60.0   0.0
250.0   90.0   0.0
250.0   60.0   16.666666666666668
300.0   60.0   16.666666666666668
250.0   90.0   16.666666666666668
250.0   60.0   33.333333333333336
300.0   60.0   16.666666666666668
300.0   90.0   16.666666666666668
250.0   90.0   16.666666666666668
300.0   90.0   33.333333333333336
250.0   60.0   33.333333333333336
250.0   90.0   33.333333333333336
300.0   90.0   33.333333333333336
250.0   90.0   16.666666666666668
250.0   60.0   33.333333333333336
300.0   90.0   33.333333333333336
300.0   60.0   33.333333333333336
300.0   60.0   16.666666666666668
250.0   60.0   33.333333333333336
300.0   90.0   33.333333333333336
300.0   60.0   16.666666666666668
250.0   90.0   16.666666666666668
250.0   60.0   33.333333333333336
300.0   60.0   33.333333333333336
250.0   90.0   33.333333333333336
250.0   60.0   50.0
300.0   60.0   33.333333333333336
300.0   90.0   33.333333333333336
250.0   90.0   33.333333333333336
300.0   90.0   50.0
250.0   60.0   50.0
250.0   90.0   50.0
300.0   90.0   50.0
250.0   90.0   33.333333333333336
250.0   60.0   50.0
300.0   90.0   50.0
300.0   60.0   50.0
300.0   60.0   33.333333333333336
250.0   60.0   50.0
300.0   90.0   50.0
300.0   60.0   33.333333333333336
250.0   90.0   33.333333333333336
250.0   90.0   0.0
300.0   90.0   0.0
250.0   120.0   0.0
250.0   90.0   16.666666666666668
300.0   90.0   0.0
300.0   120.0   0.0
250.0   120.0   0.0
300.0   120.0   16.666666666666668
250.0   90.0   16.666666666666668
250.0   120.0   16.666666666666668
300.0   120.0   16.666666666666668
250.0   120.0   0.0
250.0   90.0   16.666666666666668
300.0   120.0   16.666666666666668
300.0   90.0   16.666666666666668
300.0   90.0   0.0
250.0   90.0   16.666666666666668
300.0   120.0   16.666666666666668
300.0   90.0   0.0
250.0   120.0   0.0
250.0   90.0   16.666666666666668
300.0   90.0   16.666666666666668
250.0   120.0   16.666666666666668
250.0   90.0   33.333333333333336
300.0   90.0   16.666666666666668
300.0   120.0   16.666666666666668
250.0   120.0   16.666666666666668
300.0   120.0   33.333333333333336
250.0   90.0   33.333333333333336
250.0   120.0   33.333333333333336
300.0   120.0   33.333333333333336
250.0   120.0   16.666666666666668
250.0   90.0   33.333333333333336
300.0   120.0   33.333333333333336
300.0   90.0   33.333333333333336
300.0   90.0   16.666666666666668
250.0   90.0   33.333333333333336
300.0   120.0   33.333333333333336
300.0   90.0   16.666666666666668
250.0   120.0   16.666666666666668
250.0   90.0   33.333333333333336
300.0   90.0   33.333333333333336
250.0   120.0   33.333333333333336
250.0   90.0   50.0
300.0   90.0   33.333333333333336
300.0   120.0   33.333333333333336
250.0   120.0   33.333333333333336
300.0   120.0   50.0
250.0   90.0   50.0
250.0   120.0   50.0
300.0   120.0   50.0
250.0   120.0   33.333333333333336
250.0   90.0   50.0
300.0   120.0   50.0
300.0   90.0   50.0
300.0   90.0   33.333333333333336
250.0   90.0   50.0
300.0   120.0   50.0
300.0   90.0   33.333333333333336
250.0   120.0   33.333333333333336
250.0   120.0   0.0
300.0   120.0   0.0
250.0   150.0   0.0
250.0   120.0   16.666666666666668
300.0   120.0   0.0
300.0   150.0   0.0
250.0   150.0   0.0
300.0   150.0   16.666666666666668
250.0   120.0   16.666666666666668
250.0   150.0   16.666666666666668
300.0   150.0   16.666666666666668
250.0   150.0   0.0
250.0   120.0   16.666666666666668
300.0   150.0   16.666666666666668
300.0   120.0   16.666666666666668
300.0   120.0   0.0
250.0   120.0   16.666666666666668
300.0   150.0   16.666666666666668
300.0   120.0   0.0
250.0   150.0   0.0
250.0   120.0   16.666666666666668
300.0   120.0   16.666666666666668
250.0   150.0   16.666666666666668
250.0   120.0   33.333333333333336
300.0   120.0   16.666666666666668
300.0   150.0   16.666666666666668
250.0   150.0   16.666666666666668
300.0   150.0   33.333333333333336
250.0   120.0   33.333333333333336
250.0   150.0   33.333333333333336
300.0   150.0   33.333333333333336
250.0   150.0   16.666666666666668
250.0   120.0   33.333333333333336
300.0   150.0   33.333333333333336
300.0   120.0   33.333333333333336
300.0   120.0   16.666666666666668
250.0   120.0   33.333333333333336
300.0   150.0   33.333333333333336
300.0   120.0   16.666666666666668
250.0   150.0   16.666666666666668
250.0   120.0   33.333333333333336
300.0   120.0   33.333333333333336
250.0   150.0   33.333333333333336
250.0   120.0   50.0
300.0   120.0   33.333333333333336
300.0   150.0   33.333333333333336
250.0   150.0   33.333333333333336
300.0   150.0   50.0
250.0   120.0   50.0
250.0   150.0   50.0
300.0   150.0   50.0
250.0   150.0   33.333333333333336
250.0   120.0   50.0
300.0   150.0   50.0
300.0   120.0   50.0
300.0   120.0   33.333333333333336
250.0   120.0   50.0
300.0   150.0   50.0
300.0   120.0   33.333333333333336
250.0   150.0   33.333333333333336
300.0   0.0   0.0
350.0   0.0   0.0
300.0   30.0   0.0
300.0   0.0   16.666666666666668
350.0   0.0   0.0
350.0   30.0   0.0
300.0   30.0   0.0
350.0   30.0   16.666666666666668
300.0   0.0   16.666666666666668
300.0   30.0   16.666666666666668
350.0   30.0   16.666666666666668
300.0   30.0   0.0
300.0   0.0   16.666666666666668
350.0   30.0   16.666666666666668
350.0   0.0   16.666666666666668
350.0   0.0   0.0
300.0   0.0   16.666666666666668
350.0   30.0   16.666666666666668
350.0   0.0   0.0
300.0   30.0   0.0
300.0   0.0   16.666666666666668
350.0   0.0   16.666666666666668
300.0   30.0   16.666666666666668
300.0   0.0   33.333333333333336
350.0   0.0   16.666666666666668
350.0   30.0   16.666666666666668
300.0   30.0   16.666666666666668
350.0   30.0   33.333333333333336
300.0   0.0   33.333333333333336
300.0   30.0   33.333333333333336
350.0   30.0   33.333333333333336
300.0   30.0   16.666666666666668
300.0   0.0   33.333333333333336
350.0   30.0   33.333333333333336
350.0   0.0   33.333333333333336
350.0   0.0   16.666666666666668
300.0   0.0   33.333333333333336
350.0   30.0   33.333333333333336
350.0   0.0   16.666666666666668
300.0   30.0   16.666666666666668
300.0   0.0   33.333333333333336
350.0   0.0   33.333333333333336
300.0   30.0   33.333333333333336
300.0   0.0   50.0
350.0   0.0   33.333333333333336
350.0   30.0   33.333333333333336
300.0   30.0   33.333333333333336
350.0   30.0   50.0
300.0   0.0   50.0
300.0   30.0   50.0
350.0   30.0   50.0
300.0   30.0   33.333333333333336
300.0   0.0   50.0
350.0   30.0   50.0
350.0   0.0   50.0
350.0   0.0   33.333333333333336
300.0   0.0   50.0
350.0   30.0   50.0
350.0   0.0   33.333333333333336
300.0   30.0   33.333333333333336
300.0   30.0   0.0
350.0   30.0   0.0
300.0   60.0   0.0
300.0   30.0   16.666666666666668
350.0   30.0   0.0
350.0   60.0   0.0
300.0   60.0   0.0
350.0   60.0   16.666666666666668
300.0   30.0   16.666666666666668
300.0   60.0   16.666666666666668
350.0   60.0   16.666666666666668
300.0   60.0   0.0
300.0   30.0   16.666666666666668
350.0   60.0   16.666666666666668
350.0   30.0   16.666666666666668
350.0   30.0   0.0
300.0   30.0   16.666666666666668
350.0   60.0   16.666666666666668
350.0   30.0   0.0
300.0   60.0   0.0
300.0   30.0   16.666666666666668
350.0   30.0   16.666666666666668
300.0   60.0   16.666666666666668
300.0   30.0   33.333333333333336
350.0   30.0   16.666666666666668
350.0   60.0   16.666666666666668
300.0   60.0   16.666666666666668
350.0   60.0   33.333333333333336
300.0   30.0   33.333333333333336
300.0   60.0   33.333333333333336
350.0   60.0   33.333333333333336
300.0   60.0   16.666666666666668
300.0   30.0   33.333333333333336
350.0   60.0   33.333333333333336
350.0   30.0   33.333333333333336
350.0   30.0   16.666666666666668
300.0   30.0   33.333333333333336
350.0   60.0   33.333333333333336
350.0   30.0   16.666666666666668
300.0   60.0   16.666666666666668
300.0   30.0   33.333333333333336
350.0   30.0   33.333333333333336
300.0   60.0   33.333333333333336
300.0   30.0   50.0
350.0   30.0   33.333333333333336
350.0   60.0   33.333333333333336
300.0   60.0   33.333333333333336
350.0   60.0   50.0
300.0   30.0   50.0
300.0   60.0   50.0
350.0   60.0   50.0
300.0   60.0   33.333333333333336
300.0   30.0   50.0
350.0   60.0   50.0
350.0   30.0   50.0
350.0   30.0   33.333333333333336
300.0   30.0   50.0
350.0   60.0   50.0
350.0   30.0   33.333333333333336
300.0   60.0   33.333333333333336
300.0   60.0   0.0
350.0   60.0   0.0
300.0   90.0   0.0
300.0   60.0   16.666666666666668
350.0   60.0   0.0
350.0   90.0   0.0
300.0   90.0   0.0
350.0   90.0   16.666666666666668
300.0   60.0   16.666666666666668
300.0   90.0   16.666666666666668
350.0   90.0   16.666666666666668
300.0   90.0   0.0
300.0   60.0   16.666666666666668
350.0   90.0   16.666666666666668
350.0   60.0   16.666666666666668
350.0   60.0   0.0
300.0   60.0   16.666666666666668
350.0   90.0   16.666666666666668
350.0   60.0   0.0
300.0   90.0   0.0
300.0   60.0   16.666666666666668
350.0   60.0   16.666666666666668
300.0   90.0   16.666666666666668
300.0   60.0   33.333333333333336
350.0   60.0   16.666666666666668
350.0   90.0   16.666666666666668
300.0   90.0   16.666666666666668
350.0   90.0   33.333333333333336
300.0   60.0   33.333333333333336
300.0   90.0   33.333333333333336
350.0   90.0   33.333333333333336
300.0   90.0   16.666666666666668
300.0   60.0   33.333333333333336
350.0   90.0   33.333333333333336
350.0   60.0   33.333333333333336
350.0   60.0   16.666666666666668
300.0   60.0   33.333333333333336
350.0   90.0   33.333333333333336
350.0   60.0   16.666666666666668
300.0   90.0   16.666666666666668
300.0   60.0   33.333333333333336
350.0   60.0   33.333333333333336
300.0   90.0   33.333333333333336
300.0   60.0   50.0
350.0   60.0   33.333333333333336
350.0   90.0   33.333333333333336
300.0   90.0   33.333333333333336
350.0   90.0   50.0
300.0   60.0   50.0
300.0   90.0   50.0
350.0   90.0   50.0
300.0   90.0   33.333333333333336
300.0   60.0   50.0
350.0   90.0   50.0
350.0   60.0   50.0
350.0   60.0   33.333333333333336
300.0   60.0   50.0
350.0   90.0   50.0
350.0   60.0   33.333333333333336
300.0   90.0   33.333333333333336
300.0   90.0   0.0
350.0   90.0   0.0
300.0   120.0   0.0
300.0   90.0   16.666666666666668
350.0   90.0   0.0
350.0   120.0   0.0
300.0   120.0   0.0
350.0   120.0   16.666666666666668
300.0   90.0   16.666666666666668
300.0   120.0   16.666666666666668
350.0   120.0   16.666666666666668
300.0   120.0   0.0
300.0   90.0   16.666666666666668
350.0   120.0   16.666666666666668
350.0   90.0   16.666666666666668
350.0   90.0   0.0
300.0   90.0   16.666666666666668
350.0   120.0   16.666666666666668
350.0   90.0   0.0
300.0   120.0   0.0
300.0   90.0   16.666666666666668
350.0   90.0   16.666666666666668
300.0   120.0   16.666666666666668
300.0   90.0   33.333333333333336
350.0   90.0   16.666666666666668
350.0   120.0   16.666666666666668
300.0   120.0   16.666666666666668
350.0   120.0   33.333333333333336
300.0   90.0   33.333333333333336
300.0   120.0   33.333333333333336
350.0   120.0   33.333333333333336
300.0   120.0   16.666666666666668
300.0   90.0   33.333333333333336
350.0   120.0   33.333333333333336
350.0   90.0   33.333333333333336
350.0   90.0   16.666666666666668
300.0   90.0   33.333333333333336
350.0   120.0   33.333333333333336
350.0   90.0   16.666666666666668
300.0   120.0   16.666666666666668
300.0   90.0   33.333333333333336
350.0   90.0   33.333333333333336
300.0   120.0   33.333333333333336
300.0   90.0   50.0
350.0   90.0   33.333333333333336
350.0   120.0   33.333333333333336
300.0   120.0   33.333333333333336
350.0   120.0   50.0
300.0   90.0   50.0
300.0   120.0   50.0
350.0   120.0   50.0
300.0   120.0   33.333333333333336
300.0   90.0   50.0
350.0   120.0   50.0
350.0   90.0   50.0
350.0   90.0   33.333333333333336
300.0   90.0   50.0
350.0   120.0   50.0
350.0   90.0   33.333333333333336
300.0   120.0   33.333333333333336
300.0   120.0   0.0
350.0   120.0   0.0
300.0   150.0   0.0
300.0   120.0   16.666666666666668
350.0   120.0   0.0
350.0   150.0   0.0
300.0   150.0   0.0
350.0   150.0   16.666666666666668
300.0   120.0   16.666666666666668
300.0   150.0   16.666666666666668
350.0   150.0   16.666666666666668
300.0   150.0   0.0
300.0   120.0   16.666666666666668
350.0   150.0   16.666666666666668
350.0   120.0   16.666666666666668
350.0   120.0   0.0
300.0   120.0   16.666666666666668
350.0   150.0   16.666666666666668
350.0   120.0   0.0
300.0   150.0   0.0
300.0   120.0   16.666666666666668
350.0   120.0   16.666666666666668
300.0   150.0   16.666666666666668
300.0   120.0   33.333333333333336
350.0   120.0   16.666666666666668
350.0   150.0   16.666666666666668
300.0   150.0   16.666666666666668
350.0   150.0   33.333333333333336
300.0   120.0   33.333333333333336
300.0   150.0   33.333333333333336
350.0   150.0   33.333333333333336
300.0   150.0   16.666666666666668
300.0   120.0   33.333333333333336
350.0   150.0   33.333333333333336
350.0   120.0   33.333333333333336
350.0   120.0   16.666666666666668
300.0   120.0   33.333333333333336
350.0   150.0   33.333333333333336
350.0   120.0   16.666666666666668
300.0   150.0   16.666666666666668
300.0   120.0   33.333333333333336
350.0   120.0   33.333333333333336
300.0   150.0   33.333333333333336
300.0   120.0   50.0
350.0   120.0   33.333333333333336
350.0   150.0   33.333333333333336
300.0   150.0   33.333333333333336
350.0   150.0   50.0
300.0   120.0   50.0
300.0   150.0   50.0
350.0   150.0   50.0
300.0   150.0   33.333333333333336
300.0   120.0   50.0
350.0   150.0   50.0
350.0   120.0   50.0
350.0   120.0   33.333333333333336
300.0   120.0   50.0
350.0   150.0   50.0
350.0   120.0   33.333333333333336
300.0   150.0   33.333333333333336
350.0   0.0   0.0
400.0   0.0   0.0
350.0   30.0   0.0
350.0   0.0   16.666666666666668
400.0   0.0   0.0
400.0   30.0   0.0
350.0   30.0   0.0
400.0   30.0   16.666666666666668
350.0   0.0   16.666666666666668
350.0   30.0   16.666666666666668
400.0   30.0   16.666666666666668
350.0   30.0   0.0
350.0   0.0   16.666666666666668
400.0   30.0   16.666666666666668
400.0   0.0   16.666666666666668
400.0   0.0   0.0
350.0   0.0   16.666666666666668
400.0   30.0   16.666666666666668
400.0   0.0   0.0
350.0   30.0   0.0
350.0   0.0   16.666666666666668
400.0   0.0   16.666666666666668
350.0   30.0   16.666666666666668
350.0   0.0   33.333333333333336
400.0   0.0   16.666666666666668
400.0   30.0   16.666666666666668
350.0   30.0   16.666666666666668
400.0   30.0   33.333333333333336
350.0   0.0   33.333333333333336
350.0   30.0   33.333333333333336
400.0   30.0   33.333333333333336
350.0   30.0   16.666666666666668
350.0   0.0   33.333333333333336
400.0   30.0   33.333333333333336
400.0   0.0   33.333333333333336
400.0   0.0   16.666666666666668
350.0   0.0   33.333333333333336
400.0   30.0   33.333333333333336
400.0   0.0   16.666666666666668
350.0   30.0   16.666666666666668
350.0   0.0   33.333333333333336
400.0   0.0   33.333333333333336
350.0   30.0   33.333333333333336
350.0   0.0   50.0
400.0   0.0   33.333333333333336
400.0   30.0   33.333333333333336
350.0   30.0   33.333333333333336
400.0   30.0   50.0
350.0   0.0   50.0
350.0   30.0   50.0
400.0   30.0   50.0
350.0   30.0   33.333333333333336
350.0   0.0   50.0
400.0   30.0   50.0
400.0   0.0   50.0
400.0   0.0   33.333333333333336
350.0   0.0   50.0
400.0   30.0   50.0
400.0   0.0   33.333333333333336
350.0   30.0   33.333333333333336
350.0   30.0   0.0
400.0   30.0   0.0
350.0   60.0   0.0
350.0   30.0   16.666666666666668
400.0   30.0   0.0
400.0   60.0   0.0
350.0   60.0   0.0
400.0   60.0   16.666666666666668
350.0   30.0   16.666666666666668
350.0   60.0   16.666666666666668
400.0   60.0   16.666666666666668
350.0   60.0   0.0
350.0   30.0   16.666666666666668
400.0   60.0   16.666666666666668
400.0   30.0   16.666666666666668
400.0   30.0   0.0
350.0   30.0   16.666666666666668
400.0   60.0   16.666666666666668
400.0   30.0   0.0
350.0   60.0   0.0
350.0   30.0   16.666666666666668
400.0   30.0   16.666666666666668
350.0   60.0   16.666666666666668
350.0   30.0   33.333333333333336
400.0   30.0   16.666666666666668
400.0   60.0   16.666666666666668
350.0   60.0   16.666666666666668
400.0   60.0   33.333333333333336
350.0   30.0   33.333333333333336
350.0   60.0   33.333333333333336
400.0   60.0   33.333333333333336
350.0   60.0   16.666666666666668
350.0   30.0   33.333333333333336
400.0   60.0   33.333333333333336
400.0   30.0   33.333333333333336
400.0   30.0   16.666666666666668
350.0   30.0   33.333333333333336
400.0   60.0   33.333333333333336
400.0   30.0   16.666666666666668
350.0   60.0   16.666666666666668
350.0   30.0   33.333333333333336
400.0   30.0   33.333333333333336
350.0   60.0   33.333333333333336
350.0   30.0   50.0
400.0   30.0   33.333333333333336
400.0   60.0   33.333333333333336
350.0   60.0   33.333333333333336
400.0   60.0   50.0
350.0   30.0   50.0
350.0   60.0   50.0
400.0   60.0   50.0
350.0   60.0   33.333333333333336
350.0   30.0   50.0
400.0   60.0   50.0
400.0   30.0   50.0
400.0   30.0   33.333333333333336
350.0   30.0   50.0
400.0   60.0   50.0
400.0   30.0   33.333333333333336
350.0   60.0   33.333333333333336
350.0   60.0   0.0
400.0   60.0   0.0
350.0   90.0   0.0
350.0   60.0   16.666666666666668
400.0   60.0   0.0
400.0   90.0   0.0
350.0   90.0   0.0
400.0   90.0   16.666666666666668
350.0   60.0   16.666666666666668
350.0   90.0   16.666666666666668
400.0   90.0   16.666666666666668
350.0   90.0   0.0
350.0   60.0   16.666666666666668
400.0   90.0   16.666666666666668
400.0   60.0   16.666666666666668
400.0   60.0   0.0
350.0   60.0   16.666666666666668
400.0   90.0   16.666666666666668
400.0   60.0   0.0
350.0   90.0   0.0
350.0   60.0   16.666666666666668
400.0   60.0   16.666666666666668
350.0   90.0   16.666666666666668
350.0   60.0   33.333333333333336
400.0   60.0   16.666666666666668
400.0   90.0   16.666666666666668
350.0   90.0   16.666666666666668
400.0   90.0   33.333333333333336
350.0   60.0   33.333333333333336
350.0   90.0   33.333333333333336
400.0   90.0   33.333333333333336
350.0   90.0   16.666666666666668
350.0   60.0   33.333333333333336
400.0   90.0   33.333333333333336
400.0   60.0   33.333333333333336
400.0   60.0   16.666666666666668
350.0   60.0   33.333333333333336
400.0   90.0   33.333333333333336
400.0   60.0   16.666666666666668
350.0   90.0   16.666666666666668
350.0   60.0   33.333333333333336
400.0   60.0   33.333333333333336
350.0   90.0   33.333333333333336
350.0   60.0   50.0
400.0   60.0   33.333333333333336
400.0   90.0   33.333333333333336
350.0   90.0   33.333333333333336
400.0   90.0   50.0
350.0   60.0   50.0
350.0   90.0   50.0
400.0   90.0   50.0
350.0   90.0   33.333333333333336
350.0   60.0   50.0
400.0   90.0   50.0
400.0   60.0   50.0
400.0   60.0   33.333333333333336
350.0   60.0   50.0
400.0   90.0   50.0
400.0   60.0   33.333333333333336
350.0   90.0   33.333333333333336
350.0   90.0   0.0
400.0   90.0   0.0
350.0   120.0   0.0
350.0   90.0   16.666666666666668
400.0   90.0   0.0
400.0   120.0   0.0
350.0   120.0   0.0
400.0   120.0   16.666666666666668
350.0   90.0   16.666666666666668
350.0   120.0   16.666666666666668
400.0   120.0   16.666666666666668
350.0   120.0   0.0
350.0   90.0   16.666666666666668
400.0   120.0   16.666666666666668
400.0   90.0   16.666666666666668
400.0   90.0   0.0
350.0   90.0   16.666666666666668
400.0   120.0   16.666666666666668
400.0   90.0   0.0
350.0   120.0   0.0
350.0   90.0   16.666666666666668
400.0   90.0   16.666666666666668
350.0   120.0   16.666666666666668
350.0   90.0   33.333333333333336
400.0   90.0   16.666666666666668
400.0   120.0   16.666666666666668
350.0   120.0   16.666666666666668
400.0   120.0   33.333333333333336
350.0   90.0   33.333333333333336
350.0   120.0   33.333333333333336
400.0   120.0   33.333333333333336
350.0   120.0   16.666666666666668
350.0   90.0   33.333333333333336
400.0   120.0   33.333333333333336
400.0   90.0   33.333333333333336
400.0   90.0   16.666666666666668
350.0   90.0   33.333333333333336
400.0   120.0   33.333333333333336
400.0   90.0   16.666666666666668
350.0   120.0   16.666666666666668
350.0   90.0   33.333333333333336
400.0   90.0   33.333333333333336
350.0   120.0   33.333333333333336
350.0   90.0   50.0
400.0   90.0   33.333333333333336
400.0   120.0   33.333333333333336
350.0   120.0   33.333333333333336
400.0   120.0   50.0
350.0   90.0   50.0
350.0   120.0   50.0
400.0   120.0   50.0
350.0   120.0   33.333333333333336
350.0   90.0   50.0
400.0   120.0   50.0
400.0   90.0   50.0
400.0   90.0   33.333333333333336
350.0   90.0   50.0
400.0   120.0   50.0
400.0   90.0   33.333333333333336
350.0   120.0   33.333333333333336
350.0   120.0   0.0
400.0   120.0   0.0
350.0   150.0   0.0
350.0   120.0   16.666666666666668
400.0   120.0   0.0
400.0   150.0   0.0
350.0   150.0   0.0
400.0   150.0   16.666666666666668
350.0   120.0   16.666666666666668
350.0   150.0   16.666666666666668
400.0   150.0   16.666666666666668
350.0   150.0   0.0
350.0   120.0   16.666666666666668
400.0   150.0   16.666666666666668
400.0   120.0   16.666666666666668
400.0   120.0   0.0
350.0   120.0   16.666666666666668
400.0   150.0   16.666666666666668
400.0   120.0   0.0
350.0   150.0   0.0
350.0   120.0   16.666666666666668
400.0   120.0   16.666666666666668
350.0   150.0   16.666666666666668
350.0   120.0   33.333333333333336
400.0   120.0   16.666666666666668
400.0   150.0   16.666666666666668
350.0   150.0   16.666666666666668
400.0   150.0   33.333333333333336
350.0   120.0   33.333333333333336
350.0   150.0   33.333333333333336
400.0   150.0   33.333333333333336
350.0   150.0   16.666666666666668
350.0   120.0   33.333333333333336
400.0   150.0   33.333333333333336
400.0   120.0   33.333333333333336
400.0   120.0   16.666666666666668
350.0   120.0   33.333333333333336
400.0   150.0   33.333333333333336
400.0   120.0   16.666666666666668
350.0   150.0   16.666666666666668
350.0   120.0   33.333333333333336
400.0   120.0   33.333333333333336
350.0   150.0   33.333333333333336
350.0   120.0   50.0
400.0   120.0   33.333333333333336
400.0   150.0   33.333333333333336
350.0   150.0   33.333333333333336
400.0   150.0   50.0
350.0   120.0   50.0
350.0   150.0   50.0
400.0   150.0   50.0
350.0   150.0   33.333333333333336
350.0   120.0   50.0
400.0   150.0   50.0
400.0   120.0   50.0
400.0   120.0   33.333333333333336
350.0   120.0   50.0
400.0   150.0   50.0
400.0   120.0   33.333333333333336
350.0   150.0   33.333333333333336
400.0   0.0   0.0
450.0   0.0   0.0
400.0   30.0   0.0
400.0   0.0   16.666666666666668
450.0   0.0   0.0
450.0   30.0   0.0
400.0   30.0   0.0
450.0   30.0   16.666666666666668
400.0   0.0   16.666666666666668
400.0   30.0   16.666666666666668
450.0   30.0   16.666666666666668
400.0   30.0   0.0
400.0   0.0   16.666666666666668
450.0   30.0   16.666666666666668
450.0   0.0   16.666666666666668
450.0   0.0   0.0
400.0   0.0   16.666666666666668
450.0   30.0   16.666666666666668
450.0   0.0   0.0
400.0   30.0   0.0
400.0   0.0   16.666666666666668
450.0   0.0   16.666666666666668
400.0   30.0   16.666666666666668
400.0   0.0   33.333333333333336
450.0   0.0   16.666666666666668
450.0   30.0   16.666666666666668
400.0   30.0   16.666666666666668
450.0   30.0   33.333333333333336
400.0   0.0   33.333333333333336
400.0   30.0   33.333333333333336
450.0   30.0   33.333333333333336
400.0   30.0   16.666666666666668
400.0   0.0   33.333333333333336
450.0   30.0   33.333333333333336
450.0   0.0   33.333333333333336
450.0   0.0   16.666666666666668
400.0   0.0   33.333333333333336
450.0   30.0   33.333333333333336
450.0   0.0   16.666666666666668
400.0   30.0   16.666666666666668
400.0   0.0   33.333333333333336
450.0   0.0   33.333333333333336
400.0   30.0   33.333333333333336
400.0   0.0   50.0
450.0   0.0   33.333333333333336
450.0   30.0   33.333333333333336
400.0   30.0   33.333333333333336
450.0   30.0   50.0
400.0   0.0   50.0
400.0   30.0   50.0
450.0   30.0   50.0
400.0   30.0   33.333333333333336
400.0   0.0   50.0
450.0   30.0   50.0
450.0   0.0   50.0
450.0   0.0   33.333333333333336
400.0   0.0   50.0
450.0   30.0   50.0
450.0   0.0   33.333333333333336
400.0   30.0   33.333333333333336
400.0   30.0   0.0
450.0   30.0   0.0
400.0   60.0   0.0
400.0   30.0   16.666666666666668
450.0   30.0   0.0
450.0   60.0   0.0
400.0   60.0   0.0
450.0   60.0   16.666666666666668
400.0   30.0   16.666666666666668
400.0   60.0   16.666666666666668
450.0   60.0   16.666666666666668
400.0   60.0   0.0
400.0   30.0   16.666666666666668
450.0   60.0   16.666666666666668
450.0   30.0   16.666666666666668
450.0   30.0   0.0
400.0   30.0   16.666666666666668
450.0   60.0   16.666666666666668
450.0   30.0   0.0
400.0   60.0   0.0
400.0   30.0   16.666666666666668
450.0   30.0   16.666666666666668
400.0   60.0   16.666666666666668
400.0   30.0   33.333333333333336
450.0   30.0   16.666666666666668
450.0   60.0   16.666666666666668
400.0   60.0   16.666666666666668
450.0   60.0   33.333333333333336
400.0   30.0   33.333333333333336
400.0   60.0   33.333333333333336
450.0   60.0   33.333333333333336
400.0   60.0   16.666666666666668
400.0   30.0   33.333333333333336
450.0   60.0   33.333333333333336
450.0   30.0   33.333333333333336
450.0   30.0   16.666666666666668
400.0   30.0   33.333333333333336
450.0   60.0   33.333333333333336
450.0   30.0   16.666666666666668
400.0   60.0   16.666666666666668
400.0   30.0   33.333333333333336
450.0   30.0   33.333333333333336
400.0   60.0   33.333333333333336
400.0   30.0   50.0
450.0   30.0   33.333333333333336
450.0   60.0   33.333333333333336
400.0   60.0   33.333333333333336
450.0   60.0   50.0
400.0   30.0   50.0
400.0   60.0   50.0
450.0   60.0   50.0
400.0   60.0   33.333333333333336
400.0   30.0   50.0
450.0   60.0   50.0
450.0   30.0   50.0
450.0   30.0   33.333333333333336
400.0   30.0   50.0
450.0   60.0   50.0
450.0   30.0   33.333333333333336
400.0   60.0   33.333333333333336
400.0   60.0   0.0
450.0   60.0   0.0
400.0   90.0   0.0
400.0   60.0   16.666666666666668
450.0   60.0   0.0
450.0   90.0   0.0
400.0   90.0   0.0
450.0   90.0   16.666666666666668
400.0   60.0   16.666666666666668
400.0   90.0   16.666666666666668
450.0   90.0   16.666666666666668
400.0   90.0   0.0
400.0   60.0   16.666666666666668
450.0   90.0   16.666666666666668
450.0   60.0   16.666666666666668
450.0   60.0   0.0
400.0   60.0   16.666666666666668
450.0   90.0   16.666666666666668
450.0   60.0   0.0
400.0   90.0   0.0
400.0   60.0   16.666666666666668
450.0   60.0   16.666666666666668
400.0   90.0   16.666666666666668
400.0   60.0   33.333333333333336
450.0   60.0   16.666666666666668
450.0   90.0   16.666666666666668
400.0   90.0   16.666666666666668
450.0   90.0   33.333333333333336
400.0   60.0   33.333333333333336
400.0   90.0   33.333333333333336
450.0   90.0   33.333333333333336
400.0   90.0   16.666666666666668
400.0   60.0   33.333333333333336
450.0   90.0   33.333333333333336
450.0   60.0   33.333333333333336
450.0   60.0   16.666666666666668
400.0   60.0   33.333333333333336
450.0   90.0   33.333333333333336
450.0   60.0   16.666666666666668
400.0   90.0   16.666666666666668
400.0   60.0   33.333333333333336
450.0   60.0   33.333333333333336
400.0   90.0   33.333333333333336
400.0   60.0   50.0
450.0   60.0   33.333333333333336
450.0   90.0   33.333333333333336
400.0   90.0   33.333333333333336
450.0   90.0   50.0
400.0   60.0   50.0
400.0   90.0   50.0
450.0   90.0   50.0
400.0   90.0   33.333333333333336
400.0   60.0   50.0
450.0   90.0   50.0
450.0   60.0   50.0
450.0   60.0   33.333333333333336
400.0   60.0   50.0
450.0   90.0   50.0
450.0   60.0   33.333333333333336
400.0   90.0   33.333333333333336
400.0   90.0   0.0
450.0   90.0   0.0
400.0   120.0   0.0
400.0   90.0   16.666666666666668
450.0   90.0   0.0
450.0   120.0   0.0
400.0   120.0   0.0
450.0   120.0   16.666666666666668
400.0   90.0   16.666666666666668
400.0   120.0   16.666666666666668
450.0   120.0   16.666666666666668
400.0   120.0   0.0
400.0   90.0   16.666666666666668
450.0   120.0   16.666666666666668
450.0   90.0   16.666666666666668
450.0   90.0   0.0
400.0   90.0   16.666666666666668
450.0   120.0   16.666666666666668
450.0   90.0   0.0
400.0   120.0   0.0
400.0   90.0   16.666666666666668
450.0   90.0   16.666666666666668
400.0   120.0   16.666666666666668
400.0   90.0   33.333333333333336
450.0   90.0   16.666666666666668
450.0   120.0   16.666666666666668
400.0   120.0   16.666666666666668
450.0   120.0   33.333333333333336
400.0   90.0   33.333333333333336
400.0   120.0   33.333333333333336
450.0   120.0   33.333333333333336
400.0   120.0   16.666666666666668
400.0   90.0   33.333333333333336
450.0   120.0   33.333333333333336
450.0   90.0   33.333333333333336
450.0   90.0   16.666666666666668
400.0   90.0   33.333333333333336
450.0   120.0   33.333333333333336
450.0   90.0   16.666666666666668
400.0   120.0   16.666666666666668
400.0   90.0   33.333333333333336
450.0   90.0   33.333333333333336
400.0   120.0   33.333333333333336
400.0   90.0   50.0
450.0   90.0   33.333333333333336
450.0   120.0   33.333333333333336
400.0   120.0   33.333333333333336
450.0   120.0   50.0
400.0   90.0   50.0
400.0   120.0   50.0
450.0   120.0   50.0
400.0   120.0   33.333333333333336
400.0   90.0   50.0
450.0   120.0   50.0
450.0   90.0   50.0
450.0   90.0   33.333333333333336
400.0   90.0   50.0
450.0   120.0   50.0
450.0   90.0   33.333333333333336
400.0   120.0   33.333333333333336
400.0   120.0   0.0
450.0   120.0   0.0
400.0   150.0   0.0
400.0   120.0   16.666666666666668
450.0   120.0   0.0
450.0   150.0   0.0
400.0   150.0   0.0
450.0   150.0   16.666666666666668
400.0   120.0   16.666666666666668
400.0   150.0   16.666666666666668
450.0   150.0   16.666666666666668
400.0   150.0   0.0
400.0   120.0   16.666666666666668
450.0   150.0   16.666666666666668
450.0   120.0   16.666666666666668
450.0   120.0   0.0
400.0   120.0   16.666666666666668
450.0   150.0   16.666666666666668
450.0   120.0   0.0
400.0   150.0   0.0
400.0   120.0   16.666666666666668
450.0   120.0   16.666666666666668
400.0   150.0   16.666666666666668
400.0   120.0   33.333333333333336
450.0   120.0   16.666666666666668
450.0   150.0   16.666666666666668
400.0   150.0   16.666666666666668
450.0   150.0   33.333333333333336
400.0   120.0   33.333333333333336
400.0   150.0   33.333333333333336
450.0   150.0   33.333333333333336
400.0   150.0   16.666666666666668
400.0   120.0   33.333333333333336
450.0   150.0   33.333333333333336
450.0   120.0   33.333333333333336
450.0   120.0   16.666666666666668
400.0   120.0   33.333333333333336
450.0   150.0   33.333333333333336
450.0   120.0   16.666666666666668
400.0   150.0   16.666666666666668
400.0   120.0   33.333333333333336
450.0   120.0   33.333333333333336
400.0   150.0   33.333333333333336
400.0   120.0   50.0
450.0   120.0   33.333333333333336
450.0   150.0   33.333333333333336
400.0   150.0   33.333333333333336
450.0   150.0   50.0
400.0   120.0   50.0
400.0   150.0   50.0
450.0   150.0   50.0
400.0   150.0   33.333333333333336
400.0   120.0   50.0
450.0   150.0   50.0
450.0   120.0   50.0
450.0   120.0   33.333333333333336
400.0   120.0   50.0
450.0   150.0   50.0
450.0   120.0   33.333333333333336
400.0   150.0   33.333333333333336
450.0   0.0   0.0
500.0   0.0   0.0
450.0   30.0   0.0
450.0   0.0   16.666666666666668
500.0   0.0   0.0
500.0   30.0   0.0
450.0   30.0   0.0
500.0   30.0   16.666666666666668
450.0   0.0   16.666666666666668
450.0   30.0   16.666666666666668
500.0   30.0   16.666666666666668
450.0   30.0   0.0
450.0   0.0   16.666666666666668
500.0   30.0   16.666666666666668
500.0   0.0   16.666666666666668
500.0   0.0   0.0
450.0   0.0   16.666666666666668
500.0   30.0   16.666666666666668
500.0   0.0   0.0
450.0   30.0   0.0
450.0   0.0   16.666666666666668
500.0   0.0   16.666666666666668
450.0   30.0   16.666666666666668
450.0   0.0   33.333333333333336
500.0   0.0   16.666666666666668
500.0   30.0   16.666666666666668
450.0   30.0   16.666666666666668
500.0   30.0   33.333333333333336
450.0   0.0   33.333333333333336
450.0   30.0   33.333333333333336
500.0   30.0   33.333333333333336
450.0   30.0   16.666666666666668
450.0   0.0   33.333333333333336
500.0   30.0   33.333333333333336
500.0   0.0   33.333333333333336
500.0   0.0   16.666666666666668
450.0   0.0   33.333333333333336
500.0   30.0   33.333333333333336
500.0   0.0   16.666666666666668
450.0   30.0   16.666666666666668
450.0   0.0   33.333333333333336
500.0   0.0   33.333333333333336
450.0   30.0   33.333333333333336
450.0   0.0   50.0
500.0   0.0   33.333333333333336
500.0   30.0   33.333333333333336
450.0   30.0   33.333333333333336
500.0   30.0   50.0
450.0   0.0   50.0
450.0   30.0   50.0
500.0   30.0   50.0
450.0   30.0   33.333333333333336
450.0   0.0   50.0
500.0   30.0   50.0
500.0   0.0   50.0
500.0   0.0   33.333333333333336
450.0   0.0   50.0
500.0   30.0   50.0
500.0   0.0   33.333333333333336
450.0   30.0   33.333333333333336
450.0   30.0   0.0
500.0   30.0   0.0
450.0   60.0   0.0
450.0   30.0   16.666666666666668
500.0   30.0   0.0
500.0   60.0   0.0
450.0   60.0   0.0
500.0   60.0   16.666666666666668
450.0   30.0   16.666666666666668
450.0   60.0   16.666666666666668
500.0   60.0   16.666666666666668
450.0   60.0   0.0
450.0   30.0   16.666666666666668
500.0   60.0   16.666666666666668
500.0   30.0   16.666666666666668
500.0   30.0   0.0
450.0   30.0   16.666666666666668
500.0   60.0   16.666666666666668
500.0   30.0   0.0
450.0   60.0   0.0
450.0   30.0   16.666666666666668
500.0   30.0   16.666666666666668
450.0   60.0   16.666666666666668
450.0   30.0   33.333333333333336
500.0   30.0   16.666666666666668
500.0   60.0   16.666666666666668
450.0   60.0   16.666666666666668
500.0   60.0   33.333333333333336
450.0   30.0   33.333333333333336
450.0   60.0   33.333333333333336
500.0   60.0   33.333333333333336
450.0   60.0   16.666666666666668
450.0   30.0   33.333333333333336
500.0   60.0   33.333333333333336
500.0   30.0   33.333333333333336
500.0   30.0   16.666666666666668
450.0   30.0   33.333333333333336
500.0   60.0   33.333333333333336
500.0   30.0   16.666666666666668
450.0   60.0   16.666666666666668
450.0   30.0   33.333333333333336
500.0   30.0   33.333333333333336
450.0   60.0   33.333333333333336
450.0   30.0   50.0
500.0   30.0   33.333333333333336
500.0   60.0   33.333333333333336
450.0   60.0   33.333333333333336
500.0   60.0   50.0
450.0   30.0   50.0
450.0   60.0   50.0
500.0   60.0   50.0
450.0   60.0   33.333333333333336
450.0   30.0   50.0
500.0   60.0   50.0
500.0   30.0   50.0
500.0   30.0   33.333333333333336
450.0   30.0   50.0
500.0   60.0   50.0
500.0   30.0   33.333333333333336
450.0   60.0   33.333333333333336
450.0   60.0   0.0
500.0   60.0   0.0
450.0   90.0   0.0
450.0   60.0   16.666666666666668
500.0   60.0   0.0
500.0   90.0   0.0
450.0   90.0   0.0
500.0   90.0   16.666666666666668
450.0   60.0   16.666666666666668
450.0   90.0   16.666666666666668
500.0   90.0   16.666666666666668
450.0   90.0   0.0
450.0   60.0   16.666666666666668
500.0   90.0   16.666666666666668
500.0   60.0   16.666666666666668
500.0   60.0   0.0
450.0   60.0   16.666666666666668
500.0   90.0   16.666666666666668
500.0   60.0   0.0
450.0   90.0   0.0
450.0   60.0   16.666666666666668
500.0   60.0   16.666666666666668
450.0   90.0   16.666666666666668
450.0   60.0   33.333333333333336
500.0   60.0   16.666666666666668
500.0   90.0   16.666666666666668
450.0   90.0   16.666666666666668
500.0   90.0   33.333333333333336
450.0   60.0   33.333333333333336
450.0   90.0   33.333333333333336
500.0   90.0   33.333333333333336
450.0   90.0   16.666666666666668
450.0   60.0   33.333333333333336
500.0   90.0   33.333333333333336
500.0   60.0   33.333333333333336
500.0   60.0   16.666666666666668
450.0   60.0   33.333333333333336
500.0   90.0   33.333333333333336
500.0   60.0   16.666666666666668
450.0   90.0   16.666666666666668
450.0   60.0   33.333333333333336
500.0   60.0   33.333333333333336
450.0   90.0   33.333333333333336
450.0   60.0   50.0
500.0   60.0   33.333333333333336
500.0   90.0   33.333333333333336
450.0   90.0   33.333333333333336
500.0   90.0   50.0
450.0   60.0   50.0
450.0   90.0   50.0
500.0   90.0   50.0
450.0   90.0   33.333333333333336
450.0   60.0   50.0
500.0   90.0   50.0
500.0   60.0   50.0
500.0   60.0   33.333333333333336
450.0   60.0   50.0
500.0   90.0   50.0
500.0   60.0   33.333333333333336
450.0   90.0   33.333333333333336
450.0   90.0   0.0
500.0   90.0   0.0
450.0   120.0   0.0
450.0   90.0   16.666666666666668
500.0   90.0   0.0
500.0   120.0   0.0
450.0   120.0   0.0
500.0   120.0   16.666666666666668
450.0   90.0   16.666666666666668
450.0   120.0   16.666666666666668
500.0   120.0   16.666666666666668
450.0   120.0   0.0
450.0   90.0   16.666666666666668
500.0   120.0   16.666666666666668
500.0   90.0   16.666666666666668
500.0   90.0   0.0
450.0   90.0   16.666666666666668
500.0   120.0   16.666666666666668
500.0   90.0   0.0
450.0   120.0   0.0
450.0   90.0   16.666666666666668
500.0   90.0   16.666666666666668
450.0   120.0   16.666666666666668
450.0   90.0   33.333333333333336
500.0   90.0   16.666666666666668
500.0   120.0   16.666666666666668
450.0   120.0   16.666666666666668
500.0   120.0   33.333333333333336
450.0   90.0   33.333333333333336
450.0   120.0   33.333333333333336
500.0   120.0   33.333333333333336
450.0   120.0   16.666666666666668
450.0   90.0   33.333333333333336
500.0   120.0   33.333333333333336
500.0   90.0   33.333333333333336
500.0   90.0   16.666666666666668
450.0   90.0   33.333333333333336
500.0   120.0   33.333333333333336
500.0   90.0   16.666666666666668
450.0   120.0   16.666666666666668
450.0   90.0   33.333333333333336
500.0   90.0   33.333333333333336
450.0   120.0   33.333333333333336
450.0   90.0   50.0
500.0   90.0   33.333333333333336
500.0   120.0   33.333333333333336
450.0   120.0   33.333333333333336
500.0   120.0   50.0
450.0   90.0   50.0
450.0   120.0   50.0
500.0   120.0   50.0
450.0   120.0   33.333333333333336
450.0   90.0   50.0
500.0   120.0   50.0
500.0   90.0   50.0
500.0   90.0   33.333333333333336
450.0   90.0   50.0
500.0   120.0   50.0
500.0   90.0   33.333333333333336
450.0   120.0   33.333333333333336
450.0   120.0   0.0
500.0   120.0   0.0
450.0   150.0   0.0
450.0   120.0   16.666666666666668
500.0   120.0   0.0
500.0   150.0   0.0
450.0   150.0   0.0
500.0   150.0   16.666666666666668
450.0   120.0   16.666666666666668
450.0   150.0   16.666666666666668
500.0   150.0   16.666666666666668
450.0   150.0   0.0
450.0   120.0   16.666666666666668
500.0   150.0   16.666666666666668
500.0   120.0   16.666666666666668
500.0   120.0   0.0
450.0   120.0   16.666666666666668
500.0   150.0   16.666666666666668
500.0   120.0   0.0
450.0   150.0   0.0
450.0   120.0   16.666666666666668
500.0   120.0   16.666666666666668
450.0   150.0   16.666666666666668
450.0   120.0   33.333333333333336
500.0   120.0   16.666666666666668
500.0   150.0   16.666666666666668
450.0   150.0   16.666666666666668
500.0   150.0   33.333333333333336
450.0   120.0   33.333333333333336
450.0   150.0   33.333333333333336
500.0   150.0   33.333333333333336
450.0   150.0   16.666666666666668
450.0   120.0   33.333333333333336
500.0   150.0   33.333333333333336
500.0   120.0   33.333333333333336
500.0   120.0   16.666666666666668
450.0   120.0   33.333333333333336
500.0   150.0   33.333333333333336
500.0   120.0   16.666666666666668
450.0   150.0   16.666666666666668
450.0   120.0   33.333333333333336
500.0   120.0   33.333333333333336
450.0   150.0   33.333333333333336
450.0   120.0   50.0
500.0   120.0   33.333333333333336
500.0   150.0   33.333333333333336
450.0   150.0   33.333333333333336
500.0   150.0   50.0
450.0   120.0   50.0
450.0   150.0   50.0
500.0   150.0   50.0
450.0   150.0   33.333333333333336
450.0   120.0   50.0
500.0   150.0   50.0
500.0   120.0   50.0
500.0   120.0   33.333333333333336
450.0   120.0   50.0
500.0   150.0   50.0
500.0   120.0   33.333333333333336
450.0   150.0   33.333333333333336
             </DataArray>   
          </Points>  
          <Cells>  
             <DataArray type="Int32" Name="connectivity" format="ascii">   
0   1   2   3
4   5   6   7
8   9   10   11
12   13   14   15
16   17   18   19
20   21   22   23
24   25   26   27
28   29   30   31
32   33   34   35
36   37   38   39
40   41   42   43
44   45   46   47
48   49   50   51
52   53   54   55
56   57   58   59
60   61   62   63
64   65   66   67
68   69   70   71
72   73   74   75
76   77   78   79
80   81   82   83
84   85   86   87
88   89   90   91
92   93   94   95
96   97   98   99
100   101   102   103
104   105   106   107
108   109   110   111
112   113   114   115
116   117   118   119
120   121   122   123
124   125   126   127
128   129   130   131
132   133   134   135
136   137   138   139
140   141   142   143
144   145   146   147
148   149   150   151
152   153   154   155
156   157   158   159
160   161   162   163
164   165   166   167
168   169   170   171
172   173   174   175
176   177   178   179
180   181   182   183
184   185   186   187
188   189   190   191
192   193   194   195
196   197   198   199
200   201   202   203
204   205   206   207
208   209   210   211
212   213   214   215
216   217   218   219
220   221   222   223
224   225   226   227
228   229   230   231
232   233   234   235
236   237   238   239
240   241   242   243
244   245   246   247
248   249   250   251
252   253   254   255
256   257   258   259
260   261   262   263
264   265   266   267
268   269   270   271
272   273   274   275
276   277   278   279
280   281   282   283
284   285   286   287
288   289   290   291
292   293   294   295
296   297   298   299
300   301   302   303
304   305   306   307
308   309   310   311
312   313   314   315
316   317   318   319
320   321   322   323
324   325   326   327
328   329   330   331
332   333   334   335
336   337   338   339
340   341   342   343
344   345   346   347
348   349   350   351
352   353   354   355
356   357   358   359
360   361   362   363
364   365   366   367
368   369   370   371
372   373   374   375
376   377   378   379
380   381   382   383
384   385   386   387
388   389   390   391
392   393   394   395
396   397   398   399
400   401   402   403
404   405   406   407
408   409   410   411
412   413   414   415
416   417   418   419
420   421   422   423
424   425   426   427
428   429   430   431
432   433   434   435
436   437   438   439
440   441   442   443
444   445   446   447
448   449   450   451
452   453   454   455
456   457   458   459
460   461   462   463
464   465   466   467
468   469   470   471
472   473   474   475
476   477   478   479
480   481   482   483
484   485   486   487
488   489   490   491
492   493   494   495
496   497   498   499
500   501   502   503
504   505   506   507
508   509   510   511
512   513   514   515
516   517   518   519
520   521   522   523
524   525   526   527
528   529   530   531
532   533   534   535
536   537   538   539
540   541   542   543
544   545   546   547
548   549   550   551
552   553   554   555
556   557   558   559
560   561   562   563
564   565   566   567
568   569   570   571
572   573   574   575
576   577   578   579
580   581   582   583
584   585   586   587
588   589   590   591
592   593   594   595
596   597   598   599
600   601   602   603
604   605   606   607
608   609   610   611
612   613   614   615
616   617   618   619
620   621   622   623
624   625   626   627
628   629   630   631
632   633   634   635
636   637   638   639
640   641   642   643
644   645   646   647
648   649   650   651
652   653   654   655
656   657   658   659
660   661   662   663
664   665   666   667
668   669   670   671
672   673   674   675
676   677   678   679
680   681   682   683
684   685   686   687
688   689   690   691
692   693   694   695
696   697   698   699
700   701   702   703
704   705   706   707
708   709   710   711
712   713   714   715
716   717   718   719
720   721   722   723
724   725   726   727
728   729   730   731
732   733   734   735
736   737   738   739
740   741   742   743
744   745   746   747
748   749   750   751
752   753   754   755
756   757   758   759
760   761   762   763
764   765   766   767
768   769   770   771
772   773   774   775
776   777   778   779
780   781   782   783
784   785   786   787
788   789   790   791
792   793   794   795
796   797   798   799
800   801   802   803
804   805   806   807
808   809   810   811
812   813   814   815
816   817   818   819
820   821   822   823
824   825   826   827
828   829   830   831
832   833   834   835
836   837   838   839
840   841   842   843
844   845   846   847
848   849   850   851
852   853   854   855
856   857   858   859
860   861   862   863
864   865   866   867
868   869   870   871
872   873   874   875
876   877   878   879
880   881   882   883
884   885   886   887
888   889   890   891
892   893   894   895
896   897   898   899
900   901   902   903
904   905   906   907
908   909   910   911
912   913   914   915
916   917   918   919
920   921   922   923
924   925   926   927
928   929   930   931
932   933   934   935
936   937   938   939
940   941   942   943
944   945   946   947
948   949   950   951
952   953   954   955
956   957   958   959
960   961   962   963
964   965   966   967
968   969   970   971
972   973   974   975
976   977   978   979
980   981   982   983
984   985   986   987
988   989   990   991
992   993   994   995
996   997   998   999
1000   1001   1002   1003
1004   1005   1006   1007
1008   1009   1010   1011
1012   1013   1014   1015
1016   1017   1018   1019
1020   1021   1022   1023
1024   1025   1026   1027
1028   1029   1030   1031
1032   1033   1034   1035
1036   1037   1038   1039
1040   1041   1042   1043
1044   1045   1046   1047
1048   1049   1050   1051
1052   1053   1054   1055
1056   1057   1058   1059
1060   1061   1062   1063
1064   1065   1066   1067
1068   1069   1070   1071
1072   1073   1074   1075
1076   1077   1078   1079
1080   1081   1082   1083
1084   1085   1086   1087
1088   1089   1090   1091
1092   1093   1094   1095
1096   1097   1098   1099
1100   1101   1102   1103
1104   1105   1106   1107
1108   1109   1110   1111
1112   1113   1114   1115
1116   1117   1118   1119
1120   1121   1122   1123
1124   1125   1126   1127
1128   1129   1130   1131
1132   1133   1134   1135
1136   1137   1138   1139
1140   1141   1142   1143
1144   1145   1146   1147
1148   1149   1150   1151
1152   1153   1154   1155
1156   1157   1158   1159
1160   1161   1162   1163
1164   1165   1166   1167
1168   1169   1170   1171
1172   1173   1174   1175
1176   1177   1178   1179
1180   1181   1182   1183
1184   1185   1186   1187
1188   1189   1190   1191
1192   1193   1194   1195
1196   1197   1198   1199
1200   1201   1202   1203
1204   1205   1206   1207
1208   1209   1210   1211
1212   1213   1214   1215
1216   1217   1218   1219
1220   1221   1222   1223
1224   1225   1226   1227
1228   1229   1230   1231
1232   1233   1234   1235
1236   1237   1238   1239
1240   1241   1242   1243
1244   1245   1246   1247
1248   1249   1250   1251
1252   1253   1254   1255
1256   1257   1258   1259
1260   1261   1262   1263
1264   1265   1266   1267
1268   1269   1270   1271
1272   1273   1274   1275
1276   1277   1278   1279
1280   1281   1282   1283
1284   1285   1286   1287
1288   1289   1290   1291
1292   1293   1294   1295
1296   1297   1298   1299
1300   1301   1302   1303
1304   1305   1306   1307
1308   1309   1310   1311
1312   1313   1314   1315
1316   1317   1318   1319
1320   1321   1322   1323
1324   1325   1326   1327
1328   1329   1330   1331
1332   1333   1334   1335
1336   1337   1338   1339
1340   1341   1342   1343
1344   1345   1346   1347
1348   1349   1350   1351
1352   1353   1354   1355
1356   1357   1358   1359
1360   1361   1362   1363
1364   1365   1366   1367
1368   1369   1370   1371
1372   1373   1374   1375
1376   1377   1378   1379
1380   1381   1382   1383
1384   1385   1386   1387
1388   1389   1390   1391
1392   1393   1394   1395
1396   1397   1398   1399
1400   1401   1402   1403
1404   1405   1406   1407
1408   1409   1410   1411
1412   1413   1414   1415
1416   1417   1418   1419
1420   1421   1422   1423
1424   1425   1426   1427
1428   1429   1430   1431
1432   1433   1434   1435
1436   1437   1438   1439
1440   1441   1442   1443
1444   1445   1446   1447
1448   1449   1450   1451
1452   1453   1454   1455
1456   1457   1458   1459
1460   1461   1462   1463
1464   1465   1466   1467
1468   1469   1470   1471
1472   1473   1474   1475
1476   1477   1478   1479
1480   1481   1482   1483
1484   1485   1486   1487
1488   1489   1490   1491
1492   1493   1494   1495
1496   1497   1498   1499
1500   1501   1502   1503
1504   1505   1506   1507
1508   1509   1510   1511
1512   1513   1514   1515
1516   1517   1518   1519
1520   1521   1522   1523
1524   1525   1526   1527
1528   1529   1530   1531
1532   1533   1534   1535
1536   1537   1538   1539
1540   1541   1542   1543
1544   1545   1546   1547
1548   1549   1550   1551
1552   1553   1554   1555
1556   1557   1558   1559
1560   1561   1562   1563
1564   1565   1566   1567
1568   1569   1570   1571
1572   1573   1574   1575
1576   1577   1578   1579
1580   1581   1582   1583
1584   1585   1586   1587
1588   1589   1590   1591
1592   1593   1594   1595
1596   1597   1598   1599
1600   1601   1602   1603
1604   1605   1606   1607
1608   1609   1610   1611
1612   1613   1614   1615
1616   1617   1618   1619
1620   1621   1622   1623
1624   1625   1626   1627
1628   1629   1630   1631
1632   1633   1634   1635
1636   1637   1638   1639
1640   1641   1642   1643
1644   1645   1646   1647
1648   1649   1650   1651
1652   1653   1654   1655
1656   1657   1658   1659
1660   1661   1662   1663
1664   1665   1666   1667
1668   1669   1670   1671
1672   1673   1674   1675
1676   1677   1678   1679
1680   1681   1682   1683
1684   1685   1686   1687
1688   1689   1690   1691
1692   1693   1694   1695
1696   1697   1698   1699
1700   1701   1702   1703
1704   1705   1706   1707
1708   1709   1710   1711
1712   1713   1714   1715
1716   1717   1718   1719
1720   1721   1722   1723
1724   1725   1726   1727
1728   1729   1730   1731
1732   1733   1734   1735
1736   1737   1738   1739
1740   1741   1742   1743
1744   1745   1746   1747
1748   1749   1750   1751
1752   1753   1754   1755
1756   1757   1758   1759
1760   1761   1762   1763
1764   1765   1766   1767
1768   1769   1770   1771
1772   1773   1774   1775
1776   1777   1778   1779
1780   1781   1782   1783
1784   1785   1786   1787
1788   1789   1790   1791
1792   1793   1794   1795
1796   1797   1798   1799
1800   1801   1802   1803
1804   1805   1806   1807
1808   1809   1810   1811
1812   1813   1814   1815
1816   1817   1818   1819
1820   1821   1822   1823
1824   1825   1826   1827
1828   1829   1830   1831
1832   1833   1834   1835
1836   1837   1838   1839
1840   1841   1842   1843
1844   1845   1846   1847
1848   1849   1850   1851
1852   1853   1854   1855
1856   1857   1858   1859
1860   1861   1862   1863
1864   1865   1866   1867
1868   1869   1870   1871
1872   1873   1874   1875
1876   1877   1878   1879
1880   1881   1882   1883
1884   1885   1886   1887
1888   1889   1890   1891
1892   1893   1894   1895
1896   1897   1898   1899
1900   1901   1902   1903
1904   1905   1906   1907
1908   1909   1910   1911
1912   1913   1914   1915
1916   1917   1918   1919
1920   1921   1922   1923
1924   1925   1926   1927
1928   1929   1930   1931
1932   1933   1934   1935
1936   1937   1938   1939
1940   1941   1942   1943
1944   1945   1946   1947
1948   1949   1950   1951
1952   1953   1954   1955
1956   1957   1958   1959
1960   1961   1962   1963
1964   1965   1966   1967
1968   1969   1970   1971
1972   1973   1974   1975
1976   1977   1978   1979
1980   1981   1982   1983
1984   1985   1986   1987
1988   1989   1990   1991
1992   1993   1994   1995
1996   1997   1998   1999
2000   2001   2002   2003
2004   2005   2006   2007
2008   2009   2010   2011
2012   2013   2014   2015
2016   2017   2018   2019
2020   2021   2022   2023
2024   2025   2026   2027
2028   2029   2030   2031
2032   2033   2034   2035
2036   2037   2038   2039
2040   2041   2042   2043
2044   2045   2046   2047
2048   2049   2050   2051
2052   2053   2054   2055
2056   2057   2058   2059
2060   2061   2062   2063
2064   2065   2066   2067
2068   2069   2070   2071
2072   2073   2074   2075
2076   2077   2078   2079
2080   2081   2082   2083
2084   2085   2086   2087
2088   2089   2090   2091
2092   2093   2094   2095
2096   2097   2098   2099
2100   2101   2102   2103
2104   2105   2106   2107
2108   2109   2110   2111
2112   2113   2114   2115
2116   2117   2118   2119
2120   2121   2122   2123
2124   2125   2126   2127
2128   2129   2130   2131
2132   2133   2134   2135
2136   2137   2138   2139
2140   2141   2142   2143
2144   2145   2146   2147
2148   2149   2150   2151
2152   2153   2154   2155
2156   2157   2158   2159
2160   2161   2162   2163
2164   2165   2166   2167
2168   2169   2170   2171
2172   2173   2174   2175
2176   2177   2178   2179
2180   2181   2182   2183
2184   2185   2186   2187
2188   2189   2190   2191
2192   2193   2194   2195
2196   2197   2198   2199
2200   2201   2202   2203
2204   2205   2206   2207
2208   2209   2210   2211
2212   2213   2214   2215
2216   2217   2218   2219
2220   2221   2222   2223
2224   2225   2226   2227
2228   2229   2230   2231
2232   2233   2234   2235
2236   2237   2238   2239
2240   2241   2242   2243
2244   2245   2246   2247
2248   2249   2250   2251
2252   2253   2254   2255
2256   2257   2258   2259
2260   2261   2262   2263
2264   2265   2266   2267
2268   2269   2270   2271
2272   2273   2274   2275
2276   2277   2278   2279
2280   2281   2282   2283
2284   2285   2286   2287
2288   2289   2290   2291
2292   2293   2294   2295
2296   2297   2298   2299
2300   2301   2302   2303
2304   2305   2306   2307
2308   2309   2310   2311
2312   2313   2314   2315
2316   2317   2318   2319
2320   2321   2322   2323
2324   2325   2326   2327
2328   2329   2330   2331
2332   2333   2334   2335
2336   2337   2338   2339
2340   2341   2342   2343
2344   2345   2346   2347
2348   2349   2350   2351
2352   2353   2354   2355
2356   2357   2358   2359
2360   2361   2362   2363
2364   2365   2366   2367
2368   2369   2370   2371
2372   2373   2374   2375
2376   2377   2378   2379
2380   2381   2382   2383
2384   2385   2386   2387
2388   2389   2390   2391
2392   2393   2394   2395
2396   2397   2398   2399
2400   2401   2402   2403
2404   2405   2406   2407
2408   2409   2410   2411
2412   2413   2414   2415
2416   2417   2418   2419
2420   2421   2422   2423
2424   2425   2426   2427
2428   2429   2430   2431
2432   2433   2434   2435
2436   2437   2438   2439
2440   2441   2442   2443
2444   2445   2446   2447
2448   2449   2450   2451
2452   2453   2454   2455
2456   2457   2458   2459
2460   2461   2462   2463
2464   2465   2466   2467
2468   2469   2470   2471
2472   2473   2474   2475
2476   2477   2478   2479
2480   2481   2482   2483
2484   2485   2486   2487
2488   2489   2490   2491
2492   2493   2494   2495
2496   2497   2498   2499
2500   2501   2502   2503
2504   2505   2506   2507
2508   2509   2510   2511
2512   2513   2514   2515
2516   2517   2518   2519
2520   2521   2522   2523
2524   2525   2526   2527
2528   2529   2530   2531
2532   2533   2534   2535
2536   2537   2538   2539
2540   2541   2542   2543
2544   2545   2546   2547
2548   2549   2550   2551
2552   2553   2554   2555
2556   2557   2558   2559
2560   2561   2562   2563
2564   2565   2566   2567
2568   2569   2570   2571
2572   2573   2574   2575
2576   2577   2578   2579
2580   2581   2582   2583
2584   2585   2586   2587
2588   2589   2590   2591
2592   2593   2594   2595
2596   2597   2598   2599
2600   2601   2602   2603
2604   2605   2606   2607
2608   2609   2610   2611
2612   2613   2614   2615
2616   2617   2618   2619
2620   2621   2622   2623
2624   2625   2626   2627
2628   2629   2630   2631
2632   2633   2634   2635
2636   2637   2638   2639
2640   2641   2642   2643
2644   2645   2646   2647
2648   2649   2650   2651
2652   2653   2654   2655
2656   2657   2658   2659
2660   2661   2662   2663
2664   2665   2666   2667
2668   2669   2670   2671
2672   2673   2674   2675
2676   2677   2678   2679
2680   2681   2682   2683
2684   2685   2686   2687
2688   2689   2690   2691
2692   2693   2694   2695
2696   2697   2698   2699
2700   2701   2702   2703
2704   2705   2706   2707
2708   2709   2710   2711
2712   2713   2714   2715
2716   2717   2718   2719
2720   2721   2722   2723
2724   2725   2726   2727
2728   2729   2730   2731
2732   2733   2734   2735
2736   2737   2738   2739
2740   2741   2742   2743
2744   2745   2746   2747
2748   2749   2750   2751
2752   2753   2754   2755
2756   2757   2758   2759
2760   2761   2762   2763
2764   2765   2766   2767
2768   2769   2770   2771
2772   2773   2774   2775
2776   2777   2778   2779
2780   2781   2782   2783
2784   2785   2786   2787
2788   2789   2790   2791
2792   2793   2794   2795
2796   2797   2798   2799
2800   2801   2802   2803
2804   2805   2806   2807
2808   2809   2810   2811
2812   2813   2814   2815
2816   2817   2818   2819
2820   2821   2822   2823
2824   2825   2826   2827
2828   2829   2830   2831
2832   2833   2834   2835
2836   2837   2838   2839
2840   2841   2842   2843
2844   2845   2846   2847
2848   2849   2850   2851
2852   2853   2854   2855
2856   2857   2858   2859
2860   2861   2862   2863
2864   2865   2866   2867
2868   2869   2870   2871
2872   2873   2874   2875
2876   2877   2878   2879
2880   2881   2882   2883
2884   2885   2886   2887
2888   2889   2890   2891
2892   2893   2894   2895
2896   2897   2898   2899
2900   2901   2902   2903
2904   2905   2906   2907
2908   2909   2910   2911
2912   2913   2914   2915
2916   2917   2918   2919
2920   2921   2922   2923
2924   2925   2926   2927
2928   2929   2930   2931
2932   2933   2934   2935
2936   2937   2938   2939
2940   2941   2942   2943
2944   2945   2946   2947
2948   2949   2950   2951
2952   2953   2954   2955
2956   2957   2958   2959
2960   2961   2962   2963
2964   2965   2966   2967
2968   2969   2970   2971
2972   2973   2974   2975
2976   2977   2978   2979
2980   2981   2982   2983
2984   2985   2986   2987
2988   2989   2990   2991
2992   2993   2994   2995
2996   2997   2998   2999
3000   3001   3002   3003
3004   3005   3006   3007
3008   3009   3010   3011
3012   3013   3014   3015
3016   3017   3018   3019
3020   3021   3022   3023
3024   3025   3026   3027
3028   3029   3030   3031
3032   3033   3034   3035
3036   3037   3038   3039
3040   3041   3042   3043
3044   3045   3046   3047
3048   3049   3050   3051
3052   3053   3054   3055
3056   3057   3058   3059
3060   3061   3062   3063
3064   3065   3066   3067
3068   3069   3070   3071
3072   3073   3074   3075
3076   3077   3078   3079
3080   3081   3082   3083
3084   3085   3086   3087
3088   3089   3090   3091
3092   3093   3094   3095
3096   3097   3098   3099
3100   3101   3102   3103
3104   3105   3106   3107
3108   3109   3110   3111
3112   3113   3114   3115
3116   3117   3118   3119
3120   3121   3122   3123
3124   3125   3126   3127
3128   3129   3130   3131
3132   3133   3134   3135
3136   3137   3138   3139
3140   3141   3142   3143
3144   3145   3146   3147
3148   3149   3150   3151
3152   3153   3154   3155
3156   3157   3158   3159
3160   3161   3162   3163
3164   3165   3166   3167
3168   3169   3170   3171
3172   3173   3174   3175
3176   3177   3178   3179
3180   3181   3182   3183
3184   3185   3186   3187
3188   3189   3190   3191
3192   3193   3194   3195
3196   3197   3198   3199
3200   3201   3202   3203
3204   3205   3206   3207
3208   3209   3210   3211
3212   3213   3214   3215
3216   3217   3218   3219
3220   3221   3222   3223
3224   3225   3226   3227
3228   3229   3230   3231
3232   3233   3234   3235
3236   3237   3238   3239
3240   3241   3242   3243
3244   3245   3246   3247
3248   3249   3250   3251
3252   3253   3254   3255
3256   3257   3258   3259
3260   3261   3262   3263
3264   3265   3266   3267
3268   3269   3270   3271
3272   3273   3274   3275
3276   3277   3278   3279
3280   3281   3282   3283
3284   3285   3286   3287
3288   3289   3290   3291
3292   3293   3294   3295
3296   3297   3298   3299
3300   3301   3302   3303
3304   3305   3306   3307
3308   3309   3310   3311
3312   3313   3314   3315
3316   3317   3318   3319
3320   3321   3322   3323
3324   3325   3326   3327
3328   3329   3330   3331
3332   3333   3334   3335
3336   3337   3338   3339
3340   3341   3342   3343
3344   3345   3346   3347
3348   3349   3350   3351
3352   3353   3354   3355
3356   3357   3358   3359
3360   3361   3362   3363
3364   3365   3366   3367
3368   3369   3370   3371
3372   3373   3374   3375
3376   3377   3378   3379
3380   3381   3382   3383
3384   3385   3386   3387
3388   3389   3390   3391
3392   3393   3394   3395
3396   3397   3398   3399
3400   3401   3402   3403
3404   3405   3406   3407
3408   3409   3410   3411
3412   3413   3414   3415
3416   3417   3418   3419
3420   3421   3422   3423
3424   3425   3426   3427
3428   3429   3430   3431
3432   3433   3434   3435
3436   3437   3438   3439
3440   3441   3442   3443
3444   3445   3446   3447
3448   3449   3450   3451
3452   3453   3454   3455
3456   3457   3458   3459
3460   3461   3462   3463
3464   3465   3466   3467
3468   3469   3470   3471
3472   3473   3474   3475
3476   3477   3478   3479
3480   3481   3482   3483
3484   3485   3486   3487
3488   3489   3490   3491
3492   3493   3494   3495
3496   3497   3498   3499
3500   3501   3502   3503
3504   3505   3506   3507
3508   3509   3510   3511
3512   3513   3514   3515
3516   3517   3518   3519
3520   3521   3522   3523
3524   3525   3526   3527
3528   3529   3530   3531
3532   3533   3534   3535
3536   3537   3538   3539
3540   3541   3542   3543
3544   3545   3546   3547
3548   3549   3550   3551
3552   3553   3554   3555
3556   3557   3558   3559
3560   3561   3562   3563
3564   3565   3566   3567
3568   3569   3570   3571
3572   3573   3574   3575
3576   3577   3578   3579
3580   3581   3582   3583
3584   3585   3586   3587
3588   3589   3590   3591
3592   3593   3594   3595
3596   3597   3598   3599
3600   3601   3602   3603
3604   3605   3606   3607
3608   3609   3610   3611
3612   3613   3614   3615
3616   3617   3618   3619
3620   3621   3622   3623
3624   3625   3626   3627
3628   3629   3630   3631
3632   3633   3634   3635
3636   3637   3638   3639
3640   3641   3642   3643
3644   3645   3646   3647
3648   3649   3650   3651
3652   3653   3654   3655
3656   3657   3658   3659
3660   3661   3662   3663
3664   3665   3666   3667
3668   3669   3670   3671
3672   3673   3674   3675
3676   3677   3678   3679
3680   3681   3682   3683
3684   3685   3686   3687
3688   3689   3690   3691
3692   3693   3694   3695
3696   3697   3698   3699
3700   3701   3702   3703
3704   3705   3706   3707
3708   3709   3710   3711
3712   3713   3714   3715
3716   3717   3718   3719
3720   3721   3722   3723
3724   3725   3726   3727
3728   3729   3730   3731
3732   3733   3734   3735
3736   3737   3738   3739
3740   3741   3742   3743
3744   3745   3746   3747
3748   3749   3750   3751
3752   3753   3754   3755
3756   3757   3758   3759
3760   3761   3762   3763
3764   3765   3766   3767
3768   3769   3770   3771
3772   3773   3774   3775
3776   3777   3778   3779
3780   3781   3782   3783
3784   3785   3786   3787
3788   3789   3790   3791
3792   3793   3794   3795
3796   3797   3798   3799
3800   3801   3802   3803
3804   3805   3806   3807
3808   3809   3810   3811
3812   3813   3814   3815
3816   3817   3818   3819
3820   3821   3822   3823
3824   3825   3826   3827
3828   3829   3830   3831
3832   3833   3834   3835
3836   3837   3838   3839
3840   3841   3842   3843
3844   3845   3846   3847
3848   3849   3850   3851
3852   3853   3854   3855
3856   3857   3858   3859
3860   3861   3862   3863
3864   3865   3866   3867
3868   3869   3870   3871
3872   3873   3874   3875
3876   3877   3878   3879
3880   3881   3882   3883
3884   3885   3886   3887
3888   3889   3890   3891
3892   3893   3894   3895
3896   3897   3898   3899
3900   3901   3902   3903
3904   3905   3906   3907
3908   3909   3910   3911
3912   3913   3914   3915
3916   3917   3918   3919
3920   3921   3922   3923
3924   3925   3926   3927
3928   3929   3930   3931
3932   3933   3934   3935
3936   3937   3938   3939
3940   3941   3942   3943
3944   3945   3946   3947
3948   3949   3950   3951
3952   3953   3954   3955
3956   3957   3958   3959
3960   3961   3962   3963
3964   3965   3966   3967
3968   3969   3970   3971
3972   3973   3974   3975
3976   3977   3978   3979
3980   3981   3982   3983
3984   3985   3986   3987
3988   3989   3990   3991
3992   3993   3994   3995
3996   3997   3998   3999
4000   4001   4002   4003
4004   4005   4006   4007
4008   4009   4010   4011
4012   4013   4014   4015
4016   4017   4018   4019
4020   4021   4022   4023
4024   4025   4026   4027
4028   4029   4030   4031
4032   4033   4034   4035
4036   4037   4038   4039
4040   4041   4042   4043
4044   4045   4046   4047
4048   4049   4050   4051
4052   4053   4054   4055
4056   4057   4058   4059
4060   4061   4062   4063
4064   4065   4066   4067
4068   4069   4070   4071
4072   4073   4074   4075
4076   4077   4078   4079
4080   4081   4082   4083
4084   4085   4086   4087
4088   4089   4090   4091
4092   4093   4094   4095
4096   4097   4098   4099
4100   4101   4102   4103
4104   4105   4106   4107
4108   4109   4110   4111
4112   4113   4114   4115
4116   4117   4118   4119
4120   4121   4122   4123
4124   4125   4126   4127
4128   4129   4130   4131
4132   4133   4134   4135
4136   4137   4138   4139
4140   4141   4142   4143
4144   4145   4146   4147
4148   4149   4150   4151
4152   4153   4154   4155
4156   4157   4158   4159
4160   4161   4162   4163
4164   4165   4166   4167
4168   4169   4170   4171
4172   4173   4174   4175
4176   4177   4178   4179
4180   4181   4182   4183
4184   4185   4186   4187
4188   4189   4190   4191
4192   4193   4194   4195
4196   4197   4198   4199
4200   4201   4202   4203
4204   4205   4206   4207
4208   4209   4210   4211
4212   4213   4214   4215
4216   4217   4218   4219
4220   4221   4222   4223
4224   4225   4226   4227
4228   4229   4230   4231
4232   4233   4234   4235
4236   4237   4238   4239
4240   4241   4242   4243
4244   4245   4246   4247
4248   4249   4250   4251
4252   4253   4254   4255
4256   4257   4258   4259
4260   4261   4262   4263
4264   4265   4266   4267
4268   4269   4270   4271
4272   4273   4274   4275
4276   4277   4278   4279
4280   4281   4282   4283
4284   4285   4286   4287
4288   4289   4290   4291
4292   4293   4294   4295
4296   4297   4298   4299
4300   4301   4302   4303
4304   4305   4306   4307
4308   4309   4310   4311
4312   4313   4314   4315
4316   4317   4318   4319
4320   4321   4322   4323
4324   4325   4326   4327
4328   4329   4330   4331
4332   4333   4334   4335
4336   4337   4338   4339
4340   4341   4342   4343
4344   4345   4346   4347
4348   4349   4350   4351
4352   4353   4354   4355
4356   4357   4358   4359
4360   4361   4362   4363
4364   4365   4366   4367
4368   4369   4370   4371
4372   4373   4374   4375
4376   4377   4378   4379
4380   4381   4382   4383
4384   4385   4386   4387
4388   4389   4390   4391
4392   4393   4394   4395
4396   4397   4398   4399
4400   4401   4402   4403
4404   4405   4406   4407
4408   4409   4410   4411
4412   4413   4414   4415
4416   4417   4418   4419
4420   4421   4422   4423
4424   4425   4426   4427
4428   4429   4430   4431
4432   4433   4434   4435
4436   4437   4438   4439
4440   4441   4442   4443
4444   4445   4446   4447
4448   4449   4450   4451
4452   4453   4454   4455
4456   4457   4458   4459
4460   4461   4462   4463
4464   4465   4466   4467
4468   4469   4470   4471
4472   4473   4474   4475
4476   4477   4478   4479
4480   4481   4482   4483
4484   4485   4486   4487
4488   4489   4490   4491
4492   4493   4494   4495
4496   4497   4498   4499
4500   4501   4502   4503
4504   4505   4506   4507
4508   4509   4510   4511
4512   4513   4514   4515
4516   4517   4518   4519
4520   4521   4522   4523
4524   4525   4526   4527
4528   4529   4530   4531
4532   4533   4534   4535
4536   4537   4538   4539
4540   4541   4542   4543
4544   4545   4546   4547
4548   4549   4550   4551
4552   4553   4554   4555
4556   4557   4558   4559
4560   4561   4562   4563
4564   4565   4566   4567
4568   4569   4570   4571
4572   4573   4574   4575
4576   4577   4578   4579
4580   4581   4582   4583
4584   4585   4586   4587
4588   4589   4590   4591
4592   4593   4594   4595
4596   4597   4598   4599
4600   4601   4602   4603
4604   4605   4606   4607
4608   4609   4610   4611
4612   4613   4614   4615
4616   4617   4618   4619
4620   4621   4622   4623
4624   4625   4626   4627
4628   4629   4630   4631
4632   4633   4634   4635
4636   4637   4638   4639
4640   4641   4642   4643
4644   4645   4646   4647
4648   4649   4650   4651
4652   4653   4654   4655
4656   4657   4658   4659
4660   4661   4662   4663
4664   4665   4666   4667
4668   4669   4670   4671
4672   4673   4674   4675
4676   4677   4678   4679
4680   4681   4682   4683
4684   4685   4686   4687
4688   4689   4690   4691
4692   4693   4694   4695
4696   4697   4698   4699
4700   4701   4702   4703
4704   4705   4706   4707
4708   4709   4710   4711
4712   4713   4714   4715
4716   4717   4718   4719
4720   4721   4722   4723
4724   4725   4726   4727
4728   4729   4730   4731
4732   4733   4734   4735
4736   4737   4738   4739
4740   4741   4742   4743
4744   4745   4746   4747
4748   4749   4750   4751
4752   4753   4754   4755
4756   4757   4758   4759
4760   4761   4762   4763
4764   4765   4766   4767
4768   4769   4770   4771
4772   4773   4774   4775
4776   4777   4778   4779
4780   4781   4782   4783
4784   4785   4786   4787
4788   4789   4790   4791
4792   4793   4794   4795
4796   4797   4798   4799
4800   4801   4802   4803
4804   4805   4806   4807
4808   4809   4810   4811
4812   4813   4814   4815
4816   4817   4818   4819
4820   4821   4822   4823
4824   4825   4826   4827
4828   4829   4830   4831
4832   4833   4834   4835
4836   4837   4838   4839
4840   4841   4842   4843
4844   4845   4846   4847
4848   4849   4850   4851
4852   4853   4854   4855
4856   4857   4858   4859
4860   4861   4862   4863
4864   4865   4866   4867
4868   4869   4870   4871
4872   4873   4874   4875
4876   4877   4878   4879
4880   4881   4882   4883
4884   4885   4886   4887
4888   4889   4890   4891
4892   4893   4894   4895
4896   4897   4898   4899
4900   4901   4902   4903
4904   4905   4906   4907
4908   4909   4910   4911
4912   4913   4914   4915
4916   4917   4918   4919
4920   4921   4922   4923
4924   4925   4926   4927
4928   4929   4930   4931
4932   4933   4934   4935
4936   4937   4938   4939
4940   4941   4942   4943
4944   4945   4946   4947
4948   4949   4950   4951
4952   4953   4954   4955
4956   4957   4958   4959
4960   4961   4962   4963
4964   4965   4966   4967
4968   4969   4970   4971
4972   4973   4974   4975
4976   4977   4978   4979
4980   4981   4982   4983
4984   4985   4986   4987
4988   4989   4990   4991
4992   4993   4994   4995
4996   4997   4998   4999
5000   5001   5002   5003
5004   5005   5006   5007
5008   5009   5010   5011
5012   5013   5014   5015
5016   5017   5018   5019
5020   5021   5022   5023
5024   5025   5026   5027
5028   5029   5030   5031
5032   5033   5034   5035
5036   5037   5038   5039
5040   5041   5042   5043
5044   5045   5046   5047
5048   5049   5050   5051
5052   5053   5054   5055
5056   5057   5058   5059
5060   5061   5062   5063
5064   5065   5066   5067
5068   5069   5070   5071
5072   5073   5074   5075
5076   5077   5078   5079
5080   5081   5082   5083
5084   5085   5086   5087
5088   5089   5090   5091
5092   5093   5094   5095
5096   5097   5098   5099
5100   5101   5102   5103
5104   5105   5106   5107
5108   5109   5110   5111
5112   5113   5114   5115
5116   5117   5118   5119
5120   5121   5122   5123
5124   5125   5126   5127
5128   5129   5130   5131
5132   5133   5134   5135
5136   5137   5138   5139
5140   5141   5142   5143
5144   5145   5146   5147
5148   5149   5150   5151
5152   5153   5154   5155
5156   5157   5158   5159
5160   5161   5162   5163
5164   5165   5166   5167
5168   5169   5170   5171
5172   5173   5174   5175
5176   5177   5178   5179
5180   5181   5182   5183
5184   5185   5186   5187
5188   5189   5190   5191
5192   5193   5194   5195
5196   5197   5198   5199
5200   5201   5202   5203
5204   5205   5206   5207
5208   5209   5210   5211
5212   5213   5214   5215
5216   5217   5218   5219
5220   5221   5222   5223
5224   5225   5226   5227
5228   5229   5230   5231
5232   5233   5234   5235
5236   5237   5238   5239
5240   5241   5242   5243
5244   5245   5246   5247
5248   5249   5250   5251
5252   5253   5254   5255
5256   5257   5258   5259
5260   5261   5262   5263
5264   5265   5266   5267
5268   5269   5270   5271
5272   5273   5274   5275
5276   5277   5278   5279
5280   5281   5282   5283
5284   5285   5286   5287
5288   5289   5290   5291
5292   5293   5294   5295
5296   5297   5298   5299
5300   5301   5302   5303
5304   5305   5306   5307
5308   5309   5310   5311
5312   5313   5314   5315
5316   5317   5318   5319
5320   5321   5322   5323
5324   5325   5326   5327
5328   5329   5330   5331
5332   5333   5334   5335
5336   5337   5338   5339
5340   5341   5342   5343
5344   5345   5346   5347
5348   5349   5350   5351
5352   5353   5354   5355
5356   5357   5358   5359
5360   5361   5362   5363
5364   5365   5366   5367
5368   5369   5370   5371
5372   5373   5374   5375
5376   5377   5378   5379
5380   5381   5382   5383
5384   5385   5386   5387
5388   5389   5390   5391
5392   5393   5394   5395
5396   5397   5398   5399
5400   5401   5402   5403
5404   5405   5406   5407
5408   5409   5410   5411
5412   5413   5414   5415
5416   5417   5418   5419
5420   5421   5422   5423
5424   5425   5426   5427
5428   5429   5430   5431
5432   5433   5434   5435
5436   5437   5438   5439
5440   5441   5442   5443
5444   5445   5446   5447
5448   5449   5450   5451
5452   5453   5454   5455
5456   5457   5458   5459
5460   5461   5462   5463
5464   5465   5466   5467
5468   5469   5470   5471
5472   5473   5474   5475
5476   5477   5478   5479
5480   5481   5482   5483
5484   5485   5486   5487
5488   5489   5490   5491
5492   5493   5494   5495
5496   5497   5498   5499
5500   5501   5502   5503
5504   5505   5506   5507
5508   5509   5510   5511
5512   5513   5514   5515
5516   5517   5518   5519
5520   5521   5522   5523
5524   5525   5526   5527
5528   5529   5530   5531
5532   5533   5534   5535
5536   5537   5538   5539
5540   5541   5542   5543
5544   5545   5546   5547
5548   5549   5550   5551
5552   5553   5554   5555
5556   5557   5558   5559
5560   5561   5562   5563
5564   5565   5566   5567
5568   5569   5570   5571
5572   5573   5574   5575
5576   5577   5578   5579
5580   5581   5582   5583
5584   5585   5586   5587
5588   5589   5590   5591
5592   5593   5594   5595
5596   5597   5598   5599
5600   5601   5602   5603
5604   5605   5606   5607
5608   5609   5610   5611
5612   5613   5614   5615
5616   5617   5618   5619
5620   5621   5622   5623
5624   5625   5626   5627
5628   5629   5630   5631
5632   5633   5634   5635
5636   5637   5638   5639
5640   5641   5642   5643
5644   5645   5646   5647
5648   5649   5650   5651
5652   5653   5654   5655
5656   5657   5658   5659
5660   5661   5662   5663
5664   5665   5666   5667
5668   5669   5670   5671
5672   5673   5674   5675
5676   5677   5678   5679
5680   5681   5682   5683
5684   5685   5686   5687
5688   5689   5690   5691
5692   5693   5694   5695
5696   5697   5698   5699
5700   5701   5702   5703
5704   5705   5706   5707
5708   5709   5710   5711
5712   5713   5714   5715
5716   5717   5718   5719
5720   5721   5722   5723
5724   5725   5726   5727
5728   5729   5730   5731
5732   5733   5734   5735
5736   5737   5738   5739
5740   5741   5742   5743
5744   5745   5746   5747
5748   5749   5750   5751
5752   5753   5754   5755
5756   5757   5758   5759
5760   5761   5762   5763
5764   5765   5766   5767
5768   5769   5770   5771
5772   5773   5774   5775
5776   5777   5778   5779
5780   5781   5782   5783
5784   5785   5786   5787
5788   5789   5790   5791
5792   5793   5794   5795
5796   5797   5798   5799
5800   5801   5802   5803
5804   5805   5806   5807
5808   5809   5810   5811
5812   5813   5814   5815
5816   5817   5818   5819
5820   5821   5822   5823
5824   5825   5826   5827
5828   5829   5830   5831
5832   5833   5834   5835
5836   5837   5838   5839
5840   5841   5842   5843
5844   5845   5846   5847
5848   5849   5850   5851
5852   5853   5854   5855
5856   5857   5858   5859
5860   5861   5862   5863
5864   5865   5866   5867
5868   5869   5870   5871
5872   5873   5874   5875
5876   5877   5878   5879
5880   5881   5882   5883
5884   5885   5886   5887
5888   5889   5890   5891
5892   5893   5894   5895
5896   5897   5898   5899
5900   5901   5902   5903
5904   5905   5906   5907
5908   5909   5910   5911
5912   5913   5914   5915
5916   5917   5918   5919
5920   5921   5922   5923
5924   5925   5926   5927
5928   5929   5930   5931
5932   5933   5934   5935
5936   5937   5938   5939
5940   5941   5942   5943
5944   5945   5946   5947
5948   5949   5950   5951
5952   5953   5954   5955
5956   5957   5958   5959
5960   5961   5962   5963
5964   5965   5966   5967
5968   5969   5970   5971
5972   5973   5974   5975
5976   5977   5978   5979
5980   5981   5982   5983
5984   5985   5986   5987
5988   5989   5990   5991
5992   5993   5994   5995
5996   5997   5998   5999
              </DataArray>   
              <DataArray type="Int32" Name="offsets" format="ascii">   
4
8
12
16
20
24
28
32
36
40
44
48
52
56
60
64
68
72
76
80
84
88
92
96
100
104
108
112
116
120
124
128
132
136
140
144
148
152
156
160
164
168
172
176
180
184
188
192
196
200
204
208
212
216
220
224
228
232
236
240
244
248
252
256
260
264
268
272
276
280
284
288
292
296
300
304
308
312
316
320
324
328
332
336
340
344
348
352
356
360
364
368
372
376
380
384
388
392
396
400
404
408
412
416
420
424
428
432
436
440
444
448
452
456
460
464
468
472
476
480
484
488
492
496
500
504
508
512
516
520
524
528
532
536
540
544
548
552
556
560
564
568
572
576
580
584
588
592
596
600
604
608
612
616
620
624
628
632
636
640
644
648
652
656
660
664
668
672
676
680
684
688
692
696
700
704
708
712
716
720
724
728
732
736
740
744
748
752
756
760
764
768
772
776
780
784
788
792
796
800
804
808
812
816
820
824
828
832
836
840
844
848
852
856
860
864
868
872
876
880
884
888
892
896
900
904
908
912
916
920
924
928
932
936
940
944
948
952
956
960
964
968
972
976
980
984
988
992
996
1000
1004
1008
1012
1016
1020
1024
1028
1032
1036
1040
1044
1048
1052
1056
1060
1064
1068
1072
1076
1080
1084
1088
1092
1096
1100
1104
1108
1112
1116
1120
1124
1128
1132
1136
1140
1144
1148
1152
1156
1160
1164
1168
1172
1176
1180
1184
1188
1192
1196
1200
1204
1208
1212
1216
1220
1224
1228
1232
1236
1240
1244
1248
1252
1256
1260
1264
1268
1272
1276
1280
1284
1288
1292
1296
1300
1304
1308
1312
1316
1320
1324
1328
1332
1336
1340
1344
1348
1352
1356
1360
1364
1368
1372
1376
1380
1384
1388
1392
1396
1400
1404
1408
1412
1416
1420
1424
1428
1432
1436
1440
1444
1448
1452
1456
1460
1464
1468
1472
1476
1480
1484
1488
1492
1496
1500
1504
1508
1512
1516
1520
1524
1528
1532
1536
1540
1544
1548
1552
1556
1560
1564
1568
1572
1576
1580
1584
1588
1592
1596
1600
1604
1608
1612
1616
1620
1624
1628
1632
1636
1640
1644
1648
1652
1656
1660
1664
1668
1672
1676
1680
1684
1688
1692
1696
1700
1704
1708
1712
1716
1720
1724
1728
1732
1736
1740
1744
1748
1752
1756
1760
1764
1768
1772
1776
1780
1784
1788
1792
1796
1800
1804
1808
1812
1816
1820
1824
1828
1832
1836
1840
1844
1848
1852
1856
1860
1864
1868
1872
1876
1880
1884
1888
1892
1896
1900
1904
1908
1912
1916
1920
1924
1928
1932
1936
1940
1944
1948
1952
1956
1960
1964
1968
1972
1976
1980
1984
1988
1992
1996
2000
2004
2008
2012
2016
2020
2024
2028
2032
2036
2040
2044
2048
2052
2056
2060
2064
2068
2072
2076
2080
2084
2088
2092
2096
2100
2104
2108
2112
2116
2120
2124
2128
2132
2136
2140
2144
2148
2152
2156
2160
2164
2168
2172
2176
2180
2184
2188
2192
2196
2200
2204
2208
2212
2216
2220
2224
2228
2232
2236
2240
2244
2248
2252
2256
2260
2264
2268
2272
2276
2280
2284
2288
2292
2296
2300
2304
2308
2312
2316
2320
2324
2328
2332
2336
2340
2344
2348
2352
2356
2360
2364
2368
2372
2376
2380
2384
2388
2392
2396
2400
2404
2408
2412
2416
2420
2424
2428
2432
2436
2440
2444
2448
2452
2456
2460
2464
2468
2472
2476
2480
2484
2488
2492
2496
2500
2504
2508
2512
2516
2520
2524
2528
2532
2536
2540
2544
2548
2552
2556
2560
2564
2568
2572
2576
2580
2584
2588
2592
2596
2600
2604
2608
2612
2616
2620
2624
2628
2632
2636
2640
2644
2648
2652
2656
2660
2664
2668
2672
2676
2680
2684
2688
2692
2696
2700
2704
2708
2712
2716
2720
2724
2728
2732
2736
2740
2744
2748
2752
2756
2760
2764
2768
2772
2776
2780
2784
2788
2792
2796
2800
2804
2808
2812
2816
2820
2824
2828
2832
2836
2840
2844
2848
2852
2856
2860
2864
2868
2872
2876
2880
2884
2888
2892
2896
2900
2904
2908
2912
2916
2920
2924
2928
2932
2936
2940
2944
2948
2952
2956
2960
2964
2968
2972
2976
2980
2984
2988
2992
2996
3000
3004
3008
3012
3016
3020
3024
3028
3032
3036
3040
3044
3048
3052
3056
3060
3064
3068
3072
3076
3080
3084
3088
3092
3096
3100
3104
3108
3112
3116
3120
3124
3128
3132
3136
3140
3144
3148
3152
3156
3160
3164
3168
3172
3176
3180
3184
3188
3192
3196
3200
3204
3208
3212
3216
3220
3224
3228
3232
3236
3240
3244
3248
3252
3256
3260
3264
3268
3272
3276
3280
3284
3288
3292
3296
3300
3304
3308
3312
3316
3320
3324
3328
3332
3336
3340
3344
3348
3352
3356
3360
3364
3368
3372
3376
3380
3384
3388
3392
3396
3400
3404
3408
3412
3416
3420
3424
3428
3432
3436
3440
3444
3448
3452
3456
3460
3464
3468
3472
3476
3480
3484
3488
3492
3496
3500
3504
3508
3512
3516
3520
3524
3528
3532
3536
3540
3544
3548
3552
3556
3560
3564
3568
3572
3576
3580
3584
3588
3592
3596
3600
3604
3608
3612
3616
3620
3624
3628
3632
3636
3640
3644
3648
3652
3656
3660
3664
3668
3672
3676
3680
3684
3688
3692
3696
3700
3704
3708
3712
3716
3720
3724
3728
3732
3736
3740
3744
3748
3752
3756
3760
3764
3768
3772
3776
3780
3784
3788
3792
3796
3800
3804
3808
3812
3816
3820
3824
3828
3832
3836
3840
3844
3848
3852
3856
3860
3864
3868
3872
3876
3880
3884
3888
3892
3896
3900
3904
3908
3912
3916
3920
3924
3928
3932
3936
3940
3944
3948
3952
3956
3960
3964
3968
3972
3976
3980
3984
3988
3992
3996
4000
4004
4008
4012
4016
4020
4024
4028
4032
4036
4040
4044
4048
4052
4056
4060
4064
4068
4072
4076
4080
4084
4088
4092
4096
4100
4104
4108
4112
4116
4120
4124
4128
4132
4136
4140
4144
4148
4152
4156
4160
4164
4168
4172
4176
4180
4184
4188
4192
4196
4200
4204
4208
4212
4216
4220
4224
4228
4232
4236
4240
4244
4248
4252
4256
4260
4264
4268
4272
4276
4280
4284
4288
4292
4296
4300
4304
4308
4312
4316
4320
4324
4328
4332
4336
4340
4344
4348
4352
4356
4360
4364
4368
4372
4376
4380
4384
4388
4392
4396
4400
4404
4408
4412
4416
4420
4424
4428
4432
4436
4440
4444
4448
4452
4456
4460
4464
4468
4472
4476
4480
4484
4488
4492
4496
4500
4504
4508
4512
4516
4520
4524
4528
4532
4536
4540
4544
4548
4552
4556
4560
4564
4568
4572
4576
4580
4584
4588
4592
4596
4600
4604
4608
4612
4616
4620
4624
4628
4632
4636
4640
4644
4648
4652
4656
4660
4664
4668
4672
4676
4680
4684
4688
4692
4696
4700
4704
4708
4712
4716
4720
4724
4728
4732
4736
4740
4744
4748
4752
4756
4760
4764
4768
4772
4776
4780
4784
4788
4792
4796
4800
4804
4808
4812
4816
4820
4824
4828
4832
4836
4840
4844
4848
4852
4856
4860
4864
4868
4872
4876
4880
4884
4888
4892
4896
4900
4904
4908
4912
4916
4920
4924
4928
4932
4936
4940
4944
4948
4952
4956
4960
4964
4968
4972
4976
4980
4984
4988
4992
4996
5000
5004
5008
5012
5016
5020
5024
5028
5032
5036
5040
5044
5048
5052
5056
5060
5064
5068
5072
5076
5080
5084
5088
5092
5096
5100
5104
5108
5112
5116
5120
5124
5128
5132
5136
5140
5144
5148
5152
5156
5160
5164
5168
5172
5176
5180
5184
5188
5192
5196
5200
5204
5208
5212
5216
5220
5224
5228
5232
5236
5240
5244
5248
5252
5256
5260
5264
5268
5272
5276
5280
5284
5288
5292
5296
5300
5304
5308
5312
5316
5320
5324
5328
5332
5336
5340
5344
5348
5352
5356
5360
5364
5368
5372
5376
5380
5384
5388
5392
5396
5400
5404
5408
5412
5416
5420
5424
5428
5432
5436
5440
5444
5448
5452
5456
5460
5464
5468
5472
5476
5480
5484
5488
5492
5496
5500
5504
5508
5512
5516
5520
5524
5528
5532
5536
5540
5544
5548
5552
5556
5560
5564
5568
5572
5576
5580
5584
5588
5592
5596
5600
5604
5608
5612
5616
5620
5624
5628
5632
5636
5640
5644
5648
5652
5656
5660
5664
5668
5672
5676
5680
5684
5688
5692
5696
5700
5704
5708
5712
5716
5720
5724
5728
5732
5736
5740
5744
5748
5752
5756
5760
5764
5768
5772
5776
5780
5784
5788
5792
5796
5800
5804
5808
5812
5816
5820
5824
5828
5832
5836
5840
5844
5848
5852
5856
5860
5864
5868
5872
5876
5880
5884
5888
5892
5896
5900
5904
5908
5912
5916
5920
5924
5928
5932
5936
5940
5944
5948
5952
5956
5960
5964
5968
5972
5976
5980
5984
5988
5992
5996
6000
              </DataArray>   
              <DataArray type="UInt8" Name="types" format="ascii">   
10
10
10
10
10
10
10
10
10
10
10
10
10
10
10
10
10
10
10
10
10
10
10
10
10
10
10
10
10
10
10
10
10
10
10
10
10
10
10
10
10
10
10
10
10
10
10
10
10
10
10
10
10
10
10
10
10
10
10
10
10
10
10
10
10
10
10
10
10
10
10
10
10
10
10
10
10
10
10
10
10
10
10
10
10
10
10
10
10
10
10
10
10
10
10
10
10
10
10
10
10
10
10
10
10
10
10
10
10
10
10
10
10
10
10
10
10
10
10
10
10
10
10
10
10
10
10
10
10
10
10
10
10
10
10
10
10
10
10
10
10
10
10
10
10
10
10
10
10
10
10
10
10
10
10
10
10
10
10
10
10
10
10
10
10
10
10
10
10
10
10
10
10
10
10
10
10
10
10
10
10
10
10
10
10
10
10
10
10
10
10
10
10
10
10
10
10
10
10
10
10
10
10
10
10
10
10
10
10
10
10
10
10
10
10
10
10
10
10
10
10
10
10
10
10
10
10
10
10
10
10
10
10
10
10
10
10
10
10
10
10
10
10
10
10
10
10
10
10
10
10
10
10
10
10
10
10
10
10
10
10
10
10
10
10
10
10
10
10
10
10
10
10
10
10
10
10
10
10
10
10
10
10
10
10
10
10
10
10
10
10
10
10
10
10
10
10
10
10
10
10
10
10
10
10
10
10
10
10
10
10
10
10
10
10
10
10
10
10
10
10
10
10
10
10
10
10
10
10
10
10
10
10
10
10
10
10
10
10
10
10
10
10
10
10
10
10
10
10
10
10
10
10
10
10
10
10
10
10
10
10
10
10
10
10
10
10
10
10
10
10
10
10
10
10
10
10
10
10
10
10
10
10
10
10
10
10
10
10
10
10
10
10
10
10
10
10
10
10
10
10
10
10
10
10
10
10
10
10
10
10
10
10
10
10
10
10
10
10
10
10
10
10
10
10
10
10
10
10
10
10
10
10
10
10
10
10
10
10
10
10
10
10
10
10
10
10
10
10
10
10
10
10
10
10
10
10
10
10
10
10
10
10
10
10
10
10
10
10
10
10
10
10
10
10
10
10
10
10
10
10
10
10
10
10
10
10
10
10
10
10
10
10
10
10
10
10
10
10
10
10
10
10
10
10
10
10
10
10
10
10
10
10
10
10
10
10
10
10
10
10
10
10
10
10
10
10
10
10
10
10
10
10
10
10
10
10
10
10
10
10
10
10
10
10
10
10
10
10
10
10
10
10
10
10
10
10
10
10
10
10
10
10
10
10
10
10
10
10
10
10
10
10
10
10
10
10
10
10
10
10
10
10
10
10
10
10
10
10
10
10
10
10
10
10
10
10
10
10
10
10
10
10
10
10
10
10
10
10
10
10
10
10
10
10
10
10
10
10
10
10
10
10
10
10
10
10
10
10
10
10
10
10
10
10
10
10
10
10
10
10
10
10
10
10
10
10
10
10
10
10
10
10
10
10
10
10
10
10
10
10
10
10
10
10
10
10
10
10
10
10
10
10
10
10
10
10
10
10
10
10
10
10
10
10
10
10
10
10
10
10
10
10
10
10
10
10
10
10
10
10
10
10
10
10
10
10
10
10
10
10
10
10
10
10
10
10
10
10
10
10
10
10
10
10
10
10
10
10
10
10
10
10
10
10
10
10
10
10
10
10
10
10
10
10
10
10
10
10
10
10
10
10
10
10
10
10
10
10
10
10
10
10
10
10
10
10
10
10
10
10
10
10
10
10
10
10
10
10
10
10
10
10
10
10
10
10
10
10
10
10
10
10
10
10
10
10
10
10
10
10
10
10
10
10
10
10
10
10
10
10
10
10
10
10
10
10
10
10
10
10
10
10
10
10
10
10
10
10
10
10
10
10
10
10
10
10
10
10
10
10
10
10
10
10
10
10
10
10
10
10
10
10
10
10
10
10
10
10
10
10
10
10
10
10
10
10
10
10
10
10
10
10
10
10
10
10
10
10
10
10
10
10
10
10
10
10
10
10
10
10
10
10
10
10
10
10
10
10
10
10
10
10
10
10
10
10
10
10
10
10
10
10
10
10
10
10
10
10
10
10
10
10
10
10
10
10
10
10
10
10
10
10
10
10
10
10
10
10
10
10
10
10
10
10
10
10
10
10
10
10
10
10
10
10
10
10
10
10
10
10
10
10
10
10
10
10
10
10
10
10
10
10
10
10
10
10
10
10
10
10
10
10
10
10
10
10
10
10
10
10
10
10
10
10
10
10
10
10
10
10
10
10
10
10
10
10
10
10
10
10
10
10
10
10
10
10
10
10
10
10
10
10
10
10
10
10
10
10
10
10
10
10
10
10
10
10
10
10
10
10
10
10
10
10
10
10
10
10
10
10
10
10
10
10
10
10
10
10
10
10
10
10
10
10
10
10
10
10
10
10
10
10
10
10
10
10
10
10
10
10
10
10
10
10
10
10
10
10
10
10
10
10
10
10
10
10
10
10
10
10
10
10
10
10
10
10
10
10
10
10
10
10
10
10
10
10
10
10
10
10
10
10
10
10
10
10
10
10
10
10
10
10
10
10
10
10
10
10
10
10
10
10
10
10
10
10
10
10
10
10
10
10
10
10
10
10
10
10
10
10
10
10
10
10
10
10
10
10
10
10
10
10
10
10
10
10
10
10
10
10
10
10
10
10
10
10
10
10
10
10
10
10
10
10
10
10
10
10
10
10
10
10
10
10
10
10
10
10
10
10
10
10
10
10
10
10
10
10
10
10
10
10
10
10
10
10
10
10
10
10
10
10
10
10
10
10
10
10
10
10
10
10
10
10
10
10
10
10
10
10
10
10
10
10
10
10
10
10
10
10
10
10
10
10
10
10
10
10
10
10
10
10
10
10
10
10
10
10
10
10
10
10
10
10
10
10
10
10
10
10
10
10
10
10
10
10
10
10
10
10
10
10
10
10
10
10
10
10
10
10
10
10
10
10
10
10
10
10
10
10
10
10
10
10
10
10
10
10
10
10
10
10
10
10
10
10
10
10
10
10
10
10
10
10
10
10
10
10
10
10
10
10
10
10
10
10
10
10
10
10
10
10
10
10
10
10
10
10
10
10
10
10
10
10
10
10
10
10
10
10
10
10
10
10
10
10
10
10
10
10
10
10
10
10
10
10
10
10
10
10
10
10
10
10
10
10
10
10
10
10
10
10
10
10
10
10
10
10
10
10
10
10
10
10
10
10
10
10
10
10
10
10
10
10
10
10
10
10
10
10
10
10
10
10
10
10
10
10
10
10
10
10
10
10
10
10
10
10
10
10
10
10
10
10
10
10
10
10
10
10
10
10
10
10
10
10
10
10
10
10
10
10
10
10
10
10
10
10
10
10
10
10
10
10
10
10
10
10
10
              </DataArray>   
          </Cells>  
          <PointData>  
             <DataArray type="Float64" NumberOfComponents="3" Name="Strains" format="ascii">   
-3.80459484654246e-05   0.0   -2.512614045984843e-05
-3.80459484654246e-05   0.0   -2.512614045984843e-05
-3.80459484654246e-05   0.0   -2.512614045984843e-05
-3.80459484654246e-05   0.0   -2.512614045984843e-05
-2.419389159319482e-05   4.193993296948957e-06   4.770169720371881e-07
-2.419389159319482e-05   4.193993296948957e-06   4.770169720371881e-07
-2.419389159319482e-05   4.193993296948957e-06   4.770169720371881e-07
-2.419389159319482e-05   4.193993296948957e-06   4.770169720371881e-07
-2.3704772803600578e-05   0.0   -2.3734733555817005e-05
-2.3704772803600578e-05   0.0   -2.3734733555817005e-05
-2.3704772803600578e-05   0.0   -2.3734733555817005e-05
-2.3704772803600578e-05   0.0   -2.3734733555817005e-05
-3.9803725816604625e-05   5.042914426638959e-06   7.110614320646766e-08
-3.9803725816604625e-05   5.042914426638959e-06   7.110614320646766e-08
-3.9803725816604625e-05   5.042914426638959e-06   7.110614320646766e-08
-3.9803725816604625e-05   5.042914426638959e-06   7.110614320646766e-08
-3.087536063451253e-05   1.1595057533595211e-06   -1.2479457289646e-05
-3.087536063451253e-05   1.1595057533595211e-06   -1.2479457289646e-05
-3.087536063451253e-05   1.1595057533595211e-06   -1.2479457289646e-05
-3.087536063451253e-05   1.1595057533595211e-06   -1.2479457289646e-05
-3.980372581660469e-05   0.0   -2.6760482211800385e-05
-3.980372581660469e-05   0.0   -2.6760482211800385e-05
-3.980372581660469e-05   0.0   -2.6760482211800385e-05
-3.980372581660469e-05   0.0   -2.6760482211800385e-05
-2.3704772803600578e-05   5.042914426638973e-06   3.096854799189858e-06
-2.3704772803600578e-05   5.042914426638973e-06   3.096854799189858e-06
-2.3704772803600578e-05   5.042914426638973e-06   3.096854799189858e-06
-2.3704772803600578e-05   5.042914426638973e-06   3.096854799189858e-06
-2.3760117061588416e-05   0.0   -2.4312579089180248e-05
-2.3760117061588416e-05   0.0   -2.4312579089180248e-05
-2.3760117061588416e-05   0.0   -2.4312579089180248e-05
-2.3760117061588416e-05   0.0   -2.4312579089180248e-05
-4.103291281029506e-05   5.405421547778712e-06   1.2321608966636997e-06
-4.103291281029506e-05   5.405421547778712e-06   1.2321608966636997e-06
-4.103291281029506e-05   5.405421547778712e-06   1.2321608966636997e-06
-4.103291281029506e-05   5.405421547778712e-06   1.2321608966636997e-06
-3.17819214390965e-05   2.0399192688501134e-06   -1.2166856687976718e-05
-3.17819214390965e-05   2.0399192688501134e-06   -1.2166856687976718e-05
-3.17819214390965e-05   2.0399192688501134e-06   -1.2166856687976718e-05
-3.17819214390965e-05   2.0399192688501134e-06   -1.2166856687976718e-05
-4.103291281029513e-05   0.0   -2.755583201784748e-05
-4.103291281029513e-05   0.0   -2.755583201784748e-05
-4.103291281029513e-05   0.0   -2.755583201784748e-05
-4.103291281029513e-05   0.0   -2.755583201784748e-05
-2.3760117061588375e-05   5.405421547778712e-06   4.47541382533093e-06
-2.3760117061588375e-05   5.405421547778712e-06   4.47541382533093e-06
-2.3760117061588375e-05   5.405421547778712e-06   4.47541382533093e-06
-2.3760117061588375e-05   5.405421547778712e-06   4.47541382533093e-06
-2.373465617000465e-05   0.0   -2.446287694090143e-05
-2.373465617000465e-05   0.0   -2.446287694090143e-05
-2.373465617000465e-05   0.0   -2.446287694090143e-05
-2.373465617000465e-05   0.0   -2.446287694090143e-05
-4.369234006006355e-05   6.166310537511194e-06   5.100143220023462e-06
-4.369234006006355e-05   6.166310537511194e-06   5.100143220023462e-06
-4.369234006006355e-05   6.166310537511194e-06   5.100143220023462e-06
-4.369234006006355e-05   6.166310537511194e-06   5.100143220023462e-06
-3.2383784490149834e-05   2.5774625641217064e-06   -1.1594140612465693e-05
-3.2383784490149834e-05   2.5774625641217064e-06   -1.1594140612465693e-05
-3.2383784490149834e-05   2.5774625641217064e-06   -1.1594140612465693e-05
-3.2383784490149834e-05   2.5774625641217064e-06   -1.1594140612465693e-05
-2.419389159319486e-05   0.0   -2.2609744481679057e-05
-2.419389159319486e-05   0.0   -2.2609744481679057e-05
-2.419389159319486e-05   0.0   -2.2609744481679057e-05
-2.419389159319486e-05   0.0   -2.2609744481679057e-05
-1.1031336526617711e-05   1.5341847438443706e-06   2.4835814225613516e-07
-1.1031336526617711e-05   1.5341847438443706e-06   2.4835814225613516e-07
-1.1031336526617711e-05   1.5341847438443706e-06   2.4835814225613516e-07
-1.1031336526617711e-05   1.5341847438443706e-06   2.4835814225613516e-07
-1.059856785886464e-05   0.0   -2.242010629487778e-05
-1.059856785886464e-05   0.0   -2.242010629487778e-05
-1.059856785886464e-05   0.0   -2.242010629487778e-05
-1.059856785886464e-05   0.0   -2.242010629487778e-05
-2.3704772803600578e-05   2.1910454348986343e-06   -1.8910586479238106e-06
-2.3704772803600578e-05   2.1910454348986343e-06   -1.8910586479238106e-06
-2.3704772803600578e-05   2.1910454348986343e-06   -1.8910586479238106e-06
-2.3704772803600578e-05   2.1910454348986343e-06   -1.8910586479238106e-06
-1.739622972602973e-05   1.5803182233436333e-07   -1.1185488943003243e-05
-1.739622972602973e-05   1.5803182233436333e-07   -1.1185488943003243e-05
-1.739622972602973e-05   1.5803182233436333e-07   -1.1185488943003243e-05
-1.739622972602973e-05   1.5803182233436333e-07   -1.1185488943003243e-05
-2.3704772803600558e-05   0.0   -2.3734733555816984e-05
-2.3704772803600558e-05   0.0   -2.3734733555816984e-05
-2.3704772803600558e-05   0.0   -2.3734733555816984e-05
-2.3704772803600558e-05   0.0   -2.3734733555816984e-05
-1.059856785886464e-05   2.191045434898641e-06   -5.764313869846218e-07
-1.059856785886464e-05   2.191045434898641e-06   -5.764313869846218e-07
-1.059856785886464e-05   2.191045434898641e-06   -5.764313869846218e-07
-1.059856785886464e-05   2.191045434898641e-06   -5.764313869846218e-07
-1.0350807716188842e-05   0.0   -2.2699159367696984e-05
-1.0350807716188842e-05   0.0   -2.2699159367696984e-05
-1.0350807716188842e-05   0.0   -2.2699159367696984e-05
-1.0350807716188842e-05   0.0   -2.2699159367696984e-05
-2.3760117061588416e-05   2.6890328691387064e-06   -1.963730180180989e-06
-2.3760117061588416e-05   2.6890328691387064e-06   -1.963730180180989e-06
-2.3760117061588416e-05   2.6890328691387064e-06   -1.963730180180989e-06
-2.3760117061588416e-05   2.6890328691387064e-06   -1.963730180180989e-06
-1.7027790259894715e-05   8.629784900999835e-07   -1.2088642222247232e-05
-1.7027790259894715e-05   8.629784900999835e-07   -1.2088642222247232e-05
-1.7027790259894715e-05   8.629784900999835e-07   -1.2088642222247232e-05
-1.7027790259894715e-05   8.629784900999835e-07   -1.2088642222247232e-05
-2.3760117061588416e-05   0.0   -2.4312579089180248e-05
-2.3760117061588416e-05   0.0   -2.4312579089180248e-05
-2.3760117061588416e-05   0.0   -2.4312579089180248e-05
-2.3760117061588416e-05   0.0   -2.4312579089180248e-05
-1.035080771618886e-05   2.6890328691387064e-06   -3.503104586977632e-07
-1.035080771618886e-05   2.6890328691387064e-06   -3.503104586977632e-07
-1.035080771618886e-05   2.6890328691387064e-06   -3.503104586977632e-07
-1.035080771618886e-05   2.6890328691387064e-06   -3.503104586977632e-07
-1.0123301742569547e-05   0.0   -2.2583837067844696e-05
-1.0123301742569547e-05   0.0   -2.2583837067844696e-05
-1.0123301742569547e-05   0.0   -2.2583837067844696e-05
-1.0123301742569547e-05   0.0   -2.2583837067844696e-05
-2.3734656170004586e-05   3.131733121761182e-06   -1.777286228509583e-06
-2.3734656170004586e-05   3.131733121761182e-06   -1.777286228509583e-06
-2.3734656170004586e-05   3.131733121761182e-06   -1.777286228509583e-06
-2.3734656170004586e-05   3.131733121761182e-06   -1.777286228509583e-06
-1.6941709402078976e-05   1.4406183511129446e-06   -1.2084195312663413e-05
-1.6941709402078976e-05   1.4406183511129446e-06   -1.2084195312663413e-05
-1.6941709402078976e-05   1.4406183511129446e-06   -1.2084195312663413e-05
-1.6941709402078976e-05   1.4406183511129446e-06   -1.2084195312663413e-05
-1.103133652661773e-05   0.0   -2.168923363537243e-05
-1.103133652661773e-05   0.0   -2.168923363537243e-05
-1.103133652661773e-05   0.0   -2.168923363537243e-05
-1.103133652661773e-05   0.0   -2.168923363537243e-05
1.3949707477906975e-06   -1.9956753938012536e-07   -1.0984620349864388e-06
1.3949707477906975e-06   -1.9956753938012536e-07   -1.0984620349864388e-06
1.3949707477906975e-06   -1.9956753938012536e-07   -1.0984620349864388e-06
1.3949707477906975e-06   -1.9956753938012536e-07   -1.0984620349864388e-06
1.676540596347952e-06   0.0   -2.2186247333194633e-05
1.676540596347952e-06   0.0   -2.2186247333194633e-05
1.676540596347952e-06   0.0   -2.2186247333194633e-05
1.676540596347952e-06   0.0   -2.2186247333194633e-05
-1.059856785886464e-05   3.8976493613851183e-07   -1.9615922028567877e-06
-1.059856785886464e-05   3.8976493613851183e-07   -1.9615922028567877e-06
-1.059856785886464e-05   3.8976493613851183e-07   -1.9615922028567877e-06
-1.059856785886464e-05   3.8976493613851183e-07   -1.9615922028567877e-06
-4.677397965134878e-06   -4.1417808151856606e-07   -1.1347842881812134e-05
-4.677397965134878e-06   -4.1417808151856606e-07   -1.1347842881812134e-05
-4.677397965134878e-06   -4.1417808151856606e-07   -1.1347842881812134e-05
-4.677397965134878e-06   -4.1417808151856606e-07   -1.1347842881812134e-05
-1.059856785886466e-05   0.0   -2.242010629487782e-05
-1.059856785886466e-05   0.0   -2.242010629487782e-05
-1.059856785886466e-05   0.0   -2.242010629487782e-05
-1.059856785886466e-05   0.0   -2.242010629487782e-05
1.6765405963479548e-06   3.8976493613851183e-07   -1.727733241173678e-06
1.6765405963479548e-06   3.8976493613851183e-07   -1.727733241173678e-06
1.6765405963479548e-06   3.8976493613851183e-07   -1.727733241173678e-06
1.6765405963479548e-06   3.8976493613851183e-07   -1.727733241173678e-06
1.9002943516380983e-06   0.0   -2.215362286898261e-05
1.9002943516380983e-06   0.0   -2.215362286898261e-05
1.9002943516380983e-06   0.0   -2.215362286898261e-05
1.9002943516380983e-06   0.0   -2.215362286898261e-05
-1.0350807716188824e-05   9.092274978572844e-07   -2.28065592131875e-06
-1.0350807716188824e-05   9.092274978572844e-07   -2.28065592131875e-06
-1.0350807716188824e-05   9.092274978572844e-07   -2.28065592131875e-06
-1.0350807716188824e-05   9.092274978572844e-07   -2.28065592131875e-06
-4.3491367536132716e-06   2.2206952157930853e-07   -1.1871146073177905e-05
-4.3491367536132716e-06   2.2206952157930853e-07   -1.1871146073177905e-05
-4.3491367536132716e-06   2.2206952157930853e-07   -1.1871146073177905e-05
-4.3491367536132716e-06   2.2206952157930853e-07   -1.1871146073177905e-05
-1.035080771618886e-05   0.0   -2.269915936769702e-05
-1.035080771618886e-05   0.0   -2.269915936769702e-05
-1.035080771618886e-05   0.0   -2.269915936769702e-05
-1.035080771618886e-05   0.0   -2.269915936769702e-05
1.9002943516381015e-06   9.092274978572844e-07   -1.735119422604384e-06
1.9002943516381015e-06   9.092274978572844e-07   -1.735119422604384e-06
1.9002943516381015e-06   9.092274978572844e-07   -1.735119422604384e-06
1.9002943516381015e-06   9.092274978572844e-07   -1.735119422604384e-06
2.197536148058353e-06   0.0   -2.16777090600503e-05
2.197536148058353e-06   0.0   -2.16777090600503e-05
2.197536148058353e-06   0.0   -2.16777090600503e-05
2.197536148058353e-06   0.0   -2.16777090600503e-05
-1.0123301742569539e-05   1.5102133463239625e-06   -2.049107250131526e-06
-1.0123301742569539e-05   1.5102133463239625e-06   -2.049107250131526e-06
-1.0123301742569539e-05   1.5102133463239625e-06   -2.049107250131526e-06
-1.0123301742569539e-05   1.5102133463239625e-06   -2.049107250131526e-06
-4.076635784065245e-06   8.512085897055693e-07   -1.1731480993667638e-05
-4.076635784065245e-06   8.512085897055693e-07   -1.1731480993667638e-05
-4.076635784065245e-06   8.512085897055693e-07   -1.1731480993667638e-05
-4.076635784065245e-06   8.512085897055693e-07   -1.1731480993667638e-05
1.3949707477907e-06   0.0   -2.1808974159000508e-05
1.3949707477907e-06   0.0   -2.1808974159000508e-05
1.3949707477907e-06   0.0   -2.1808974159000508e-05
1.3949707477907e-06   0.0   -2.1808974159000508e-05
1.4893329481920718e-05   -1.7468960589475885e-06   -3.5984723748560025e-07
1.4893329481920718e-05   -1.7468960589475885e-06   -3.5984723748560025e-07
1.4893329481920718e-05   -1.7468960589475885e-06   -3.5984723748560025e-07
1.4893329481920718e-05   -1.7468960589475885e-06   -3.5984723748560025e-07
1.4934040206123463e-05   0.0   -2.2974458247250198e-05
1.4934040206123463e-05   0.0   -2.2974458247250198e-05
1.4934040206123463e-05   0.0   -2.2974458247250198e-05
1.4934040206123463e-05   0.0   -2.2974458247250198e-05
1.6765405963479548e-06   -1.3136848567591456e-06   -9.041465023553827e-08
1.6765405963479548e-06   -1.3136848567591456e-06   -9.041465023553827e-08
1.6765405963479548e-06   -1.3136848567591456e-06   -9.041465023553827e-08
1.6765405963479548e-06   -1.3136848567591456e-06   -9.041465023553827e-08
8.164505476957081e-06   -9.712367402080762e-07   -1.1109158321181377e-05
8.164505476957081e-06   -9.712367402080762e-07   -1.1109158321181377e-05
8.164505476957081e-06   -9.712367402080762e-07   -1.1109158321181377e-05
8.164505476957081e-06   -9.712367402080762e-07   -1.1109158321181377e-05
1.6765405963479578e-06   0.0   -2.218624733319471e-05
1.6765405963479578e-06   0.0   -2.218624733319471e-05
1.6765405963479578e-06   0.0   -2.218624733319471e-05
1.6765405963479578e-06   0.0   -2.218624733319471e-05
1.4934040206123436e-05   -1.3136848567591456e-06   -8.786255642910256e-07
1.4934040206123436e-05   -1.3136848567591456e-06   -8.786255642910256e-07
1.4934040206123436e-05   -1.3136848567591456e-06   -8.786255642910256e-07
1.4934040206123436e-05   -1.3136848567591456e-06   -8.786255642910256e-07
1.4882341193302694e-05   0.0   -2.2646493588350944e-05
1.4882341193302694e-05   0.0   -2.2646493588350944e-05
1.4882341193302694e-05   0.0   -2.2646493588350944e-05
1.4882341193302694e-05   0.0   -2.2646493588350944e-05
1.9002943516381015e-06   -8.21451198947153e-07   -5.168781328750015e-07
1.9002943516381015e-06   -8.21451198947153e-07   -5.168781328750015e-07
1.9002943516381015e-06   -8.21451198947153e-07   -5.168781328750015e-07
1.9002943516381015e-06   -8.21451198947153e-07   -5.168781328750015e-07
8.279440894825326e-06   -3.8353854596352726e-07   -1.1411536629977208e-05
8.279440894825326e-06   -3.8353854596352726e-07   -1.1411536629977208e-05
8.279440894825326e-06   -3.8353854596352726e-07   -1.1411536629977208e-05
8.279440894825326e-06   -3.8353854596352726e-07   -1.1411536629977208e-05
1.9002943516381015e-06   0.0   -2.2153622868982652e-05
1.9002943516381015e-06   0.0   -2.2153622868982652e-05
1.9002943516381015e-06   0.0   -2.2153622868982652e-05
1.9002943516381015e-06   0.0   -2.2153622868982652e-05
1.4882341193302667e-05   -8.21451198947153e-07   -1.0097488522432903e-06
1.4882341193302667e-05   -8.21451198947153e-07   -1.0097488522432903e-06
1.4882341193302667e-05   -8.21451198947153e-07   -1.0097488522432903e-06
1.4882341193302667e-05   -8.21451198947153e-07   -1.0097488522432903e-06
1.5182348856752001e-05   0.0   -2.177415681279696e-05
1.5182348856752001e-05   0.0   -2.177415681279696e-05
1.5182348856752001e-05   0.0   -2.177415681279696e-05
1.5182348856752001e-05   0.0   -2.177415681279696e-05
2.1975361480583567e-06   -1.6074625457769624e-07   -3.6354545560936506e-08
2.1975361480583567e-06   -1.6074625457769624e-07   -3.6354545560936506e-08
2.1975361480583567e-06   -1.6074625457769624e-07   -3.6354545560936506e-08
2.1975361480583567e-06   -1.6074625457769624e-07   -3.6354545560936506e-08
8.541321604195052e-06   3.1622171348807894e-07   -1.0895511086628215e-05
8.541321604195052e-06   3.1622171348807894e-07   -1.0895511086628215e-05
8.541321604195052e-06   3.1622171348807894e-07   -1.0895511086628215e-05
8.541321604195052e-06   3.1622171348807894e-07   -1.0895511086628215e-05
1.489332948192077e-05   0.0   -2.2857111794369062e-05
1.489332948192077e-05   0.0   -2.2857111794369062e-05
1.489332948192077e-05   0.0   -2.2857111794369062e-05
1.489332948192077e-05   0.0   -2.2857111794369062e-05
3.369904635580748e-05   -4.437945085597291e-06   5.822982610750524e-06
3.369904635580748e-05   -4.437945085597291e-06   5.822982610750524e-06
3.369904635580748e-05   -4.437945085597291e-06   5.822982610750524e-06
3.369904635580748e-05   -4.437945085597291e-06   5.822982610750524e-06
3.166732381246625e-05   0.0   -2.5235540413055053e-05
3.166732381246625e-05   0.0   -2.5235540413055053e-05
3.166732381246625e-05   0.0   -2.5235540413055053e-05
3.166732381246625e-05   0.0   -2.5235540413055053e-05
1.4934040206123436e-05   -3.7684702763414167e-06   4.914347763321101e-06
1.4934040206123436e-05   -3.7684702763414167e-06   4.914347763321101e-06
1.4934040206123436e-05   -3.7684702763414167e-06   4.914347763321101e-06
1.4934040206123436e-05   -3.7684702763414167e-06   4.914347763321101e-06
2.328032664719351e-05   -1.9820238489049937e-06   -1.0067997494924149e-05
2.328032664719351e-05   -1.9820238489049937e-06   -1.0067997494924149e-05
2.328032664719351e-05   -1.9820238489049937e-06   -1.0067997494924149e-05
2.328032664719351e-05   -1.9820238489049937e-06   -1.0067997494924149e-05
1.4934040206123449e-05   0.0   -2.2974458247250178e-05
1.4934040206123449e-05   0.0   -2.2974458247250178e-05
1.4934040206123449e-05   0.0   -2.2974458247250178e-05
1.4934040206123449e-05   0.0   -2.2974458247250178e-05
3.166732381246625e-05   -3.7684702763414303e-06   2.653265597516253e-06
3.166732381246625e-05   -3.7684702763414303e-06   2.653265597516253e-06
3.166732381246625e-05   -3.7684702763414303e-06   2.653265597516253e-06
3.166732381246625e-05   -3.7684702763414303e-06   2.653265597516253e-06
3.073595362255122e-05   0.0   -2.471101412605964e-05
3.073595362255122e-05   0.0   -2.471101412605964e-05
3.073595362255122e-05   0.0   -2.471101412605964e-05
3.073595362255122e-05   0.0   -2.471101412605964e-05
1.4882341193302667e-05   -3.4408675628478226e-06   3.7761937937299334e-06
1.4882341193302667e-05   -3.4408675628478226e-06   3.7761937937299334e-06
1.4882341193302667e-05   -3.4408675628478226e-06   3.7761937937299334e-06
1.4882341193302667e-05   -3.4408675628478226e-06   3.7761937937299334e-06
2.2834996914337328e-05   -1.4471298990078692e-06   -1.0674475006298431e-05
2.2834996914337328e-05   -1.4471298990078692e-06   -1.0674475006298431e-05
2.2834996914337328e-05   -1.4471298990078692e-06   -1.0674475006298431e-05
2.2834996914337328e-05   -1.4471298990078692e-06   -1.0674475006298431e-05
1.4882341193302694e-05   0.0   -2.2646493588350944e-05
1.4882341193302694e-05   0.0   -2.2646493588350944e-05
1.4882341193302694e-05   0.0   -2.2646493588350944e-05
1.4882341193302694e-05   0.0   -2.2646493588350944e-05
3.073595362255117e-05   -3.4408675628478226e-06   1.7116732560212364e-06
3.073595362255117e-05   -3.4408675628478226e-06   1.7116732560212364e-06
3.073595362255117e-05   -3.4408675628478226e-06   1.7116732560212364e-06
3.073595362255117e-05   -3.4408675628478226e-06   1.7116732560212364e-06
2.9340835418683555e-05   0.0   -2.3373452197188265e-05
2.9340835418683555e-05   0.0   -2.3373452197188265e-05
2.9340835418683555e-05   0.0   -2.3373452197188265e-05
2.9340835418683555e-05   0.0   -2.3373452197188265e-05
1.518234885675196e-05   -2.665492307318842e-06   1.8233207904223114e-06
1.518234885675196e-05   -2.665492307318842e-06   1.8233207904223114e-06
1.518234885675196e-05   -2.665492307318842e-06   1.8233207904223114e-06
1.518234885675196e-05   -2.665492307318842e-06   1.8233207904223114e-06
2.2111588305993086e-05   -6.057988406977656e-07   -1.096122770495219e-05
2.2111588305993086e-05   -6.057988406977656e-07   -1.096122770495219e-05
2.2111588305993086e-05   -6.057988406977656e-07   -1.096122770495219e-05
2.2111588305993086e-05   -6.057988406977656e-07   -1.096122770495219e-05
-3.289439692176162e-05   4.193993296948946e-06   -2.1687064399753848e-05
-3.289439692176162e-05   4.193993296948946e-06   -2.1687064399753848e-05
-3.289439692176162e-05   4.193993296948946e-06   -2.1687064399753848e-05
-3.289439692176162e-05   4.193993296948946e-06   -2.1687064399753848e-05
-2.1079011729706286e-05   3.7645709132960763e-06   -2.2524091765200097e-06
-2.1079011729706286e-05   3.7645709132960763e-06   -2.2524091765200097e-06
-2.1079011729706286e-05   3.7645709132960763e-06   -2.2524091765200097e-06
-2.1079011729706286e-05   3.7645709132960763e-06   -2.2524091765200097e-06
-2.1603227561005395e-05   5.042914426638953e-06   -1.8223529849104036e-05
-2.1603227561005395e-05   5.042914426638953e-06   -1.8223529849104036e-05
-2.1603227561005395e-05   5.042914426638953e-06   -1.8223529849104036e-05
-2.1603227561005395e-05   5.042914426638953e-06   -1.8223529849104036e-05
-3.323762112828761e-05   4.524724351154361e-06   1.47804014165709e-06
-3.323762112828761e-05   4.524724351154361e-06   1.47804014165709e-06
-3.323762112828761e-05   4.524724351154361e-06   1.47804014165709e-06
-3.323762112828761e-05   4.524724351154361e-06   1.47804014165709e-06
-2.612536417099637e-05   4.3840435695932905e-06   -1.0291312984891748e-05
-2.612536417099637e-05   4.3840435695932905e-06   -1.0291312984891748e-05
-2.612536417099637e-05   4.3840435695932905e-06   -1.0291312984891748e-05
-2.612536417099637e-05   4.3840435695932905e-06   -1.0291312984891748e-05
-3.323762112828762e-05   5.042914426638955e-06   -1.7912615803813284e-05
-3.323762112828762e-05   5.042914426638955e-06   -1.7912615803813284e-05
-3.323762112828762e-05   5.042914426638955e-06   -1.7912615803813284e-05
-3.323762112828762e-05   5.042914426638955e-06   -1.7912615803813284e-05
-2.1603227561005466e-05   4.524724351154374e-06   1.1671260963663985e-06
-2.1603227561005466e-05   4.524724351154374e-06   1.1671260963663985e-06
-2.1603227561005466e-05   4.524724351154374e-06   1.1671260963663985e-06
-2.1603227561005466e-05   4.524724351154374e-06   1.1671260963663985e-06
-2.1706561520420617e-05   5.405421547778706e-06   -1.639118282601431e-05
-2.1706561520420617e-05   5.405421547778706e-06   -1.639118282601431e-05
-2.1706561520420617e-05   5.405421547778706e-06   -1.639118282601431e-05
-2.1706561520420617e-05   5.405421547778706e-06   -1.639118282601431e-05
-3.3460433957575164e-05   4.868049398795081e-06   3.521027858633378e-06
-3.3460433957575164e-05   4.868049398795081e-06   3.521027858633378e-06
-3.3460433957575164e-05   4.868049398795081e-06   3.521027858633378e-06
-3.3460433957575164e-05   4.868049398795081e-06   3.521027858633378e-06
-2.6885169956502862e-05   4.861691669121059e-06   -7.433930838682685e-06
-2.6885169956502862e-05   4.861691669121059e-06   -7.433930838682685e-06
-2.6885169956502862e-05   4.861691669121059e-06   -7.433930838682685e-06
-2.6885169956502862e-05   4.861691669121059e-06   -7.433930838682685e-06
-3.346043395757511e-05   5.405421547778705e-06   -1.6068759536624136e-05
-3.346043395757511e-05   5.405421547778705e-06   -1.6068759536624136e-05
-3.346043395757511e-05   5.405421547778705e-06   -1.6068759536624136e-05
-3.346043395757511e-05   5.405421547778705e-06   -1.6068759536624136e-05
-2.170656152042065e-05   4.868049398795081e-06   3.198604569243157e-06
-2.170656152042065e-05   4.868049398795081e-06   3.198604569243157e-06
-2.170656152042065e-05   4.868049398795081e-06   3.198604569243157e-06
-2.170656152042065e-05   4.868049398795081e-06   3.198604569243157e-06
-2.1576063915253334e-05   6.166310537511187e-06   -1.2133120622789223e-05
-2.1576063915253334e-05   6.166310537511187e-06   -1.2133120622789223e-05
-2.1576063915253334e-05   6.166310537511187e-06   -1.2133120622789223e-05
-2.1576063915253334e-05   6.166310537511187e-06   -1.2133120622789223e-05
-3.2516370089248986e-05   5.144477269567309e-06   6.713822961303096e-06
-3.2516370089248986e-05   5.144477269567309e-06   6.713822961303096e-06
-3.2516370089248986e-05   5.144477269567309e-06   6.713822961303096e-06
-3.2516370089248986e-05   5.144477269567309e-06   6.713822961303096e-06
-2.6175804865738137e-05   5.3365538300736845e-06   -3.969031680852144e-06
-2.6175804865738137e-05   5.3365538300736845e-06   -3.969031680852144e-06
-2.6175804865738137e-05   5.3365538300736845e-06   -3.969031680852144e-06
-2.6175804865738137e-05   5.3365538300736845e-06   -3.969031680852144e-06
-2.1079011729706286e-05   1.5341847438443736e-06   -2.3093887506033255e-05
-2.1079011729706286e-05   1.5341847438443736e-06   -2.3093887506033255e-05
-2.1079011729706286e-05   1.5341847438443736e-06   -2.3093887506033255e-05
-2.1079011729706286e-05   1.5341847438443736e-06   -2.3093887506033255e-05
-1.000702425499076e-05   1.7519329842283308e-06   -4.509926103943636e-06
-1.000702425499076e-05   1.7519329842283308e-06   -4.509926103943636e-06
-1.000702425499076e-05   1.7519329842283308e-06   -4.509926103943636e-06
-1.000702425499076e-05   1.7519329842283308e-06   -4.509926103943636e-06
-1.023956965639138e-05   2.191045434898641e-06   -2.3055594594608185e-05
-1.023956965639138e-05   2.191045434898641e-06   -2.3055594594608185e-05
-1.023956965639138e-05   2.191045434898641e-06   -2.3055594594608185e-05
-1.023956965639138e-05   2.191045434898641e-06   -2.3055594594608185e-05
-2.1603227561005395e-05   2.4507932709145515e-06   -4.272013455194291e-06
-2.1603227561005395e-05   2.4507932709145515e-06   -4.272013455194291e-06
-2.1603227561005395e-05   2.4507932709145515e-06   -4.272013455194291e-06
-2.1603227561005395e-05   2.4507932709145515e-06   -4.272013455194291e-06
-1.5687465753969457e-05   1.9727899070052303e-06   -1.3844814448575332e-05
-1.5687465753969457e-05   1.9727899070052303e-06   -1.3844814448575332e-05
-1.5687465753969457e-05   1.9727899070052303e-06   -1.3844814448575332e-05
-1.5687465753969457e-05   1.9727899070052303e-06   -1.3844814448575332e-05
-2.1603227561005375e-05   2.191045434898636e-06   -2.3211443296217658e-05
-2.1603227561005375e-05   2.191045434898636e-06   -2.3211443296217658e-05
-2.1603227561005375e-05   2.191045434898636e-06   -2.3211443296217658e-05
-2.1603227561005375e-05   2.191045434898636e-06   -2.3211443296217658e-05
-1.0239569656391363e-05   2.450793270914565e-06   -4.116164753584694e-06
-1.0239569656391363e-05   2.450793270914565e-06   -4.116164753584694e-06
-1.0239569656391363e-05   2.450793270914565e-06   -4.116164753584694e-06
-1.0239569656391363e-05   2.450793270914565e-06   -4.116164753584694e-06
-1.0307791239138833e-05   2.6890328691386996e-06   -2.2625722759451607e-05
-1.0307791239138833e-05   2.6890328691386996e-06   -2.2625722759451607e-05
-1.0307791239138833e-05   2.6890328691386996e-06   -2.2625722759451607e-05
-1.0307791239138833e-05   2.6890328691386996e-06   -2.2625722759451607e-05
-2.1706561520420614e-05   3.0300396559297882e-06   -3.832376362723213e-06
-2.1706561520420614e-05   3.0300396559297882e-06   -3.832376362723213e-06
-2.1706561520420614e-05   3.0300396559297882e-06   -3.832376362723213e-06
-2.1706561520420614e-05   3.0300396559297882e-06   -3.832376362723213e-06
-1.5803957199740305e-05   2.5071612650687307e-06   -1.33563231960071e-05
-1.5803957199740305e-05   2.5071612650687307e-06   -1.33563231960071e-05
-1.5803957199740305e-05   2.5071612650687307e-06   -1.33563231960071e-05
-1.5803957199740305e-05   2.5071612650687307e-06   -1.33563231960071e-05
-2.1706561520420617e-05   2.689032869138697e-06   -2.283032683152622e-05
-2.1706561520420617e-05   2.689032869138697e-06   -2.283032683152622e-05
-2.1706561520420617e-05   2.689032869138697e-06   -2.283032683152622e-05
-2.1706561520420617e-05   2.689032869138697e-06   -2.283032683152622e-05
-1.0307791239138853e-05   3.0300396559297882e-06   -3.62777229064861e-06
-1.0307791239138853e-05   3.0300396559297882e-06   -3.62777229064861e-06
-1.0307791239138853e-05   3.0300396559297882e-06   -3.62777229064861e-06
-1.0307791239138853e-05   3.0300396559297882e-06   -3.62777229064861e-06
-1.027610438210806e-05   3.131733121761189e-06   -2.2397011643902174e-05
-1.027610438210806e-05   3.131733121761189e-06   -2.2397011643902174e-05
-1.027610438210806e-05   3.131733121761189e-06   -2.2397011643902174e-05
-1.027610438210806e-05   3.131733121761189e-06   -2.2397011643902174e-05
-2.1576063915253317e-05   3.6539410383058736e-06   -3.877070505253508e-06
-2.1576063915253317e-05   3.6539410383058736e-06   -3.877070505253508e-06
-2.1576063915253317e-05   3.6539410383058736e-06   -3.877070505253508e-06
-2.1576063915253317e-05   3.6539410383058736e-06   -3.877070505253508e-06
-1.5890310410246578e-05   2.990860815642844e-06   -1.2955478213333652e-05
-1.5890310410246578e-05   2.990860815642844e-06   -1.2955478213333652e-05
-1.5890310410246578e-05   2.990860815642844e-06   -1.2955478213333652e-05
-1.5890310410246578e-05   2.990860815642844e-06   -1.2955478213333652e-05
-1.000702425499074e-05   -1.995675393801261e-07   -2.4190318215417386e-05
-1.000702425499074e-05   -1.995675393801261e-07   -2.4190318215417386e-05
-1.000702425499074e-05   -1.995675393801261e-07   -2.4190318215417386e-05
-1.000702425499074e-05   -1.995675393801261e-07   -2.4190318215417386e-05
9.24177177889206e-07   -5.4033245923209195e-08   -5.884328584543312e-06
9.24177177889206e-07   -5.4033245923209195e-08   -5.884328584543312e-06
9.24177177889206e-07   -5.4033245923209195e-08   -5.884328584543312e-06
9.24177177889206e-07   -5.4033245923209195e-08   -5.884328584543312e-06
8.854545084455931e-07   3.897649361385186e-07   -2.4320481189545347e-05
8.854545084455931e-07   3.897649361385186e-07   -2.4320481189545347e-05
8.854545084455931e-07   3.897649361385186e-07   -2.4320481189545347e-05
8.854545084455931e-07   3.897649361385186e-07   -2.4320481189545347e-05
-1.0239569656391363e-05   5.902219710301045e-07   -5.899048469085366e-06
-1.0239569656391363e-05   5.902219710301045e-07   -5.899048469085366e-06
-1.0239569656391363e-05   5.902219710301045e-07   -5.899048469085366e-06
-1.0239569656391363e-05   5.902219710301045e-07   -5.899048469085366e-06
-4.636384282870479e-06   1.9662791326673394e-07   -1.5001534323628822e-05
-4.636384282870479e-06   1.9662791326673394e-07   -1.5001534323628822e-05
-4.636384282870479e-06   1.9662791326673394e-07   -1.5001534323628822e-05
-4.636384282870479e-06   1.9662791326673394e-07   -1.5001534323628822e-05
-1.0239569656391363e-05   3.8976493613851607e-07   -2.4440755410480303e-05
-1.0239569656391363e-05   3.8976493613851607e-07   -2.4440755410480303e-05
-1.0239569656391363e-05   3.8976493613851607e-07   -2.4440755410480303e-05
-1.0239569656391363e-05   3.8976493613851607e-07   -2.4440755410480303e-05
8.85454508445595e-07   5.902219710301045e-07   -5.778774248150379e-06
8.85454508445595e-07   5.902219710301045e-07   -5.778774248150379e-06
8.85454508445595e-07   5.902219710301045e-07   -5.778774248150379e-06
8.85454508445595e-07   5.902219710301045e-07   -5.778774248150379e-06
8.310446671937155e-07   9.092274978572844e-07   -2.4369642994648035e-05
8.310446671937155e-07   9.092274978572844e-07   -2.4369642994648035e-05
8.310446671937155e-07   9.092274978572844e-07   -2.4369642994648035e-05
8.310446671937155e-07   9.092274978572844e-07   -2.4369642994648035e-05
-1.0307791239138818e-05   1.219936210231494e-06   -5.991341711518325e-06
-1.0307791239138818e-05   1.219936210231494e-06   -5.991341711518325e-06
-1.0307791239138818e-05   1.219936210231494e-06   -5.991341711518325e-06
-1.0307791239138818e-05   1.219936210231494e-06   -5.991341711518325e-06
-4.71626568829166e-06   7.420987682271182e-07   -1.5023848497727645e-05
-4.71626568829166e-06   7.420987682271182e-07   -1.5023848497727645e-05
-4.71626568829166e-06   7.420987682271182e-07   -1.5023848497727645e-05
-4.71626568829166e-06   7.420987682271182e-07   -1.5023848497727645e-05
-1.0307791239138818e-05   9.092274978572827e-07   -2.4556068222072563e-05
-1.0307791239138818e-05   9.092274978572827e-07   -2.4556068222072563e-05
-1.0307791239138818e-05   9.092274978572827e-07   -2.4556068222072563e-05
-1.0307791239138818e-05   9.092274978572827e-07   -2.4556068222072563e-05
8.310446671937155e-07   1.2199362102315075e-06   -5.804916484093827e-06
8.310446671937155e-07   1.2199362102315075e-06   -5.804916484093827e-06
8.310446671937155e-07   1.2199362102315075e-06   -5.804916484093827e-06
8.310446671937155e-07   1.2199362102315075e-06   -5.804916484093827e-06
7.140887859669342e-07   1.5102133463239557e-06   -2.4328540785475118e-05
7.140887859669342e-07   1.5102133463239557e-06   -2.4328540785475118e-05
7.140887859669342e-07   1.5102133463239557e-06   -2.4328540785475118e-05
7.140887859669342e-07   1.5102133463239557e-06   -2.4328540785475118e-05
-1.027610438210805e-05   1.8757662681667892e-06   -6.230883925122529e-06
-1.027610438210805e-05   1.8757662681667892e-06   -6.230883925122529e-06
-1.027610438210805e-05   1.8757662681667892e-06   -6.230883925122529e-06
-1.027610438210805e-05   1.8757662681667892e-06   -6.230883925122529e-06
-4.7619833151854655e-06   1.3024713098093855e-06   -1.5077108728312378e-05
-4.7619833151854655e-06   1.3024713098093855e-06   -1.5077108728312378e-05
-4.7619833151854655e-06   1.3024713098093855e-06   -1.5077108728312378e-05
-4.7619833151854655e-06   1.3024713098093855e-06   -1.5077108728312378e-05
9.24177177889206e-07   -1.7468960589475866e-06   -2.231624520647384e-05
9.24177177889206e-07   -1.7468960589475866e-06   -2.231624520647384e-05
9.24177177889206e-07   -1.7468960589475866e-06   -2.231624520647384e-05
9.24177177889206e-07   -1.7468960589475866e-06   -2.231624520647384e-05
1.2188634722007754e-05   -1.7954209816976413e-06   -3.571264253259611e-06
1.2188634722007754e-05   -1.7954209816976413e-06   -3.571264253259611e-06
1.2188634722007754e-05   -1.7954209816976413e-06   -3.571264253259611e-06
1.2188634722007754e-05   -1.7954209816976413e-06   -3.571264253259611e-06
1.2296100375159568e-05   -1.3136848567591456e-06   -2.2620204912605517e-05
1.2296100375159568e-05   -1.3136848567591456e-06   -2.2620204912605517e-05
1.2296100375159568e-05   -1.3136848567591456e-06   -2.2620204912605517e-05
1.2296100375159568e-05   -1.3136848567591456e-06   -2.2620204912605517e-05
8.854545084455949e-07   -1.2087553800896615e-06   -3.6654194874172304e-06
8.854545084455949e-07   -1.2087553800896615e-06   -3.6654194874172304e-06
8.854545084455949e-07   -1.2087553800896615e-06   -3.6654194874172304e-06
8.854545084455949e-07   -1.2087553800896615e-06   -3.6654194874172304e-06
6.4897092143471044e-06   -1.4490636513595255e-06   -1.2861659034491174e-05
6.4897092143471044e-06   -1.4490636513595255e-06   -1.2861659034491174e-05
6.4897092143471044e-06   -1.4490636513595255e-06   -1.2861659034491174e-05
6.4897092143471044e-06   -1.4490636513595255e-06   -1.2861659034491174e-05
8.854545084455931e-07   -1.3136848567591454e-06   -2.268316259860721e-05
8.854545084455931e-07   -1.3136848567591454e-06   -2.268316259860721e-05
8.854545084455931e-07   -1.3136848567591454e-06   -2.268316259860721e-05
8.854545084455931e-07   -1.3136848567591454e-06   -2.268316259860721e-05
1.2296100375159568e-05   -1.2087553800896615e-06   -3.602461801415505e-06
1.2296100375159568e-05   -1.2087553800896615e-06   -3.602461801415505e-06
1.2296100375159568e-05   -1.2087553800896615e-06   -3.602461801415505e-06
1.2296100375159568e-05   -1.2087553800896615e-06   -3.602461801415505e-06
1.2243249703306719e-05   -8.214511989471598e-07   -2.303946961136172e-05
1.2243249703306719e-05   -8.214511989471598e-07   -2.303946961136172e-05
1.2243249703306719e-05   -8.214511989471598e-07   -2.303946961136172e-05
1.2243249703306719e-05   -8.214511989471598e-07   -2.303946961136172e-05
8.310446671937153e-07   -6.348977096855399e-07   -4.13105997806366e-06
8.310446671937153e-07   -6.348977096855399e-07   -4.13105997806366e-06
8.310446671937153e-07   -6.348977096855399e-07   -4.13105997806366e-06
8.310446671937153e-07   -6.348977096855399e-07   -4.13105997806366e-06
6.4266257218207004e-06   -9.819172494389292e-07   -1.3248816678589939e-05
6.4266257218207004e-06   -9.819172494389292e-07   -1.3248816678589939e-05
6.4266257218207004e-06   -9.819172494389292e-07   -1.3248816678589939e-05
6.4266257218207004e-06   -9.819172494389292e-07   -1.3248816678589939e-05
8.310446671937155e-07   -8.214511989471535e-07   -2.3151401704918643e-05
8.310446671937155e-07   -8.214511989471535e-07   -2.3151401704918643e-05
8.310446671937155e-07   -8.214511989471535e-07   -2.3151401704918643e-05
8.310446671937155e-07   -8.214511989471535e-07   -2.3151401704918643e-05
1.2243249703306719e-05   -6.348977096855534e-07   -4.019127884506739e-06
1.2243249703306719e-05   -6.348977096855534e-07   -4.019127884506739e-06
1.2243249703306719e-05   -6.348977096855534e-07   -4.019127884506739e-06
1.2243249703306719e-05   -6.348977096855534e-07   -4.019127884506739e-06
1.189104730306173e-05   -1.6074625457769624e-07   -2.3081139247931712e-05
1.189104730306173e-05   -1.6074625457769624e-07   -2.3081139247931712e-05
1.189104730306173e-05   -1.6074625457769624e-07   -2.3081139247931712e-05
1.189104730306173e-05   -1.6074625457769624e-07   -2.3081139247931712e-05
7.140887859669342e-07   7.388181336760323e-08   -4.593651893540927e-06
7.140887859669342e-07   7.388181336760323e-08   -4.593651893540927e-06
7.140887859669342e-07   7.388181336760323e-08   -4.593651893540927e-06
7.140887859669342e-07   7.388181336760323e-08   -4.593651893540927e-06
6.362428918642258e-06   -4.3638816125810736e-07   -1.370139012989102e-05
6.362428918642258e-06   -4.3638816125810736e-07   -1.370139012989102e-05
6.362428918642258e-06   -4.3638816125810736e-07   -1.370139012989102e-05
6.362428918642258e-06   -4.3638816125810736e-07   -1.370139012989102e-05
1.2188634722007754e-05   -4.437945085597276e-06   -1.3499763260529392e-05
1.2188634722007754e-05   -4.437945085597276e-06   -1.3499763260529392e-05
1.2188634722007754e-05   -4.437945085597276e-06   -1.3499763260529392e-05
1.2188634722007754e-05   -4.437945085597276e-06   -1.3499763260529392e-05
2.3292190497197403e-05   -3.33096575997649e-06   5.6703506268258235e-06
2.3292190497197403e-05   -3.33096575997649e-06   5.6703506268258235e-06
2.3292190497197403e-05   -3.33096575997649e-06   5.6703506268258235e-06
2.3292190497197403e-05   -3.33096575997649e-06   5.6703506268258235e-06
2.419596395026768e-05   -3.7684702763414235e-06   -1.6375612454602202e-05
2.419596395026768e-05   -3.7684702763414235e-06   -1.6375612454602202e-05
2.419596395026768e-05   -3.7684702763414235e-06   -1.6375612454602202e-05
2.419596395026768e-05   -3.7684702763414235e-06   -1.6375612454602202e-05
1.229610037515959e-05   -3.015771725689399e-06   3.005874373520076e-06
1.229610037515959e-05   -3.015771725689399e-06   3.005874373520076e-06
1.229610037515959e-05   -3.015771725689399e-06   3.005874373520076e-06
1.229610037515959e-05   -3.015771725689399e-06   3.005874373520076e-06
1.7156082702365738e-05   -3.621369137774477e-06   -4.730737724572461e-06
1.7156082702365738e-05   -3.621369137774477e-06   -4.730737724572461e-06
1.7156082702365738e-05   -3.621369137774477e-06   -4.730737724572461e-06
1.7156082702365738e-05   -3.621369137774477e-06   -4.730737724572461e-06
1.2296100375159557e-05   -3.7684702763414167e-06   -1.6827231584993363e-05
1.2296100375159557e-05   -3.7684702763414167e-06   -1.6827231584993363e-05
1.2296100375159557e-05   -3.7684702763414167e-06   -1.6827231584993363e-05
1.2296100375159557e-05   -3.7684702763414167e-06   -1.6827231584993363e-05
2.4195963950267638e-05   -3.015771725689399e-06   3.4574935039113246e-06
2.4195963950267638e-05   -3.015771725689399e-06   3.4574935039113246e-06
2.4195963950267638e-05   -3.015771725689399e-06   3.4574935039113246e-06
2.4195963950267638e-05   -3.015771725689399e-06   3.4574935039113246e-06
2.4116616214785386e-05   -3.4408675628478226e-06   -1.7800425171242857e-05
2.4116616214785386e-05   -3.4408675628478226e-06   -1.7800425171242857e-05
2.4116616214785386e-05   -3.4408675628478226e-06   -1.7800425171242857e-05
2.4116616214785386e-05   -3.4408675628478226e-06   -1.7800425171242857e-05
1.224324970330672e-05   -2.685697905938477e-06   1.5354172204093625e-06
1.224324970330672e-05   -2.685697905938477e-06   1.5354172204093625e-06
1.224324970330672e-05   -2.685697905938477e-06   1.5354172204093625e-06
1.224324970330672e-05   -2.685697905938477e-06   1.5354172204093625e-06
1.7766522706425356e-05   -3.193898051060472e-06   -7.365117697715182e-06
1.7766522706425356e-05   -3.193898051060472e-06   -7.365117697715182e-06
1.7766522706425356e-05   -3.193898051060472e-06   -7.365117697715182e-06
1.7766522706425356e-05   -3.193898051060472e-06   -7.365117697715182e-06
1.2243249703306697e-05   -3.4408675628478197e-06   -1.8253526965388466e-05
1.2243249703306697e-05   -3.4408675628478197e-06   -1.8253526965388466e-05
1.2243249703306697e-05   -3.4408675628478197e-06   -1.8253526965388466e-05
1.2243249703306697e-05   -3.4408675628478197e-06   -1.8253526965388466e-05
2.4116616214785386e-05   -2.685697905938477e-06   1.988519014554921e-06
2.4116616214785386e-05   -2.685697905938477e-06   1.988519014554921e-06
2.4116616214785386e-05   -2.685697905938477e-06   1.988519014554921e-06
2.4116616214785386e-05   -2.685697905938477e-06   1.988519014554921e-06
2.3983801731724765e-05   -2.6654923073188354e-06   -2.0711287621505635e-05
2.3983801731724765e-05   -2.6654923073188354e-06   -2.0711287621505635e-05
2.3983801731724765e-05   -2.6654923073188354e-06   -2.0711287621505635e-05
2.3983801731724765e-05   -2.6654923073188354e-06   -2.0711287621505635e-05
1.1891047303061738e-05   -1.975944744491792e-06   -9.704254447634499e-07
1.1891047303061738e-05   -1.975944744491792e-06   -9.704254447634499e-07
1.1891047303061738e-05   -1.975944744491792e-06   -9.704254447634499e-07
1.1891047303061738e-05   -1.975944744491792e-06   -9.704254447634499e-07
1.726596278385729e-05   -2.7469723327962865e-06   -9.466001359773324e-06
1.726596278385729e-05   -2.7469723327962865e-06   -9.466001359773324e-06
1.726596278385729e-05   -2.7469723327962865e-06   -9.466001359773324e-06
1.726596278385729e-05   -2.7469723327962865e-06   -9.466001359773324e-06
-2.610805420939381e-05   3.7645709132960797e-06   -1.8092068795357027e-05
-2.610805420939381e-05   3.7645709132960797e-06   -1.8092068795357027e-05
-2.610805420939381e-05   3.7645709132960797e-06   -1.8092068795357027e-05
-2.610805420939381e-05   3.7645709132960797e-06   -1.8092068795357027e-05
-1.7139233360422972e-05   2.8682404880483396e-06   -3.681832302220939e-06
-1.7139233360422972e-05   2.8682404880483396e-06   -3.681832302220939e-06
-1.7139233360422972e-05   2.8682404880483396e-06   -3.681832302220939e-06
-1.7139233360422972e-05   2.8682404880483396e-06   -3.681832302220939e-06
-1.721847344051836e-05   4.524724351154361e-06   -1.502616487925409e-05
-1.721847344051836e-05   4.524724351154361e-06   -1.502616487925409e-05
-1.721847344051836e-05   4.524724351154361e-06   -1.502616487925409e-05
-1.721847344051836e-05   4.524724351154361e-06   -1.502616487925409e-05
-2.57018601598145e-05   3.4742287647014376e-06   -2.568896618887473e-07
-2.57018601598145e-05   3.4742287647014376e-06   -2.568896618887473e-07
-2.57018601598145e-05   3.4742287647014376e-06   -2.568896618887473e-07
-2.57018601598145e-05   3.4742287647014376e-06   -2.568896618887473e-07
-2.0630311566955498e-05   3.8302557345315015e-06   -8.92308683188521e-06
-2.0630311566955498e-05   3.8302557345315015e-06   -8.92308683188521e-06
-2.0630311566955498e-05   3.8302557345315015e-06   -8.92308683188521e-06
-2.0630311566955498e-05   3.8302557345315015e-06   -8.92308683188521e-06
-2.57018601598145e-05   4.524724351154363e-06   -1.4395867527382329e-05
-2.57018601598145e-05   4.524724351154363e-06   -1.4395867527382329e-05
-2.57018601598145e-05   4.524724351154363e-06   -1.4395867527382329e-05
-2.57018601598145e-05   4.524724351154363e-06   -1.4395867527382329e-05
-1.721847344051836e-05   3.4742287647014376e-06   -8.871870137605161e-07
-1.721847344051836e-05   3.4742287647014376e-06   -8.871870137605161e-07
-1.721847344051836e-05   3.4742287647014376e-06   -8.871870137605161e-07
-1.721847344051836e-05   3.4742287647014376e-06   -8.871870137605161e-07
-1.7197180995348407e-05   4.868049398795081e-06   -1.2858216686844769e-05
-1.7197180995348407e-05   4.868049398795081e-06   -1.2858216686844769e-05
-1.7197180995348407e-05   4.868049398795081e-06   -1.2858216686844769e-05
-1.7197180995348407e-05   4.868049398795081e-06   -1.2858216686844769e-05
-2.5307961588694694e-05   3.7412563237467368e-06   1.3358268137614044e-06
-2.5307961588694694e-05   3.7412563237467368e-06   1.3358268137614044e-06
-2.5307961588694694e-05   3.7412563237467368e-06   1.3358268137614044e-06
-2.5307961588694694e-05   3.7412563237467368e-06   1.3358268137614044e-06
-2.080285977479402e-05   4.181482567679819e-06   -6.436811955766244e-06
-2.080285977479402e-05   4.181482567679819e-06   -6.436811955766244e-06
-2.080285977479402e-05   4.181482567679819e-06   -6.436811955766244e-06
-2.080285977479402e-05   4.181482567679819e-06   -6.436811955766244e-06
-2.530796158869469e-05   4.868049398795081e-06   -1.2182140841815762e-05
-2.530796158869469e-05   4.868049398795081e-06   -1.2182140841815762e-05
-2.530796158869469e-05   4.868049398795081e-06   -1.2182140841815762e-05
-2.530796158869469e-05   4.868049398795081e-06   -1.2182140841815762e-05
-1.7197180995348434e-05   3.7412563237467368e-06   6.597509687325065e-07
-1.7197180995348434e-05   3.7412563237467368e-06   6.597509687325065e-07
-1.7197180995348434e-05   3.7412563237467368e-06   6.597509687325065e-07
-1.7197180995348434e-05   3.7412563237467368e-06   6.597509687325065e-07
-1.7211867293748356e-05   5.144477269567309e-06   -9.828770158067096e-06
-1.7211867293748356e-05   5.144477269567309e-06   -9.828770158067096e-06
-1.7211867293748356e-05   5.144477269567309e-06   -9.828770158067096e-06
-1.7211867293748356e-05   5.144477269567309e-06   -9.828770158067096e-06
-2.4796485068850715e-05   4.006662203705257e-06   3.4949485066206488e-06
-2.4796485068850715e-05   4.006662203705257e-06   3.4949485066206488e-06
-2.4796485068850715e-05   4.006662203705257e-06   3.4949485066206488e-06
-2.4796485068850715e-05   4.006662203705257e-06   3.4949485066206488e-06
-2.0324253502124847e-05   4.368347406481115e-06   -4.175781892921008e-06
-2.0324253502124847e-05   4.368347406481115e-06   -4.175781892921008e-06
-2.0324253502124847e-05   4.368347406481115e-06   -4.175781892921008e-06
-2.0324253502124847e-05   4.368347406481115e-06   -4.175781892921008e-06
-1.7139233360422972e-05   1.751932984228327e-06   -2.101803292215969e-05
-1.7139233360422972e-05   1.751932984228327e-06   -2.101803292215969e-05
-1.7139233360422972e-05   1.751932984228327e-06   -2.101803292215969e-05
-1.7139233360422972e-05   1.751932984228327e-06   -2.101803292215969e-05
-8.748273147818676e-06   1.433320855092398e-06   -7.224266511967406e-06
-8.748273147818676e-06   1.433320855092398e-06   -7.224266511967406e-06
-8.748273147818676e-06   1.433320855092398e-06   -7.224266511967406e-06
-8.748273147818676e-06   1.433320855092398e-06   -7.224266511967406e-06
-8.851563345373368e-06   2.450793270914565e-06   -2.0717797215548227e-05
-8.851563345373368e-06   2.450793270914565e-06   -2.0717797215548227e-05
-8.851563345373368e-06   2.450793270914565e-06   -2.0717797215548227e-05
-8.851563345373368e-06   2.450793270914565e-06   -2.0717797215548227e-05
-1.721847344051836e-05   2.0299719630253814e-06   -6.520454272239724e-06
-1.721847344051836e-05   2.0299719630253814e-06   -6.520454272239724e-06
-1.721847344051836e-05   2.0299719630253814e-06   -6.520454272239724e-06
-1.721847344051836e-05   2.0299719630253814e-06   -6.520454272239724e-06
-1.2877738198869527e-05   2.024725788557014e-06   -1.3751865303640065e-05
-1.2877738198869527e-05   2.024725788557014e-06   -1.3751865303640065e-05
-1.2877738198869527e-05   2.024725788557014e-06   -1.3751865303640065e-05
-1.2877738198869527e-05   2.024725788557014e-06   -1.3751865303640065e-05
-1.7218473440518347e-05   2.450793270914561e-06   -2.0465304430814665e-05
-1.7218473440518347e-05   2.450793270914561e-06   -2.0465304430814665e-05
-1.7218473440518347e-05   2.450793270914561e-06   -2.0465304430814665e-05
-1.7218473440518347e-05   2.450793270914561e-06   -2.0465304430814665e-05
-8.851563345373382e-06   2.0299719630254085e-06   -6.7729470569732345e-06
-8.851563345373382e-06   2.0299719630254085e-06   -6.7729470569732345e-06
-8.851563345373382e-06   2.0299719630254085e-06   -6.7729470569732345e-06
-8.851563345373382e-06   2.0299719630254085e-06   -6.7729470569732345e-06
-8.917522736033685e-06   3.0300396559297882e-06   -2.017059859031351e-05
-8.917522736033685e-06   3.0300396559297882e-06   -2.017059859031351e-05
-8.917522736033685e-06   3.0300396559297882e-06   -2.017059859031351e-05
-8.917522736033685e-06   3.0300396559297882e-06   -2.017059859031351e-05
-1.7197180995348403e-05   2.5610380367592533e-06   -6.089767186619993e-06
-1.7197180995348403e-05   2.5610380367592533e-06   -6.089767186619993e-06
-1.7197180995348403e-05   2.5610380367592533e-06   -6.089767186619993e-06
-1.7197180995348403e-05   2.5610380367592533e-06   -6.089767186619993e-06
-1.2898889699610308e-05   2.516259139768442e-06   -1.3226718674655592e-05
-1.2898889699610308e-05   2.516259139768442e-06   -1.3226718674655592e-05
-1.2898889699610308e-05   2.516259139768442e-06   -1.3226718674655592e-05
-1.2898889699610308e-05   2.516259139768442e-06   -1.3226718674655592e-05
-1.7197180995348407e-05   3.030039655929786e-06   -1.9889197618811193e-05
-1.7197180995348407e-05   3.030039655929786e-06   -1.9889197618811193e-05
-1.7197180995348407e-05   3.030039655929786e-06   -1.9889197618811193e-05
-1.7197180995348407e-05   3.030039655929786e-06   -1.9889197618811193e-05
-8.917522736033698e-06   2.5610380367592804e-06   -6.371168158122217e-06
-8.917522736033698e-06   2.5610380367592804e-06   -6.371168158122217e-06
-8.917522736033698e-06   2.5610380367592804e-06   -6.371168158122217e-06
-8.917522736033698e-06   2.5610380367592804e-06   -6.371168158122217e-06
-9.00397306739131e-06   3.6539410383058736e-06   -2.0122722977449604e-05
-9.00397306739131e-06   3.6539410383058736e-06   -2.0122722977449604e-05
-9.00397306739131e-06   3.6539410383058736e-06   -2.0122722977449604e-05
-9.00397306739131e-06   3.6539410383058736e-06   -2.0122722977449604e-05
-1.7211867293748343e-05   3.1270088489854405e-06   -6.126739953262361e-06
-1.7211867293748343e-05   3.1270088489854405e-06   -6.126739953262361e-06
-1.7211867293748343e-05   3.1270088489854405e-06   -6.126739953262361e-06
-1.7211867293748343e-05   3.1270088489854405e-06   -6.126739953262361e-06
-1.3048959864420332e-05   3.00400486228172e-06   -1.2991116610119928e-05
-1.3048959864420332e-05   3.00400486228172e-06   -1.2991116610119928e-05
-1.3048959864420332e-05   3.00400486228172e-06   -1.2991116610119928e-05
-1.3048959864420332e-05   3.00400486228172e-06   -1.2991116610119928e-05
-8.748273147818659e-06   -5.403324592321744e-08   -2.2670923256315066e-05
-8.748273147818659e-06   -5.403324592321744e-08   -2.2670923256315066e-05
-8.748273147818659e-06   -5.403324592321744e-08   -2.2670923256315066e-05
-8.748273147818659e-06   -5.403324592321744e-08   -2.2670923256315066e-05
-4.480038625066079e-07   7.69236720448872e-08   -8.758566963347445e-06
-4.480038625066079e-07   7.69236720448872e-08   -8.758566963347445e-06
-4.480038625066079e-07   7.69236720448872e-08   -8.758566963347445e-06
-4.480038625066079e-07   7.69236720448872e-08   -8.758566963347445e-06
-5.305059067060124e-07   5.902219710301045e-07   -2.2455724696861373e-05
-5.305059067060124e-07   5.902219710301045e-07   -2.2455724696861373e-05
-5.305059067060124e-07   5.902219710301045e-07   -2.2455724696861373e-05
-5.305059067060124e-07   5.902219710301045e-07   -2.2455724696861373e-05
-8.85156334537335e-06   6.651490280092337e-07   -8.632251866603245e-06
-8.85156334537335e-06   6.651490280092337e-07   -8.632251866603245e-06
-8.85156334537335e-06   6.651490280092337e-07   -8.632251866603245e-06
-8.85156334537335e-06   6.651490280092337e-07   -8.632251866603245e-06
-4.618077570881738e-06   3.88226616596511e-07   -1.5521908043908348e-05
-4.618077570881738e-06   3.88226616596511e-07   -1.5521908043908348e-05
-4.618077570881738e-06   3.88226616596511e-07   -1.5521908043908348e-05
-4.618077570881738e-06   3.88226616596511e-07   -1.5521908043908348e-05
-8.851563345373368e-06   5.902219710301028e-07   -2.250068093104883e-05
-8.851563345373368e-06   5.902219710301028e-07   -2.250068093104883e-05
-8.851563345373368e-06   5.902219710301028e-07   -2.250068093104883e-05
-8.851563345373368e-06   5.902219710301028e-07   -2.250068093104883e-05
-5.305059067060124e-07   6.651490280092337e-07   -8.587295632415782e-06
-5.305059067060124e-07   6.651490280092337e-07   -8.587295632415782e-06
-5.305059067060124e-07   6.651490280092337e-07   -8.587295632415782e-06
-5.305059067060124e-07   6.651490280092337e-07   -8.587295632415782e-06
-5.890892548627227e-07   1.2199362102315075e-06   -2.2515101006979253e-05
-5.890892548627227e-07   1.2199362102315075e-06   -2.2515101006979253e-05
-5.890892548627227e-07   1.2199362102315075e-06   -2.2515101006979253e-05
-5.890892548627227e-07   1.2199362102315075e-06   -2.2515101006979253e-05
-8.917522736033685e-06   1.2517145505715362e-06   -8.653445542564993e-06
-8.917522736033685e-06   1.2517145505715362e-06   -8.653445542564993e-06
-8.917522736033685e-06   1.2517145505715362e-06   -8.653445542564993e-06
-8.917522736033685e-06   1.2517145505715362e-06   -8.653445542564993e-06
-4.725423623063085e-06   9.072215910916909e-07   -1.5433581621828085e-05
-4.725423623063085e-06   9.072215910916909e-07   -1.5433581621828085e-05
-4.725423623063085e-06   9.072215910916909e-07   -1.5433581621828085e-05
-4.725423623063085e-06   9.072215910916909e-07   -1.5433581621828085e-05
-8.917522736033685e-06   1.2199362102315039e-06   -2.253416801118325e-05
-8.917522736033685e-06   1.2199362102315039e-06   -2.253416801118325e-05
-8.917522736033685e-06   1.2199362102315039e-06   -2.253416801118325e-05
-8.917522736033685e-06   1.2199362102315039e-06   -2.253416801118325e-05
-5.890892548627227e-07   1.2517145505715362e-06   -8.634378538360907e-06
-5.890892548627227e-07   1.2517145505715362e-06   -8.634378538360907e-06
-5.890892548627227e-07   1.2517145505715362e-06   -8.634378538360907e-06
-5.890892548627227e-07   1.2517145505715362e-06   -8.634378538360907e-06
-6.828247736690616e-07   1.8757662681668027e-06   -2.280423182695956e-05
-6.828247736690616e-07   1.8757662681668027e-06   -2.280423182695956e-05
-6.828247736690616e-07   1.8757662681668027e-06   -2.280423182695956e-05
-6.828247736690616e-07   1.8757662681668027e-06   -2.280423182695956e-05
-9.003973067391319e-06   1.8518151353099515e-06   -8.921280657708423e-06
-9.003973067391319e-06   1.8518151353099515e-06   -8.921280657708423e-06
-9.003973067391319e-06   1.8518151353099515e-06   -8.921280657708423e-06
-9.003973067391319e-06   1.8518151353099515e-06   -8.921280657708423e-06
-4.83962721257967e-06   1.432390997519893e-06   -1.5610202599720286e-05
-4.83962721257967e-06   1.432390997519893e-06   -1.5610202599720286e-05
-4.83962721257967e-06   1.432390997519893e-06   -1.5610202599720286e-05
-4.83962721257967e-06   1.432390997519893e-06   -1.5610202599720286e-05
-4.480038625066083e-07   -1.795420981697638e-06   -2.025016982060047e-05
-4.480038625066083e-07   -1.795420981697638e-06   -2.025016982060047e-05
-4.480038625066083e-07   -1.795420981697638e-06   -2.025016982060047e-05
-4.480038625066083e-07   -1.795420981697638e-06   -2.025016982060047e-05
7.80446104830411e-06   -1.1985105409102997e-06   -6.1379153714435735e-06
7.80446104830411e-06   -1.1985105409102997e-06   -6.1379153714435735e-06
7.80446104830411e-06   -1.1985105409102997e-06   -6.1379153714435735e-06
7.80446104830411e-06   -1.1985105409102997e-06   -6.1379153714435735e-06
7.801420397453959e-06   -1.2087553800896615e-06   -2.0011936731884343e-05
7.801420397453959e-06   -1.2087553800896615e-06   -2.0011936731884343e-05
7.801420397453959e-06   -1.2087553800896615e-06   -2.0011936731884343e-05
7.801420397453959e-06   -1.2087553800896615e-06   -2.0011936731884343e-05
-5.305059067060125e-07   -6.58033373016596e-07   -6.4558260958615845e-06
-5.305059067060125e-07   -6.58033373016596e-07   -6.4558260958615845e-06
-5.305059067060125e-07   -6.58033373016596e-07   -6.4558260958615845e-06
-5.305059067060125e-07   -6.58033373016596e-07   -6.4558260958615845e-06
3.629372866594106e-06   -1.1720733822980628e-06   -1.3080533379126216e-05
3.629372866594106e-06   -1.1720733822980628e-06   -1.3080533379126216e-05
3.629372866594106e-06   -1.1720733822980628e-06   -1.3080533379126216e-05
3.629372866594106e-06   -1.1720733822980628e-06   -1.3080533379126216e-05
-5.305059067060124e-07   -1.208755380089668e-06   -2.03423699361282e-05
-5.305059067060124e-07   -1.208755380089668e-06   -2.03423699361282e-05
-5.305059067060124e-07   -1.208755380089668e-06   -2.03423699361282e-05
-5.305059067060124e-07   -1.208755380089668e-06   -2.03423699361282e-05
7.801420397453972e-06   -6.58033373016596e-07   -6.125392891617731e-06
7.801420397453972e-06   -6.58033373016596e-07   -6.125392891617731e-06
7.801420397453972e-06   -6.58033373016596e-07   -6.125392891617731e-06
7.801420397453972e-06   -6.58033373016596e-07   -6.125392891617731e-06
7.842724571426594e-06   -6.348977096855534e-07   -2.053713703790401e-05
7.842724571426594e-06   -6.348977096855534e-07   -2.053713703790401e-05
7.842724571426594e-06   -6.348977096855534e-07   -2.053713703790401e-05
7.842724571426594e-06   -6.348977096855534e-07   -2.053713703790401e-05
-5.890892548627235e-07   -1.2805193794370156e-07   -6.788221457133607e-06
-5.890892548627235e-07   -1.2805193794370156e-07   -6.788221457133607e-06
-5.890892548627235e-07   -1.2805193794370156e-07   -6.788221457133607e-06
-5.890892548627235e-07   -1.2805193794370156e-07   -6.788221457133607e-06
3.519162533004344e-06   -7.037246870453815e-07   -1.3289904120784388e-05
3.519162533004344e-06   -7.037246870453815e-07   -1.3289904120784388e-05
3.519162533004344e-06   -7.037246870453815e-07   -1.3289904120784388e-05
3.519162533004344e-06   -7.037246870453815e-07   -1.3289904120784388e-05
-5.890892548627227e-07   -6.348977096855486e-07   -2.0841244500949136e-05
-5.890892548627227e-07   -6.348977096855486e-07   -2.0841244500949136e-05
-5.890892548627227e-07   -6.348977096855486e-07   -2.0841244500949136e-05
-5.890892548627227e-07   -6.348977096855486e-07   -2.0841244500949136e-05
7.842724571426608e-06   -1.2805193794370156e-07   -6.484113994088407e-06
7.842724571426608e-06   -1.2805193794370156e-07   -6.484113994088407e-06
7.842724571426608e-06   -1.2805193794370156e-07   -6.484113994088407e-06
7.842724571426608e-06   -1.2805193794370156e-07   -6.484113994088407e-06
7.785886430068905e-06   7.388181336760323e-08   -2.1136386471600526e-05
7.785886430068905e-06   7.388181336760323e-08   -2.1136386471600526e-05
7.785886430068905e-06   7.388181336760323e-08   -2.1136386471600526e-05
7.785886430068905e-06   7.388181336760323e-08   -2.1136386471600526e-05
-6.82824773669063e-07   4.90456941506243e-07   -7.271812875587129e-06
-6.82824773669063e-07   4.90456941506243e-07   -7.271812875587129e-06
-6.82824773669063e-07   4.90456941506243e-07   -7.271812875587129e-06
-6.82824773669063e-07   4.90456941506243e-07   -7.271812875587129e-06
3.4821582616085216e-06   -2.035697959389452e-07   -1.3797035225249231e-05
3.4821582616085216e-06   -2.035697959389452e-07   -1.3797035225249231e-05
3.4821582616085216e-06   -2.035697959389452e-07   -1.3797035225249231e-05
3.4821582616085216e-06   -2.035697959389452e-07   -1.3797035225249231e-05
7.804461048304096e-06   -3.3309657599764845e-06   -1.1314596271415076e-05
7.804461048304096e-06   -3.3309657599764845e-06   -1.1314596271415076e-05
7.804461048304096e-06   -3.3309657599764845e-06   -1.1314596271415076e-05
7.804461048304096e-06   -3.3309657599764845e-06   -1.1314596271415076e-05
1.550786945109965e-05   -2.16543687355734e-06   2.2237350650956876e-06
1.550786945109965e-05   -2.16543687355734e-06   2.2237350650956876e-06
1.550786945109965e-05   -2.16543687355734e-06   2.2237350650956876e-06
1.550786945109965e-05   -2.16543687355734e-06   2.2237350650956876e-06
1.604252769303929e-05   -3.0157717256893855e-06   -1.2705301982420428e-05
1.604252769303929e-05   -3.0157717256893855e-06   -1.2705301982420428e-05
1.604252769303929e-05   -3.0157717256893855e-06   -1.2705301982420428e-05
1.604252769303929e-05   -3.0157717256893855e-06   -1.2705301982420428e-05
7.801420397453962e-06   -1.851940768142241e-06   3.3157826902686807e-07
7.801420397453962e-06   -1.851940768142241e-06   3.3157826902686807e-07
7.801420397453962e-06   -1.851940768142241e-06   3.3157826902686807e-07
7.801420397453962e-06   -1.851940768142241e-06   3.3157826902686807e-07
1.1285431636858928e-05   -2.5598936858574545e-06   -5.0503353793522745e-06
1.1285431636858928e-05   -2.5598936858574545e-06   -5.0503353793522745e-06
1.1285431636858928e-05   -2.5598936858574545e-06   -5.0503353793522745e-06
1.1285431636858928e-05   -2.5598936858574545e-06   -5.0503353793522745e-06
7.801420397453955e-06   -3.015771725689396e-06   -1.340360055694866e-05
7.801420397453955e-06   -3.015771725689396e-06   -1.340360055694866e-05
7.801420397453955e-06   -3.015771725689396e-06   -1.340360055694866e-05
7.801420397453955e-06   -3.015771725689396e-06   -1.340360055694866e-05
1.604252769303929e-05   -1.851940768142241e-06   1.0298768435551412e-06
1.604252769303929e-05   -1.851940768142241e-06   1.0298768435551412e-06
1.604252769303929e-05   -1.851940768142241e-06   1.0298768435551412e-06
1.604252769303929e-05   -1.851940768142241e-06   1.0298768435551412e-06
1.645575975301458e-05   -2.685697905938477e-06   -1.4322426272916782e-05
1.645575975301458e-05   -2.685697905938477e-06   -1.4322426272916782e-05
1.645575975301458e-05   -2.685697905938477e-06   -1.4322426272916782e-05
1.645575975301458e-05   -2.685697905938477e-06   -1.4322426272916782e-05
7.84272457142658e-06   -1.5854218058198655e-06   -6.275332970079938e-07
7.84272457142658e-06   -1.5854218058198655e-06   -6.275332970079938e-07
7.84272457142658e-06   -1.5854218058198655e-06   -6.275332970079938e-07
7.84272457142658e-06   -1.5854218058198655e-06   -6.275332970079938e-07
1.1675505954872419e-05   -2.3578559114489255e-06   -6.552041806040239e-06
1.1675505954872419e-05   -2.3578559114489255e-06   -6.552041806040239e-06
1.1675505954872419e-05   -2.3578559114489255e-06   -6.552041806040239e-06
1.1675505954872419e-05   -2.3578559114489255e-06   -6.552041806040239e-06
7.842724571426594e-06   -2.6856979059384734e-06   -1.4982591932987963e-05
7.842724571426594e-06   -2.6856979059384734e-06   -1.4982591932987963e-05
7.842724571426594e-06   -2.6856979059384734e-06   -1.4982591932987963e-05
7.842724571426594e-06   -2.6856979059384734e-06   -1.4982591932987963e-05
1.6455759753014554e-05   -1.5854218058198655e-06   3.263236306329633e-08
1.6455759753014554e-05   -1.5854218058198655e-06   3.263236306329633e-08
1.6455759753014554e-05   -1.5854218058198655e-06   3.263236306329633e-08
1.6455759753014554e-05   -1.5854218058198655e-06   3.263236306329633e-08
1.6898062975073195e-05   -1.9759447444917785e-06   -1.707916669573334e-05
1.6898062975073195e-05   -1.9759447444917785e-06   -1.707916669573334e-05
1.6898062975073195e-05   -1.9759447444917785e-06   -1.707916669573334e-05
1.6898062975073195e-05   -1.9759447444917785e-06   -1.707916669573334e-05
7.78588643006887e-06   -1.0179944647303657e-06   -2.4669759552496667e-06
7.78588643006887e-06   -1.0179944647303657e-06   -2.4669759552496667e-06
7.78588643006887e-06   -1.0179944647303657e-06   -2.4669759552496667e-06
7.78588643006887e-06   -1.0179944647303657e-06   -2.4669759552496667e-06
1.1632524798183624e-05   -2.0283309189853037e-06   -8.27183802955458e-06
1.1632524798183624e-05   -2.0283309189853037e-06   -8.27183802955458e-06
1.1632524798183624e-05   -2.0283309189853037e-06   -8.27183802955458e-06
1.1632524798183624e-05   -2.0283309189853037e-06   -8.27183802955458e-06
-1.867993930408612e-05   2.868240488048329e-06   -1.4264668543860026e-05
-1.867993930408612e-05   2.868240488048329e-06   -1.4264668543860026e-05
-1.867993930408612e-05   2.868240488048329e-06   -1.4264668543860026e-05
-1.867993930408612e-05   2.868240488048329e-06   -1.4264668543860026e-05
-1.2750987170686407e-05   1.8167793007107928e-06   -5.013958367262995e-06
-1.2750987170686407e-05   1.8167793007107928e-06   -5.013958367262995e-06
-1.2750987170686407e-05   1.8167793007107928e-06   -5.013958367262995e-06
-1.2750987170686407e-05   1.8167793007107928e-06   -5.013958367262995e-06
-1.2703945435908913e-05   3.4742287647014376e-06   -1.2119961989622832e-05
-1.2703945435908913e-05   3.4742287647014376e-06   -1.2119961989622832e-05
-1.2703945435908913e-05   3.4742287647014376e-06   -1.2119961989622832e-05
-1.2703945435908913e-05   3.4742287647014376e-06   -1.2119961989622832e-05
-1.811361776779967e-05   2.31660443678175e-06   -2.409266839719764e-06
-1.811361776779967e-05   2.31660443678175e-06   -2.409266839719764e-06
-1.811361776779967e-05   2.31660443678175e-06   -2.409266839719764e-06
-1.811361776779967e-05   2.31660443678175e-06   -2.409266839719764e-06
-1.4901707176834244e-05   2.7633923294523733e-06   -8.030523893597845e-06
-1.4901707176834244e-05   2.7633923294523733e-06   -8.030523893597845e-06
-1.4901707176834244e-05   2.7633923294523733e-06   -8.030523893597845e-06
-1.4901707176834244e-05   2.7633923294523733e-06   -8.030523893597845e-06
-1.8113617767799665e-05   3.474228764701426e-06   -1.142538739287103e-05
-1.8113617767799665e-05   3.474228764701426e-06   -1.142538739287103e-05
-1.8113617767799665e-05   3.474228764701426e-06   -1.142538739287103e-05
-1.8113617767799665e-05   3.474228764701426e-06   -1.142538739287103e-05
-1.270394543590894e-05   2.3166044367816958e-06   -3.1038414364715964e-06
-1.270394543590894e-05   2.3166044367816958e-06   -3.1038414364715964e-06
-1.270394543590894e-05   2.3166044367816958e-06   -3.1038414364715964e-06
-1.270394543590894e-05   2.3166044367816958e-06   -3.1038414364715964e-06
-1.2607177823784394e-05   3.7412563237467368e-06   -1.0569127939521756e-05
-1.2607177823784394e-05   3.7412563237467368e-06   -1.0569127939521756e-05
-1.2607177823784394e-05   3.7412563237467368e-06   -1.0569127939521756e-05
-1.2607177823784394e-05   3.7412563237467368e-06   -1.0569127939521756e-05
-1.769162033650356e-05   2.550592137717637e-06   -1.3806585733723944e-06
-1.769162033650356e-05   2.550592137717637e-06   -1.3806585733723944e-06
-1.769162033650356e-05   2.550592137717637e-06   -1.3806585733723944e-06
-1.769162033650356e-05   2.550592137717637e-06   -1.3806585733723944e-06
-1.490004005597955e-05   3.042520589202635e-06   -6.3284494451367585e-06
-1.490004005597955e-05   3.042520589202635e-06   -6.3284494451367585e-06
-1.490004005597955e-05   3.042520589202635e-06   -6.3284494451367585e-06
-1.490004005597955e-05   3.042520589202635e-06   -6.3284494451367585e-06
-1.7691620336503564e-05   3.7412563237467313e-06   -9.854729427904286e-06
-1.7691620336503564e-05   3.7412563237467313e-06   -9.854729427904286e-06
-1.7691620336503564e-05   3.7412563237467313e-06   -9.854729427904286e-06
-1.7691620336503564e-05   3.7412563237467313e-06   -9.854729427904286e-06
-1.2607177823784421e-05   2.550592137717583e-06   -2.095057084989799e-06
-1.2607177823784421e-05   2.550592137717583e-06   -2.095057084989799e-06
-1.2607177823784421e-05   2.550592137717583e-06   -2.095057084989799e-06
-1.2607177823784421e-05   2.550592137717583e-06   -2.095057084989799e-06
-1.2569318564308702e-05   4.00666220370523e-06   -8.426498102298953e-06
-1.2569318564308702e-05   4.00666220370523e-06   -8.426498102298953e-06
-1.2569318564308702e-05   4.00666220370523e-06   -8.426498102298953e-06
-1.2569318564308702e-05   4.00666220370523e-06   -8.426498102298953e-06
-1.7141032965623518e-05   2.846527743046237e-06   -1.1089342371217899e-07
-1.7141032965623518e-05   2.846527743046237e-06   -1.1089342371217899e-07
-1.7141032965623518e-05   2.846527743046237e-06   -1.1089342371217899e-07
-1.7141032965623518e-05   2.846527743046237e-06   -1.1089342371217899e-07
-1.4457889920431421e-05   3.195875562911777e-06   -4.792407190951656e-06
-1.4457889920431421e-05   3.195875562911777e-06   -4.792407190951656e-06
-1.4457889920431421e-05   3.195875562911777e-06   -4.792407190951656e-06
-1.4457889920431421e-05   3.195875562911777e-06   -4.792407190951656e-06
-1.275098717068638e-05   1.433320855092387e-06   -1.8246812188527453e-05
-1.275098717068638e-05   1.433320855092387e-06   -1.8246812188527453e-05
-1.275098717068638e-05   1.433320855092387e-06   -1.8246812188527453e-05
-1.275098717068638e-05   1.433320855092387e-06   -1.8246812188527453e-05
-7.3670239542750555e-06   9.445185882564944e-07   -9.566821521276797e-06
-7.3670239542750555e-06   9.445185882564944e-07   -9.566821521276797e-06
-7.3670239542750555e-06   9.445185882564944e-07   -9.566821521276797e-06
-7.3670239542750555e-06   9.445185882564944e-07   -9.566821521276797e-06
-7.370910250657901e-06   2.0299719630254085e-06   -1.8087437688191048e-05
-7.370910250657901e-06   2.0299719630254085e-06   -1.8087437688191048e-05
-7.370910250657901e-06   2.0299719630254085e-06   -1.8087437688191048e-05
-7.370910250657901e-06   2.0299719630254085e-06   -1.8087437688191048e-05
-1.2703945435908917e-05   1.4729578962104062e-06   -8.864837272683695e-06
-1.2703945435908917e-05   1.4729578962104062e-06   -8.864837272683695e-06
-1.2703945435908917e-05   1.4729578962104062e-06   -8.864837272683695e-06
-1.2703945435908917e-05   1.4729578962104062e-06   -8.864837272683695e-06
-9.955313615373172e-06   1.5710276723976467e-06   -1.3504732172622307e-05
-9.955313615373172e-06   1.5710276723976467e-06   -1.3504732172622307e-05
-9.955313615373172e-06   1.5710276723976467e-06   -1.3504732172622307e-05
-9.955313615373172e-06   1.5710276723976467e-06   -1.3504732172622307e-05
-1.27039454359089e-05   2.029971963025394e-06   -1.7753229248101992e-05
-1.27039454359089e-05   2.029971963025394e-06   -1.7753229248101992e-05
-1.27039454359089e-05   2.029971963025394e-06   -1.7753229248101992e-05
-1.27039454359089e-05   2.029971963025394e-06   -1.7753229248101992e-05
-7.3709102506578775e-06   1.4729578962104604e-06   -9.199045712772642e-06
-7.3709102506578775e-06   1.4729578962104604e-06   -9.199045712772642e-06
-7.3709102506578775e-06   1.4729578962104604e-06   -9.199045712772642e-06
-7.3709102506578775e-06   1.4729578962104604e-06   -9.199045712772642e-06
-7.365909596686679e-06   2.5610380367592533e-06   -1.7682324272842042e-05
-7.365909596686679e-06   2.5610380367592533e-06   -1.7682324272842042e-05
-7.365909596686679e-06   2.5610380367592533e-06   -1.7682324272842042e-05
-7.365909596686679e-06   2.5610380367592533e-06   -1.7682324272842042e-05
-1.2607177823784397e-05   1.9549077401461e-06   -8.58319904971128e-06
-1.2607177823784397e-05   1.9549077401461e-06   -8.58319904971128e-06
-1.2607177823784397e-05   1.9549077401461e-06   -8.58319904971128e-06
-1.2607177823784397e-05   1.9549077401461e-06   -8.58319904971128e-06
-9.909445045547218e-06   2.006030060524146e-06   -1.3110093738999949e-05
-9.909445045547218e-06   2.006030060524146e-06   -1.3110093738999949e-05
-9.909445045547218e-06   2.006030060524146e-06   -1.3110093738999949e-05
-9.909445045547218e-06   2.006030060524146e-06   -1.3110093738999949e-05
-1.2607177823784394e-05   2.5610380367592664e-06   -1.7318646094874134e-05
-1.2607177823784394e-05   2.5610380367592664e-06   -1.7318646094874134e-05
-1.2607177823784394e-05   2.5610380367592664e-06   -1.7318646094874134e-05
-1.2607177823784394e-05   2.5610380367592664e-06   -1.7318646094874134e-05
-7.365909596686679e-06   1.9549077401461e-06   -8.94687722767912e-06
-7.365909596686679e-06   1.9549077401461e-06   -8.94687722767912e-06
-7.365909596686679e-06   1.9549077401461e-06   -8.94687722767912e-06
-7.365909596686679e-06   1.9549077401461e-06   -8.94687722767912e-06
-7.372467509236473e-06   3.1270088489854676e-06   -1.775398049965699e-05
-7.372467509236473e-06   3.1270088489854676e-06   -1.775398049965699e-05
-7.372467509236473e-06   3.1270088489854676e-06   -1.775398049965699e-05
-7.372467509236473e-06   3.1270088489854676e-06   -1.775398049965699e-05
-1.2569318564308685e-05   2.47953722066509e-06   -8.704079097544327e-06
-1.2569318564308685e-05   2.47953722066509e-06   -8.704079097544327e-06
-1.2569318564308685e-05   2.47953722066509e-06   -8.704079097544327e-06
-1.2569318564308685e-05   2.47953722066509e-06   -8.704079097544327e-06
-9.974087516039747e-06   2.4375360209125422e-06   -1.3004263458141072e-05
-9.974087516039747e-06   2.4375360209125422e-06   -1.3004263458141072e-05
-9.974087516039747e-06   2.4375360209125422e-06   -1.3004263458141072e-05
-9.974087516039747e-06   2.4375360209125422e-06   -1.3004263458141072e-05
-7.3670239542750725e-06   7.692367204486885e-08   -2.0152968150789904e-05
-7.3670239542750725e-06   7.692367204486885e-08   -2.0152968150789904e-05
-7.3670239542750725e-06   7.692367204486885e-08   -2.0152968150789904e-05
-7.3670239542750725e-06   7.692367204486885e-08   -2.0152968150789904e-05
-2.0530531607348326e-06   1.6587724094524556e-07   -1.124297802021596e-05
-2.0530531607348326e-06   1.6587724094524556e-07   -1.124297802021596e-05
-2.0530531607348326e-06   1.6587724094524556e-07   -1.124297802021596e-05
-2.0530531607348326e-06   1.6587724094524556e-07   -1.124297802021596e-05
-2.0574703487319163e-06   6.651490280092337e-07   -1.992682805554671e-05
-2.0574703487319163e-06   6.651490280092337e-07   -1.992682805554671e-05
-2.0574703487319163e-06   6.651490280092337e-07   -1.992682805554671e-05
-2.0574703487319163e-06   6.651490280092337e-07   -1.992682805554671e-05
-7.37091025065788e-06   6.983397651331145e-07   -1.1091009327944442e-05
-7.37091025065788e-06   6.983397651331145e-07   -1.1091009327944442e-05
-7.37091025065788e-06   6.983397651331145e-07   -1.1091009327944442e-05
-7.37091025065788e-06   6.983397651331145e-07   -1.1091009327944442e-05
-4.680541118445243e-06   4.714141153456825e-07   -1.5438802491759737e-05
-4.680541118445243e-06   4.714141153456825e-07   -1.5438802491759737e-05
-4.680541118445243e-06   4.714141153456825e-07   -1.5438802491759737e-05
-4.680541118445243e-06   4.714141153456825e-07   -1.5438802491759737e-05
-7.370910250657891e-06   6.651490280092282e-07   -1.9946742497821082e-05
-7.370910250657891e-06   6.651490280092282e-07   -1.9946742497821082e-05
-7.370910250657891e-06   6.651490280092282e-07   -1.9946742497821082e-05
-7.370910250657891e-06   6.651490280092282e-07   -1.9946742497821082e-05
-2.0574703487319163e-06   6.983397651331145e-07   -1.1071094885670098e-05
-2.0574703487319163e-06   6.983397651331145e-07   -1.1071094885670098e-05
-2.0574703487319163e-06   6.983397651331145e-07   -1.1071094885670098e-05
-2.0574703487319163e-06   6.983397651331145e-07   -1.1071094885670098e-05
-2.050802666996823e-06   1.2517145505715362e-06   -1.997611676955854e-05
-2.050802666996823e-06   1.2517145505715362e-06   -1.997611676955854e-05
-2.050802666996823e-06   1.2517145505715362e-06   -1.997611676955854e-05
-2.050802666996823e-06   1.2517145505715362e-06   -1.997611676955854e-05
-7.3659095966866826e-06   1.2325226967818442e-06   -1.110609010780163e-05
-7.3659095966866826e-06   1.2325226967818442e-06   -1.110609010780163e-05
-7.3659095966866826e-06   1.2325226967818442e-06   -1.110609010780163e-05
-7.3659095966866826e-06   1.2325226967818442e-06   -1.110609010780163e-05
-4.712265760520594e-06   9.378679564347602e-07   -1.5352036990536896e-05
-4.712265760520594e-06   9.378679564347602e-07   -1.5352036990536896e-05
-4.712265760520594e-06   9.378679564347602e-07   -1.5352036990536896e-05
-4.712265760520594e-06   9.378679564347602e-07   -1.5352036990536896e-05
-7.365909596686679e-06   1.2517145505715326e-06   -1.996460165728473e-05
-7.365909596686679e-06   1.2517145505715326e-06   -1.996460165728473e-05
-7.365909596686679e-06   1.2517145505715326e-06   -1.996460165728473e-05
-7.365909596686679e-06   1.2517145505715326e-06   -1.996460165728473e-05
-2.050802666996823e-06   1.23252269678179e-06   -1.1117605220075413e-05
-2.050802666996823e-06   1.23252269678179e-06   -1.1117605220075413e-05
-2.050802666996823e-06   1.23252269678179e-06   -1.1117605220075413e-05
-2.050802666996823e-06   1.23252269678179e-06   -1.1117605220075413e-05
-2.054199121697136e-06   1.8518151353099515e-06   -2.0277824194680355e-05
-2.054199121697136e-06   1.8518151353099515e-06   -2.0277824194680355e-05
-2.054199121697136e-06   1.8518151353099515e-06   -2.0277824194680355e-05
-2.054199121697136e-06   1.8518151353099515e-06   -2.0277824194680355e-05
-7.372467509236475e-06   1.7760446283607311e-06   -1.1368581244611839e-05
-7.372467509236475e-06   1.7760446283607311e-06   -1.1368581244611839e-05
-7.372467509236475e-06   1.7760446283607311e-06   -1.1368581244611839e-05
-7.372467509236475e-06   1.7760446283607311e-06   -1.1368581244611839e-05
-4.753150410644558e-06   1.4104573158129057e-06   -1.5514757354736363e-05
-4.753150410644558e-06   1.4104573158129057e-06   -1.5514757354736363e-05
-4.753150410644558e-06   1.4104573158129057e-06   -1.5514757354736363e-05
-4.753150410644558e-06   1.4104573158129057e-06   -1.5514757354736363e-05
-2.0530531607348293e-06   -1.1985105409102887e-06   -1.7837090682018195e-05
-2.0530531607348293e-06   -1.1985105409102887e-06   -1.7837090682018195e-05
-2.0530531607348293e-06   -1.1985105409102887e-06   -1.7837090682018195e-05
-2.0530531607348293e-06   -1.1985105409102887e-06   -1.7837090682018195e-05
3.176115885963299e-06   -5.453094396374496e-07   -8.72988827675764e-06
3.176115885963299e-06   -5.453094396374496e-07   -8.72988827675764e-06
3.176115885963299e-06   -5.453094396374496e-07   -8.72988827675764e-06
3.176115885963299e-06   -5.453094396374496e-07   -8.72988827675764e-06
3.2185436903973115e-06   -6.58033373016596e-07   -1.742610769855913e-05
3.2185436903973115e-06   -6.58033373016596e-07   -1.742610769855913e-05
3.2185436903973115e-06   -6.58033373016596e-07   -1.742610769855913e-05
3.2185436903973115e-06   -6.58033373016596e-07   -1.742610769855913e-05
-2.0574703487319125e-06   -4.261533896089426e-08   -9.002001787110463e-06
-2.0574703487319125e-06   -4.261533896089426e-08   -9.002001787110463e-06
-2.0574703487319125e-06   -4.261533896089426e-08   -9.002001787110463e-06
-2.0574703487319125e-06   -4.261533896089426e-08   -9.002001787110463e-06
5.751405606263059e-07   -5.646619590671405e-07   -1.307645866397708e-05
5.751405606263059e-07   -5.646619590671405e-07   -1.307645866397708e-05
5.751405606263059e-07   -5.646619590671405e-07   -1.307645866397708e-05
5.751405606263059e-07   -5.646619590671405e-07   -1.307645866397708e-05
-2.0574703487319163e-06   -6.580333730165904e-07   -1.7795358518992517e-05
-2.0574703487319163e-06   -6.580333730165904e-07   -1.7795358518992517e-05
-2.0574703487319163e-06   -6.580333730165904e-07   -1.7795358518992517e-05
-2.0574703487319163e-06   -6.580333730165904e-07   -1.7795358518992517e-05
3.2185436903973115e-06   -4.261533896089426e-08   -8.63275096667709e-06
3.2185436903973115e-06   -4.261533896089426e-08   -8.63275096667709e-06
3.2185436903973115e-06   -4.261533896089426e-08   -8.63275096667709e-06
3.2185436903973115e-06   -4.261533896089426e-08   -8.63275096667709e-06
3.3204193174922025e-06   -1.2805193794370156e-07   -1.778918038980093e-05
3.3204193174922025e-06   -1.2805193794370156e-07   -1.778918038980093e-05
3.3204193174922025e-06   -1.2805193794370156e-07   -1.778918038980093e-05
3.3204193174922025e-06   -1.2805193794370156e-07   -1.778918038980093e-05
-2.05080266699682e-06   4.399135596066801e-07   -9.17792304751609e-06
-2.05080266699682e-06   4.399135596066801e-07   -9.17792304751609e-06
-2.05080266699682e-06   4.399135596066801e-07   -9.17792304751609e-06
-2.05080266699682e-06   4.399135596066801e-07   -9.17792304751609e-06
5.444714460888614e-07   -1.462191081225096e-07   -1.3151700302021423e-05
5.444714460888614e-07   -1.462191081225096e-07   -1.3151700302021423e-05
5.444714460888614e-07   -1.462191081225096e-07   -1.3151700302021423e-05
5.444714460888614e-07   -1.462191081225096e-07   -1.3151700302021423e-05
-2.050802666996823e-06   -1.2805193794369796e-07   -1.812995968833114e-05
-2.050802666996823e-06   -1.2805193794369796e-07   -1.812995968833114e-05
-2.050802666996823e-06   -1.2805193794369796e-07   -1.812995968833114e-05
-2.050802666996823e-06   -1.2805193794369796e-07   -1.812995968833114e-05
3.3204193174922092e-06   4.399135596066801e-07   -8.83714374898587e-06
3.3204193174922092e-06   4.399135596066801e-07   -8.83714374898587e-06
3.3204193174922092e-06   4.399135596066801e-07   -8.83714374898587e-06
3.3204193174922092e-06   4.399135596066801e-07   -8.83714374898587e-06
3.37075742356649e-06   4.904569415062159e-07   -1.831320971091977e-05
3.37075742356649e-06   4.904569415062159e-07   -1.831320971091977e-05
3.37075742356649e-06   4.904569415062159e-07   -1.831320971091977e-05
3.37075742356649e-06   4.904569415062159e-07   -1.831320971091977e-05
-2.054199121697136e-06   9.917503113814844e-07   -9.572391490738847e-06
-2.054199121697136e-06   9.917503113814844e-07   -9.572391490738847e-06
-2.054199121697136e-06   9.917503113814844e-07   -9.572391490738847e-06
-2.054199121697136e-06   9.917503113814844e-07   -9.572391490738847e-06
5.621857410145841e-07   3.001375864858857e-07   -1.3518065293654355e-05
5.621857410145841e-07   3.001375864858857e-07   -1.3518065293654355e-05
5.621857410145841e-07   3.001375864858857e-07   -1.3518065293654355e-05
5.621857410145841e-07   3.001375864858857e-07   -1.3518065293654355e-05
3.1761158859632923e-06   -2.1654368735573497e-06   -9.782836916566711e-06
3.1761158859632923e-06   -2.1654368735573497e-06   -9.782836916566711e-06
3.1761158859632923e-06   -2.1654368735573497e-06   -9.782836916566711e-06
3.1761158859632923e-06   -2.1654368735573497e-06   -9.782836916566711e-06
7.79232851412459e-06   -9.953626342392601e-07   -1.387104659373716e-06
7.79232851412459e-06   -9.953626342392601e-07   -1.387104659373716e-06
7.79232851412459e-06   -9.953626342392601e-07   -1.387104659373716e-06
7.79232851412459e-06   -9.953626342392601e-07   -1.387104659373716e-06
8.350610024939715e-06   -1.851940768142241e-06   -1.0249992269418327e-05
8.350610024939715e-06   -1.851940768142241e-06   -1.0249992269418327e-05
8.350610024939715e-06   -1.851940768142241e-06   -1.0249992269418327e-05
8.350610024939715e-06   -1.851940768142241e-06   -1.0249992269418327e-05
3.218543690397312e-06   -6.533669873152472e-07   -2.415692647010531e-06
3.218543690397312e-06   -6.533669873152472e-07   -2.415692647010531e-06
3.218543690397312e-06   -6.533669873152472e-07   -2.415692647010531e-06
3.218543690397312e-06   -6.533669873152472e-07   -2.415692647010531e-06
5.394149668033616e-06   -1.3723924831764655e-06   -5.610287312220953e-06
5.394149668033616e-06   -1.3723924831764655e-06   -5.610287312220953e-06
5.394149668033616e-06   -1.3723924831764655e-06   -5.610287312220953e-06
5.394149668033616e-06   -1.3723924831764655e-06   -5.610287312220953e-06
3.2185436903973047e-06   -1.8519407681422527e-06   -1.0969136537914461e-05
3.2185436903973047e-06   -1.8519407681422527e-06   -1.0969136537914461e-05
3.2185436903973047e-06   -1.8519407681422527e-06   -1.0969136537914461e-05
3.2185436903973047e-06   -1.8519407681422527e-06   -1.0969136537914461e-05
8.350610024939701e-06   -6.533669873152472e-07   -1.6965483785143427e-06
8.350610024939701e-06   -6.533669873152472e-07   -1.6965483785143427e-06
8.350610024939701e-06   -6.533669873152472e-07   -1.6965483785143427e-06
8.350610024939701e-06   -6.533669873152472e-07   -1.6965483785143427e-06
8.78154945481419e-06   -1.5854218058198655e-06   -1.123251253997165e-05
8.78154945481419e-06   -1.5854218058198655e-06   -1.123251253997165e-05
8.78154945481419e-06   -1.5854218058198655e-06   -1.123251253997165e-05
8.78154945481419e-06   -1.5854218058198655e-06   -1.123251253997165e-05
3.320419317492211e-06   -4.186098845719035e-07   -2.8307161305171557e-06
3.320419317492211e-06   -4.186098845719035e-07   -2.8307161305171557e-06
3.320419317492211e-06   -4.186098845719035e-07   -2.8307161305171557e-06
3.320419317492211e-06   -4.186098845719035e-07   -2.8307161305171557e-06
5.7329263952452075e-06   -1.196160796027284e-06   -6.3850307132322376e-06
5.7329263952452075e-06   -1.196160796027284e-06   -6.3850307132322376e-06
5.7329263952452075e-06   -1.196160796027284e-06   -6.3850307132322376e-06
5.7329263952452075e-06   -1.196160796027284e-06   -6.3850307132322376e-06
3.3204193174922025e-06   -1.5854218058198522e-06   -1.193259969272043e-05
3.3204193174922025e-06   -1.5854218058198522e-06   -1.193259969272043e-05
3.3204193174922025e-06   -1.5854218058198522e-06   -1.193259969272043e-05
3.3204193174922025e-06   -1.5854218058198522e-06   -1.193259969272043e-05
8.781549454814163e-06   -4.186098845719035e-07   -2.1306289777682876e-06
8.781549454814163e-06   -4.186098845719035e-07   -2.1306289777682876e-06
8.781549454814163e-06   -4.186098845719035e-07   -2.1306289777682876e-06
8.781549454814163e-06   -4.186098845719035e-07   -2.1306289777682876e-06
9.355975267188386e-06   -1.0179944647303386e-06   -1.31233187388751e-05
9.355975267188386e-06   -1.0179944647303386e-06   -1.31233187388751e-05
9.355975267188386e-06   -1.0179944647303386e-06   -1.31233187388751e-05
9.355975267188386e-06   -1.0179944647303386e-06   -1.31233187388751e-05
3.370757423566491e-06   4.03374162537707e-08   -3.782954794762322e-06
3.370757423566491e-06   4.03374162537707e-08   -3.782954794762322e-06
3.370757423566491e-06   4.03374162537707e-08   -3.782954794762322e-06
3.370757423566491e-06   4.03374162537707e-08   -3.782954794762322e-06
5.849898998982193e-06   -9.375898588536097e-07   -7.328101055390816e-06
5.849898998982193e-06   -9.375898588536097e-07   -7.328101055390816e-06
5.849898998982193e-06   -9.375898588536097e-07   -7.328101055390816e-06
5.849898998982193e-06   -9.375898588536097e-07   -7.328101055390816e-06
-1.1234774023485234e-05   1.8167793007107953e-06   -1.0577367066939321e-05
-1.1234774023485234e-05   1.8167793007107953e-06   -1.0577367066939321e-05
-1.1234774023485234e-05   1.8167793007107953e-06   -1.0577367066939321e-05
-1.1234774023485234e-05   1.8167793007107953e-06   -1.0577367066939321e-05
-8.338612008374169e-06   7.330160932475516e-07   -6.400688299565475e-06
-8.338612008374169e-06   7.330160932475516e-07   -6.400688299565475e-06
-8.338612008374169e-06   7.330160932475516e-07   -6.400688299565475e-06
-8.338612008374169e-06   7.330160932475516e-07   -6.400688299565475e-06
-8.218359153081226e-06   2.3166044367816958e-06   -9.331427546149752e-06
-8.218359153081226e-06   2.3166044367816958e-06   -9.331427546149752e-06
-8.218359153081226e-06   2.3166044367816958e-06   -9.331427546149752e-06
-8.218359153081226e-06   2.3166044367816958e-06   -9.331427546149752e-06
-1.0618992661519707e-05   1.147380805997908e-06   -4.628837520281897e-06
-1.0618992661519707e-05   1.147380805997908e-06   -4.628837520281897e-06
-1.0618992661519707e-05   1.147380805997908e-06   -4.628837520281897e-06
-1.0618992661519707e-05   1.147380805997908e-06   -4.628837520281897e-06
-9.195971295874474e-06   1.6310989904906484e-06   -7.2907707070534e-06
-9.195971295874474e-06   1.6310989904906484e-06   -7.2907707070534e-06
-9.195971295874474e-06   1.6310989904906484e-06   -7.2907707070534e-06
-9.195971295874474e-06   1.6310989904906484e-06   -7.2907707070534e-06
-1.0618992661519714e-05   2.3166044367817208e-06   -8.629893367679436e-06
-1.0618992661519714e-05   2.3166044367817208e-06   -8.629893367679436e-06
-1.0618992661519714e-05   2.3166044367817208e-06   -8.629893367679436e-06
-1.0618992661519714e-05   2.3166044367817208e-06   -8.629893367679436e-06
-8.218359153081253e-06   1.147380805997908e-06   -5.3303716987522265e-06
-8.218359153081253e-06   1.147380805997908e-06   -5.3303716987522265e-06
-8.218359153081253e-06   1.147380805997908e-06   -5.3303716987522265e-06
-8.218359153081253e-06   1.147380805997908e-06   -5.3303716987522265e-06
-8.045995481696135e-06   2.550592137717637e-06   -8.331450295111513e-06
-8.045995481696135e-06   2.550592137717637e-06   -8.331450295111513e-06
-8.045995481696135e-06   2.550592137717637e-06   -8.331450295111513e-06
-8.045995481696135e-06   2.550592137717637e-06   -8.331450295111513e-06
-1.0129950265013447e-05   1.3580872244475773e-06   -4.142689374953961e-06
-1.0129950265013447e-05   1.3580872244475773e-06   -4.142689374953961e-06
-1.0129950265013447e-05   1.3580872244475773e-06   -4.142689374953961e-06
-1.0129950265013447e-05   1.3580872244475773e-06   -4.142689374953961e-06
-9.034751241381222e-06   1.8552374304264905e-06   -6.266311204595077e-06
-9.034751241381222e-06   1.8552374304264905e-06   -6.266311204595077e-06
-9.034751241381222e-06   1.8552374304264905e-06   -6.266311204595077e-06
-9.034751241381222e-06   1.8552374304264905e-06   -6.266311204595077e-06
-1.0129950265013417e-05   2.5505921377176334e-06   -7.615947347149526e-06
-1.0129950265013417e-05   2.5505921377176334e-06   -7.615947347149526e-06
-1.0129950265013417e-05   2.5505921377176334e-06   -7.615947347149526e-06
-1.0129950265013417e-05   2.5505921377176334e-06   -7.615947347149526e-06
-8.045995481696148e-06   1.3580872244475773e-06   -4.858192322916002e-06
-8.045995481696148e-06   1.3580872244475773e-06   -4.858192322916002e-06
-8.045995481696148e-06   1.3580872244475773e-06   -4.858192322916002e-06
-8.045995481696148e-06   1.3580872244475773e-06   -4.858192322916002e-06
-7.930493081636177e-06   2.846527743046237e-06   -7.05152693031573e-06
-7.930493081636177e-06   2.846527743046237e-06   -7.05152693031573e-06
-7.930493081636177e-06   2.846527743046237e-06   -7.05152693031573e-06
-7.930493081636177e-06   2.846527743046237e-06   -7.05152693031573e-06
-9.507748238393274e-06   1.6925190039508427e-06   -3.7303630922633343e-06
-9.507748238393274e-06   1.6925190039508427e-06   -3.7303630922633343e-06
-9.507748238393274e-06   1.6925190039508427e-06   -3.7303630922633343e-06
-9.507748238393274e-06   1.6925190039508427e-06   -3.7303630922633343e-06
-8.614006199052288e-06   2.0127561925419274e-06   -5.412075470986308e-06
-8.614006199052288e-06   2.0127561925419274e-06   -5.412075470986308e-06
-8.614006199052288e-06   2.0127561925419274e-06   -5.412075470986308e-06
-8.614006199052288e-06   2.0127561925419274e-06   -5.412075470986308e-06
-8.338612008374169e-06   9.445185882564831e-07   -1.5487206785329537e-05
-8.338612008374169e-06   9.445185882564831e-07   -1.5487206785329537e-05
-8.338612008374169e-06   9.445185882564831e-07   -1.5487206785329537e-05
-8.338612008374169e-06   9.445185882564831e-07   -1.5487206785329537e-05
-5.980151804556129e-06   4.2811304939890634e-07   -1.1866283102280711e-05
-5.980151804556129e-06   4.2811304939890634e-07   -1.1866283102280711e-05
-5.980151804556129e-06   4.2811304939890634e-07   -1.1866283102280711e-05
-5.980151804556129e-06   4.2811304939890634e-07   -1.1866283102280711e-05
-5.903063305265233e-06   1.4729578962104604e-06   -1.543380805765044e-05
-5.903063305265233e-06   1.4729578962104604e-06   -1.543380805765044e-05
-5.903063305265233e-06   1.4729578962104604e-06   -1.543380805765044e-05
-5.903063305265233e-06   1.4729578962104604e-06   -1.543380805765044e-05
-8.218359153081263e-06   9.039834373961489e-07   -1.1233596969335055e-05
-8.218359153081263e-06   9.039834373961489e-07   -1.1233596969335055e-05
-8.218359153081263e-06   9.039834373961489e-07   -1.1233596969335055e-05
-8.218359153081263e-06   9.039834373961489e-07   -1.1233596969335055e-05
-7.040666577100871e-06   1.0305397383022922e-06   -1.3272351709846418e-05
-7.040666577100871e-06   1.0305397383022922e-06   -1.3272351709846418e-05
-7.040666577100871e-06   1.0305397383022922e-06   -1.3272351709846418e-05
-7.040666577100871e-06   1.0305397383022922e-06   -1.3272351709846418e-05
-8.218359153081226e-06   1.472957896210452e-06   -1.5092423382361719e-05
-8.218359153081226e-06   1.472957896210452e-06   -1.5092423382361719e-05
-8.218359153081226e-06   1.472957896210452e-06   -1.5092423382361719e-05
-8.218359153081226e-06   1.472957896210452e-06   -1.5092423382361719e-05
-5.903063305265246e-06   9.039834373961489e-07   -1.1574981644623696e-05
-5.903063305265246e-06   9.039834373961489e-07   -1.1574981644623696e-05
-5.903063305265246e-06   9.039834373961489e-07   -1.1574981644623696e-05
-5.903063305265246e-06   9.039834373961489e-07   -1.1574981644623696e-05
-5.817700695562555e-06   1.9549077401461e-06   -1.5183976483849882e-05
-5.817700695562555e-06   1.9549077401461e-06   -1.5183976483849882e-05
-5.817700695562555e-06   1.9549077401461e-06   -1.5183976483849882e-05
-5.817700695562555e-06   1.9549077401461e-06   -1.5183976483849882e-05
-8.045995481696162e-06   1.347600700118024e-06   -1.1105767616276962e-05
-8.045995481696162e-06   1.347600700118024e-06   -1.1105767616276962e-05
-8.045995481696162e-06   1.347600700118024e-06   -1.1105767616276962e-05
-8.045995481696162e-06   1.347600700118024e-06   -1.1105767616276962e-05
-6.938430932647979e-06   1.41653025673296e-06   -1.2993066265326115e-05
-6.938430932647979e-06   1.41653025673296e-06   -1.2993066265326115e-05
-6.938430932647979e-06   1.41653025673296e-06   -1.2993066265326115e-05
-6.938430932647979e-06   1.41653025673296e-06   -1.2993066265326115e-05
-8.045995481696135e-06   1.954907740146079e-06   -1.4819592259832955e-05
-8.045995481696135e-06   1.954907740146079e-06   -1.4819592259832955e-05
-8.045995481696135e-06   1.954907740146079e-06   -1.4819592259832955e-05
-8.045995481696135e-06   1.954907740146079e-06   -1.4819592259832955e-05
-5.817700695562548e-06   1.3476007001179697e-06   -1.147015184029378e-05
-5.817700695562548e-06   1.3476007001179697e-06   -1.147015184029378e-05
-5.817700695562548e-06   1.3476007001179697e-06   -1.147015184029378e-05
-5.817700695562548e-06   1.3476007001179697e-06   -1.147015184029378e-05
-5.742428651134451e-06   2.47953722066509e-06   -1.5331367672592017e-05
-5.742428651134451e-06   2.47953722066509e-06   -1.5331367672592017e-05
-5.742428651134451e-06   2.47953722066509e-06   -1.5331367672592017e-05
-5.742428651134451e-06   2.47953722066509e-06   -1.5331367672592017e-05
-7.930493081636201e-06   1.8416443125991353e-06   -1.1301857876916199e-05
-7.930493081636201e-06   1.8416443125991353e-06   -1.1301857876916199e-05
-7.930493081636201e-06   1.8416443125991353e-06   -1.1301857876916199e-05
-7.930493081636201e-06   1.8416443125991353e-06   -1.1301857876916199e-05
-6.900685501957362e-06   1.8087247351676649e-06   -1.2998452096588708e-05
-6.900685501957362e-06   1.8087247351676649e-06   -1.2998452096588708e-05
-6.900685501957362e-06   1.8087247351676649e-06   -1.2998452096588708e-05
-6.900685501957362e-06   1.8087247351676649e-06   -1.2998452096588708e-05
-5.9801518045561085e-06   1.6587724094526992e-07   -1.7526578748923454e-05
-5.9801518045561085e-06   1.6587724094526992e-07   -1.7526578748923454e-05
-5.9801518045561085e-06   1.6587724094526992e-07   -1.7526578748923454e-05
-5.9801518045561085e-06   1.6587724094526992e-07   -1.7526578748923454e-05
-3.677443802573321e-06   2.5018458938027253e-07   -1.3638147669891188e-05
-3.677443802573321e-06   2.5018458938027253e-07   -1.3638147669891188e-05
-3.677443802573321e-06   2.5018458938027253e-07   -1.3638147669891188e-05
-3.677443802573321e-06   2.5018458938027253e-07   -1.3638147669891188e-05
-3.6027101111434643e-06   6.983397651331145e-07   -1.730309244218117e-05
-3.6027101111434643e-06   6.983397651331145e-07   -1.730309244218117e-05
-3.6027101111434643e-06   6.983397651331145e-07   -1.730309244218117e-05
-3.6027101111434643e-06   6.983397651331145e-07   -1.730309244218117e-05
-5.9030633052652344e-06   7.361384828682808e-07   -1.3491849682619128e-05
-5.9030633052652344e-06   7.361384828682808e-07   -1.3491849682619128e-05
-5.9030633052652344e-06   7.361384828682808e-07   -1.3491849682619128e-05
-5.9030633052652344e-06   7.361384828682808e-07   -1.3491849682619128e-05
-4.759990370598681e-06   5.310121274044533e-07   -1.5273895427118758e-05
-4.759990370598681e-06   5.310121274044533e-07   -1.5273895427118758e-05
-4.759990370598681e-06   5.310121274044533e-07   -1.5273895427118758e-05
-4.759990370598681e-06   5.310121274044533e-07   -1.5273895427118758e-05
-5.903063305265226e-06   6.983397651331074e-07   -1.7325771672822187e-05
-5.903063305265226e-06   6.983397651331074e-07   -1.7325771672822187e-05
-5.903063305265226e-06   6.983397651331074e-07   -1.7325771672822187e-05
-5.903063305265226e-06   6.983397651331074e-07   -1.7325771672822187e-05
-3.6027101111434583e-06   7.361384828683351e-07   -1.3469170451978056e-05
-3.6027101111434583e-06   7.361384828683351e-07   -1.3469170451978056e-05
-3.6027101111434583e-06   7.361384828683351e-07   -1.3469170451978056e-05
-3.6027101111434583e-06   7.361384828683351e-07   -1.3469170451978056e-05
-3.5179111998956034e-06   1.2325226967818442e-06   -1.7346928157136875e-05
-3.5179111998956034e-06   1.2325226967818442e-06   -1.7346928157136875e-05
-3.5179111998956034e-06   1.2325226967818442e-06   -1.7346928157136875e-05
-3.5179111998956034e-06   1.2325226967818442e-06   -1.7346928157136875e-05
-5.817700695562547e-06   1.2262913748409808e-06   -1.3510206871194001e-05
-5.817700695562547e-06   1.2262913748409808e-06   -1.3510206871194001e-05
-5.817700695562547e-06   1.2262913748409808e-06   -1.3510206871194001e-05
-5.817700695562547e-06   1.2262913748409808e-06   -1.3510206871194001e-05
-4.711063040391712e-06   9.494002379488832e-07   -1.5188468281010181e-05
-4.711063040391712e-06   9.494002379488832e-07   -1.5188468281010181e-05
-4.711063040391712e-06   9.494002379488832e-07   -1.5188468281010181e-05
-4.711063040391712e-06   9.494002379488832e-07   -1.5188468281010181e-05
-5.817700695562535e-06   1.2325226967818087e-06   -1.734318936397227e-05
-5.817700695562535e-06   1.2325226967818087e-06   -1.734318936397227e-05
-5.817700695562535e-06   1.2325226967818087e-06   -1.734318936397227e-05
-5.817700695562535e-06   1.2325226967818087e-06   -1.734318936397227e-05
-3.517911199895591e-06   1.2262913748409808e-06   -1.3513945664358497e-05
-3.517911199895591e-06   1.2262913748409808e-06   -1.3513945664358497e-05
-3.517911199895591e-06   1.2262913748409808e-06   -1.3513945664358497e-05
-3.517911199895591e-06   1.2262913748409808e-06   -1.3513945664358497e-05
-3.441932767032867e-06   1.776044628360677e-06   -1.763866825876077e-05
-3.441932767032867e-06   1.776044628360677e-06   -1.763866825876077e-05
-3.441932767032867e-06   1.776044628360677e-06   -1.763866825876077e-05
-3.441932767032867e-06   1.776044628360677e-06   -1.763866825876077e-05
-5.742428651134468e-06   1.72390893487162e-06   -1.3773227035831289e-05
-5.742428651134468e-06   1.72390893487162e-06   -1.3773227035831289e-05
-5.742428651134468e-06   1.72390893487162e-06   -1.3773227035831289e-05
-5.742428651134468e-06   1.72390893487162e-06   -1.3773227035831289e-05
-4.671332053825615e-06   1.37337159060284e-06   -1.5348065624784794e-05
-4.671332053825615e-06   1.37337159060284e-06   -1.5348065624784794e-05
-4.671332053825615e-06   1.37337159060284e-06   -1.5348065624784794e-05
-4.671332053825615e-06   1.37337159060284e-06   -1.5348065624784794e-05
-3.6774438025733083e-06   -5.453094396374308e-07   -1.5354825257167835e-05
-3.6774438025733083e-06   -5.453094396374308e-07   -1.5354825257167835e-05
-3.6774438025733083e-06   -5.453094396374308e-07   -1.5354825257167835e-05
-3.6774438025733083e-06   -5.453094396374308e-07   -1.5354825257167835e-05
-1.453055440553435e-06   1.156161729639108e-07   -1.1250955952907303e-05
-1.453055440553435e-06   1.156161729639108e-07   -1.1250955952907303e-05
-1.453055440553435e-06   1.156161729639108e-07   -1.1250955952907303e-05
-1.453055440553435e-06   1.156161729639108e-07   -1.1250955952907303e-05
-1.339670899073013e-06   -4.261533896089426e-08   -1.4856035212809903e-05
-1.339670899073013e-06   -4.261533896089426e-08   -1.4856035212809903e-05
-1.339670899073013e-06   -4.261533896089426e-08   -1.4856035212809903e-05
-1.339670899073013e-06   -4.261533896089426e-08   -1.4856035212809903e-05
-3.602710111143458e-06   5.873248790584694e-07   -1.1462267323503956e-05
-3.602710111143458e-06   5.873248790584694e-07   -1.1462267323503956e-05
-3.602710111143458e-06   5.873248790584694e-07   -1.1462267323503956e-05
-3.602710111143458e-06   5.873248790584694e-07   -1.1462267323503956e-05
-2.492739558812547e-06   7.775766985824257e-08   -1.3006477918535595e-05
-2.492739558812547e-06   7.775766985824257e-08   -1.3006477918535595e-05
-2.492739558812547e-06   7.775766985824257e-08   -1.3006477918535595e-05
-2.492739558812547e-06   7.775766985824257e-08   -1.3006477918535595e-05
-3.602710111143452e-06   -4.2615338960908444e-08   -1.523399934362144e-05
-3.602710111143452e-06   -4.2615338960908444e-08   -1.523399934362144e-05
-3.602710111143452e-06   -4.2615338960908444e-08   -1.523399934362144e-05
-3.602710111143452e-06   -4.2615338960908444e-08   -1.523399934362144e-05
-1.339670899073013e-06   5.873248790584152e-07   -1.1084303192692433e-05
-1.339670899073013e-06   5.873248790584152e-07   -1.1084303192692433e-05
-1.339670899073013e-06   5.873248790584152e-07   -1.1084303192692433e-05
-1.339670899073013e-06   5.873248790584152e-07   -1.1084303192692433e-05
-1.168530822267787e-06   4.399135596066801e-07   -1.5052674533924394e-05
-1.168530822267787e-06   4.399135596066801e-07   -1.5052674533924394e-05
-1.168530822267787e-06   4.399135596066801e-07   -1.5052674533924394e-05
-1.168530822267787e-06   4.399135596066801e-07   -1.5052674533924394e-05
-3.517911199895597e-06   1.0308659773618223e-06   -1.1491612021864397e-05
-3.517911199895597e-06   1.0308659773618223e-06   -1.1491612021864397e-05
-3.517911199895597e-06   1.0308659773618223e-06   -1.1491612021864397e-05
-3.517911199895597e-06   1.0308659773618223e-06   -1.1491612021864397e-05
-2.4250195323170036e-06   4.591949673242576e-07   -1.2970095528472918e-05
-2.4250195323170036e-06   4.591949673242576e-07   -1.2970095528472918e-05
-2.4250195323170036e-06   4.591949673242576e-07   -1.2970095528472918e-05
-2.4250195323170036e-06   4.591949673242576e-07   -1.2970095528472918e-05
-3.517911199895591e-06   4.399135596066792e-07   -1.5407245984577458e-05
-3.517911199895591e-06   4.399135596066792e-07   -1.5407245984577458e-05
-3.517911199895591e-06   4.399135596066792e-07   -1.5407245984577458e-05
-3.517911199895591e-06   4.399135596066792e-07   -1.5407245984577458e-05
-1.168530822267787e-06   1.0308659773618223e-06   -1.1137040571211306e-05
-1.168530822267787e-06   1.0308659773618223e-06   -1.1137040571211306e-05
-1.168530822267787e-06   1.0308659773618223e-06   -1.1137040571211306e-05
-1.168530822267787e-06   1.0308659773618223e-06   -1.1137040571211306e-05
-1.049515736116563e-06   9.917503113815386e-07   -1.547337482663046e-05
-1.049515736116563e-06   9.917503113815386e-07   -1.547337482663046e-05
-1.049515736116563e-06   9.917503113815386e-07   -1.547337482663046e-05
-1.049515736116563e-06   9.917503113815386e-07   -1.547337482663046e-05
-3.441932767032867e-06   1.531152601527805e-06   -1.1809654482524327e-05
-3.441932767032867e-06   1.531152601527805e-06   -1.1809654482524327e-05
-3.441932767032867e-06   1.531152601527805e-06   -1.1809654482524327e-05
-3.441932767032867e-06   1.531152601527805e-06   -1.1809654482524327e-05
-2.3546378248890325e-06   8.577366695691996e-07   -1.3217763160255645e-05
-2.3546378248890325e-06   8.577366695691996e-07   -1.3217763160255645e-05
-2.3546378248890325e-06   8.577366695691996e-07   -1.3217763160255645e-05
-2.3546378248890325e-06   8.577366695691996e-07   -1.3217763160255645e-05
-1.4530554405534283e-06   -9.953626342392707e-07   -8.31753081581392e-06
-1.4530554405534283e-06   -9.953626342392707e-07   -8.31753081581392e-06
-1.4530554405534283e-06   -9.953626342392707e-07   -8.31753081581392e-06
-1.4530554405534283e-06   -9.953626342392707e-07   -8.31753081581392e-06
1.5646751842885386e-07   1.7001734062396584e-07   -4.935764565925456e-06
1.5646751842885386e-07   1.7001734062396584e-07   -4.935764565925456e-06
1.5646751842885386e-07   1.7001734062396584e-07   -4.935764565925456e-06
1.5646751842885386e-07   1.7001734062396584e-07   -4.935764565925456e-06
7.7287775576072e-07   -6.53366987315193e-07   -7.920511630002191e-06
7.7287775576072e-07   -6.53366987315193e-07   -7.920511630002191e-06
7.7287775576072e-07   -6.53366987315193e-07   -7.920511630002191e-06
7.7287775576072e-07   -6.53366987315193e-07   -7.920511630002191e-06
-1.3396708990730118e-06   5.440751179199683e-07   -5.118062468420316e-06
-1.3396708990730118e-06   5.440751179199683e-07   -5.118062468420316e-06
-1.3396708990730118e-06   5.440751179199683e-07   -5.118062468420316e-06
-1.3396708990730118e-06   5.440751179199683e-07   -5.118062468420316e-06
-4.5137527662369913e-07   -1.8438650530293874e-07   -6.161478198568956e-06
-4.5137527662369913e-07   -1.8438650530293874e-07   -6.161478198568956e-06
-4.5137527662369913e-07   -1.8438650530293874e-07   -6.161478198568956e-06
-4.5137527662369913e-07   -1.8438650530293874e-07   -6.161478198568956e-06
-1.3396708990730063e-06   -6.533669873152557e-07   -8.638976893143277e-06
-1.3396708990730063e-06   -6.533669873152557e-07   -8.638976893143277e-06
-1.3396708990730063e-06   -6.533669873152557e-07   -8.638976893143277e-06
-1.3396708990730063e-06   -6.533669873152557e-07   -8.638976893143277e-06
7.7287775576072e-07   5.440751179199683e-07   -4.399597205279244e-06
7.7287775576072e-07   5.440751179199683e-07   -4.399597205279244e-06
7.7287775576072e-07   5.440751179199683e-07   -4.399597205279244e-06
7.7287775576072e-07   5.440751179199683e-07   -4.399597205279244e-06
1.2600127891114563e-06   -4.186098845719035e-07   -8.342793772979335e-06
1.2600127891114563e-06   -4.186098845719035e-07   -8.342793772979335e-06
1.2600127891114563e-06   -4.186098845719035e-07   -8.342793772979335e-06
1.2600127891114563e-06   -4.186098845719035e-07   -8.342793772979335e-06
-1.1685308222677851e-06   7.538120195552589e-07   -4.99867422982347e-06
-1.1685308222677851e-06   7.538120195552589e-07   -4.99867422982347e-06
-1.1685308222677851e-06   7.538120195552589e-07   -4.99867422982347e-06
-1.1685308222677851e-06   7.538120195552589e-07   -4.99867422982347e-06
-1.4241733095152248e-07   -4.2017358882029225e-09   -6.254055128751104e-06
-1.4241733095152248e-07   -4.2017358882029225e-09   -6.254055128751104e-06
-1.4241733095152248e-07   -4.2017358882029225e-09   -6.254055128751104e-06
-1.4241733095152248e-07   -4.2017358882029225e-09   -6.254055128751104e-06
-1.168530822267787e-06   -4.1860988457189946e-07   -9.046246915455605e-06
-1.168530822267787e-06   -4.1860988457189946e-07   -9.046246915455605e-06
-1.168530822267787e-06   -4.1860988457189946e-07   -9.046246915455605e-06
-1.168530822267787e-06   -4.1860988457189946e-07   -9.046246915455605e-06
1.2600127891114699e-06   7.538120195553131e-07   -4.295221087347132e-06
1.2600127891114699e-06   7.538120195553131e-07   -4.295221087347132e-06
1.2600127891114699e-06   7.538120195553131e-07   -4.295221087347132e-06
1.2600127891114699e-06   7.538120195553131e-07   -4.295221087347132e-06
1.8772408462486208e-06   4.033741625382491e-08   -9.335235970983494e-06
1.8772408462486208e-06   4.033741625382491e-08   -9.335235970983494e-06
1.8772408462486208e-06   4.033741625382491e-08   -9.335235970983494e-06
1.8772408462486208e-06   4.033741625382491e-08   -9.335235970983494e-06
-1.049515736116563e-06   1.1228010522466641e-06   -5.106786515303693e-06
-1.049515736116563e-06   1.1228010522466641e-06   -5.106786515303693e-06
-1.049515736116563e-06   1.1228010522466641e-06   -5.106786515303693e-06
-1.049515736116563e-06   1.1228010522466641e-06   -5.106786515303693e-06
1.2810057178226727e-07   1.9852410903500785e-07   -6.514914195874898e-06
1.2810057178226727e-07   1.9852410903500785e-07   -6.514914195874898e-06
1.2810057178226727e-07   1.9852410903500785e-07   -6.514914195874898e-06
1.2810057178226727e-07   1.9852410903500785e-07   -6.514914195874898e-06
-3.836019702665479e-06   7.33016093247547e-07   -6.990767814447126e-06
-3.836019702665479e-06   7.33016093247547e-07   -6.990767814447126e-06
-3.836019702665479e-06   7.33016093247547e-07   -6.990767814447126e-06
-3.836019702665479e-06   7.33016093247547e-07   -6.990767814447126e-06
-3.962668383628541e-06   -3.5234881966446363e-07   -7.853067897132734e-06
-3.962668383628541e-06   -3.5234881966446363e-07   -7.853067897132734e-06
-3.962668383628541e-06   -3.5234881966446363e-07   -7.853067897132734e-06
-3.962668383628541e-06   -3.5234881966446363e-07   -7.853067897132734e-06
-3.7685557256752437e-06   1.147380805997908e-06   -6.570181364098883e-06
-3.7685557256752437e-06   1.147380805997908e-06   -6.570181364098883e-06
-3.7685557256752437e-06   1.147380805997908e-06   -6.570181364098883e-06
-3.7685557256752437e-06   1.147380805997908e-06   -6.570181364098883e-06
-3.152662191295473e-06   -1.8620380017497946e-08   -6.897069876455925e-06
-3.152662191295473e-06   -1.8620380017497946e-08   -6.897069876455925e-06
-3.152662191295473e-06   -1.8620380017497946e-08   -6.897069876455925e-06
-3.152662191295473e-06   -1.8620380017497946e-08   -6.897069876455925e-06
-3.5194566750978814e-06   5.050453830445813e-07   -6.599945194622802e-06
-3.5194566750978814e-06   5.050453830445813e-07   -6.599945194622802e-06
-3.5194566750978814e-06   5.050453830445813e-07   -6.599945194622802e-06
-3.5194566750978814e-06   5.050453830445813e-07   -6.599945194622802e-06
-3.1526621912954765e-06   1.1473808059979145e-06   -5.870580652489682e-06
-3.1526621912954765e-06   1.1473808059979145e-06   -5.870580652489682e-06
-3.1526621912954765e-06   1.1473808059979145e-06   -5.870580652489682e-06
-3.1526621912954765e-06   1.1473808059979145e-06   -5.870580652489682e-06
-3.7685557256752572e-06   -1.8620380017606367e-08   -7.596670588065288e-06
-3.7685557256752572e-06   -1.8620380017606367e-08   -7.596670588065288e-06
-3.7685557256752572e-06   -1.8620380017606367e-08   -7.596670588065288e-06
-3.7685557256752572e-06   -1.8620380017606367e-08   -7.596670588065288e-06
-3.5227866393377187e-06   1.358087224447523e-06   -6.096488786812813e-06
-3.5227866393377187e-06   1.358087224447523e-06   -6.096488786812813e-06
-3.5227866393377187e-06   1.358087224447523e-06   -6.096488786812813e-06
-3.5227866393377187e-06   1.358087224447523e-06   -6.096488786812813e-06
-2.5901031103303293e-06   1.7171977742134938e-07   -6.939140866942699e-06
-2.5901031103303293e-06   1.7171977742134938e-07   -6.939140866942699e-06
-2.5901031103303293e-06   1.7171977742134938e-07   -6.939140866942699e-06
-2.5901031103303293e-06   1.7171977742134938e-07   -6.939140866942699e-06
-3.198320947650479e-06   6.772453819917784e-07   -6.228759834151675e-06
-3.198320947650479e-06   6.772453819917784e-07   -6.228759834151675e-06
-3.198320947650479e-06   6.772453819917784e-07   -6.228759834151675e-06
-3.198320947650479e-06   6.772453819917784e-07   -6.228759834151675e-06
-2.5901031103303467e-06   1.358087224447533e-06   -5.384668318597066e-06
-2.5901031103303467e-06   1.358087224447533e-06   -5.384668318597066e-06
-2.5901031103303467e-06   1.358087224447533e-06   -5.384668318597066e-06
-2.5901031103303467e-06   1.358087224447533e-06   -5.384668318597066e-06
-3.522786639337746e-06   1.7171977742134938e-07   -7.650961335158447e-06
-3.522786639337746e-06   1.7171977742134938e-07   -7.650961335158447e-06
-3.522786639337746e-06   1.7171977742134938e-07   -7.650961335158447e-06
-3.522786639337746e-06   1.7171977742134938e-07   -7.650961335158447e-06
-3.3332018389147395e-06   1.6925190039508427e-06   -5.6590692730728274e-06
-3.3332018389147395e-06   1.6925190039508427e-06   -5.6590692730728274e-06
-3.3332018389147395e-06   1.6925190039508427e-06   -5.6590692730728274e-06
-3.3332018389147395e-06   1.6925190039508427e-06   -5.6590692730728274e-06
-1.8955199032476368e-06   5.508016730326314e-07   -7.370175433967245e-06
-1.8955199032476368e-06   5.508016730326314e-07   -7.370175433967245e-06
-1.8955199032476368e-06   5.508016730326314e-07   -7.370175433967245e-06
-1.8955199032476368e-06   5.508016730326314e-07   -7.370175433967245e-06
-2.798786813630133e-06   8.442310382684396e-07   -6.040788202470919e-06
-2.798786813630133e-06   8.442310382684396e-07   -6.040788202470919e-06
-2.798786813630133e-06   8.442310382684396e-07   -6.040788202470919e-06
-2.798786813630133e-06   8.442310382684396e-07   -6.040788202470919e-06
-3.962668383628541e-06   4.2811304939888956e-07   -1.2797738241594856e-05
-3.962668383628541e-06   4.2811304939888956e-07   -1.2797738241594856e-05
-3.962668383628541e-06   4.2811304939888956e-07   -1.2797738241594856e-05
-3.962668383628541e-06   4.2811304939888956e-07   -1.2797738241594856e-05
-4.623960202987806e-06   -7.125131295713204e-08   -1.4199509891273983e-05
-4.623960202987806e-06   -7.125131295713204e-08   -1.4199509891273983e-05
-4.623960202987806e-06   -7.125131295713204e-08   -1.4199509891273983e-05
-4.623960202987806e-06   -7.125131295713204e-08   -1.4199509891273983e-05
-4.468800376236267e-06   9.039834373961489e-07   -1.280529195199048e-05
-4.468800376236267e-06   9.039834373961489e-07   -1.280529195199048e-05
-4.468800376236267e-06   9.039834373961489e-07   -1.280529195199048e-05
-4.468800376236267e-06   9.039834373961489e-07   -1.280529195199048e-05
-3.768555725675254e-06   3.5084124188169193e-07   -1.3640481052283441e-05
-3.768555725675254e-06   3.5084124188169193e-07   -1.3640481052283441e-05
-3.768555725675254e-06   3.5084124188169193e-07   -1.3640481052283441e-05
-3.768555725675254e-06   3.5084124188169193e-07   -1.3640481052283441e-05
-4.1571454782145894e-06   4.970065355182395e-07   -1.3080530640900012e-05
-4.1571454782145894e-06   4.970065355182395e-07   -1.3080530640900012e-05
-4.1571454782145894e-06   4.970065355182395e-07   -1.3080530640900012e-05
-4.1571454782145894e-06   4.970065355182395e-07   -1.3080530640900012e-05
-3.7685557256752437e-06   9.039834373961199e-07   -1.2473406634681751e-05
-3.7685557256752437e-06   9.039834373961199e-07   -1.2473406634681751e-05
-3.7685557256752437e-06   9.039834373961199e-07   -1.2473406634681751e-05
-3.7685557256752437e-06   9.039834373961199e-07   -1.2473406634681751e-05
-4.46880037623626e-06   3.5084124188169193e-07   -1.397236636959217e-05
-4.46880037623626e-06   3.5084124188169193e-07   -1.397236636959217e-05
-4.46880037623626e-06   3.5084124188169193e-07   -1.397236636959217e-05
-4.46880037623626e-06   3.5084124188169193e-07   -1.397236636959217e-05
-4.307278949148039e-06   1.347600700118024e-06   -1.2697676141945754e-05
-4.307278949148039e-06   1.347600700118024e-06   -1.2697676141945754e-05
-4.307278949148039e-06   1.347600700118024e-06   -1.2697676141945754e-05
-4.307278949148039e-06   1.347600700118024e-06   -1.2697676141945754e-05
-3.5227866393377407e-06   7.582472638313804e-07   -1.365155126319088e-05
-3.5227866393377407e-06   7.582472638313804e-07   -1.365155126319088e-05
-3.5227866393377407e-06   7.582472638313804e-07   -1.365155126319088e-05
-3.5227866393377407e-06   7.582472638313804e-07   -1.365155126319088e-05
-4.001818876578923e-06   8.386273103905576e-07   -1.2901392229057776e-05
-4.001818876578923e-06   8.386273103905576e-07   -1.2901392229057776e-05
-4.001818876578923e-06   8.386273103905576e-07   -1.2901392229057776e-05
-4.001818876578923e-06   8.386273103905576e-07   -1.2901392229057776e-05
-3.5227866393377187e-06   1.3476007001179898e-06   -1.2344064080173746e-05
-3.5227866393377187e-06   1.3476007001179898e-06   -1.2344064080173746e-05
-3.5227866393377187e-06   1.3476007001179898e-06   -1.2344064080173746e-05
-3.5227866393377187e-06   1.3476007001179898e-06   -1.2344064080173746e-05
-4.307278949148026e-06   7.582472638314889e-07   -1.4005163324962779e-05
-4.307278949148026e-06   7.582472638314889e-07   -1.4005163324962779e-05
-4.307278949148026e-06   7.582472638314889e-07   -1.4005163324962779e-05
-4.307278949148026e-06   7.582472638314889e-07   -1.4005163324962779e-05
-4.155741788857197e-06   1.8416443125991353e-06   -1.2908436669738514e-05
-4.155741788857197e-06   1.8416443125991353e-06   -1.2908436669738514e-05
-4.155741788857197e-06   1.8416443125991353e-06   -1.2908436669738514e-05
-4.155741788857197e-06   1.8416443125991353e-06   -1.2908436669738514e-05
-3.3332018389147467e-06   1.2245145534825865e-06   -1.390905873083933e-05
-3.3332018389147467e-06   1.2245145534825865e-06   -1.390905873083933e-05
-3.3332018389147467e-06   1.2245145534825865e-06   -1.390905873083933e-05
-3.3332018389147467e-06   1.2245145534825865e-06   -1.390905873083933e-05
-3.86585282745547e-06   1.1981692743825946e-06   -1.3005499915811264e-05
-3.86585282745547e-06   1.1981692743825946e-06   -1.3005499915811264e-05
-3.86585282745547e-06   1.1981692743825946e-06   -1.3005499915811264e-05
-3.86585282745547e-06   1.1981692743825946e-06   -1.3005499915811264e-05
-4.623960202987786e-06   2.501845893802405e-07   -1.4919805835679934e-05
-4.623960202987786e-06   2.501845893802405e-07   -1.4919805835679934e-05
-4.623960202987786e-06   2.501845893802405e-07   -1.4919805835679934e-05
-4.623960202987786e-06   2.501845893802405e-07   -1.4919805835679934e-05
-5.312378662411165e-06   3.570846815985221e-07   -1.6003029879387975e-05
-5.312378662411165e-06   3.570846815985221e-07   -1.6003029879387975e-05
-5.312378662411165e-06   3.570846815985221e-07   -1.6003029879387975e-05
-5.312378662411165e-06   3.570846815985221e-07   -1.6003029879387975e-05
-5.160290284849061e-06   7.361384828683351e-07   -1.4687038017919803e-05
-5.160290284849061e-06   7.361384828683351e-07   -1.4687038017919803e-05
-5.160290284849061e-06   7.361384828683351e-07   -1.4687038017919803e-05
-5.160290284849061e-06   7.361384828683351e-07   -1.4687038017919803e-05
-4.468800376236258e-06   7.946751029786533e-07   -1.587464317100722e-05
-4.468800376236258e-06   7.946751029786533e-07   -1.587464317100722e-05
-4.468800376236258e-06   7.946751029786533e-07   -1.587464317100722e-05
-4.468800376236258e-06   7.946751029786533e-07   -1.587464317100722e-05
-4.861862060597825e-06   6.030703194781668e-07   -1.5104577493637854e-05
-4.861862060597825e-06   6.030703194781668e-07   -1.5104577493637854e-05
-4.861862060597825e-06   6.030703194781668e-07   -1.5104577493637854e-05
-4.861862060597825e-06   6.030703194781668e-07   -1.5104577493637854e-05
-4.468800376236247e-06   7.361384828683327e-07   -1.472215998998594e-05
-4.468800376236247e-06   7.361384828683327e-07   -1.472215998998594e-05
-4.468800376236247e-06   7.361384828683327e-07   -1.472215998998594e-05
-4.468800376236247e-06   7.361384828683327e-07   -1.472215998998594e-05
-5.160290284849061e-06   7.946751029786533e-07   -1.5839521198941124e-05
-5.160290284849061e-06   7.946751029786533e-07   -1.5839521198941124e-05
-5.160290284849061e-06   7.946751029786533e-07   -1.5839521198941124e-05
-5.160290284849061e-06   7.946751029786533e-07   -1.5839521198941124e-05
-4.999728106870071e-06   1.2262913748409808e-06   -1.472850075811817e-05
-4.999728106870071e-06   1.2262913748409808e-06   -1.472850075811817e-05
-4.999728106870071e-06   1.2262913748409808e-06   -1.472850075811817e-05
-4.999728106870071e-06   1.2262913748409808e-06   -1.472850075811817e-05
-4.307278949148031e-06   1.241675399387375e-06   -1.5891813102382558e-05
-4.307278949148031e-06   1.241675399387375e-06   -1.5891813102382558e-05
-4.307278949148031e-06   1.241675399387375e-06   -1.5891813102382558e-05
-4.307278949148031e-06   1.241675399387375e-06   -1.5891813102382558e-05
-4.735121878591877e-06   9.783132805185005e-07   -1.5020724281988445e-05
-4.735121878591877e-06   9.783132805185005e-07   -1.5020724281988445e-05
-4.735121878591877e-06   9.783132805185005e-07   -1.5020724281988445e-05
-4.735121878591877e-06   9.783132805185005e-07   -1.5020724281988445e-05
-4.307278949148026e-06   1.2262913748410007e-06   -1.473773117284592e-05
-4.307278949148026e-06   1.2262913748410007e-06   -1.473773117284592e-05
-4.307278949148026e-06   1.2262913748410007e-06   -1.473773117284592e-05
-4.307278949148026e-06   1.2262913748410007e-06   -1.473773117284592e-05
-4.999728106870062e-06   1.241675399387375e-06   -1.5882582687654794e-05
-4.999728106870062e-06   1.241675399387375e-06   -1.5882582687654794e-05
-4.999728106870062e-06   1.241675399387375e-06   -1.5882582687654794e-05
-4.999728106870062e-06   1.241675399387375e-06   -1.5882582687654794e-05
-4.848452679503508e-06   1.72390893487162e-06   -1.5014437219895694e-05
-4.848452679503508e-06   1.72390893487162e-06   -1.5014437219895694e-05
-4.848452679503508e-06   1.72390893487162e-06   -1.5014437219895694e-05
-4.848452679503508e-06   1.72390893487162e-06   -1.5014437219895694e-05
-4.155741788857206e-06   1.6949637080688595e-06   -1.615158823489119e-05
-4.155741788857206e-06   1.6949637080688595e-06   -1.615158823489119e-05
-4.155741788857206e-06   1.6949637080688595e-06   -1.615158823489119e-05
-4.155741788857206e-06   1.6949637080688595e-06   -1.615158823489119e-05
-4.61902794263635e-06   1.358851027622311e-06   -1.5177777036991134e-05
-4.61902794263635e-06   1.358851027622311e-06   -1.5177777036991134e-05
-4.61902794263635e-06   1.358851027622311e-06   -1.5177777036991134e-05
-4.61902794263635e-06   1.358851027622311e-06   -1.5177777036991134e-05
-5.312378662411157e-06   1.1561617296395793e-07   -1.2865029430925883e-05
-5.312378662411157e-06   1.1561617296395793e-07   -1.2865029430925883e-05
-5.312378662411157e-06   1.1561617296395793e-07   -1.2865029430925883e-05
-5.312378662411157e-06   1.1561617296395793e-07   -1.2865029430925883e-05
-6.044905377966295e-06   7.908362842266262e-07   -1.3680775223426866e-05
-6.044905377966295e-06   7.908362842266262e-07   -1.3680775223426866e-05
-6.044905377966295e-06   7.908362842266262e-07   -1.3680775223426866e-05
-6.044905377966295e-06   7.908362842266262e-07   -1.3680775223426866e-05
-5.859706736273161e-06   5.873248790584152e-07   -1.2294167642845882e-05
-5.859706736273161e-06   5.873248790584152e-07   -1.2294167642845882e-05
-5.859706736273161e-06   5.873248790584152e-07   -1.2294167642845882e-05
-5.859706736273161e-06   5.873248790584152e-07   -1.2294167642845882e-05
-5.160290284849062e-06   1.230603623391573e-06   -1.3845828975152458e-05
-5.160290284849062e-06   1.230603623391573e-06   -1.3845828975152458e-05
-5.160290284849062e-06   1.230603623391573e-06   -1.3845828975152458e-05
-5.160290284849062e-06   1.230603623391573e-06   -1.3845828975152458e-05
-5.550899482306267e-06   7.295686354223717e-07   -1.2894192653275876e-05
-5.550899482306267e-06   7.295686354223717e-07   -1.2894192653275876e-05
-5.550899482306267e-06   7.295686354223717e-07   -1.2894192653275876e-05
-5.550899482306267e-06   7.295686354223717e-07   -1.2894192653275876e-05
-5.160290284849052e-06   5.873248790584146e-07   -1.2680134889445744e-05
-5.160290284849052e-06   5.873248790584146e-07   -1.2680134889445744e-05
-5.160290284849052e-06   5.873248790584146e-07   -1.2680134889445744e-05
-5.160290284849052e-06   5.873248790584146e-07   -1.2680134889445744e-05
-5.859706736273161e-06   1.2306036233914646e-06   -1.3459861728552672e-05
-5.859706736273161e-06   1.2306036233914646e-06   -1.3459861728552672e-05
-5.859706736273161e-06   1.2306036233914646e-06   -1.3459861728552672e-05
-5.859706736273161e-06   1.2306036233914646e-06   -1.3459861728552672e-05
-5.617674349670164e-06   1.0308659773618223e-06   -1.234341755902837e-05
-5.617674349670164e-06   1.0308659773618223e-06   -1.234341755902837e-05
-5.617674349670164e-06   1.0308659773618223e-06   -1.234341755902837e-05
-5.617674349670164e-06   1.0308659773618223e-06   -1.234341755902837e-05
-4.999728106870062e-06   1.6354485716878718e-06   -1.3736077520290763e-05
-4.999728106870062e-06   1.6354485716878718e-06   -1.3736077520290763e-05
-4.999728106870062e-06   1.6354485716878718e-06   -1.3736077520290763e-05
-4.999728106870062e-06   1.6354485716878718e-06   -1.3736077520290763e-05
-5.385210800092312e-06   1.079216766981827e-06   -1.2759867282096906e-05
-5.385210800092312e-06   1.079216766981827e-06   -1.2759867282096906e-05
-5.385210800092312e-06   1.079216766981827e-06   -1.2759867282096906e-05
-5.385210800092312e-06   1.079216766981827e-06   -1.2759867282096906e-05
-4.999728106870053e-06   1.030865977361839e-06   -1.2706167115623989e-05
-4.999728106870053e-06   1.030865977361839e-06   -1.2706167115623989e-05
-4.999728106870053e-06   1.030865977361839e-06   -1.2706167115623989e-05
-4.999728106870053e-06   1.030865977361839e-06   -1.2706167115623989e-05
-5.617674349670177e-06   1.6354485716877634e-06   -1.3373327963695219e-05
-5.617674349670177e-06   1.6354485716877634e-06   -1.3373327963695219e-05
-5.617674349670177e-06   1.6354485716877634e-06   -1.3373327963695219e-05
-5.617674349670177e-06   1.6354485716877634e-06   -1.3373327963695219e-05
-5.4282193271437435e-06   1.531152601527805e-06   -1.268558105255559e-05
-5.4282193271437435e-06   1.531152601527805e-06   -1.268558105255559e-05
-5.4282193271437435e-06   1.531152601527805e-06   -1.268558105255559e-05
-5.4282193271437435e-06   1.531152601527805e-06   -1.268558105255559e-05
-4.848452679503508e-06   2.08782293142733e-06   -1.3985860996562369e-05
-4.848452679503508e-06   2.08782293142733e-06   -1.3985860996562369e-05
-4.848452679503508e-06   2.08782293142733e-06   -1.3985860996562369e-05
-4.848452679503508e-06   2.08782293142733e-06   -1.3985860996562369e-05
-5.263379747245607e-06   1.4354033148873896e-06   -1.2902864113734749e-05
-5.263379747245607e-06   1.4354033148873896e-06   -1.2902864113734749e-05
-5.263379747245607e-06   1.4354033148873896e-06   -1.2902864113734749e-05
-5.263379747245607e-06   1.4354033148873896e-06   -1.2902864113734749e-05
-6.044905377966275e-06   1.7001734062398352e-07   -6.84393396210457e-06
-6.044905377966275e-06   1.7001734062398352e-07   -6.84393396210457e-06
-6.044905377966275e-06   1.7001734062398352e-07   -6.84393396210457e-06
-6.044905377966275e-06   1.7001734062398352e-07   -6.84393396210457e-06
-7.371342621956679e-06   1.3341726538712052e-06   -8.356169514140191e-06
-7.371342621956679e-06   1.3341726538712052e-06   -8.356169514140191e-06
-7.371342621956679e-06   1.3341726538712052e-06   -8.356169514140191e-06
-7.371342621956679e-06   1.3341726538712052e-06   -8.356169514140191e-06
-6.6962238936529715e-06   5.440751179200225e-07   -5.613950140187762e-06
-6.6962238936529715e-06   5.440751179200225e-07   -5.613950140187762e-06
-6.6962238936529715e-06   5.440751179200225e-07   -5.613950140187762e-06
-6.6962238936529715e-06   5.440751179200225e-07   -5.613950140187762e-06
-5.859706736273149e-06   1.7340364152300782e-06   -7.722122180873408e-06
-5.859706736273149e-06   1.7340364152300782e-06   -7.722122180873408e-06
-5.859706736273149e-06   1.7340364152300782e-06   -7.722122180873408e-06
-5.859706736273149e-06   1.7340364152300782e-06   -7.722122180873408e-06
-6.230338222111236e-06   9.92514931706873e-07   -6.659490147696158e-06
-6.230338222111236e-06   9.92514931706873e-07   -6.659490147696158e-06
-6.230338222111236e-06   9.92514931706873e-07   -6.659490147696158e-06
-6.230338222111236e-06   9.92514931706873e-07   -6.659490147696158e-06
-5.859706736273134e-06   5.440751179199912e-07   -6.327926918573725e-06
-5.859706736273134e-06   5.440751179199912e-07   -6.327926918573725e-06
-5.859706736273134e-06   5.440751179199912e-07   -6.327926918573725e-06
-5.859706736273134e-06   5.440751179199912e-07   -6.327926918573725e-06
-6.6962238936529715e-06   1.7340364152300782e-06   -7.008145402487439e-06
-6.6962238936529715e-06   1.7340364152300782e-06   -7.008145402487439e-06
-6.6962238936529715e-06   1.7340364152300782e-06   -7.008145402487439e-06
-6.6962238936529715e-06   1.7340364152300782e-06   -7.008145402487439e-06
-6.147111144030984e-06   7.538120195552589e-07   -5.5071291438962605e-06
-6.147111144030984e-06   7.538120195552589e-07   -5.5071291438962605e-06
-6.147111144030984e-06   7.538120195552589e-07   -5.5071291438962605e-06
-6.147111144030984e-06   7.538120195552589e-07   -5.5071291438962605e-06
-5.617674349670164e-06   1.9170154757957095e-06   -7.087445874908536e-06
-5.617674349670164e-06   1.9170154757957095e-06   -7.087445874908536e-06
-5.617674349670164e-06   1.9170154757957095e-06   -7.087445874908536e-06
-5.617674349670164e-06   1.9170154757957095e-06   -7.087445874908536e-06
-5.94799973785006e-06   1.1790272634629954e-06   -6.094110633875785e-06
-5.94799973785006e-06   1.1790272634629954e-06   -6.094110633875785e-06
-5.94799973785006e-06   1.1790272634629954e-06   -6.094110633875785e-06
-5.94799973785006e-06   1.1790272634629954e-06   -6.094110633875785e-06
-5.617674349670157e-06   7.538120195552949e-07   -6.205051217640547e-06
-5.617674349670157e-06   7.538120195552949e-07   -6.205051217640547e-06
-5.617674349670157e-06   7.538120195552949e-07   -6.205051217640547e-06
-5.617674349670157e-06   7.538120195552949e-07   -6.205051217640547e-06
-6.147111144030998e-06   1.917015475795818e-06   -6.389523801164263e-06
-6.147111144030998e-06   1.917015475795818e-06   -6.389523801164263e-06
-6.147111144030998e-06   1.917015475795818e-06   -6.389523801164263e-06
-6.147111144030998e-06   1.917015475795818e-06   -6.389523801164263e-06
-5.472591079503598e-06   1.12280105224661e-06   -5.6616608315417625e-06
-5.472591079503598e-06   1.12280105224661e-06   -5.6616608315417625e-06
-5.472591079503598e-06   1.12280105224661e-06   -5.6616608315417625e-06
-5.472591079503598e-06   1.12280105224661e-06   -5.6616608315417625e-06
-5.42821932714374e-06   2.197290432048426e-06   -6.380307380022507e-06
-5.42821932714374e-06   2.197290432048426e-06   -6.380307380022507e-06
-5.42821932714374e-06   2.197290432048426e-06   -6.380307380022507e-06
-5.42821932714374e-06   2.197290432048426e-06   -6.380307380022507e-06
-5.522280669302065e-06   1.327653954081502e-06   -5.701756589645106e-06
-5.522280669302065e-06   1.327653954081502e-06   -5.701756589645106e-06
-5.522280669302065e-06   1.327653954081502e-06   -5.701756589645106e-06
-5.522280669302065e-06   1.327653954081502e-06   -5.701756589645106e-06
3.577491242148464e-06   -3.5234881966441805e-07   -3.469669181804455e-06
3.577491242148464e-06   -3.5234881966441805e-07   -3.469669181804455e-06
3.577491242148464e-06   -3.5234881966441805e-07   -3.469669181804455e-06
3.577491242148464e-06   -3.5234881966441805e-07   -3.469669181804455e-06
3.8090832626158405e-07   -1.4501232764495492e-06   -9.455972049020333e-06
3.8090832626158405e-07   -1.4501232764495492e-06   -9.455972049020333e-06
3.8090832626158405e-07   -1.4501232764495492e-06   -9.455972049020333e-06
3.8090832626158405e-07   -1.4501232764495492e-06   -9.455972049020333e-06
6.459904524635124e-07   -1.8620380017497946e-08   -3.849713833166402e-06
6.459904524635124e-07   -1.8620380017497946e-08   -3.849713833166402e-06
6.459904524635124e-07   -1.8620380017497946e-08   -3.849713833166402e-06
6.459904524635124e-07   -1.8620380017497946e-08   -3.849713833166402e-06
4.3323183172228945e-06   -1.1935397182107977e-06   -9.288642004849412e-06
4.3323183172228945e-06   -1.1935397182107977e-06   -9.288642004849412e-06
4.3323183172228945e-06   -1.1935397182107977e-06   -9.288642004849412e-06
4.3323183172228945e-06   -1.1935397182107977e-06   -9.288642004849412e-06
2.1499494596701207e-06   -6.083235103206694e-07   -6.002490300328835e-06
2.1499494596701207e-06   -6.083235103206694e-07   -6.002490300328835e-06
2.1499494596701207e-06   -6.083235103206694e-07   -6.002490300328835e-06
2.1499494596701207e-06   -6.083235103206694e-07   -6.002490300328835e-06
4.33231831722288e-06   -1.8620380017533098e-08   -3.1447622302504434e-06
4.33231831722288e-06   -1.8620380017533098e-08   -3.1447622302504434e-06
4.33231831722288e-06   -1.8620380017533098e-08   -3.1447622302504434e-06
4.33231831722288e-06   -1.8620380017533098e-08   -3.1447622302504434e-06
6.459904524635124e-07   -1.1935397182107977e-06   -9.993593607765452e-06
6.459904524635124e-07   -1.1935397182107977e-06   -9.993593607765452e-06
6.459904524635124e-07   -1.1935397182107977e-06   -9.993593607765452e-06
6.459904524635124e-07   -1.1935397182107977e-06   -9.993593607765452e-06
9.592821219743574e-07   1.7171977742134938e-07   -3.884699515215723e-06
9.592821219743574e-07   1.7171977742134938e-07   -3.884699515215723e-06
9.592821219743574e-07   1.7171977742134938e-07   -3.884699515215723e-06
9.592821219743574e-07   1.7171977742134938e-07   -3.884699515215723e-06
4.967662537537184e-06   -1.020677570816417e-06   -9.849895132211145e-06
4.967662537537184e-06   -1.020677570816417e-06   -9.849895132211145e-06
4.967662537537184e-06   -1.020677570816417e-06   -9.849895132211145e-06
4.967662537537184e-06   -1.020677570816417e-06   -9.849895132211145e-06
2.6268086899509305e-06   -4.873104564148863e-07   -6.268492321542015e-06
2.6268086899509305e-06   -4.873104564148863e-07   -6.268492321542015e-06
2.6268086899509305e-06   -4.873104564148863e-07   -6.268492321542015e-06
2.6268086899509305e-06   -4.873104564148863e-07   -6.268492321542015e-06
4.967662537537184e-06   1.7171977742132733e-07   -3.169261106273128e-06
4.967662537537184e-06   1.7171977742132733e-07   -3.169261106273128e-06
4.967662537537184e-06   1.7171977742132733e-07   -3.169261106273128e-06
4.967662537537184e-06   1.7171977742132733e-07   -3.169261106273128e-06
9.592821219743438e-07   -1.020677570816417e-06   -1.0565333541153794e-05
9.592821219743438e-07   -1.020677570816417e-06   -1.0565333541153794e-05
9.592821219743438e-07   -1.020677570816417e-06   -1.0565333541153794e-05
9.592821219743438e-07   -1.020677570816417e-06   -1.0565333541153794e-05
1.2151163923111616e-06   5.508016730327399e-07   -4.271184024145884e-06
1.2151163923111616e-06   5.508016730327399e-07   -4.271184024145884e-06
1.2151163923111616e-06   5.508016730327399e-07   -4.271184024145884e-06
1.2151163923111616e-06   5.508016730327399e-07   -4.271184024145884e-06
5.731102407016581e-06   -5.868674175923006e-07   -1.111522592761336e-05
5.731102407016581e-06   -5.868674175923006e-07   -1.111522592761336e-05
5.731102407016581e-06   -5.868674175923006e-07   -1.111522592761336e-05
5.731102407016581e-06   -5.868674175923006e-07   -1.111522592761336e-05
3.0017559225867234e-06   -3.0802631095186873e-07   -6.733619784214488e-06
3.0017559225867234e-06   -3.0802631095186873e-07   -6.733619784214488e-06
3.0017559225867234e-06   -3.0802631095186873e-07   -6.733619784214488e-06
3.0017559225867234e-06   -3.0802631095186873e-07   -6.733619784214488e-06
3.8090832626158405e-07   -7.12513129570721e-08   -1.0175157232603148e-05
3.8090832626158405e-07   -7.12513129570721e-08   -1.0175157232603148e-05
3.8090832626158405e-07   -7.12513129570721e-08   -1.0175157232603148e-05
3.8090832626158405e-07   -7.12513129570721e-08   -1.0175157232603148e-05
-3.3161187004314896e-06   -5.66184027743586e-07   -1.663382857263016e-05
-3.3161187004314896e-06   -5.66184027743586e-07   -1.663382857263016e-05
-3.3161187004314896e-06   -5.66184027743586e-07   -1.663382857263016e-05
-3.3161187004314896e-06   -5.66184027743586e-07   -1.663382857263016e-05
-3.0851488743865888e-06   3.5084124188180035e-07   -1.0231490008847169e-05
-3.0851488743865888e-06   3.5084124188180035e-07   -1.0231490008847169e-05
-3.0851488743865888e-06   3.5084124188180035e-07   -1.0231490008847169e-05
-3.0851488743865888e-06   3.5084124188180035e-07   -1.0231490008847169e-05
6.459904524635087e-07   -2.1243494388915006e-07   -1.6112089842134828e-05
6.459904524635087e-07   -2.1243494388915006e-07   -1.6112089842134828e-05
6.459904524635087e-07   -2.1243494388915006e-07   -1.6112089842134828e-05
6.459904524635087e-07   -2.1243494388915006e-07   -1.6112089842134828e-05
-1.313007787945563e-06   -1.579481051028689e-08   -1.296507685481366e-05
-1.313007787945563e-06   -1.579481051028689e-08   -1.296507685481366e-05
-1.313007787945563e-06   -1.579481051028689e-08   -1.296507685481366e-05
-1.313007787945563e-06   -1.579481051028689e-08   -1.296507685481366e-05
6.459904524634989e-07   3.508412418816789e-07   -9.89352429738461e-06
6.459904524634989e-07   3.508412418816789e-07   -9.89352429738461e-06
6.459904524634989e-07   3.508412418816789e-07   -9.89352429738461e-06
6.459904524634989e-07   3.508412418816789e-07   -9.89352429738461e-06
-3.0851488743865888e-06   -2.1243494388915006e-07   -1.645005555359736e-05
-3.0851488743865888e-06   -2.1243494388915006e-07   -1.645005555359736e-05
-3.0851488743865888e-06   -2.1243494388915006e-07   -1.645005555359736e-05
-3.0851488743865888e-06   -2.1243494388915006e-07   -1.645005555359736e-05
-2.8527964007305453e-06   7.582472638313804e-07   -1.0247848073127361e-05
-2.8527964007305453e-06   7.582472638313804e-07   -1.0247848073127361e-05
-2.8527964007305453e-06   7.582472638313804e-07   -1.0247848073127361e-05
-2.8527964007305453e-06   7.582472638313804e-07   -1.0247848073127361e-05
9.592821219743595e-07   1.5398288069948772e-07   -1.623875364775636e-05
9.592821219743595e-07   1.5398288069948772e-07   -1.623875364775636e-05
9.592821219743595e-07   1.5398288069948772e-07   -1.623875364775636e-05
9.592821219743595e-07   1.5398288069948772e-07   -1.623875364775636e-05
-1.1094283429254354e-06   2.760115752704819e-07   -1.286412008966604e-05
-1.1094283429254354e-06   2.760115752704819e-07   -1.286412008966604e-05
-1.1094283429254354e-06   2.760115752704819e-07   -1.286412008966604e-05
-1.1094283429254354e-06   2.760115752704819e-07   -1.286412008966604e-05
9.592821219743574e-07   7.582472638313883e-07   -9.885289443248182e-06
9.592821219743574e-07   7.582472638313883e-07   -9.885289443248182e-06
9.592821219743574e-07   7.582472638313883e-07   -9.885289443248182e-06
9.592821219743574e-07   7.582472638313883e-07   -9.885289443248182e-06
-2.8527964007305453e-06   1.5398288069948772e-07   -1.6601312277635485e-05
-2.8527964007305453e-06   1.5398288069948772e-07   -1.6601312277635485e-05
-2.8527964007305453e-06   1.5398288069948772e-07   -1.6601312277635485e-05
-2.8527964007305453e-06   1.5398288069948772e-07   -1.6601312277635485e-05
-2.631335747781386e-06   1.2245145534825865e-06   -1.0506412501775004e-05
-2.631335747781386e-06   1.2245145534825865e-06   -1.0506412501775004e-05
-2.631335747781386e-06   1.2245145534825865e-06   -1.0506412501775004e-05
-2.631335747781386e-06   1.2245145534825865e-06   -1.0506412501775004e-05
1.2151163923111616e-06   5.888885879694154e-07   -1.65357904892881e-05
1.2151163923111616e-06   5.888885879694154e-07   -1.65357904892881e-05
1.2151163923111616e-06   5.888885879694154e-07   -1.65357904892881e-05
1.2151163923111616e-06   5.888885879694154e-07   -1.65357904892881e-05
-8.816392463275948e-07   6.004795638403677e-07   -1.3048152343746045e-05
-8.816392463275948e-07   6.004795638403677e-07   -1.3048152343746045e-05
-8.816392463275948e-07   6.004795638403677e-07   -1.3048152343746045e-05
-8.816392463275948e-07   6.004795638403677e-07   -1.3048152343746045e-05
-3.3161187004314896e-06   3.570846815985102e-07   -1.2339776904920054e-05
-3.3161187004314896e-06   3.570846815985102e-07   -1.2339776904920054e-05
-3.3161187004314896e-06   3.570846815985102e-07   -1.2339776904920054e-05
-3.3161187004314896e-06   3.570846815985102e-07   -1.2339776904920054e-05
-6.9781788439806236e-06   4.496773894251734e-07   -1.838765485280596e-05
-6.9781788439806236e-06   4.496773894251734e-07   -1.838765485280596e-05
-6.9781788439806236e-06   4.496773894251734e-07   -1.838765485280596e-05
-6.9781788439806236e-06   4.496773894251734e-07   -1.838765485280596e-05
-6.745917028015958e-06   7.946751029786533e-07   -1.2115440986460065e-05
-6.745917028015958e-06   7.946751029786533e-07   -1.2115440986460065e-05
-6.745917028015958e-06   7.946751029786533e-07   -1.2115440986460065e-05
-6.745917028015958e-06   7.946751029786533e-07   -1.2115440986460065e-05
-3.0851488743865947e-06   8.25218142649106e-07   -1.823504706631126e-05
-3.0851488743865947e-06   8.25218142649106e-07   -1.823504706631126e-05
-3.0851488743865947e-06   8.25218142649106e-07   -1.823504706631126e-05
-3.0851488743865947e-06   8.25218142649106e-07   -1.823504706631126e-05
-5.002290405497836e-06   6.830279945445284e-07   -1.4954497092263097e-05
-5.002290405497836e-06   6.830279945445284e-07   -1.4954497092263097e-05
-5.002290405497836e-06   6.830279945445284e-07   -1.4954497092263097e-05
-5.002290405497836e-06   6.830279945445284e-07   -1.4954497092263097e-05
-3.0851488743865955e-06   7.946751029786268e-07   -1.2133766810262369e-05
-3.0851488743865955e-06   7.946751029786268e-07   -1.2133766810262369e-05
-3.0851488743865955e-06   7.946751029786268e-07   -1.2133766810262369e-05
-3.0851488743865955e-06   7.946751029786268e-07   -1.2133766810262369e-05
-6.745917028015949e-06   8.25218142649106e-07   -1.821672124250901e-05
-6.745917028015949e-06   8.25218142649106e-07   -1.821672124250901e-05
-6.745917028015949e-06   8.25218142649106e-07   -1.821672124250901e-05
-6.745917028015949e-06   8.25218142649106e-07   -1.821672124250901e-05
-6.509426860301371e-06   1.241675399387375e-06   -1.214616219972624e-05
-6.509426860301371e-06   1.241675399387375e-06   -1.214616219972624e-05
-6.509426860301371e-06   1.241675399387375e-06   -1.214616219972624e-05
-6.509426860301371e-06   1.241675399387375e-06   -1.214616219972624e-05
-2.85279640073055e-06   1.2222348174220675e-06   -1.8228881949831812e-05
-2.85279640073055e-06   1.2222348174220675e-06   -1.8228881949831812e-05
-2.85279640073055e-06   1.2222348174220675e-06   -1.8228881949831812e-05
-2.85279640073055e-06   1.2222348174220675e-06   -1.8228881949831812e-05
-4.798625128937305e-06   1.011560375499673e-06   -1.4859429404334032e-05
-4.798625128937305e-06   1.011560375499673e-06   -1.4859429404334032e-05
-4.798625128937305e-06   1.011560375499673e-06   -1.4859429404334032e-05
-4.798625128937305e-06   1.011560375499673e-06   -1.4859429404334032e-05
-2.852796400730552e-06   1.2416753993873265e-06   -1.2134497850547154e-05
-2.852796400730552e-06   1.2416753993873265e-06   -1.2134497850547154e-05
-2.852796400730552e-06   1.2416753993873265e-06   -1.2134497850547154e-05
-2.852796400730552e-06   1.2416753993873265e-06   -1.2134497850547154e-05
-6.509426860301361e-06   1.222234817422176e-06   -1.8240546299010953e-05
-6.509426860301361e-06   1.222234817422176e-06   -1.8240546299010953e-05
-6.509426860301361e-06   1.222234817422176e-06   -1.8240546299010953e-05
-6.509426860301361e-06   1.222234817422176e-06   -1.8240546299010953e-05
-6.284014018081071e-06   1.694963708068751e-06   -1.2419935282881095e-05
-6.284014018081071e-06   1.694963708068751e-06   -1.2419935282881095e-05
-6.284014018081071e-06   1.694963708068751e-06   -1.2419935282881095e-05
-6.284014018081071e-06   1.694963708068751e-06   -1.2419935282881095e-05
-2.631335747781394e-06   1.6261784871954158e-06   -1.8466461267523183e-05
-2.631335747781394e-06   1.6261784871954158e-06   -1.8466461267523183e-05
-2.631335747781394e-06   1.6261784871954158e-06   -1.8466461267523183e-05
-2.631335747781394e-06   1.6261784871954158e-06   -1.8466461267523183e-05
-4.609698204178535e-06   1.345157790040726e-06   -1.5000578088568414e-05
-4.609698204178535e-06   1.345157790040726e-06   -1.5000578088568414e-05
-4.609698204178535e-06   1.345157790040726e-06   -1.5000578088568414e-05
-4.609698204178535e-06   1.345157790040726e-06   -1.5000578088568414e-05
-6.978178843980634e-06   7.908362842266297e-07   -1.0367098691020584e-05
-6.978178843980634e-06   7.908362842266297e-07   -1.0367098691020584e-05
-6.978178843980634e-06   7.908362842266297e-07   -1.0367098691020584e-05
-6.978178843980634e-06   7.908362842266297e-07   -1.0367098691020584e-05
-1.0607758233204974e-05   1.4388787726071816e-06   -1.6027572180032793e-05
-1.0607758233204974e-05   1.4388787726071816e-06   -1.6027572180032793e-05
-1.0607758233204974e-05   1.4388787726071816e-06   -1.6027572180032793e-05
-1.0607758233204974e-05   1.4388787726071816e-06   -1.6027572180032793e-05
-1.0341503158742618e-05   1.230603623391573e-06   -9.756210995618742e-06
-1.0341503158742618e-05   1.230603623391573e-06   -9.756210995618742e-06
-1.0341503158742618e-05   1.230603623391573e-06   -9.756210995618742e-06
-1.0341503158742618e-05   1.230603623391573e-06   -9.756210995618742e-06
-6.7459170280159475e-06   1.8398332351460354e-06   -1.6114392313882554e-05
-6.7459170280159475e-06   1.8398332351460354e-06   -1.6114392313882554e-05
-6.7459170280159475e-06   1.8398332351460354e-06   -1.6114392313882554e-05
-6.7459170280159475e-06   1.8398332351460354e-06   -1.6114392313882554e-05
-8.608142652260206e-06   1.3761865080288375e-06   -1.2732494903871822e-05
-8.608142652260206e-06   1.3761865080288375e-06   -1.2732494903871822e-05
-8.608142652260206e-06   1.3761865080288375e-06   -1.2732494903871822e-05
-8.608142652260206e-06   1.3761865080288375e-06   -1.2732494903871822e-05
-6.745917028015958e-06   1.2306036233915046e-06   -1.0121748762671474e-05
-6.745917028015958e-06   1.2306036233915046e-06   -1.0121748762671474e-05
-6.745917028015958e-06   1.2306036233915046e-06   -1.0121748762671474e-05
-6.745917028015958e-06   1.2306036233915046e-06   -1.0121748762671474e-05
-1.0341503158742635e-05   1.8398332351460354e-06   -1.5748854546829944e-05
-1.0341503158742635e-05   1.8398332351460354e-06   -1.5748854546829944e-05
-1.0341503158742635e-05   1.8398332351460354e-06   -1.5748854546829944e-05
-1.0341503158742635e-05   1.8398332351460354e-06   -1.5748854546829944e-05
-1.0020268672771936e-05   1.6354485716877634e-06   -9.660738081786267e-06
-1.0020268672771936e-05   1.6354485716877634e-06   -9.660738081786267e-06
-1.0020268672771936e-05   1.6354485716877634e-06   -9.660738081786267e-06
-1.0020268672771936e-05   1.6354485716877634e-06   -9.660738081786267e-06
-6.509426860301371e-06   2.2003134893145305e-06   -1.585106005314654e-05
-6.509426860301371e-06   2.2003134893145305e-06   -1.585106005314654e-05
-6.509426860301371e-06   2.2003134893145305e-06   -1.585106005314654e-05
-6.509426860301371e-06   2.2003134893145305e-06   -1.585106005314654e-05
-8.338586228914652e-06   1.6935721608345384e-06   -1.2498416308369982e-05
-8.338586228914652e-06   1.6935721608345384e-06   -1.2498416308369982e-05
-8.338586228914652e-06   1.6935721608345384e-06   -1.2498416308369982e-05
-8.338586228914652e-06   1.6935721608345384e-06   -1.2498416308369982e-05
-6.509426860301371e-06   1.6354485716877964e-06   -9.999657032362284e-06
-6.509426860301371e-06   1.6354485716877964e-06   -9.999657032362284e-06
-6.509426860301371e-06   1.6354485716877964e-06   -9.999657032362284e-06
-6.509426860301371e-06   1.6354485716877964e-06   -9.999657032362284e-06
-1.0020268672771936e-05   2.2003134893145305e-06   -1.551214110257057e-05
-1.0020268672771936e-05   2.2003134893145305e-06   -1.551214110257057e-05
-1.0020268672771936e-05   2.2003134893145305e-06   -1.551214110257057e-05
-1.0020268672771936e-05   2.2003134893145305e-06   -1.551214110257057e-05
-9.753269091869534e-06   2.08782293142733e-06   -9.928244541497217e-06
-9.753269091869534e-06   2.08782293142733e-06   -9.928244541497217e-06
-9.753269091869534e-06   2.08782293142733e-06   -9.928244541497217e-06
-9.753269091869534e-06   2.08782293142733e-06   -9.928244541497217e-06
-6.284014018081071e-06   2.602150209716288e-06   -1.6018932698118034e-05
-6.284014018081071e-06   2.602150209716288e-06   -1.6018932698118034e-05
-6.284014018081071e-06   2.602150209716288e-06   -1.6018932698118034e-05
-6.284014018081071e-06   2.602150209716288e-06   -1.6018932698118034e-05
-8.161664208744223e-06   2.005357917997234e-06   -1.253144033864804e-05
-8.161664208744223e-06   2.005357917997234e-06   -1.253144033864804e-05
-8.161664208744223e-06   2.005357917997234e-06   -1.253144033864804e-05
-8.161664208744223e-06   2.005357917997234e-06   -1.253144033864804e-05
-1.0607758233204974e-05   1.3341726538712393e-06   -5.352160676653866e-06
-1.0607758233204974e-05   1.3341726538712393e-06   -5.352160676653866e-06
-1.0607758233204974e-05   1.3341726538712393e-06   -5.352160676653866e-06
-1.0607758233204974e-05   1.3341726538712393e-06   -5.352160676653866e-06
-1.4756486925835643e-05   2.475901590638565e-06   -1.1581671135644654e-05
-1.4756486925835643e-05   2.475901590638565e-06   -1.1581671135644654e-05
-1.4756486925835643e-05   2.475901590638565e-06   -1.1581671135644654e-05
-1.4756486925835643e-05   2.475901590638565e-06   -1.1581671135644654e-05
-1.4009506054940527e-05   1.7340364152300782e-06   -3.3228599615481454e-06
-1.4009506054940527e-05   1.7340364152300782e-06   -3.3228599615481454e-06
-1.4009506054940527e-05   1.7340364152300782e-06   -3.3228599615481454e-06
-1.4009506054940527e-05   1.7340364152300782e-06   -3.3228599615481454e-06
-1.0341503158742616e-05   2.8933888925490375e-06   -1.0131809608269384e-05
-1.0341503158742616e-05   2.8933888925490375e-06   -1.0131809608269384e-05
-1.0341503158742616e-05   2.8933888925490375e-06   -1.0131809608269384e-05
-1.0341503158742616e-05   2.8933888925490375e-06   -1.0131809608269384e-05
-1.1923445687069088e-05   2.15522608323969e-06   -7.052341042139651e-06
-1.1923445687069088e-05   2.15522608323969e-06   -7.052341042139651e-06
-1.1923445687069088e-05   2.15522608323969e-06   -7.052341042139651e-06
-1.1923445687069088e-05   2.15522608323969e-06   -7.052341042139651e-06
-1.0341503158742625e-05   1.7340364152301275e-06   -4.018471447939499e-06
-1.0341503158742625e-05   1.7340364152301275e-06   -4.018471447939499e-06
-1.0341503158742625e-05   1.7340364152301275e-06   -4.018471447939499e-06
-1.0341503158742625e-05   1.7340364152301275e-06   -4.018471447939499e-06
-1.400950605494048e-05   2.8933888925490375e-06   -9.436198121878043e-06
-1.400950605494048e-05   2.8933888925490375e-06   -9.436198121878043e-06
-1.400950605494048e-05   2.8933888925490375e-06   -9.436198121878043e-06
-1.400950605494048e-05   2.8933888925490375e-06   -9.436198121878043e-06
-1.3392220997743078e-05   1.917015475795818e-06   -2.6990387430644164e-06
-1.3392220997743078e-05   1.917015475795818e-06   -2.6990387430644164e-06
-1.3392220997743078e-05   1.917015475795818e-06   -2.6990387430644164e-06
-1.3392220997743078e-05   1.917015475795818e-06   -2.6990387430644164e-06
-1.0020268672771921e-05   3.043377559021148e-06   -8.994776534618185e-06
-1.0020268672771921e-05   3.043377559021148e-06   -8.994776534618185e-06
-1.0020268672771921e-05   3.043377559021148e-06   -8.994776534618185e-06
-1.0020268672771921e-05   3.043377559021148e-06   -8.994776534618185e-06
-1.1657912694431329e-05   2.3446382445431978e-06   -5.846126243165794e-06
-1.1657912694431329e-05   2.3446382445431978e-06   -5.846126243165794e-06
-1.1657912694431329e-05   2.3446382445431978e-06   -5.846126243165794e-06
-1.1657912694431329e-05   2.3446382445431978e-06   -5.846126243165794e-06
-1.0020268672771936e-05   1.9170154757958026e-06   -3.374855992999625e-06
-1.0020268672771936e-05   1.9170154757958026e-06   -3.374855992999625e-06
-1.0020268672771936e-05   1.9170154757958026e-06   -3.374855992999625e-06
-1.0020268672771936e-05   1.9170154757958026e-06   -3.374855992999625e-06
-1.3392220997743038e-05   3.0433775590210394e-06   -8.318959284682936e-06
-1.3392220997743038e-05   3.0433775590210394e-06   -8.318959284682936e-06
-1.3392220997743038e-05   3.0433775590210394e-06   -8.318959284682936e-06
-1.3392220997743038e-05   3.0433775590210394e-06   -8.318959284682936e-06
-1.2659045406886952e-05   2.197290432048426e-06   -2.0370254850086695e-06
-1.2659045406886952e-05   2.197290432048426e-06   -2.0370254850086695e-06
-1.2659045406886952e-05   2.197290432048426e-06   -2.0370254850086695e-06
-1.2659045406886952e-05   2.197290432048426e-06   -2.0370254850086695e-06
-9.75326909186952e-06   3.2300698285290348e-06   -7.499653647926059e-06
-9.75326909186952e-06   3.2300698285290348e-06   -7.499653647926059e-06
-9.75326909186952e-06   3.2300698285290348e-06   -7.499653647926059e-06
-9.75326909186952e-06   3.2300698285290348e-06   -7.499653647926059e-06
-1.107427247354414e-05   2.4348323597887843e-06   -4.820838863891041e-06
-1.107427247354414e-05   2.4348323597887843e-06   -4.820838863891041e-06
-1.107427247354414e-05   2.4348323597887843e-06   -4.820838863891041e-06
-1.107427247354414e-05   2.4348323597887843e-06   -4.820838863891041e-06
1.1092732990795266e-05   -1.4501232764495234e-06   3.602877465390831e-08
1.1092732990795266e-05   -1.4501232764495234e-06   3.602877465390831e-08
1.1092732990795266e-05   -1.4501232764495234e-06   3.602877465390831e-08
1.1092732990795266e-05   -1.4501232764495234e-06   3.602877465390831e-08
4.7066398497081754e-06   -2.5999332209601916e-06   -1.1297345760530894e-05
4.7066398497081754e-06   -2.5999332209601916e-06   -1.1297345760530894e-05
4.7066398497081754e-06   -2.5999332209601916e-06   -1.1297345760530894e-05
4.7066398497081754e-06   -2.5999332209601916e-06   -1.1297345760530894e-05
5.029190515222341e-06   -1.1935397182107977e-06   -1.128929769506049e-06
5.029190515222341e-06   -1.1935397182107977e-06   -1.128929769506049e-06
5.029190515222341e-06   -1.1935397182107977e-06   -1.128929769506049e-06
5.029190515222341e-06   -1.1935397182107977e-06   -1.128929769506049e-06
1.1913070654280545e-05   -2.419775215696681e-06   -1.1866322036111615e-05
1.1913070654280545e-05   -2.419775215696681e-06   -1.1866322036111615e-05
1.1913070654280545e-05   -2.419775215696681e-06   -1.1866322036111615e-05
1.1913070654280545e-05   -2.419775215696681e-06   -1.1866322036111615e-05
7.85429789093666e-06   -1.7185640005964965e-06   -5.522427492931888e-06
7.85429789093666e-06   -1.7185640005964965e-06   -5.522427492931888e-06
7.85429789093666e-06   -1.7185640005964965e-06   -5.522427492931888e-06
7.85429789093666e-06   -1.7185640005964965e-06   -5.522427492931888e-06
1.1913070654280596e-05   -1.1935397182108307e-06   -3.931884710145733e-07
1.1913070654280596e-05   -1.1935397182108307e-06   -3.931884710145733e-07
1.1913070654280596e-05   -1.1935397182108307e-06   -3.931884710145733e-07
1.1913070654280596e-05   -1.1935397182108307e-06   -3.931884710145733e-07
5.029190515222327e-06   -2.4197752156965725e-06   -1.2602063334603145e-05
5.029190515222327e-06   -2.4197752156965725e-06   -1.2602063334603145e-05
5.029190515222327e-06   -2.4197752156965725e-06   -1.2602063334603145e-05
5.029190515222327e-06   -2.4197752156965725e-06   -1.2602063334603145e-05
5.387098464641586e-06   -1.020677570816417e-06   -1.6428991633239253e-06
5.387098464641586e-06   -1.020677570816417e-06   -1.6428991633239253e-06
5.387098464641586e-06   -1.020677570816417e-06   -1.6428991633239253e-06
5.387098464641586e-06   -1.020677570816417e-06   -1.6428991633239253e-06
1.2599810677730578e-05   -2.2626713857928265e-06   -1.291888989615324e-05
1.2599810677730578e-05   -2.2626713857928265e-06   -1.291888989615324e-05
1.2599810677730578e-05   -2.2626713857928265e-06   -1.291888989615324e-05
1.2599810677730578e-05   -2.2626713857928265e-06   -1.291888989615324e-05
8.470066754411652e-06   -1.648484762967542e-06   -6.40449533098348e-06
8.470066754411652e-06   -1.648484762967542e-06   -6.40449533098348e-06
8.470066754411652e-06   -1.648484762967542e-06   -6.40449533098348e-06
8.470066754411652e-06   -1.648484762967542e-06   -6.40449533098348e-06
1.2599810677730599e-05   -1.0206775708164296e-06   -8.977028743382422e-07
1.2599810677730599e-05   -1.0206775708164296e-06   -8.977028743382422e-07
1.2599810677730599e-05   -1.0206775708164296e-06   -8.977028743382422e-07
1.2599810677730599e-05   -1.0206775708164296e-06   -8.977028743382422e-07
5.387098464641572e-06   -2.2626713857928265e-06   -1.3664086185139087e-05
5.387098464641572e-06   -2.2626713857928265e-06   -1.3664086185139087e-05
5.387098464641572e-06   -2.2626713857928265e-06   -1.3664086185139087e-05
5.387098464641572e-06   -2.2626713857928265e-06   -1.3664086185139087e-05
5.681068304003731e-06   -5.868674175923006e-07   -2.821672260393802e-06
5.681068304003731e-06   -5.868674175923006e-07   -2.821672260393802e-06
5.681068304003731e-06   -5.868674175923006e-07   -2.821672260393802e-06
5.681068304003731e-06   -5.868674175923006e-07   -2.821672260393802e-06
1.3397532356302792e-05   -1.7684002770460743e-06   -1.4973525965219912e-05
1.3397532356302792e-05   -1.7684002770460743e-06   -1.4973525965219912e-05
1.3397532356302792e-05   -1.7684002770460743e-06   -1.4973525965219912e-05
1.3397532356302792e-05   -1.7684002770460743e-06   -1.4973525965219912e-05
8.79700314895843e-06   -1.453090477282243e-06   -7.49516316617127e-06
8.79700314895843e-06   -1.453090477282243e-06   -7.49516316617127e-06
8.79700314895843e-06   -1.453090477282243e-06   -7.49516316617127e-06
8.79700314895843e-06   -1.453090477282243e-06   -7.49516316617127e-06
4.706639849708189e-06   -5.6618402774359e-07   -7.5347540867903655e-06
4.706639849708189e-06   -5.6618402774359e-07   -7.5347540867903655e-06
4.706639849708189e-06   -5.6618402774359e-07   -7.5347540867903655e-06
4.706639849708189e-06   -5.6618402774359e-07   -7.5347540867903655e-06
-2.0310309990007852e-06   -1.205750798851041e-06   -1.9147945563969745e-05
-2.0310309990007852e-06   -1.205750798851041e-06   -1.9147945563969745e-05
-2.0310309990007852e-06   -1.205750798851041e-06   -1.9147945563969745e-05
-2.0310309990007852e-06   -1.205750798851041e-06   -1.9147945563969745e-05
-1.7322621859870965e-06   -2.1243494388915006e-07   -7.691082573516809e-06
-1.7322621859870965e-06   -2.1243494388915006e-07   -7.691082573516809e-06
-1.7322621859870965e-06   -2.1243494388915006e-07   -7.691082573516809e-06
-1.7322621859870965e-06   -2.1243494388915006e-07   -7.691082573516809e-06
5.029190515222339e-06   -9.518625599578244e-07   -1.851651383922461e-05
5.029190515222339e-06   -9.518625599578244e-07   -1.851651383922461e-05
5.029190515222339e-06   -9.518625599578244e-07   -1.851651383922461e-05
5.029190515222339e-06   -9.518625599578244e-07   -1.851651383922461e-05
1.5092451678989674e-06   -5.808508248618697e-07   -1.2872545301409992e-05
1.5092451678989674e-06   -5.808508248618697e-07   -1.2872545301409992e-05
1.5092451678989674e-06   -5.808508248618697e-07   -1.2872545301409992e-05
1.5092451678989674e-06   -5.808508248618697e-07   -1.2872545301409992e-05
5.029190515222341e-06   -2.1243494388916885e-07   -7.247426003875507e-06
5.029190515222341e-06   -2.1243494388916885e-07   -7.247426003875507e-06
5.029190515222341e-06   -2.1243494388916885e-07   -7.247426003875507e-06
5.029190515222341e-06   -2.1243494388916885e-07   -7.247426003875507e-06
-1.7322621859870965e-06   -9.518625599579328e-07   -1.8960170408865832e-05
-1.7322621859870965e-06   -9.518625599579328e-07   -1.8960170408865832e-05
-1.7322621859870965e-06   -9.518625599579328e-07   -1.8960170408865832e-05
-1.7322621859870965e-06   -9.518625599579328e-07   -1.8960170408865832e-05
-1.4470481871913535e-06   1.5398288069948772e-07   -7.793824850916057e-06
-1.4470481871913535e-06   1.5398288069948772e-07   -7.793824850916057e-06
-1.4470481871913535e-06   1.5398288069948772e-07   -7.793824850916057e-06
-1.4470481871913535e-06   1.5398288069948772e-07   -7.793824850916057e-06
5.387098464641575e-06   -6.418597542830759e-07   -1.8706563689648107e-05
5.387098464641575e-06   -6.418597542830759e-07   -1.8706563689648107e-05
5.387098464641575e-06   -6.418597542830759e-07   -1.8706563689648107e-05
5.387098464641575e-06   -6.418597542830759e-07   -1.8706563689648107e-05
1.744576197296169e-06   -3.5540571879705187e-07   -1.2807565665363767e-05
1.744576197296169e-06   -3.5540571879705187e-07   -1.2807565665363767e-05
1.744576197296169e-06   -3.5540571879705187e-07   -1.2807565665363767e-05
1.744576197296169e-06   -3.5540571879705187e-07   -1.2807565665363767e-05
5.387098464641586e-06   1.5398288069946085e-07   -7.316319269926573e-06
5.387098464641586e-06   1.5398288069946085e-07   -7.316319269926573e-06
5.387098464641586e-06   1.5398288069946085e-07   -7.316319269926573e-06
5.387098464641586e-06   1.5398288069946085e-07   -7.316319269926573e-06
-1.4470481871913535e-06   -6.418597542830759e-07   -1.9184069270637726e-05
-1.4470481871913535e-06   -6.418597542830759e-07   -1.9184069270637726e-05
-1.4470481871913535e-06   -6.418597542830759e-07   -1.9184069270637726e-05
-1.4470481871913535e-06   -6.418597542830759e-07   -1.9184069270637726e-05
-1.179631677049687e-06   5.888885879694154e-07   -8.063580165915954e-06
-1.179631677049687e-06   5.888885879694154e-07   -8.063580165915954e-06
-1.179631677049687e-06   5.888885879694154e-07   -8.063580165915954e-06
-1.179631677049687e-06   5.888885879694154e-07   -8.063580165915954e-06
5.681068304003714e-06   -2.510194090679348e-07   -1.8994135336115864e-05
5.681068304003714e-06   -2.510194090679348e-07   -1.8994135336115864e-05
5.681068304003714e-06   -2.510194090679348e-07   -1.8994135336115864e-05
5.681068304003714e-06   -2.510194090679348e-07   -1.8994135336115864e-05
2.0409341516780475e-06   -7.683933977401143e-08   -1.3031753123816367e-05
2.0409341516780475e-06   -7.683933977401143e-08   -1.3031753123816367e-05
2.0409341516780475e-06   -7.683933977401143e-08   -1.3031753123816367e-05
2.0409341516780475e-06   -7.683933977401143e-08   -1.3031753123816367e-05
-2.031030999000792e-06   4.4967738942515563e-07   -9.727876054326531e-06
-2.031030999000792e-06   4.4967738942515563e-07   -9.727876054326531e-06
-2.031030999000792e-06   4.4967738942515563e-07   -9.727876054326531e-06
-2.031030999000792e-06   4.4967738942515563e-07   -9.727876054326531e-06
-8.649934806142177e-06   2.428044545050873e-07   -2.0883506160514296e-05
-8.649934806142177e-06   2.428044545050873e-07   -2.0883506160514296e-05
-8.649934806142177e-06   2.428044545050873e-07   -2.0883506160514296e-05
-8.649934806142177e-06   2.428044545050873e-07   -2.0883506160514296e-05
-8.328529692888654e-06   8.25218142649106e-07   -9.653895791095798e-06
-8.328529692888654e-06   8.25218142649106e-07   -9.653895791095798e-06
-8.328529692888654e-06   8.25218142649106e-07   -9.653895791095798e-06
-8.328529692888654e-06   8.25218142649106e-07   -9.653895791095798e-06
-1.7322621859870965e-06   5.288486345406433e-07   -2.046985326440005e-05
-1.7322621859870965e-06   5.288486345406433e-07   -2.046985326440005e-05
-1.7322621859870965e-06   5.288486345406433e-07   -2.046985326440005e-05
-1.7322621859870965e-06   5.288486345406433e-07   -2.046985326440005e-05
-5.1504068922589455e-06   6.175050584911884e-07   -1.482613927498391e-05
-5.1504068922589455e-06   6.175050584911884e-07   -1.482613927498391e-05
-5.1504068922589455e-06   6.175050584911884e-07   -1.482613927498391e-05
-5.1504068922589455e-06   6.175050584911884e-07   -1.482613927498391e-05
-1.7322621859870965e-06   8.25218142649081e-07   -9.476074086230764e-06
-1.7322621859870965e-06   8.25218142649081e-07   -9.476074086230764e-06
-1.7322621859870965e-06   8.25218142649081e-07   -9.476074086230764e-06
-1.7322621859870965e-06   8.25218142649081e-07   -9.476074086230764e-06
-8.328529692888654e-06   5.288486345406433e-07   -2.0647674969265098e-05
-8.328529692888654e-06   5.288486345406433e-07   -2.0647674969265098e-05
-8.328529692888654e-06   5.288486345406433e-07   -2.0647674969265098e-05
-8.328529692888654e-06   5.288486345406433e-07   -2.0647674969265098e-05
-8.018218644173522e-06   1.222234817422176e-06   -9.639459038647351e-06
-8.018218644173522e-06   1.222234817422176e-06   -9.639459038647351e-06
-8.018218644173522e-06   1.222234817422176e-06   -9.639459038647351e-06
-8.018218644173522e-06   1.222234817422176e-06   -9.639459038647351e-06
-1.447048187191357e-06   8.58793958197321e-07   -2.0373345284749404e-05
-1.447048187191357e-06   8.58793958197321e-07   -2.0373345284749404e-05
-1.447048187191357e-06   8.58793958197321e-07   -2.0373345284749404e-05
-1.447048187191357e-06   8.58793958197321e-07   -2.0373345284749404e-05
-4.87450882964436e-06   8.855401712552216e-07   -1.4676958608495832e-05
-4.87450882964436e-06   8.855401712552216e-07   -1.4676958608495832e-05
-4.87450882964436e-06   8.855401712552216e-07   -1.4676958608495832e-05
-4.87450882964436e-06   8.855401712552216e-07   -1.4676958608495832e-05
-1.4470481871913603e-06   1.2222348174221071e-06   -9.421394523112438e-06
-1.4470481871913603e-06   1.2222348174221071e-06   -9.421394523112438e-06
-1.4470481871913603e-06   1.2222348174221071e-06   -9.421394523112438e-06
-1.4470481871913603e-06   1.2222348174221071e-06   -9.421394523112438e-06
-8.018218644173522e-06   8.58793958197321e-07   -2.059140980028429e-05
-8.018218644173522e-06   8.58793958197321e-07   -2.059140980028429e-05
-8.018218644173522e-06   8.58793958197321e-07   -2.059140980028429e-05
-8.018218644173522e-06   8.58793958197321e-07   -2.059140980028429e-05
-7.731527693681443e-06   1.6261784871954158e-06   -9.868861196095672e-06
-7.731527693681443e-06   1.6261784871954158e-06   -9.868861196095672e-06
-7.731527693681443e-06   1.6261784871954158e-06   -9.868861196095672e-06
-7.731527693681443e-06   1.6261784871954158e-06   -9.868861196095672e-06
-1.1796316770496807e-06   1.1995354351078315e-06   -2.0532702059229354e-05
-1.1796316770496807e-06   1.1995354351078315e-06   -2.0532702059229354e-05
-1.1796316770496807e-06   1.1995354351078315e-06   -2.0532702059229354e-05
-1.1796316770496807e-06   1.1995354351078315e-06   -2.0532702059229354e-05
-4.62860484057355e-06   1.1605313696478768e-06   -1.4761011014080513e-05
-4.62860484057355e-06   1.1605313696478768e-06   -1.4761011014080513e-05
-4.62860484057355e-06   1.1605313696478768e-06   -1.4761011014080513e-05
-4.62860484057355e-06   1.1605313696478768e-06   -1.4761011014080513e-05
-8.649934806142194e-06   1.4388787726072307e-06   -7.880742635533783e-06
-8.649934806142194e-06   1.4388787726072307e-06   -7.880742635533783e-06
-8.649934806142194e-06   1.4388787726072307e-06   -7.880742635533783e-06
-8.649934806142194e-06   1.4388787726072307e-06   -7.880742635533783e-06
-1.5159706895402584e-05   1.7436589620248256e-06   -1.8547494670650576e-05
-1.5159706895402584e-05   1.7436589620248256e-06   -1.8547494670650576e-05
-1.5159706895402584e-05   1.7436589620248256e-06   -1.8547494670650576e-05
-1.5159706895402584e-05   1.7436589620248256e-06   -1.8547494670650576e-05
-1.4771461431372786e-05   1.8398332351460354e-06   -7.392301902811778e-06
-1.4771461431372786e-05   1.8398332351460354e-06   -7.392301902811778e-06
-1.4771461431372786e-05   1.8398332351460354e-06   -7.392301902811778e-06
-1.4771461431372786e-05   1.8398332351460354e-06   -7.392301902811778e-06
-8.328529692888671e-06   2.105274834575529e-06   -1.8289786426609625e-05
-8.328529692888671e-06   2.105274834575529e-06   -1.8289786426609625e-05
-8.328529692888671e-06   2.105274834575529e-06   -1.8289786426609625e-05
-8.328529692888671e-06   2.105274834575529e-06   -1.8289786426609625e-05
-1.1642003140407244e-05   1.8555705635053387e-06   -1.2617508118103272e-05
-1.1642003140407244e-05   1.8555705635053387e-06   -1.2617508118103272e-05
-1.1642003140407244e-05   1.8555705635053387e-06   -1.2617508118103272e-05
-1.1642003140407244e-05   1.8555705635053387e-06   -1.2617508118103272e-05
-8.328529692888671e-06   1.8398332351460271e-06   -7.551566862469463e-06
-8.328529692888671e-06   1.8398332351460271e-06   -7.551566862469463e-06
-8.328529692888671e-06   1.8398332351460271e-06   -7.551566862469463e-06
-8.328529692888671e-06   1.8398332351460271e-06   -7.551566862469463e-06
-1.4771461431372786e-05   2.105274834575529e-06   -1.8130521466951967e-05
-1.4771461431372786e-05   2.105274834575529e-06   -1.8130521466951967e-05
-1.4771461431372786e-05   2.105274834575529e-06   -1.8130521466951967e-05
-1.4771461431372786e-05   2.105274834575529e-06   -1.8130521466951967e-05
-1.4339970978683348e-05   2.2003134893145305e-06   -7.120290358870248e-06
-1.4339970978683348e-05   2.2003134893145305e-06   -7.120290358870248e-06
-1.4339970978683348e-05   2.2003134893145305e-06   -7.120290358870248e-06
-1.4339970978683348e-05   2.2003134893145305e-06   -7.120290358870248e-06
-8.018218644173535e-06   2.4164508791689465e-06   -1.7786226683632608e-05
-8.018218644173535e-06   2.4164508791689465e-06   -1.7786226683632608e-05
-8.018218644173535e-06   2.4164508791689465e-06   -1.7786226683632608e-05
-8.018218644173535e-06   2.4164508791689465e-06   -1.7786226683632608e-05
-1.1247371555178659e-05   2.138140502431357e-06   -1.2237318939248218e-05
-1.1247371555178659e-05   2.138140502431357e-06   -1.2237318939248218e-05
-1.1247371555178659e-05   2.138140502431357e-06   -1.2237318939248218e-05
-1.1247371555178659e-05   2.138140502431357e-06   -1.2237318939248218e-05
-8.018218644173537e-06   2.2003134893145296e-06   -7.24997279278293e-06
-8.018218644173537e-06   2.2003134893145296e-06   -7.24997279278293e-06
-8.018218644173537e-06   2.2003134893145296e-06   -7.24997279278293e-06
-8.018218644173537e-06   2.2003134893145296e-06   -7.24997279278293e-06
-1.4339970978683348e-05   2.4164508791689465e-06   -1.7656544249719953e-05
-1.4339970978683348e-05   2.4164508791689465e-06   -1.7656544249719953e-05
-1.4339970978683348e-05   2.4164508791689465e-06   -1.7656544249719953e-05
-1.4339970978683348e-05   2.4164508791689465e-06   -1.7656544249719953e-05
-1.3975856258788693e-05   2.602150209716288e-06   -7.285704498332442e-06
-1.3975856258788693e-05   2.602150209716288e-06   -7.285704498332442e-06
-1.3975856258788693e-05   2.602150209716288e-06   -7.285704498332442e-06
-1.3975856258788693e-05   2.602150209716288e-06   -7.285704498332442e-06
-7.731527693681457e-06   2.759411869439777e-06   -1.7787275769345304e-05
-7.731527693681457e-06   2.759411869439777e-06   -1.7787275769345304e-05
-7.731527693681457e-06   2.759411869439777e-06   -1.7787275769345304e-05
-7.731527693681457e-06   2.759411869439777e-06   -1.7787275769345304e-05
-1.1006560314798847e-05   2.3979078263284452e-06   -1.2111985641616452e-05
-1.1006560314798847e-05   2.3979078263284452e-06   -1.2111985641616452e-05
-1.1006560314798847e-05   2.3979078263284452e-06   -1.2111985641616452e-05
-1.1006560314798847e-05   2.3979078263284452e-06   -1.2111985641616452e-05
-1.5159706895402584e-05   2.4759015906385882e-06   -3.937010839555571e-06
-1.5159706895402584e-05   2.4759015906385882e-06   -3.937010839555571e-06
-1.5159706895402584e-05   2.4759015906385882e-06   -3.937010839555571e-06
-1.5159706895402584e-05   2.4759015906385882e-06   -3.937010839555571e-06
-2.2035010893619965e-05   3.4080953152233707e-06   -1.4836534601833672e-05
-2.2035010893619965e-05   3.4080953152233707e-06   -1.4836534601833672e-05
-2.2035010893619965e-05   3.4080953152233707e-06   -1.4836534601833672e-05
-2.2035010893619965e-05   3.4080953152233707e-06   -1.4836534601833672e-05
-2.1130128332787217e-05   2.8933888925490375e-06   -1.1780048385875465e-06
-2.1130128332787217e-05   2.8933888925490375e-06   -1.1780048385875465e-06
-2.1130128332787217e-05   2.8933888925490375e-06   -1.1780048385875465e-06
-2.1130128332787217e-05   2.8933888925490375e-06   -1.1780048385875465e-06
-1.477146143137276e-05   3.888809101988602e-06   -1.2373035133275285e-05
-1.477146143137276e-05   3.888809101988602e-06   -1.2373035133275285e-05
-1.477146143137276e-05   3.888809101988602e-06   -1.2373035133275285e-05
-1.477146143137276e-05   3.888809101988602e-06   -1.2373035133275285e-05
-1.751936825887481e-05   3.2461798112335457e-06   -7.407612846318891e-06
-1.751936825887481e-05   3.2461798112335457e-06   -7.407612846318891e-06
-1.751936825887481e-05   3.2461798112335457e-06   -7.407612846318891e-06
-1.751936825887481e-05   3.2461798112335457e-06   -7.407612846318891e-06
-1.4771461431372774e-05   2.8933888925490544e-06   -1.7752569642511765e-06
-1.4771461431372774e-05   2.8933888925490544e-06   -1.7752569642511765e-06
-1.4771461431372774e-05   2.8933888925490544e-06   -1.7752569642511765e-06
-1.4771461431372774e-05   2.8933888925490544e-06   -1.7752569642511765e-06
-2.1130128332787176e-05   3.888809101988493e-06   -1.1775783007611658e-05
-2.1130128332787176e-05   3.888809101988493e-06   -1.1775783007611658e-05
-2.1130128332787176e-05   3.888809101988493e-06   -1.1775783007611658e-05
-2.1130128332787176e-05   3.888809101988493e-06   -1.1775783007611658e-05
-2.038577198482771e-05   3.043377559021148e-06   -1.9357564664862405e-08
-2.038577198482771e-05   3.043377559021148e-06   -1.9357564664862405e-08
-2.038577198482771e-05   3.043377559021148e-06   -1.9357564664862405e-08
-2.038577198482771e-05   3.043377559021148e-06   -1.9357564664862405e-08
-1.433997097868335e-05   4.015991269442731e-06   -1.067926080115842e-05
-1.433997097868335e-05   4.015991269442731e-06   -1.067926080115842e-05
-1.433997097868335e-05   4.015991269442731e-06   -1.067926080115842e-05
-1.433997097868335e-05   4.015991269442731e-06   -1.067926080115842e-05
-1.7221642038675354e-05   3.44003642148232e-06   -5.530902792395362e-06
-1.7221642038675354e-05   3.44003642148232e-06   -5.530902792395362e-06
-1.7221642038675354e-05   3.44003642148232e-06   -5.530902792395362e-06
-1.7221642038675354e-05   3.44003642148232e-06   -5.530902792395362e-06
-1.4339970978683348e-05   3.0433775590211144e-06   -6.029257909178232e-07
-1.4339970978683348e-05   3.0433775590211144e-06   -6.029257909178232e-07
-1.4339970978683348e-05   3.0433775590211144e-06   -6.029257909178232e-07
-1.4339970978683348e-05   3.0433775590211144e-06   -6.029257909178232e-07
-2.0385771984827635e-05   4.015991269442731e-06   -1.0095692574905524e-05
-2.0385771984827635e-05   4.015991269442731e-06   -1.0095692574905524e-05
-2.0385771984827635e-05   4.015991269442731e-06   -1.0095692574905524e-05
-2.0385771984827635e-05   4.015991269442731e-06   -1.0095692574905524e-05
-1.9579413807359963e-05   3.2300698285290348e-06   1.4598864093022285e-06
-1.9579413807359963e-05   3.2300698285290348e-06   1.4598864093022285e-06
-1.9579413807359963e-05   3.2300698285290348e-06   1.4598864093022285e-06
-1.9579413807359963e-05   3.2300698285290348e-06   1.4598864093022285e-06
-1.3975856258788683e-05   4.1215835358892564e-06   -8.414284396065946e-06
-1.3975856258788683e-05   4.1215835358892564e-06   -8.414284396065946e-06
-1.3975856258788683e-05   4.1215835358892564e-06   -8.414284396065946e-06
-1.3975856258788683e-05   4.1215835358892564e-06   -8.414284396065946e-06
-1.64612198217595e-05   3.4710878293411386e-06   -3.881714367186105e-06
-1.64612198217595e-05   3.4710878293411386e-06   -3.881714367186105e-06
-1.64612198217595e-05   3.4710878293411386e-06   -3.881714367186105e-06
-1.64612198217595e-05   3.4710878293411386e-06   -3.881714367186105e-06
1.8694689850844235e-05   -2.599933220960183e-06   3.824488905912211e-06
1.8694689850844235e-05   -2.599933220960183e-06   3.824488905912211e-06
1.8694689850844235e-05   -2.599933220960183e-06   3.824488905912211e-06
1.8694689850844235e-05   -2.599933220960183e-06   3.824488905912211e-06
8.982803147203789e-06   -3.831867923228768e-06   -1.3101149754849697e-05
8.982803147203789e-06   -3.831867923228768e-06   -1.3101149754849697e-05
8.982803147203789e-06   -3.831867923228768e-06   -1.3101149754849697e-05
8.982803147203789e-06   -3.831867923228768e-06   -1.3101149754849697e-05
9.339540018074569e-06   -2.4197752156965725e-06   1.9065136607640748e-06
9.339540018074569e-06   -2.4197752156965725e-06   1.9065136607640748e-06
9.339540018074569e-06   -2.4197752156965725e-06   1.9065136607640748e-06
9.339540018074569e-06   -2.4197752156965725e-06   1.9065136607640748e-06
1.9533345783027253e-05   -3.7444858081796782e-06   -1.4288336258667391e-05
1.9533345783027253e-05   -3.7444858081796782e-06   -1.4288336258667391e-05
1.9533345783027253e-05   -3.7444858081796782e-06   -1.4288336258667391e-05
1.9533345783027253e-05   -3.7444858081796782e-06   -1.4288336258667391e-05
1.3561557573401674e-05   -2.8427298085694505e-06   -4.876409509057563e-06
1.3561557573401674e-05   -2.8427298085694505e-06   -4.876409509057563e-06
1.3561557573401674e-05   -2.8427298085694505e-06   -4.876409509057563e-06
1.3561557573401674e-05   -2.8427298085694505e-06   -4.876409509057563e-06
1.9533345783027297e-05   -2.419775215696593e-06   2.7013400162537865e-06
1.9533345783027297e-05   -2.419775215696593e-06   2.7013400162537865e-06
1.9533345783027297e-05   -2.419775215696593e-06   2.7013400162537865e-06
1.9533345783027297e-05   -2.419775215696593e-06   2.7013400162537865e-06
9.339540018074542e-06   -3.7444858081796782e-06   -1.5083162614157211e-05
9.339540018074542e-06   -3.7444858081796782e-06   -1.5083162614157211e-05
9.339540018074542e-06   -3.7444858081796782e-06   -1.5083162614157211e-05
9.339540018074542e-06   -3.7444858081796782e-06   -1.5083162614157211e-05
9.694700467251401e-06   -2.262671385792718e-06   9.632345830172745e-07
9.694700467251401e-06   -2.262671385792718e-06   9.632345830172745e-07
9.694700467251401e-06   -2.262671385792718e-06   9.632345830172745e-07
9.694700467251401e-06   -2.262671385792718e-06   9.632345830172745e-07
2.017547476116485e-05   -3.613778971160112e-06   -1.5694058022284828e-05
2.017547476116485e-05   -3.613778971160112e-06   -1.5694058022284828e-05
2.017547476116485e-05   -3.613778971160112e-06   -1.5694058022284828e-05
2.017547476116485e-05   -3.613778971160112e-06   -1.5694058022284828e-05
1.4269589283074514e-05   -2.8328838227062404e-06   -6.319452647873195e-06
1.4269589283074514e-05   -2.8328838227062404e-06   -6.319452647873195e-06
1.4269589283074514e-05   -2.8328838227062404e-06   -6.319452647873195e-06
1.4269589283074514e-05   -2.8328838227062404e-06   -6.319452647873195e-06
2.0175474761164846e-05   -2.262671385792746e-06   1.7738991342376026e-06
2.0175474761164846e-05   -2.262671385792746e-06   1.7738991342376026e-06
2.0175474761164846e-05   -2.262671385792746e-06   1.7738991342376026e-06
2.0175474761164846e-05   -2.262671385792746e-06   1.7738991342376026e-06
9.694700467251401e-06   -3.6137789711600038e-06   -1.6504722573505238e-05
9.694700467251401e-06   -3.6137789711600038e-06   -1.6504722573505238e-05
9.694700467251401e-06   -3.6137789711600038e-06   -1.6504722573505238e-05
9.694700467251401e-06   -3.6137789711600038e-06   -1.6504722573505238e-05
9.934126386490226e-06   -1.7684002770460743e-06   -9.2839276771969e-07
9.934126386490226e-06   -1.7684002770460743e-06   -9.2839276771969e-07
9.934126386490226e-06   -1.7684002770460743e-06   -9.2839276771969e-07
9.934126386490226e-06   -1.7684002770460743e-06   -9.2839276771969e-07
2.085507698773877e-05   -3.1065327601572865e-06   -1.832709761326727e-05
2.085507698773877e-05   -3.1065327601572865e-06   -1.832709761326727e-05
2.085507698773877e-05   -3.1065327601572865e-06   -1.832709761326727e-05
2.085507698773877e-05   -3.1065327601572865e-06   -1.832709761326727e-05
1.4459488312313807e-05   -2.6138005788459975e-06   -7.963422463012698e-06
1.4459488312313807e-05   -2.6138005788459975e-06   -7.963422463012698e-06
1.4459488312313807e-05   -2.6138005788459975e-06   -7.963422463012698e-06
1.4459488312313807e-05   -2.6138005788459975e-06   -7.963422463012698e-06
8.982803147203816e-06   -1.2057507988509318e-06   -4.381531656223411e-06
8.982803147203816e-06   -1.2057507988509318e-06   -4.381531656223411e-06
8.982803147203816e-06   -1.2057507988509318e-06   -4.381531656223411e-06
8.982803147203816e-06   -1.2057507988509318e-06   -4.381531656223411e-06
-5.910448501898275e-07   -2.454750049430592e-06   -2.10873445355606e-05
-5.910448501898275e-07   -2.454750049430592e-06   -2.10873445355606e-05
-5.910448501898275e-07   -2.454750049430592e-06   -2.10873445355606e-05
-5.910448501898275e-07   -2.454750049430592e-06   -2.10873445355606e-05
-2.2589022982838367e-07   -9.518625599579328e-07   -4.836780045344756e-06
-2.2589022982838367e-07   -9.518625599579328e-07   -4.836780045344756e-06
-2.2589022982838367e-07   -9.518625599579328e-07   -4.836780045344756e-06
-2.2589022982838367e-07   -9.518625599579328e-07   -4.836780045344756e-06
9.339540018074569e-06   -2.3332678957701082e-06   -1.9950320590362373e-05
9.339540018074569e-06   -2.3332678957701082e-06   -1.9950320590362373e-05
9.339540018074569e-06   -2.3332678957701082e-06   -1.9950320590362373e-05
9.339540018074569e-06   -2.3332678957701082e-06   -1.9950320590362373e-05
4.38862186847591e-06   -1.4864175864171382e-06   -1.2206900526643e-05
4.38862186847591e-06   -1.4864175864171382e-06   -1.2206900526643e-05
4.38862186847591e-06   -1.4864175864171382e-06   -1.2206900526643e-05
4.38862186847591e-06   -1.4864175864171382e-06   -1.2206900526643e-05
9.339540018074555e-06   -9.518625599579321e-07   -4.007936843857364e-06
9.339540018074555e-06   -9.518625599579321e-07   -4.007936843857364e-06
9.339540018074555e-06   -9.518625599579321e-07   -4.007936843857364e-06
9.339540018074555e-06   -9.518625599579321e-07   -4.007936843857364e-06
-2.2589022982838367e-07   -2.3332678957701082e-06   -2.077916379184967e-05
-2.2589022982838367e-07   -2.3332678957701082e-06   -2.077916379184967e-05
-2.2589022982838367e-07   -2.3332678957701082e-06   -2.077916379184967e-05
-2.2589022982838367e-07   -2.3332678957701082e-06   -2.077916379184967e-05
9.557473416705567e-08   -6.418597542830759e-07   -4.960129053312016e-06
9.557473416705567e-08   -6.418597542830759e-07   -4.960129053312016e-06
9.557473416705567e-08   -6.418597542830759e-07   -4.960129053312016e-06
9.557473416705567e-08   -6.418597542830759e-07   -4.960129053312016e-06
9.694700467251394e-06   -2.1100033073168144e-06   -2.0077785809965727e-05
9.694700467251394e-06   -2.1100033073168144e-06   -2.0077785809965727e-05
9.694700467251394e-06   -2.1100033073168144e-06   -2.0077785809965727e-05
9.694700467251394e-06   -2.1100033073168144e-06   -2.0077785809965727e-05
4.634715434089728e-06   -1.3602381593574159e-06   -1.2094336510138327e-05
4.634715434089728e-06   -1.3602381593574159e-06   -1.2094336510138327e-05
4.634715434089728e-06   -1.3602381593574159e-06   -1.2094336510138327e-05
4.634715434089728e-06   -1.3602381593574159e-06   -1.2094336510138327e-05
9.694700467251401e-06   -6.418597542831404e-07   -4.079242921491881e-06
9.694700467251401e-06   -6.418597542831404e-07   -4.079242921491881e-06
9.694700467251401e-06   -6.418597542831404e-07   -4.079242921491881e-06
9.694700467251401e-06   -6.418597542831404e-07   -4.079242921491881e-06
9.55747341670489e-08   -2.110003307316923e-06   -2.0958671941786024e-05
9.55747341670489e-08   -2.110003307316923e-06   -2.0958671941786024e-05
9.55747341670489e-08   -2.110003307316923e-06   -2.0958671941786024e-05
9.55747341670489e-08   -2.110003307316923e-06   -2.0958671941786024e-05
3.235540900909517e-07   -2.510194090679348e-07   -5.164744161801401e-06
3.235540900909517e-07   -2.510194090679348e-07   -5.164744161801401e-06
3.235540900909517e-07   -2.510194090679348e-07   -5.164744161801401e-06
3.235540900909517e-07   -2.510194090679348e-07   -5.164744161801401e-06
9.934126386490242e-06   -1.792122307164531e-06   -2.0257702916942242e-05
9.934126386490242e-06   -1.792122307164531e-06   -2.0257702916942242e-05
9.934126386490242e-06   -1.792122307164531e-06   -2.0257702916942242e-05
9.934126386490242e-06   -1.792122307164531e-06   -2.0257702916942242e-05
4.9330513719430206e-06   -1.139701985466762e-06   -1.2314030085715797e-05
4.9330513719430206e-06   -1.139701985466762e-06   -1.2314030085715797e-05
4.9330513719430206e-06   -1.139701985466762e-06   -1.2314030085715797e-05
4.9330513719430206e-06   -1.139701985466762e-06   -1.2314030085715797e-05
-5.910448501898275e-07   2.428044545050449e-07   -6.742368042163597e-06
-5.910448501898275e-07   2.428044545050449e-07   -6.742368042163597e-06
-5.910448501898275e-07   2.428044545050449e-07   -6.742368042163597e-06
-5.910448501898275e-07   2.428044545050449e-07   -6.742368042163597e-06
-1.0023602929678767e-05   -1.2448390840152316e-06   -2.335588429775744e-05
-1.0023602929678767e-05   -1.2448390840152316e-06   -2.335588429775744e-05
-1.0023602929678767e-05   -1.2448390840152316e-06   -2.335588429775744e-05
-1.0023602929678767e-05   -1.2448390840152316e-06   -2.335588429775744e-05
-9.585101870587785e-06   5.288486345406433e-07   -7.324048887057772e-06
-9.585101870587785e-06   5.288486345406433e-07   -7.324048887057772e-06
-9.585101870587785e-06   5.288486345406433e-07   -7.324048887057772e-06
-9.585101870587785e-06   5.288486345406433e-07   -7.324048887057772e-06
-2.258902298283866e-07   -1.1004613424241963e-06   -2.1945148968811225e-05
-2.258902298283866e-07   -1.1004613424241963e-06   -2.1945148968811225e-05
-2.258902298283866e-07   -1.1004613424241963e-06   -2.1945148968811225e-05
-2.258902298283866e-07   -1.1004613424241963e-06   -2.1945148968811225e-05
-5.0473817565831115e-06   -2.1193972568253876e-07   -1.4442442727598331e-05
-5.0473817565831115e-06   -2.1193972568253876e-07   -1.4442442727598331e-05
-5.0473817565831115e-06   -2.1193972568253876e-07   -1.4442442727598331e-05
-5.0473817565831115e-06   -2.1193972568253876e-07   -1.4442442727598331e-05
-2.2589022982838367e-07   5.28848634540637e-07   -6.346462900878934e-06
-2.2589022982838367e-07   5.28848634540637e-07   -6.346462900878934e-06
-2.2589022982838367e-07   5.28848634540637e-07   -6.346462900878934e-06
-2.2589022982838367e-07   5.28848634540637e-07   -6.346462900878934e-06
-9.585101870587785e-06   -1.1004613424241963e-06   -2.2922734954990132e-05
-9.585101870587785e-06   -1.1004613424241963e-06   -2.2922734954990132e-05
-9.585101870587785e-06   -1.1004613424241963e-06   -2.2922734954990132e-05
-9.585101870587785e-06   -1.1004613424241963e-06   -2.2922734954990132e-05
-9.182846095980148e-06   8.58793958197321e-07   -7.192613772668156e-06
-9.182846095980148e-06   8.58793958197321e-07   -7.192613772668156e-06
-9.182846095980148e-06   8.58793958197321e-07   -7.192613772668156e-06
-9.182846095980148e-06   8.58793958197321e-07   -7.192613772668156e-06
9.557473416705206e-08   -8.798872172099265e-07   -2.1613439784335764e-05
9.557473416705206e-08   -8.798872172099265e-07   -2.1613439784335764e-05
9.557473416705206e-08   -8.798872172099265e-07   -2.1613439784335764e-05
9.557473416705206e-08   -8.798872172099265e-07   -2.1613439784335764e-05
-4.691088052508623e-06   -4.819362566551959e-08   -1.4134684628136298e-05
-4.691088052508623e-06   -4.819362566551959e-08   -1.4134684628136298e-05
-4.691088052508623e-06   -4.819362566551959e-08   -1.4134684628136298e-05
-4.691088052508623e-06   -4.819362566551959e-08   -1.4134684628136298e-05
9.55747341670489e-08   8.587939581973725e-07   -6.14940506742372e-06
9.55747341670489e-08   8.587939581973725e-07   -6.14940506742372e-06
9.55747341670489e-08   8.587939581973725e-07   -6.14940506742372e-06
9.55747341670489e-08   8.587939581973725e-07   -6.14940506742372e-06
-9.182846095980148e-06   -8.798872172099265e-07   -2.26566484895802e-05
-9.182846095980148e-06   -8.798872172099265e-07   -2.26566484895802e-05
-9.182846095980148e-06   -8.798872172099265e-07   -2.26566484895802e-05
-9.182846095980148e-06   -8.798872172099265e-07   -2.26566484895802e-05
-8.911977686730806e-06   1.1995354351078315e-06   -7.321163844962683e-06
-8.911977686730806e-06   1.1995354351078315e-06   -7.321163844962683e-06
-8.911977686730806e-06   1.1995354351078315e-06   -7.321163844962683e-06
-8.911977686730806e-06   1.1995354351078315e-06   -7.321163844962683e-06
3.235540900909529e-07   -6.701274953425495e-07   -2.1591919048062023e-05
3.235540900909529e-07   -6.701274953425495e-07   -2.1591919048062023e-05
3.235540900909529e-07   -6.701274953425495e-07   -2.1591919048062023e-05
3.235540900909529e-07   -6.701274953425495e-07   -2.1591919048062023e-05
-4.4378811562438245e-06   1.3514260415305266e-07   -1.4139355697201634e-05
-4.4378811562438245e-06   1.3514260415305266e-07   -1.4139355697201634e-05
-4.4378811562438245e-06   1.3514260415305266e-07   -1.4139355697201634e-05
-4.4378811562438245e-06   1.3514260415305266e-07   -1.4139355697201634e-05
-1.0023602929678767e-05   1.7436589620247189e-06   -5.481810789062622e-06
-1.0023602929678767e-05   1.7436589620247189e-06   -5.481810789062622e-06
-1.0023602929678767e-05   1.7436589620247189e-06   -5.481810789062622e-06
-1.0023602929678767e-05   1.7436589620247189e-06   -5.481810789062622e-06
-1.9593520392761076e-05   4.1064793196855364e-07   -2.2231479845566924e-05
-1.9593520392761076e-05   4.1064793196855364e-07   -2.2231479845566924e-05
-1.9593520392761076e-05   4.1064793196855364e-07   -2.2231479845566924e-05
-1.9593520392761076e-05   4.1064793196855364e-07   -2.2231479845566924e-05
-1.896879590282423e-05   2.105274834575529e-06   -5.826277773895907e-06
-1.896879590282423e-05   2.105274834575529e-06   -5.826277773895907e-06
-1.896879590282423e-05   2.105274834575529e-06   -5.826277773895907e-06
-1.896879590282423e-05   2.105274834575529e-06   -5.826277773895907e-06
-9.585101870587788e-06   6.717457854195797e-07   -2.060565039812972e-05
-9.585101870587788e-06   6.717457854195797e-07   -2.060565039812972e-05
-9.585101870587788e-06   6.717457854195797e-07   -2.060565039812972e-05
-9.585101870587788e-06   6.717457854195797e-07   -2.060565039812972e-05
-1.4394084262513115e-05   1.353757872776958e-06   -1.299988699733527e-05
-1.4394084262513115e-05   1.353757872776958e-06   -1.299988699733527e-05
-1.4394084262513115e-05   1.353757872776958e-06   -1.299988699733527e-05
-1.4394084262513115e-05   1.353757872776958e-06   -1.299988699733527e-05
-9.585101870587785e-06   2.1052748345755093e-06   -4.966160344402272e-06
-9.585101870587785e-06   2.1052748345755093e-06   -4.966160344402272e-06
-9.585101870587785e-06   2.1052748345755093e-06   -4.966160344402272e-06
-9.585101870587785e-06   2.1052748345755093e-06   -4.966160344402272e-06
-1.8968795902824263e-05   6.717457854195797e-07   -2.146576782762334e-05
-1.8968795902824263e-05   6.717457854195797e-07   -2.146576782762334e-05
-1.8968795902824263e-05   6.717457854195797e-07   -2.146576782762334e-05
-1.8968795902824263e-05   6.717457854195797e-07   -2.146576782762334e-05
-1.8362902820319526e-05   2.4164508791689465e-06   -5.2904071167169915e-06
-1.8362902820319526e-05   2.4164508791689465e-06   -5.2904071167169915e-06
-1.8362902820319526e-05   2.4164508791689465e-06   -5.2904071167169915e-06
-1.8362902820319526e-05   2.4164508791689465e-06   -5.2904071167169915e-06
-9.182846095980167e-06   9.114901113347956e-07   -1.9687525196582164e-05
-9.182846095980167e-06   9.114901113347956e-07   -1.9687525196582164e-05
-9.182846095980167e-06   9.114901113347956e-07   -1.9687525196582164e-05
-9.182846095980167e-06   9.114901113347956e-07   -1.9687525196582164e-05
-1.3826533862859156e-05   1.5810225394030262e-06   -1.2349765041958044e-05
-1.3826533862859156e-05   1.5810225394030262e-06   -1.2349765041958044e-05
-1.3826533862859156e-05   1.5810225394030262e-06   -1.2349765041958044e-05
-1.3826533862859156e-05   1.5810225394030262e-06   -1.2349765041958044e-05
-9.182846095980148e-06   2.416450879168999e-06   -4.387430656016501e-06
-9.182846095980148e-06   2.416450879168999e-06   -4.387430656016501e-06
-9.182846095980148e-06   2.416450879168999e-06   -4.387430656016501e-06
-9.182846095980148e-06   2.416450879168999e-06   -4.387430656016501e-06
-1.8362902820319556e-05   9.114901113347956e-07   -2.0590501657282627e-05
-1.8362902820319556e-05   9.114901113347956e-07   -2.0590501657282627e-05
-1.8362902820319556e-05   9.114901113347956e-07   -2.0590501657282627e-05
-1.8362902820319556e-05   9.114901113347956e-07   -2.0590501657282627e-05
-1.79061624405296e-05   2.759411869439777e-06   -5.307613422881577e-06
-1.79061624405296e-05   2.759411869439777e-06   -5.307613422881577e-06
-1.79061624405296e-05   2.759411869439777e-06   -5.307613422881577e-06
-1.79061624405296e-05   2.759411869439777e-06   -5.307613422881577e-06
-8.911977686730821e-06   1.1129757043470143e-06   -1.9310059646823853e-05
-8.911977686730821e-06   1.1129757043470143e-06   -1.9310059646823853e-05
-8.911977686730821e-06   1.1129757043470143e-06   -1.9310059646823853e-05
-8.911977686730821e-06   1.1129757043470143e-06   -1.9310059646823853e-05
-1.351531524687132e-05   1.7400317869620263e-06   -1.2014064029492283e-05
-1.351531524687132e-05   1.7400317869620263e-06   -1.2014064029492283e-05
-1.351531524687132e-05   1.7400317869620263e-06   -1.2014064029492283e-05
-1.351531524687132e-05   1.7400317869620263e-06   -1.2014064029492283e-05
-1.9593520392761076e-05   3.4080953152234406e-06   -3.129973573030506e-06
-1.9593520392761076e-05   3.4080953152234406e-06   -3.129973573030506e-06
-1.9593520392761076e-05   3.4080953152234406e-06   -3.129973573030506e-06
-1.9593520392761076e-05   3.4080953152234406e-06   -3.129973573030506e-06
-2.9609077612428275e-05   3.2358846129155582e-06   -1.992589536052732e-05
-2.9609077612428275e-05   3.2358846129155582e-06   -1.992589536052732e-05
-2.9609077612428275e-05   3.2358846129155582e-06   -1.992589536052732e-05
-2.9609077612428275e-05   3.2358846129155582e-06   -1.992589536052732e-05
-2.8360866710333537e-05   3.888809101988602e-06   4.067387220042448e-08
-2.8360866710333537e-05   3.888809101988602e-06   4.067387220042448e-08
-2.8360866710333537e-05   3.888809101988602e-06   4.067387220042448e-08
-2.8360866710333537e-05   3.888809101988602e-06   4.067387220042448e-08
-1.8968795902824195e-05   4.0712512893547985e-06   -1.5722242786068223e-05
-1.8968795902824195e-05   4.0712512893547985e-06   -1.5722242786068223e-05
-1.8968795902824195e-05   4.0712512893547985e-06   -1.5722242786068223e-05
-1.8968795902824195e-05   4.0712512893547985e-06   -1.5722242786068223e-05
-2.309332564792572e-05   3.835469791794001e-06   -8.706557645695856e-06
-2.309332564792572e-05   3.835469791794001e-06   -8.706557645695856e-06
-2.309332564792572e-05   3.835469791794001e-06   -8.706557645695856e-06
-2.309332564792572e-05   3.835469791794001e-06   -8.706557645695856e-06
-1.8968795902824246e-05   3.888809101988572e-06   -6.87914402192286e-08
-1.8968795902824246e-05   3.888809101988572e-06   -6.87914402192286e-08
-1.8968795902824246e-05   3.888809101988572e-06   -6.87914402192286e-08
-1.8968795902824246e-05   3.888809101988572e-06   -6.87914402192286e-08
-2.8360866710333487e-05   4.0712512893547985e-06   -1.561277747364842e-05
-2.8360866710333487e-05   4.0712512893547985e-06   -1.561277747364842e-05
-2.8360866710333487e-05   4.0712512893547985e-06   -1.561277747364842e-05
-2.8360866710333487e-05   4.0712512893547985e-06   -1.561277747364842e-05
-2.7327994447087974e-05   4.015991269442731e-06   1.83336029141852e-06
-2.7327994447087974e-05   4.015991269442731e-06   1.83336029141852e-06
-2.7327994447087974e-05   4.015991269442731e-06   1.83336029141852e-06
-2.7327994447087974e-05   4.015991269442731e-06   1.83336029141852e-06
-1.8362902820319526e-05   4.260131202066101e-06   -1.3254943046102904e-05
-1.8362902820319526e-05   4.260131202066101e-06   -1.3254943046102904e-05
-1.8362902820319526e-05   4.260131202066101e-06   -1.3254943046102904e-05
-1.8362902820319526e-05   4.260131202066101e-06   -1.3254943046102904e-05
-2.2634987557896144e-05   4.111394359136169e-06   -6.045559711050315e-06
-2.2634987557896144e-05   4.111394359136169e-06   -6.045559711050315e-06
-2.2634987557896144e-05   4.111394359136169e-06   -6.045559711050315e-06
-2.2634987557896144e-05   4.111394359136169e-06   -6.045559711050315e-06
-1.8362902820319556e-05   4.015991269442688e-06   1.686876331844422e-06
-1.8362902820319556e-05   4.015991269442688e-06   1.686876331844422e-06
-1.8362902820319556e-05   4.015991269442688e-06   1.686876331844422e-06
-1.8362902820319556e-05   4.015991269442688e-06   1.686876331844422e-06
-2.7327994447088022e-05   4.260131202066101e-06   -1.310845908652884e-05
-2.7327994447088022e-05   4.260131202066101e-06   -1.310845908652884e-05
-2.7327994447088022e-05   4.260131202066101e-06   -1.310845908652884e-05
-2.7327994447088022e-05   4.260131202066101e-06   -1.310845908652884e-05
-2.6245225992598686e-05   4.121583535889365e-06   4.244262642664597e-06
-2.6245225992598686e-05   4.121583535889365e-06   4.244262642664597e-06
-2.6245225992598686e-05   4.121583535889365e-06   4.244262642664597e-06
-2.6245225992598686e-05   4.121583535889365e-06   4.244262642664597e-06
-1.7906162440529612e-05   4.5769863493911114e-06   -9.927418298885003e-06
-1.7906162440529612e-05   4.5769863493911114e-06   -9.927418298885003e-06
-1.7906162440529612e-05   4.5769863493911114e-06   -9.927418298885003e-06
-1.7906162440529612e-05   4.5769863493911114e-06   -9.927418298885003e-06
-2.158447010641044e-05   4.201069605991661e-06   -3.5713554763776328e-06
-2.158447010641044e-05   4.201069605991661e-06   -3.5713554763776328e-06
-2.158447010641044e-05   4.201069605991661e-06   -3.5713554763776328e-06
-2.158447010641044e-05   4.201069605991661e-06   -3.5713554763776328e-06
2.559932906408533e-05   -3.83186792322891e-06   8.826503075482503e-06
2.559932906408533e-05   -3.83186792322891e-06   8.826503075482503e-06
2.559932906408533e-05   -3.83186792322891e-06   8.826503075482503e-06
2.559932906408533e-05   -3.83186792322891e-06   8.826503075482503e-06
1.2839433832174032e-05   -4.832056690723266e-06   -1.3040102238199647e-05
1.2839433832174032e-05   -4.832056690723266e-06   -1.3040102238199647e-05
1.2839433832174032e-05   -4.832056690723266e-06   -1.3040102238199647e-05
1.2839433832174032e-05   -4.832056690723266e-06   -1.3040102238199647e-05
1.3143722821314379e-05   -3.7444858081796782e-06   6.354181722685809e-06
1.3143722821314379e-05   -3.7444858081796782e-06   6.354181722685809e-06
1.3143722821314379e-05   -3.7444858081796782e-06   6.354181722685809e-06
1.3143722821314379e-05   -3.7444858081796782e-06   6.354181722685809e-06
2.622502447258471e-05   -4.953032011014748e-06   -1.4722859974396923e-05
2.622502447258471e-05   -4.953032011014748e-06   -1.4722859974396923e-05
2.622502447258471e-05   -4.953032011014748e-06   -1.4722859974396923e-05
2.622502447258471e-05   -4.953032011014748e-06   -1.4722859974396923e-05
1.8675009050986004e-05   -3.91367551605187e-06   -2.7631148353767768e-06
1.8675009050986004e-05   -3.91367551605187e-06   -2.7631148353767768e-06
1.8675009050986004e-05   -3.91367551605187e-06   -2.7631148353767768e-06
1.8675009050986004e-05   -3.91367551605187e-06   -2.7631148353767768e-06
2.6225024472584712e-05   -3.7444858081796397e-06   7.079309444386894e-06
2.6225024472584712e-05   -3.7444858081796397e-06   7.079309444386894e-06
2.6225024472584712e-05   -3.7444858081796397e-06   7.079309444386894e-06
2.6225024472584712e-05   -3.7444858081796397e-06   7.079309444386894e-06
1.3143722821314379e-05   -4.953032011014748e-06   -1.5447987696098008e-05
1.3143722821314379e-05   -4.953032011014748e-06   -1.5447987696098008e-05
1.3143722821314379e-05   -4.953032011014748e-06   -1.5447987696098008e-05
1.3143722821314379e-05   -4.953032011014748e-06   -1.5447987696098008e-05
1.340070098810571e-05   -3.6137789711600038e-06   5.025834486121453e-06
1.340070098810571e-05   -3.6137789711600038e-06   5.025834486121453e-06
1.340070098810571e-05   -3.6137789711600038e-06   5.025834486121453e-06
1.340070098810571e-05   -3.6137789711600038e-06   5.025834486121453e-06
2.6614005683053403e-05   -4.906322970736794e-06   -1.6220813605712076e-05
2.6614005683053403e-05   -4.906322970736794e-06   -1.6220813605712076e-05
2.6614005683053403e-05   -4.906322970736794e-06   -1.6220813605712076e-05
2.6614005683053403e-05   -4.906322970736794e-06   -1.6220813605712076e-05
1.9324944623800046e-05   -4.035033447821225e-06   -4.595152220705773e-06
1.9324944623800046e-05   -4.035033447821225e-06   -4.595152220705773e-06
1.9324944623800046e-05   -4.035033447821225e-06   -4.595152220705773e-06
1.9324944623800046e-05   -4.035033447821225e-06   -4.595152220705773e-06
2.6614005683053406e-05   -3.613778971160045e-06   5.801360885867354e-06
2.6614005683053406e-05   -3.613778971160045e-06   5.801360885867354e-06
2.6614005683053406e-05   -3.613778971160045e-06   5.801360885867354e-06
2.6614005683053406e-05   -3.613778971160045e-06   5.801360885867354e-06
1.340070098810571e-05   -4.906322970736794e-06   -1.6996340005458058e-05
1.340070098810571e-05   -4.906322970736794e-06   -1.6996340005458058e-05
1.340070098810571e-05   -4.906322970736794e-06   -1.6996340005458058e-05
1.340070098810571e-05   -4.906322970736794e-06   -1.6996340005458058e-05
1.3667799935450856e-05   -3.106532760157395e-06   2.4591457230251296e-06
1.3667799935450856e-05   -3.106532760157395e-06   2.4591457230251296e-06
1.3667799935450856e-05   -3.106532760157395e-06   2.4591457230251296e-06
1.3667799935450856e-05   -3.106532760157395e-06   2.4591457230251296e-06
2.699713118752089e-05   -4.628039931675815e-06   -1.884350206084709e-05
2.699713118752089e-05   -4.628039931675815e-06   -1.884350206084709e-05
2.699713118752089e-05   -4.628039931675815e-06   -1.884350206084709e-05
2.699713118752089e-05   -4.628039931675815e-06   -1.884350206084709e-05
1.932550239407084e-05   -3.880334014745926e-06   -6.506077621921716e-06
1.932550239407084e-05   -3.880334014745926e-06   -6.506077621921716e-06
1.932550239407084e-05   -3.880334014745926e-06   -6.506077621921716e-06
1.932550239407084e-05   -3.880334014745926e-06   -6.506077621921716e-06
1.2839433832174032e-05   -2.4547500494305813e-06   9.895945846227078e-07
1.2839433832174032e-05   -2.4547500494305813e-06   9.895945846227078e-07
1.2839433832174032e-05   -2.4547500494305813e-06   9.895945846227078e-07
1.2839433832174032e-05   -2.4547500494305813e-06   9.895945846227078e-07
1.4476030630896543e-06   -4.779495327600879e-06   -1.9391637197420104e-05
1.4476030630896543e-06   -4.779495327600879e-06   -1.9391637197420104e-05
1.4476030630896543e-06   -4.779495327600879e-06   -1.9391637197420104e-05
1.4476030630896543e-06   -4.779495327600879e-06   -1.9391637197420104e-05
1.801351977052178e-06   -2.3332678957701082e-06   3.6207271428235696e-08
1.801351977052178e-06   -2.3332678957701082e-06   3.6207271428235696e-08
1.801351977052178e-06   -2.3332678957701082e-06   3.6207271428235696e-08
1.801351977052178e-06   -2.3332678957701082e-06   3.6207271428235696e-08
1.3143722821314399e-05   -4.7512953541908615e-06   -1.7416927660622944e-05
1.3143722821314399e-05   -4.7512953541908615e-06   -1.7416927660622944e-05
1.3143722821314399e-05   -4.7512953541908615e-06   -1.7416927660622944e-05
1.3143722821314399e-05   -4.7512953541908615e-06   -1.7416927660622944e-05
7.334767189146643e-06   -3.2284269684111242e-06   -8.64905597181127e-06
7.334767189146643e-06   -3.2284269684111242e-06   -8.64905597181127e-06
7.334767189146643e-06   -3.2284269684111242e-06   -8.64905597181127e-06
7.334767189146643e-06   -3.2284269684111242e-06   -8.64905597181127e-06
1.3143722821314365e-05   -2.333267895770076e-06   1.4870237464806877e-06
1.3143722821314365e-05   -2.333267895770076e-06   1.4870237464806877e-06
1.3143722821314365e-05   -2.333267895770076e-06   1.4870237464806877e-06
1.3143722821314365e-05   -2.333267895770076e-06   1.4870237464806877e-06
1.801351977052178e-06   -4.7512953541908615e-06   -1.8867744135675382e-05
1.801351977052178e-06   -4.7512953541908615e-06   -1.8867744135675382e-05
1.801351977052178e-06   -4.7512953541908615e-06   -1.8867744135675382e-05
1.801351977052178e-06   -4.7512953541908615e-06   -1.8867744135675382e-05
2.1205556775388812e-06   -2.1100033073168144e-06   -9.076197289928107e-08
2.1205556775388812e-06   -2.1100033073168144e-06   -9.076197289928107e-08
2.1205556775388812e-06   -2.1100033073168144e-06   -9.076197289928107e-08
2.1205556775388812e-06   -2.1100033073168144e-06   -9.076197289928107e-08
1.340070098810571e-05   -4.682558678250357e-06   -1.7347470934617158e-05
1.340070098810571e-05   -4.682558678250357e-06   -1.7347470934617158e-05
1.340070098810571e-05   -4.682558678250357e-06   -1.7347470934617158e-05
1.340070098810571e-05   -4.682558678250357e-06   -1.7347470934617158e-05
7.532449564804879e-06   -3.25954124374419e-06   -8.420862356486042e-06
7.532449564804879e-06   -3.25954124374419e-06   -8.420862356486042e-06
7.532449564804879e-06   -3.25954124374419e-06   -8.420862356486042e-06
7.532449564804879e-06   -3.25954124374419e-06   -8.420862356486042e-06
1.340070098810571e-05   -2.1100033073169194e-06   1.4527712496609094e-06
1.340070098810571e-05   -2.1100033073169194e-06   1.4527712496609094e-06
1.340070098810571e-05   -2.1100033073169194e-06   1.4527712496609094e-06
1.340070098810571e-05   -2.1100033073169194e-06   1.4527712496609094e-06
2.1205556775388744e-06   -4.682558678250357e-06   -1.8891004157177416e-05
2.1205556775388744e-06   -4.682558678250357e-06   -1.8891004157177416e-05
2.1205556775388744e-06   -4.682558678250357e-06   -1.8891004157177416e-05
2.1205556775388744e-06   -4.682558678250357e-06   -1.8891004157177416e-05
2.5977183040198367e-06   -1.792122307164531e-06   -3.223757034019571e-07
2.5977183040198367e-06   -1.792122307164531e-06   -3.223757034019571e-07
2.5977183040198367e-06   -1.792122307164531e-06   -3.223757034019571e-07
2.5977183040198367e-06   -1.792122307164531e-06   -3.223757034019571e-07
1.3667799935450878e-05   -4.5484483281958005e-06   -1.711871614316813e-05
1.3667799935450878e-05   -4.5484483281958005e-06   -1.711871614316813e-05
1.3667799935450878e-05   -4.5484483281958005e-06   -1.711871614316813e-05
1.3667799935450878e-05   -4.5484483281958005e-06   -1.711871614316813e-05
7.917410457677152e-06   -3.2031319670551388e-06   -8.341923496896393e-06
7.917410457677152e-06   -3.2031319670551388e-06   -8.341923496896393e-06
7.917410457677152e-06   -3.2031319670551388e-06   -8.341923496896393e-06
7.917410457677152e-06   -3.2031319670551388e-06   -8.341923496896393e-06
1.4476030630896543e-06   -1.244839084015235e-06   -1.7812062213641653e-06
1.4476030630896543e-06   -1.244839084015235e-06   -1.7812062213641653e-06
1.4476030630896543e-06   -1.244839084015235e-06   -1.7812062213641653e-06
1.4476030630896543e-06   -1.244839084015235e-06   -1.7812062213641653e-06
-9.823276946686528e-06   -5.693569540072196e-06   -2.323524451129178e-05
-9.823276946686528e-06   -5.693569540072196e-06   -2.323524451129178e-05
-9.823276946686528e-06   -5.693569540072196e-06   -2.323524451129178e-05
-9.823276946686528e-06   -5.693569540072196e-06   -2.323524451129178e-05
-9.271420315574568e-06   -1.1004613424240878e-06   -3.9578195656624765e-06
-9.271420315574568e-06   -1.1004613424240878e-06   -3.9578195656624765e-06
-9.271420315574568e-06   -1.1004613424240878e-06   -3.9578195656624765e-06
-9.271420315574568e-06   -1.1004613424240878e-06   -3.9578195656624765e-06
1.8013519770521783e-06   -5.813864109306156e-06   -1.9584398393244617e-05
1.8013519770521783e-06   -5.813864109306156e-06   -1.9584398393244617e-05
1.8013519770521783e-06   -5.813864109306156e-06   -1.9584398393244617e-05
1.8013519770521783e-06   -5.813864109306156e-06   -1.9584398393244617e-05
-3.834543803071996e-06   -3.201396953386379e-06   -1.1758719053256192e-05
-3.834543803071996e-06   -3.201396953386379e-06   -1.1758719053256192e-05
-3.834543803071996e-06   -3.201396953386379e-06   -1.1758719053256192e-05
-3.834543803071996e-06   -3.201396953386379e-06   -1.1758719053256192e-05
1.801351977052178e-06   -1.1004613424241274e-06   -1.1297779055332788e-06
1.801351977052178e-06   -1.1004613424241274e-06   -1.1297779055332788e-06
1.801351977052178e-06   -1.1004613424241274e-06   -1.1297779055332788e-06
1.801351977052178e-06   -1.1004613424241274e-06   -1.1297779055332788e-06
-9.271420315574581e-06   -5.813864109306156e-06   -2.2412440053373706e-05
-9.271420315574581e-06   -5.813864109306156e-06   -2.2412440053373706e-05
-9.271420315574581e-06   -5.813864109306156e-06   -2.2412440053373706e-05
-9.271420315574581e-06   -5.813864109306156e-06   -2.2412440053373706e-05
-8.794926775565705e-06   -8.798872172099265e-07   -3.6855285982999135e-06
-8.794926775565705e-06   -8.798872172099265e-07   -3.6855285982999135e-06
-8.794926775565705e-06   -8.798872172099265e-07   -3.6855285982999135e-06
-8.794926775565705e-06   -8.798872172099265e-07   -3.6855285982999135e-06
2.120555677538876e-06   -5.779885188627936e-06   -1.8938000570623464e-05
2.120555677538876e-06   -5.779885188627936e-06   -1.8938000570623464e-05
2.120555677538876e-06   -5.779885188627936e-06   -1.8938000570623464e-05
2.120555677538876e-06   -5.779885188627936e-06   -1.8938000570623464e-05
-3.4431118835550223e-06   -3.26906517851631e-06   -1.1171713308200611e-05
-3.4431118835550223e-06   -3.26906517851631e-06   -1.1171713308200611e-05
-3.4431118835550223e-06   -3.26906517851631e-06   -1.1171713308200611e-05
-3.4431118835550223e-06   -3.26906517851631e-06   -1.1171713308200611e-05
2.1205556775388744e-06   -8.798872172099228e-07   -7.455298154491292e-07
2.1205556775388744e-06   -8.798872172099228e-07   -7.455298154491292e-07
2.1205556775388744e-06   -8.798872172099228e-07   -7.455298154491292e-07
2.1205556775388744e-06   -8.798872172099228e-07   -7.455298154491292e-07
-8.794926775565732e-06   -5.779885188627936e-06   -2.187799935347433e-05
-8.794926775565732e-06   -5.779885188627936e-06   -2.187799935347433e-05
-8.794926775565732e-06   -5.779885188627936e-06   -2.187799935347433e-05
-8.794926775565732e-06   -5.779885188627936e-06   -2.187799935347433e-05
-7.972208008749078e-06   -6.701274953424411e-07   -3.671415397614214e-06
-7.972208008749078e-06   -6.701274953424411e-07   -3.671415397614214e-06
-7.972208008749078e-06   -6.701274953424411e-07   -3.671415397614214e-06
-7.972208008749078e-06   -6.701274953424411e-07   -3.671415397614214e-06
2.5977183040198443e-06   -5.569269665260147e-06   -1.8348473950278608e-05
2.5977183040198443e-06   -5.569269665260147e-06   -1.8348473950278608e-05
2.5977183040198443e-06   -5.569269665260147e-06   -1.8348473950278608e-05
2.5977183040198443e-06   -5.569269665260147e-06   -1.8348473950278608e-05
-2.934061318904334e-06   -3.1903699155826776e-06   -1.055618109521143e-05
-2.934061318904334e-06   -3.1903699155826776e-06   -1.055618109521143e-05
-2.934061318904334e-06   -3.1903699155826776e-06   -1.055618109521143e-05
-2.934061318904334e-06   -3.1903699155826776e-06   -1.055618109521143e-05
-9.823276946686515e-06   4.106479319684851e-07   -2.52623342477385e-06
-9.823276946686515e-06   4.106479319684851e-07   -2.52623342477385e-06
-9.823276946686515e-06   4.106479319684851e-07   -2.52623342477385e-06
-9.823276946686515e-06   4.106479319684851e-07   -2.52623342477385e-06
-2.236886687137503e-05   -7.028542187410489e-06   -2.7899064037548876e-05
-2.236886687137503e-05   -7.028542187410489e-06   -2.7899064037548876e-05
-2.236886687137503e-05   -7.028542187410489e-06   -2.7899064037548876e-05
-2.236886687137503e-05   -7.028542187410489e-06   -2.7899064037548876e-05
-2.1704244967459892e-05   6.717457854194713e-07   -6.769888650289208e-06
-2.1704244967459892e-05   6.717457854194713e-07   -6.769888650289208e-06
-2.1704244967459892e-05   6.717457854194713e-07   -6.769888650289208e-06
-2.1704244967459892e-05   6.717457854194713e-07   -6.769888650289208e-06
-9.271420315574568e-06   -7.876843617058999e-06   -2.2362109428610976e-05
-9.271420315574568e-06   -7.876843617058999e-06   -2.2362109428610976e-05
-9.271420315574568e-06   -7.876843617058999e-06   -2.2362109428610976e-05
-9.271420315574568e-06   -7.876843617058999e-06   -2.2362109428610976e-05
-1.55685340879119e-05   -3.537479354683514e-06   -1.447053836547405e-05
-1.55685340879119e-05   -3.537479354683514e-06   -1.447053836547405e-05
-1.55685340879119e-05   -3.537479354683514e-06   -1.447053836547405e-05
-1.55685340879119e-05   -3.537479354683514e-06   -1.447053836547405e-05
-9.271420315574568e-06   6.717457854194964e-07   -1.640735008802104e-06
-9.271420315574568e-06   6.717457854194964e-07   -1.640735008802104e-06
-9.271420315574568e-06   6.717457854194964e-07   -1.640735008802104e-06
-9.271420315574568e-06   6.717457854194964e-07   -1.640735008802104e-06
-2.170424496745993e-05   -7.876843617058999e-06   -2.7491263070098188e-05
-2.170424496745993e-05   -7.876843617058999e-06   -2.7491263070098188e-05
-2.170424496745993e-05   -7.876843617058999e-06   -2.7491263070098188e-05
-2.170424496745993e-05   -7.876843617058999e-06   -2.7491263070098188e-05
-2.106776454508233e-05   9.114901113347956e-07   -6.011657320568629e-06
-2.106776454508233e-05   9.114901113347956e-07   -6.011657320568629e-06
-2.106776454508233e-05   9.114901113347956e-07   -6.011657320568629e-06
-2.106776454508233e-05   9.114901113347956e-07   -6.011657320568629e-06
-8.79492677556572e-06   -7.913929914109925e-06   -2.1171134921162856e-05
-8.79492677556572e-06   -7.913929914109925e-06   -2.1171134921162856e-05
-8.79492677556572e-06   -7.913929914109925e-06   -2.1171134921162856e-05
-8.79492677556572e-06   -7.913929914109925e-06   -2.1171134921162856e-05
-1.4920305293785414e-05   -3.5432815796034413e-06   -1.3584559724833882e-05
-1.4920305293785414e-05   -3.5432815796034413e-06   -1.3584559724833882e-05
-1.4920305293785414e-05   -3.5432815796034413e-06   -1.3584559724833882e-05
-1.4920305293785414e-05   -3.5432815796034413e-06   -1.3584559724833882e-05
-8.794926775565719e-06   9.114901113348207e-07   -7.164053053019051e-07
-8.794926775565719e-06   9.114901113348207e-07   -7.164053053019051e-07
-8.794926775565719e-06   9.114901113348207e-07   -7.164053053019051e-07
-8.794926775565719e-06   9.114901113348207e-07   -7.164053053019051e-07
-2.1067764545082368e-05   -7.913929914109708e-06   -2.6466386936429675e-05
-2.1067764545082368e-05   -7.913929914109708e-06   -2.6466386936429675e-05
-2.1067764545082368e-05   -7.913929914109708e-06   -2.6466386936429675e-05
-2.1067764545082368e-05   -7.913929914109708e-06   -2.6466386936429675e-05
-2.0020210305044092e-05   1.1129757043469059e-06   -5.244403295869633e-06
-2.0020210305044092e-05   1.1129757043469059e-06   -5.244403295869633e-06
-2.0020210305044092e-05   1.1129757043469059e-06   -5.244403295869633e-06
-2.0020210305044092e-05   1.1129757043469059e-06   -5.244403295869633e-06
-7.972208008749108e-06   -7.181432725259255e-06   -2.034776206526434e-05
-7.972208008749108e-06   -7.181432725259255e-06   -2.034776206526434e-05
-7.972208008749108e-06   -7.181432725259255e-06   -2.034776206526434e-05
-7.972208008749108e-06   -7.181432725259255e-06   -2.034776206526434e-05
-1.428544353365106e-05   -3.1003348805597186e-06   -1.2274361563914115e-05
-1.428544353365106e-05   -3.1003348805597186e-06   -1.2274361563914115e-05
-1.428544353365106e-05   -3.1003348805597186e-06   -1.2274361563914115e-05
-1.428544353365106e-05   -3.1003348805597186e-06   -1.2274361563914115e-05
-2.236886687137503e-05   3.2358846129154943e-06   -4.580836589977103e-06
-2.236886687137503e-05   3.2358846129154943e-06   -4.580836589977103e-06
-2.236886687137503e-05   3.2358846129154943e-06   -4.580836589977103e-06
-2.236886687137503e-05   3.2358846129154943e-06   -4.580836589977103e-06
-3.835580155146167e-05   0.0   -3.3167258491204206e-05
-3.835580155146167e-05   0.0   -3.3167258491204206e-05
-3.835580155146167e-05   0.0   -3.3167258491204206e-05
-3.835580155146167e-05   0.0   -3.3167258491204206e-05
-3.7388454459551576e-05   4.0712512893547985e-06   -3.469114382346995e-06
-3.7388454459551576e-05   4.0712512893547985e-06   -3.469114382346995e-06
-3.7388454459551576e-05   4.0712512893547985e-06   -3.469114382346995e-06
-3.7388454459551576e-05   4.0712512893547985e-06   -3.469114382346995e-06
-2.1704244967459892e-05   0.0   -2.7166712762220234e-05
-2.1704244967459892e-05   0.0   -2.7166712762220234e-05
-2.1704244967459892e-05   0.0   -2.7166712762220234e-05
-2.1704244967459892e-05   0.0   -2.7166712762220234e-05
-2.8683049555762725e-05   1.258861152769828e-06   -1.629068847337741e-05
-2.8683049555762725e-05   1.258861152769828e-06   -1.629068847337741e-05
-2.8683049555762725e-05   1.258861152769828e-06   -1.629068847337741e-05
-2.8683049555762725e-05   1.258861152769828e-06   -1.629068847337741e-05
-2.1704244967459912e-05   4.0712512893547655e-06   -1.0263636087340508e-06
-2.1704244967459912e-05   4.0712512893547655e-06   -1.0263636087340508e-06
-2.1704244967459912e-05   4.0712512893547655e-06   -1.0263636087340508e-06
-2.1704244967459912e-05   4.0712512893547655e-06   -1.0263636087340508e-06
-3.7388454459551515e-05   0.0   -2.9609463535832975e-05
-3.7388454459551515e-05   0.0   -2.9609463535832975e-05
-3.7388454459551515e-05   0.0   -2.9609463535832975e-05
-3.7388454459551515e-05   0.0   -2.9609463535832975e-05
-3.6566839384166755e-05   4.26013120206621e-06   -1.2321774306286656e-06
-3.6566839384166755e-05   4.26013120206621e-06   -1.2321774306286656e-06
-3.6566839384166755e-05   4.26013120206621e-06   -1.2321774306286656e-06
-3.6566839384166755e-05   4.26013120206621e-06   -1.2321774306286656e-06
-2.1067764545082364e-05   0.0   -2.4507890107863102e-05
-2.1067764545082364e-05   0.0   -2.4507890107863102e-05
-2.1067764545082364e-05   0.0   -2.4507890107863102e-05
-2.1067764545082364e-05   0.0   -2.4507890107863102e-05
-2.840864496838292e-05   1.975020817936114e-06   -1.3458101893123393e-05
-2.840864496838292e-05   1.975020817936114e-06   -1.3458101893123393e-05
-2.840864496838292e-05   1.975020817936114e-06   -1.3458101893123393e-05
-2.840864496838292e-05   1.975020817936114e-06   -1.3458101893123393e-05
-2.1067764545082368e-05   4.260131202066133e-06   1.3239012906110601e-06
-2.1067764545082368e-05   4.260131202066133e-06   1.3239012906110601e-06
-2.1067764545082368e-05   4.260131202066133e-06   1.3239012906110601e-06
-2.1067764545082368e-05   4.260131202066133e-06   1.3239012906110601e-06
-3.6566839384166694e-05   0.0   -2.7063968829102686e-05
-3.6566839384166694e-05   0.0   -2.7063968829102686e-05
-3.6566839384166694e-05   0.0   -2.7063968829102686e-05
-3.6566839384166694e-05   0.0   -2.7063968829102686e-05
-3.4924193949199596e-05   4.57698634939122e-06   2.379907941490165e-06
-3.4924193949199596e-05   4.57698634939122e-06   2.379907941490165e-06
-3.4924193949199596e-05   4.57698634939122e-06   2.379907941490165e-06
-3.4924193949199596e-05   4.57698634939122e-06   2.379907941490165e-06
-2.002021030504411e-05   0.0   -1.971387298913427e-05
-2.002021030504411e-05   0.0   -1.971387298913427e-05
-2.002021030504411e-05   0.0   -1.971387298913427e-05
-2.002021030504411e-05   0.0   -1.971387298913427e-05
-2.6963370909742623e-05   2.4302078253547873e-06   -9.600063343183202e-06
-2.6963370909742623e-05   2.4302078253547873e-06   -9.600063343183202e-06
-2.6963370909742623e-05   2.4302078253547873e-06   -9.600063343183202e-06
-2.6963370909742623e-05   2.4302078253547873e-06   -9.600063343183202e-06
2.8319158122198343e-05   -4.832056690723292e-06   1.684788096707507e-05
2.8319158122198343e-05   -4.832056690723292e-06   1.684788096707507e-05
2.8319158122198343e-05   -4.832056690723292e-06   1.684788096707507e-05
2.8319158122198343e-05   -4.832056690723292e-06   1.684788096707507e-05
1.4656525639745011e-05   -3.751622982339081e-06   -5.274912945316449e-06
1.4656525639745011e-05   -3.751622982339081e-06   -5.274912945316449e-06
1.4656525639745011e-05   -3.751622982339081e-06   -5.274912945316449e-06
1.4656525639745011e-05   -3.751622982339081e-06   -5.274912945316449e-06
1.4295233057893864e-05   -4.953032011014748e-06   1.4846975034237052e-05
1.4295233057893864e-05   -4.953032011014748e-06   1.4846975034237052e-05
1.4295233057893864e-05   -4.953032011014748e-06   1.4846975034237052e-05
1.4295233057893864e-05   -4.953032011014748e-06   1.4846975034237052e-05
2.8026569710848612e-05   -4.119509939192563e-06   -8.538699297114103e-06
2.8026569710848612e-05   -4.119509939192563e-06   -8.538699297114103e-06
2.8026569710848612e-05   -4.119509939192563e-06   -8.538699297114103e-06
2.8026569710848612e-05   -4.119509939192563e-06   -8.538699297114103e-06
2.0449975488652732e-05   -4.178799013252344e-06   4.124531184314975e-06
2.0449975488652732e-05   -4.178799013252344e-06   4.124531184314975e-06
2.0449975488652732e-05   -4.178799013252344e-06   4.124531184314975e-06
2.0449975488652732e-05   -4.178799013252344e-06   4.124531184314975e-06
2.8026569710848612e-05   -4.953032011014658e-06   1.4346861791143806e-05
2.8026569710848612e-05   -4.953032011014658e-06   1.4346861791143806e-05
2.8026569710848612e-05   -4.953032011014658e-06   1.4346861791143806e-05
2.8026569710848612e-05   -4.953032011014658e-06   1.4346861791143806e-05
1.4295233057893864e-05   -4.119509939192563e-06   -8.038586054020884e-06
1.4295233057893864e-05   -4.119509939192563e-06   -8.038586054020884e-06
1.4295233057893864e-05   -4.119509939192563e-06   -8.038586054020884e-06
1.4295233057893864e-05   -4.119509939192563e-06   -8.038586054020884e-06
1.3967702177267703e-05   -4.906322970736794e-06   1.3313482409411611e-05
1.3967702177267703e-05   -4.906322970736794e-06   1.3313482409411611e-05
1.3967702177267703e-05   -4.906322970736794e-06   1.3313482409411611e-05
1.3967702177267703e-05   -4.906322970736794e-06   1.3313482409411611e-05
2.768550424369583e-05   -4.15122478737923e-06   -1.0002579944649558e-05
2.768550424369583e-05   -4.15122478737923e-06   -1.0002579944649558e-05
2.768550424369583e-05   -4.15122478737923e-06   -1.0002579944649558e-05
2.768550424369583e-05   -4.15122478737923e-06   -1.0002579944649558e-05
2.044321631567431e-05   -4.252161341252803e-06   2.1284618677103954e-06
2.044321631567431e-05   -4.252161341252803e-06   2.1284618677103954e-06
2.044321631567431e-05   -4.252161341252803e-06   2.1284618677103954e-06
2.044321631567431e-05   -4.252161341252803e-06   2.1284618677103954e-06
2.7685504243695887e-05   -4.9063229707366045e-06   1.2860423499397398e-05
2.7685504243695887e-05   -4.9063229707366045e-06   1.2860423499397398e-05
2.7685504243695887e-05   -4.9063229707366045e-06   1.2860423499397398e-05
2.7685504243695887e-05   -4.9063229707366045e-06   1.2860423499397398e-05
1.3967702177267703e-05   -4.15122478737923e-06   -9.549521034635223e-06
1.3967702177267703e-05   -4.15122478737923e-06   -9.549521034635223e-06
1.3967702177267703e-05   -4.15122478737923e-06   -9.549521034635223e-06
1.3967702177267703e-05   -4.15122478737923e-06   -9.549521034635223e-06
1.3567729258311162e-05   -4.628039931675815e-06   1.0818540406830942e-05
1.3567729258311162e-05   -4.628039931675815e-06   1.0818540406830942e-05
1.3567729258311162e-05   -4.628039931675815e-06   1.0818540406830942e-05
1.3567729258311162e-05   -4.628039931675815e-06   1.0818540406830942e-05
2.7150868806992823e-05   -4.05733856213039e-06   -1.2162446329365668e-05
2.7150868806992823e-05   -4.05733856213039e-06   -1.2162446329365668e-05
2.7150868806992823e-05   -4.05733856213039e-06   -1.2162446329365668e-05
2.7150868806992823e-05   -4.05733856213039e-06   -1.2162446329365668e-05
1.9753203057261054e-05   -4.042601545726967e-06   1.5815437701188686e-07
1.9753203057261054e-05   -4.042601545726967e-06   1.5815437701188686e-07
1.9753203057261054e-05   -4.042601545726967e-06   1.5815437701188686e-07
1.9753203057261054e-05   -4.042601545726967e-06   1.5815437701188686e-07
1.4656525639745011e-05   -4.779495327600844e-06   1.2539453399787437e-05
1.4656525639745011e-05   -4.779495327600844e-06   1.2539453399787437e-05
1.4656525639745011e-05   -4.779495327600844e-06   1.2539453399787437e-05
1.4656525639745011e-05   -4.779495327600844e-06   1.2539453399787437e-05
3.0188870595612938e-06   -2.2874400747393588e-06   -5.361377748801699e-06
3.0188870595612938e-06   -2.2874400747393588e-06   -5.361377748801699e-06
3.0188870595612938e-06   -2.2874400747393588e-06   -5.361377748801699e-06
3.0188870595612938e-06   -2.2874400747393588e-06   -5.361377748801699e-06
2.447257905063881e-06   -4.7512953541908615e-06   1.4274471916229394e-05
2.447257905063881e-06   -4.7512953541908615e-06   1.4274471916229394e-05
2.447257905063881e-06   -4.7512953541908615e-06   1.4274471916229394e-05
2.447257905063881e-06   -4.7512953541908615e-06   1.4274471916229394e-05
1.4295233057893867e-05   -2.4239006099953126e-06   -6.868590185004454e-06
1.4295233057893867e-05   -2.4239006099953126e-06   -6.868590185004454e-06
1.4295233057893867e-05   -2.4239006099953126e-06   -6.868590185004454e-06
1.4295233057893867e-05   -2.4239006099953126e-06   -6.868590185004454e-06
8.590996019349074e-06   -3.4281694853736337e-06   3.2410328711304917e-06
8.590996019349074e-06   -3.4281694853736337e-06   3.2410328711304917e-06
8.590996019349074e-06   -3.4281694853736337e-06   3.2410328711304917e-06
8.590996019349074e-06   -3.4281694853736337e-06   3.2410328711304917e-06
1.429523305789385e-05   -4.751295354190842e-06   1.2878035069712238e-05
1.429523305789385e-05   -4.751295354190842e-06   1.2878035069712238e-05
1.429523305789385e-05   -4.751295354190842e-06   1.2878035069712238e-05
1.429523305789385e-05   -4.751295354190842e-06   1.2878035069712238e-05
2.447257905063888e-06   -2.4239006099953126e-06   -5.472153338487162e-06
2.447257905063888e-06   -2.4239006099953126e-06   -5.472153338487162e-06
2.447257905063888e-06   -2.4239006099953126e-06   -5.472153338487162e-06
2.447257905063888e-06   -2.4239006099953126e-06   -5.472153338487162e-06
2.0384872824070005e-06   -4.682558678250357e-06   1.4282851510847303e-05
2.0384872824070005e-06   -4.682558678250357e-06   1.4282851510847303e-05
2.0384872824070005e-06   -4.682558678250357e-06   1.4282851510847303e-05
2.0384872824070005e-06   -4.682558678250357e-06   1.4282851510847303e-05
1.3967702177267705e-05   -2.481725293925971e-06   -6.919673344515378e-06
1.3967702177267705e-05   -2.481725293925971e-06   -6.919673344515378e-06
1.3967702177267705e-05   -2.481725293925971e-06   -6.919673344515378e-06
1.3967702177267705e-05   -2.481725293925971e-06   -6.919673344515378e-06
8.098283252376345e-06   -3.3557552103465407e-06   3.3871094801563316e-06
8.098283252376345e-06   -3.3557552103465407e-06   3.3871094801563316e-06
8.098283252376345e-06   -3.3557552103465407e-06   3.3871094801563316e-06
8.098283252376345e-06   -3.3557552103465407e-06   3.3871094801563316e-06
1.396770217726773e-05   -4.682558678250519e-06   1.2962351480252606e-05
1.396770217726773e-05   -4.682558678250519e-06   1.2962351480252606e-05
1.396770217726773e-05   -4.682558678250519e-06   1.2962351480252606e-05
1.396770217726773e-05   -4.682558678250519e-06   1.2962351480252606e-05
2.0384872824070005e-06   -2.481725293925971e-06   -5.599173313920627e-06
2.0384872824070005e-06   -2.481725293925971e-06   -5.599173313920627e-06
2.0384872824070005e-06   -2.481725293925971e-06   -5.599173313920627e-06
2.0384872824070005e-06   -2.481725293925971e-06   -5.599173313920627e-06
1.5842372620426988e-06   -4.5484483281958005e-06   1.4732889536566525e-05
1.5842372620426988e-06   -4.5484483281958005e-06   1.4732889536566525e-05
1.5842372620426988e-06   -4.5484483281958005e-06   1.4732889536566525e-05
1.5842372620426988e-06   -4.5484483281958005e-06   1.4732889536566525e-05
1.3567729258311174e-05   -2.4206834796198454e-06   -6.5162560330264755e-06
1.3567729258311174e-05   -2.4206834796198454e-06   -6.5162560330264755e-06
1.3567729258311174e-05   -2.4206834796198454e-06   -6.5162560330264755e-06
1.3567729258311174e-05   -2.4206834796198454e-06   -6.5162560330264755e-06
7.799202370837496e-06   -3.204590265134654e-06   3.5682995174051173e-06
7.799202370837496e-06   -3.204590265134654e-06   3.5682995174051173e-06
7.799202370837496e-06   -3.204590265134654e-06   3.5682995174051173e-06
7.799202370837496e-06   -3.204590265134654e-06   3.5682995174051173e-06
3.0188870595613005e-06   -5.693569540072165e-06   1.28603175112668e-05
3.0188870595613005e-06   -5.693569540072165e-06   1.28603175112668e-05
3.0188870595613005e-06   -5.693569540072165e-06   1.28603175112668e-05
3.0188870595613005e-06   -5.693569540072165e-06   1.28603175112668e-05
-8.167910976322472e-06   -9.120558172274074e-07   -2.9154376481661153e-06
-8.167910976322472e-06   -9.120558172274074e-07   -2.9154376481661153e-06
-8.167910976322472e-06   -9.120558172274074e-07   -2.9154376481661153e-06
-8.167910976322472e-06   -9.120558172274074e-07   -2.9154376481661153e-06
-9.056293857887157e-06   -5.813864109306156e-06   1.6469237075165022e-05
-9.056293857887157e-06   -5.813864109306156e-06   1.6469237075165022e-05
-9.056293857887157e-06   -5.813864109306156e-06   1.6469237075165022e-05
-9.056293857887157e-06   -5.813864109306156e-06   1.6469237075165022e-05
2.447257905063885e-06   -9.614984151317101e-07   -5.614768612924748e-06
2.447257905063885e-06   -9.614984151317101e-07   -5.614768612924748e-06
2.447257905063885e-06   -9.614984151317101e-07   -5.614768612924748e-06
2.447257905063885e-06   -9.614984151317101e-07   -5.614768612924748e-06
-2.8422847174177484e-06   -3.236335748510368e-06   4.566038157905367e-06
-2.8422847174177484e-06   -3.236335748510368e-06   4.566038157905367e-06
-2.8422847174177484e-06   -3.236335748510368e-06   4.566038157905367e-06
-2.8422847174177484e-06   -3.236335748510368e-06   4.566038157905367e-06
2.447257905063881e-06   -5.813864109306077e-06   1.3557817658660376e-05
2.447257905063881e-06   -5.813864109306077e-06   1.3557817658660376e-05
2.447257905063881e-06   -5.813864109306077e-06   1.3557817658660376e-05
2.447257905063881e-06   -5.813864109306077e-06   1.3557817658660376e-05
-9.056293857887137e-06   -9.614984151317101e-07   -2.703349196419994e-06
-9.056293857887137e-06   -9.614984151317101e-07   -2.703349196419994e-06
-9.056293857887137e-06   -9.614984151317101e-07   -2.703349196419994e-06
-9.056293857887137e-06   -9.614984151317101e-07   -2.703349196419994e-06
-9.601164482833974e-06   -5.779885188627936e-06   1.7090089993938612e-05
-9.601164482833974e-06   -5.779885188627936e-06   1.7090089993938612e-05
-9.601164482833974e-06   -5.779885188627936e-06   1.7090089993938612e-05
-9.601164482833974e-06   -5.779885188627936e-06   1.7090089993938612e-05
2.038487282407e-06   -1.0228270277323672e-06   -5.16356451133372e-06
2.038487282407e-06   -1.0228270277323672e-06   -5.16356451133372e-06
2.038487282407e-06   -1.0228270277323672e-06   -5.16356451133372e-06
2.038487282407e-06   -1.0228270277323672e-06   -5.16356451133372e-06
-3.444632853422217e-06   -3.2208711347430762e-06   5.293795512588019e-06
-3.444632853422217e-06   -3.2208711347430762e-06   5.293795512588019e-06
-3.444632853422217e-06   -3.2208711347430762e-06   5.293795512588019e-06
-3.444632853422217e-06   -3.2208711347430762e-06   5.293795512588019e-06
2.0384872824069937e-06   -5.779885188627834e-06   1.4235855097401119e-05
2.0384872824069937e-06   -5.779885188627834e-06   1.4235855097401119e-05
2.0384872824069937e-06   -5.779885188627834e-06   1.4235855097401119e-05
2.0384872824069937e-06   -5.779885188627834e-06   1.4235855097401119e-05
-9.601164482833961e-06   -1.0228270277323672e-06   -2.3093296147964296e-06
-9.601164482833961e-06   -1.0228270277323672e-06   -2.3093296147964296e-06
-9.601164482833961e-06   -1.0228270277323672e-06   -2.3093296147964296e-06
-9.601164482833961e-06   -1.0228270277323672e-06   -2.3093296147964296e-06
-1.0239767596573476e-05   -5.569269665260147e-06   1.7890868073510758e-05
-1.0239767596573476e-05   -5.569269665260147e-06   1.7890868073510758e-05
-1.0239767596573476e-05   -5.569269665260147e-06   1.7890868073510758e-05
-1.0239767596573476e-05   -5.569269665260147e-06   1.7890868073510758e-05
1.5842372620427018e-06   -1.0127017795336785e-06   -4.549747422285359e-06
1.5842372620427018e-06   -1.0127017795336785e-06   -4.549747422285359e-06
1.5842372620427018e-06   -1.0127017795336785e-06   -4.549747422285359e-06
1.5842372620427018e-06   -1.0127017795336785e-06   -4.549747422285359e-06
-3.9360972402146225e-06   -3.0857969381544673e-06   5.894667176649276e-06
-3.9360972402146225e-06   -3.0857969381544673e-06   5.894667176649276e-06
-3.9360972402146225e-06   -3.0857969381544673e-06   5.894667176649276e-06
-3.9360972402146225e-06   -3.0857969381544673e-06   5.894667176649276e-06
-8.167910976322492e-06   -7.028542187410582e-06   1.5528920290343935e-05
-8.167910976322492e-06   -7.028542187410582e-06   1.5528920290343935e-05
-8.167910976322492e-06   -7.028542187410582e-06   1.5528920290343935e-05
-8.167910976322492e-06   -7.028542187410582e-06   1.5528920290343935e-05
-2.085073950106877e-05   1.123154696349056e-06   -7.181091206439737e-07
-2.085073950106877e-05   1.123154696349056e-06   -7.181091206439737e-07
-2.085073950106877e-05   1.123154696349056e-06   -7.181091206439737e-07
-2.085073950106877e-05   1.123154696349056e-06   -7.181091206439737e-07
-2.1925319499027777e-05   -7.876843617058999e-06   2.1887091747008918e-05
-2.1925319499027777e-05   -7.876843617058999e-06   2.1887091747008918e-05
-2.1925319499027777e-05   -7.876843617058999e-06   2.1887091747008918e-05
-2.1925319499027777e-05   -7.876843617058999e-06   2.1887091747008918e-05
-9.05629385788714e-06   1.0690297947428713e-06   -4.92880836863988e-06
-9.05629385788714e-06   1.0690297947428713e-06   -4.92880836863988e-06
-9.05629385788714e-06   1.0690297947428713e-06   -4.92880836863988e-06
-9.05629385788714e-06   1.0690297947428713e-06   -4.92880836863988e-06
-1.4795005732112257e-05   -2.8531319815775034e-06   6.989008487527559e-06
-1.4795005732112257e-05   -2.8531319815775034e-06   6.989008487527559e-06
-1.4795005732112257e-05   -2.8531319815775034e-06   6.989008487527559e-06
-1.4795005732112257e-05   -2.8531319815775034e-06   6.989008487527559e-06
-9.056293857887137e-06   -7.876843617058945e-06   1.6519567699927753e-05
-9.056293857887137e-06   -7.876843617058945e-06   1.6519567699927753e-05
-9.056293857887137e-06   -7.876843617058945e-06   1.6519567699927753e-05
-9.056293857887137e-06   -7.876843617058945e-06   1.6519567699927753e-05
-2.1925319499027743e-05   1.0690297947428713e-06   4.38715678441272e-07
-2.1925319499027743e-05   1.0690297947428713e-06   4.38715678441272e-07
-2.1925319499027743e-05   1.0690297947428713e-06   4.38715678441272e-07
-2.1925319499027743e-05   1.0690297947428713e-06   4.38715678441272e-07
-2.2578889896421858e-05   -7.913929914109708e-06   2.312148315613573e-05
-2.2578889896421858e-05   -7.913929914109708e-06   2.312148315613573e-05
-2.2578889896421858e-05   -7.913929914109708e-06   2.312148315613573e-05
-2.2578889896421858e-05   -7.913929914109708e-06   2.312148315613573e-05
-9.60116448283396e-06   9.60284635699712e-07   -3.832587929729857e-06
-9.60116448283396e-06   9.60284635699712e-07   -3.832587929729857e-06
-9.60116448283396e-06   9.60284635699712e-07   -3.832587929729857e-06
-9.60116448283396e-06   9.60284635699712e-07   -3.832587929729857e-06
-1.5488311299427088e-05   -3.308458823542788e-06   8.54056950680426e-06
-1.5488311299427088e-05   -3.308458823542788e-06   8.54056950680426e-06
-1.5488311299427088e-05   -3.308458823542788e-06   8.54056950680426e-06
-1.5488311299427088e-05   -3.308458823542788e-06   8.54056950680426e-06
-9.601164482833961e-06   -7.91392991410987e-06   1.779695442624999e-05
-9.601164482833961e-06   -7.91392991410987e-06   1.779695442624999e-05
-9.601164482833961e-06   -7.91392991410987e-06   1.779695442624999e-05
-9.601164482833961e-06   -7.91392991410987e-06   1.779695442624999e-05
-2.2578889896421817e-05   9.60284635699712e-07   1.491940800155936e-06
-2.2578889896421817e-05   9.60284635699712e-07   1.491940800155936e-06
-2.2578889896421817e-05   9.60284635699712e-07   1.491940800155936e-06
-2.2578889896421817e-05   9.60284635699712e-07   1.491940800155936e-06
-2.3284695779232094e-05   -7.181432725259255e-06   2.3641522192088316e-05
-2.3284695779232094e-05   -7.181432725259255e-06   2.3641522192088316e-05
-2.3284695779232094e-05   -7.181432725259255e-06   2.3641522192088316e-05
-2.3284695779232094e-05   -7.181432725259255e-06   2.3641522192088316e-05
-1.0239767596573476e-05   8.359954940951719e-07   -2.9104817106220045e-06
-1.0239767596573476e-05   8.359954940951719e-07   -2.9104817106220045e-06
-1.0239767596573476e-05   8.359954940951719e-07   -2.9104817106220045e-06
-1.0239767596573476e-05   8.359954940951719e-07   -2.9104817106220045e-06
-1.6208387387768353e-05   -3.3287158016652614e-06   9.536044718825849e-06
-1.6208387387768353e-05   -3.3287158016652614e-06   9.536044718825849e-06
-1.6208387387768353e-05   -3.3287158016652614e-06   9.536044718825849e-06
-1.6208387387768353e-05   -3.3287158016652614e-06   9.536044718825849e-06
-2.0850739501068696e-05   -2.370788750501645e-20   1.709327473469347e-05
-2.0850739501068696e-05   -2.370788750501645e-20   1.709327473469347e-05
-2.0850739501068696e-05   -2.370788750501645e-20   1.709327473469347e-05
-2.0850739501068696e-05   -2.370788750501645e-20   1.709327473469347e-05
-3.655633511916054e-05   4.812390911791524e-06   -6.1952834150513195e-06
-3.655633511916054e-05   4.812390911791524e-06   -6.1952834150513195e-06
-3.655633511916054e-05   4.812390911791524e-06   -6.1952834150513195e-06
-3.655633511916054e-05   4.812390911791524e-06   -6.1952834150513195e-06
-3.8025041307223093e-05   0.0   2.5007985408054918e-05
-3.8025041307223093e-05   0.0   2.5007985408054918e-05
-3.8025041307223093e-05   0.0   2.5007985408054918e-05
-3.8025041307223093e-05   0.0   2.5007985408054918e-05
-2.1925319499027743e-05   4.6605722552801356e-06   -4.621227625438974e-06
-2.1925319499027743e-05   4.6605722552801356e-06   -4.621227625438974e-06
-2.1925319499027743e-05   4.6605722552801356e-06   -4.621227625438974e-06
-2.1925319499027743e-05   4.6605722552801356e-06   -4.621227625438974e-06
-2.8090916700447868e-05   2.8539986064177528e-06   6.738711899578813e-06
-2.8090916700447868e-05   2.8539986064177528e-06   6.738711899578813e-06
-2.8090916700447868e-05   2.8539986064177528e-06   6.738711899578813e-06
-2.8090916700447868e-05   2.8539986064177528e-06   6.738711899578813e-06
-2.1925319499027723e-05   5.435466891393994e-20   2.2211642054886858e-05
-2.1925319499027723e-05   5.435466891393994e-20   2.2211642054886858e-05
-2.1925319499027723e-05   5.435466891393994e-20   2.2211642054886858e-05
-2.1925319499027723e-05   5.435466891393994e-20   2.2211642054886858e-05
-3.8025041307223175e-05   4.6605722552801356e-06   -1.8248842722708462e-06
-3.8025041307223175e-05   4.6605722552801356e-06   -1.8248842722708462e-06
-3.8025041307223175e-05   4.6605722552801356e-06   -1.8248842722708462e-06
-3.8025041307223175e-05   4.6605722552801356e-06   -1.8248842722708462e-06
-3.876309978439328e-05   0.0   2.7808141650416916e-05
-3.876309978439328e-05   0.0   2.7808141650416916e-05
-3.876309978439328e-05   0.0   2.7808141650416916e-05
-3.876309978439328e-05   0.0   2.7808141650416916e-05
-2.2578889896421814e-05   4.5469361095243355e-06   -1.893703161916948e-06
-2.2578889896421814e-05   4.5469361095243355e-06   -1.893703161916948e-06
-2.2578889896421814e-05   4.5469361095243355e-06   -1.893703161916948e-06
-2.2578889896421814e-05   4.5469361095243355e-06   -1.893703161916948e-06
-2.952474510777649e-05   2.387459290902798e-06   1.097840828151415e-05
-2.952474510777649e-05   2.387459290902798e-06   1.097840828151415e-05
-2.952474510777649e-05   2.387459290902798e-06   1.097840828151415e-05
-2.952474510777649e-05   2.387459290902798e-06   1.097840828151415e-05
-2.2578889896421817e-05   5.435466891393994e-20   2.5079979984702228e-05
-2.2578889896421817e-05   5.435466891393994e-20   2.5079979984702228e-05
-2.2578889896421817e-05   5.435466891393994e-20   2.5079979984702228e-05
-2.2578889896421817e-05   5.435466891393994e-20   2.5079979984702228e-05
-3.876309978439335e-05   4.5469361095243355e-06   8.344585037977671e-07
-3.876309978439335e-05   4.5469361095243355e-06   8.344585037977671e-07
-3.876309978439335e-05   4.5469361095243355e-06   8.344585037977671e-07
-3.876309978439335e-05   4.5469361095243355e-06   8.344585037977671e-07
-3.9578735603946773e-05   0.0   3.153883645207309e-05
-3.9578735603946773e-05   0.0   3.153883645207309e-05
-3.9578735603946773e-05   0.0   3.153883645207309e-05
-3.9578735603946773e-05   0.0   3.153883645207309e-05
-2.328469577923207e-05   3.8113002101519255e-06   2.095323284790742e-06
-2.328469577923207e-05   3.8113002101519255e-06   2.095323284790742e-06
-2.328469577923207e-05   3.8113002101519255e-06   2.095323284790742e-06
-2.328469577923207e-05   3.8113002101519255e-06   2.095323284790742e-06
-2.9748658815321545e-05   1.6875083481903645e-06   1.414287012878325e-05
-2.9748658815321545e-05   1.6875083481903645e-06   1.414287012878325e-05
-2.9748658815321545e-05   1.6875083481903645e-06   1.414287012878325e-05
-2.9748658815321545e-05   1.6875083481903645e-06   1.414287012878325e-05
2.5030917399937283e-05   -3.7516229823390147e-06   1.766330101425921e-05
2.5030917399937283e-05   -3.7516229823390147e-06   1.766330101425921e-05
2.5030917399937283e-05   -3.7516229823390147e-06   1.766330101425921e-05
2.5030917399937283e-05   -3.7516229823390147e-06   1.766330101425921e-05
1.2634021196356805e-05   -2.852589746018858e-06   -2.4587727165828813e-06
1.2634021196356805e-05   -2.852589746018858e-06   -2.4587727165828813e-06
1.2634021196356805e-05   -2.852589746018858e-06   -2.4587727165828813e-06
1.2634021196356805e-05   -2.852589746018858e-06   -2.4587727165828813e-06
1.230777368730851e-05   -4.119509939192346e-06   1.5393969627877928e-05
1.230777368730851e-05   -4.119509939192346e-06   1.5393969627877928e-05
1.230777368730851e-05   -4.119509939192346e-06   1.5393969627877928e-05
1.230777368730851e-05   -4.119509939192346e-06   1.5393969627877928e-05
2.445158307269974e-05   -3.2268962949036925e-06   -5.3812808676806534e-06
2.445158307269974e-05   -3.2268962949036925e-06   -5.3812808676806534e-06
2.445158307269974e-05   -3.2268962949036925e-06   -5.3812808676806534e-06
2.445158307269974e-05   -3.2268962949036925e-06   -5.3812808676806534e-06
1.7777773356978834e-05   -3.3500865420720656e-06   5.815649473488578e-06
1.7777773356978834e-05   -3.3500865420720656e-06   5.815649473488578e-06
1.7777773356978834e-05   -3.3500865420720656e-06   5.815649473488578e-06
1.7777773356978834e-05   -3.3500865420720656e-06   5.815649473488578e-06
2.4451583072699698e-05   -4.1195099391924025e-06   1.4858401441304758e-05
2.4451583072699698e-05   -4.1195099391924025e-06   1.4858401441304758e-05
2.4451583072699698e-05   -4.1195099391924025e-06   1.4858401441304758e-05
2.4451583072699698e-05   -4.1195099391924025e-06   1.4858401441304758e-05
1.2307773687308538e-05   -3.2268962949036925e-06   -4.845712681107446e-06
1.2307773687308538e-05   -3.2268962949036925e-06   -4.845712681107446e-06
1.2307773687308538e-05   -3.2268962949036925e-06   -4.845712681107446e-06
1.2307773687308538e-05   -3.2268962949036925e-06   -4.845712681107446e-06
1.188752376023784e-05   -4.151224787379447e-06   1.3803095811424173e-05
1.188752376023784e-05   -4.151224787379447e-06   1.3803095811424173e-05
1.188752376023784e-05   -4.151224787379447e-06   1.3803095811424173e-05
1.188752376023784e-05   -4.151224787379447e-06   1.3803095811424173e-05
2.3864197532094757e-05   -3.2810465614610106e-06   -6.680134077221687e-06
2.3864197532094757e-05   -3.2810465614610106e-06   -6.680134077221687e-06
2.3864197532094757e-05   -3.2810465614610106e-06   -6.680134077221687e-06
2.3864197532094757e-05   -3.2810465614610106e-06   -6.680134077221687e-06
1.7622401081348223e-05   -3.4949211239626316e-06   3.851184744856817e-06
1.7622401081348223e-05   -3.4949211239626316e-06   3.851184744856817e-06
1.7622401081348223e-05   -3.4949211239626316e-06   3.851184744856817e-06
1.7622401081348223e-05   -3.4949211239626316e-06   3.851184744856817e-06
2.3864197532094757e-05   -4.151224787379284e-06   1.3280988875873177e-05
2.3864197532094757e-05   -4.151224787379284e-06   1.3280988875873177e-05
2.3864197532094757e-05   -4.151224787379284e-06   1.3280988875873177e-05
2.3864197532094757e-05   -4.151224787379284e-06   1.3280988875873177e-05
1.188752376023784e-05   -3.2810465614610106e-06   -6.15802714167067e-06
1.188752376023784e-05   -3.2810465614610106e-06   -6.15802714167067e-06
1.188752376023784e-05   -3.2810465614610106e-06   -6.15802714167067e-06
1.188752376023784e-05   -3.2810465614610106e-06   -6.15802714167067e-06
1.14460643394142e-05   -4.05733856213039e-06   1.1437715665861743e-05
1.14460643394142e-05   -4.05733856213039e-06   1.1437715665861743e-05
1.14460643394142e-05   -4.05733856213039e-06   1.1437715665861743e-05
1.14460643394142e-05   -4.05733856213039e-06   1.1437715665861743e-05
2.3128465696731313e-05   -3.2536873627235334e-06   -8.515143982644206e-06
2.3128465696731313e-05   -3.2536873627235334e-06   -8.515143982644206e-06
2.3128465696731313e-05   -3.2536873627235334e-06   -8.515143982644206e-06
2.3128465696731313e-05   -3.2536873627235334e-06   -8.515143982644206e-06
1.684904850088528e-05   -3.4012248084606825e-06   2.0390738112084595e-06
1.684904850088528e-05   -3.4012248084606825e-06   2.0390738112084595e-06
1.684904850088528e-05   -3.4012248084606825e-06   2.0390738112084595e-06
1.684904850088528e-05   -3.4012248084606825e-06   2.0390738112084595e-06
1.2634021196356805e-05   -2.2874400747392067e-06   1.662102300084903e-05
1.2634021196356805e-05   -2.2874400747392067e-06   1.662102300084903e-05
1.2634021196356805e-05   -2.2874400747392067e-06   1.662102300084903e-05
1.2634021196356805e-05   -2.2874400747392067e-06   1.662102300084903e-05
1.323199076677988e-06   -9.98455001031311e-07   -1.4569561543908462e-06
1.323199076677988e-06   -9.98455001031311e-07   -1.4569561543908462e-06
1.323199076677988e-06   -9.98455001031311e-07   -1.4569561543908462e-06
1.323199076677988e-06   -9.98455001031311e-07   -1.4569561543908462e-06
9.983824716984093e-07   -2.4239006099953126e-06   1.7299418828579266e-05
9.983824716984093e-07   -2.4239006099953126e-06   1.7299418828579266e-05
9.983824716984093e-07   -2.4239006099953126e-06   1.7299418828579266e-05
9.983824716984093e-07   -2.4239006099953126e-06   1.7299418828579266e-05
1.2307773687308536e-05   -1.1981450571871798e-06   -2.285019862455975e-06
1.2307773687308536e-05   -1.1981450571871798e-06   -2.285019862455975e-06
1.2307773687308536e-05   -1.1981450571871798e-06   -2.285019862455975e-06
1.2307773687308536e-05   -1.1981450571871798e-06   -2.285019862455975e-06
6.75013779464909e-06   -1.6068292654296788e-06   7.222917150255352e-06
6.75013779464909e-06   -1.6068292654296788e-06   7.222917150255352e-06
6.75013779464909e-06   -1.6068292654296788e-06   7.222917150255352e-06
6.75013779464909e-06   -1.6068292654296788e-06   7.222917150255352e-06
1.2307773687308524e-05   -2.4239006099953334e-06   1.6563965496894277e-05
1.2307773687308524e-05   -2.4239006099953334e-06   1.6563965496894277e-05
1.2307773687308524e-05   -2.4239006099953334e-06   1.6563965496894277e-05
1.2307773687308524e-05   -2.4239006099953334e-06   1.6563965496894277e-05
9.983824716984093e-07   -1.1981450571871798e-06   -1.5495665307709667e-06
9.983824716984093e-07   -1.1981450571871798e-06   -1.5495665307709667e-06
9.983824716984093e-07   -1.1981450571871798e-06   -1.5495665307709667e-06
9.983824716984093e-07   -1.1981450571871798e-06   -1.5495665307709667e-06
5.845261509764455e-07   -2.481725293925971e-06   1.7125724043221425e-05
5.845261509764455e-07   -2.481725293925971e-06   1.7125724043221425e-05
5.845261509764455e-07   -2.481725293925971e-06   1.7125724043221425e-05
5.845261509764455e-07   -2.481725293925971e-06   1.7125724043221425e-05
1.1887523760237839e-05   -1.3270910577970136e-06   -2.405385847224988e-06
1.1887523760237839e-05   -1.3270910577970136e-06   -2.405385847224988e-06
1.1887523760237839e-05   -1.3270910577970136e-06   -2.405385847224988e-06
1.1887523760237839e-05   -1.3270910577970136e-06   -2.405385847224988e-06
6.336953130353042e-06   -1.6813564167172251e-06   7.0581244179355345e-06
6.336953130353042e-06   -1.6813564167172251e-06   7.0581244179355345e-06
6.336953130353042e-06   -1.6813564167172251e-06   7.0581244179355345e-06
6.336953130353042e-06   -1.6813564167172251e-06   7.0581244179355345e-06
1.188752376023782e-05   -2.4817252939259125e-06   1.6432943501544072e-05
1.188752376023782e-05   -2.4817252939259125e-06   1.6432943501544072e-05
1.188752376023782e-05   -2.4817252939259125e-06   1.6432943501544072e-05
1.188752376023782e-05   -2.4817252939259125e-06   1.6432943501544072e-05
5.845261509764455e-07   -1.3270910577970136e-06   -1.7126053055475064e-06
5.845261509764455e-07   -1.3270910577970136e-06   -1.7126053055475064e-06
5.845261509764455e-07   -1.3270910577970136e-06   -1.7126053055475064e-06
5.845261509764455e-07   -1.3270910577970136e-06   -1.7126053055475064e-06
1.2743334610871275e-07   -2.4206834796198454e-06   1.736624254326726e-05
1.2743334610871275e-07   -2.4206834796198454e-06   1.736624254326726e-05
1.2743334610871275e-07   -2.4206834796198454e-06   1.736624254326726e-05
1.2743334610871275e-07   -2.4206834796198454e-06   1.736624254326726e-05
1.1446064339414185e-05   -1.3794211416303867e-06   -2.122899848368803e-06
1.1446064339414185e-05   -1.3794211416303867e-06   -2.122899848368803e-06
1.1446064339414185e-05   -1.3794211416303867e-06   -2.122899848368803e-06
1.1446064339414185e-05   -1.3794211416303867e-06   -2.122899848368803e-06
6.0035726536516735e-06   -1.6626054644431612e-06   7.117830221590009e-06
6.0035726536516735e-06   -1.6626054644431612e-06   7.117830221590009e-06
6.0035726536516735e-06   -1.6626054644431612e-06   7.117830221590009e-06
6.0035726536516735e-06   -1.6626054644431612e-06   7.117830221590009e-06
1.3231990766779947e-06   -9.120558172275709e-07   1.6971445912002808e-05
1.3231990766779947e-06   -9.120558172275709e-07   1.6971445912002808e-05
1.3231990766779947e-06   -9.120558172275709e-07   1.6971445912002808e-05
1.3231990766779947e-06   -9.120558172275709e-07   1.6971445912002808e-05
-9.640491917829139e-06   9.048829537379325e-07   -2.112091495964745e-07
-9.640491917829139e-06   9.048829537379325e-07   -2.112091495964745e-07
-9.640491917829139e-06   9.048829537379325e-07   -2.112091495964745e-07
-9.640491917829139e-06   9.048829537379325e-07   -2.112091495964745e-07
-1.0006765082954346e-05   -9.614984151317101e-07   1.8186519443758303e-05
-1.0006765082954346e-05   -9.614984151317101e-07   1.8186519443758303e-05
-1.0006765082954346e-05   -9.614984151317101e-07   1.8186519443758303e-05
-1.0006765082954346e-05   -9.614984151317101e-07   1.8186519443758303e-05
9.983824716984059e-07   7.546947342294006e-07   -1.185109036946284e-06
9.983824716984059e-07   7.546947342294006e-07   -1.185109036946284e-06
9.983824716984059e-07   7.546947342294006e-07   -1.185109036946284e-06
9.983824716984059e-07   7.546947342294006e-07   -1.185109036946284e-06
-4.32374118492663e-06   2.5667998584575323e-08   8.122513098815715e-06
-4.32374118492663e-06   2.5667998584575323e-08   8.122513098815715e-06
-4.32374118492663e-06   2.5667998584575323e-08   8.122513098815715e-06
-4.32374118492663e-06   2.5667998584575323e-08   8.122513098815715e-06
9.983824716984093e-07   -9.61498415131659e-07   1.715680355414168e-05
9.983824716984093e-07   -9.61498415131659e-07   1.715680355414168e-05
9.983824716984093e-07   -9.61498415131659e-07   1.715680355414168e-05
9.983824716984093e-07   -9.61498415131659e-07   1.715680355414168e-05
-1.0006765082954346e-05   7.546947342294006e-07   -1.5539314732952551e-07
-1.0006765082954346e-05   7.546947342294006e-07   -1.5539314732952551e-07
-1.0006765082954346e-05   7.546947342294006e-07   -1.5539314732952551e-07
-1.0006765082954346e-05   7.546947342294006e-07   -1.5539314732952551e-07
-1.0496037727610738e-05   -1.0228270277323672e-06   1.854397404040507e-05
-1.0496037727610738e-05   -1.0228270277323672e-06   1.854397404040507e-05
-1.0496037727610738e-05   -1.0228270277323672e-06   1.854397404040507e-05
-1.0496037727610738e-05   -1.0228270277323672e-06   1.854397404040507e-05
5.845261509764427e-07   6.149082965956152e-07   -9.062736185036355e-07
5.845261509764427e-07   6.149082965956152e-07   -9.062736185036355e-07
5.845261509764427e-07   6.149082965956152e-07   -9.062736185036355e-07
5.845261509764427e-07   6.149082965956152e-07   -9.062736185036355e-07
-4.684557193638313e-06   -1.4716300428805652e-08   8.253306714068914e-06
-4.684557193638313e-06   -1.4716300428805652e-08   8.253306714068914e-06
-4.684557193638313e-06   -1.4716300428805652e-08   8.253306714068914e-06
-4.684557193638313e-06   -1.4716300428805652e-08   8.253306714068914e-06
5.845261509764455e-07   -1.0228270277324053e-06   1.7561332845808346e-05
5.845261509764455e-07   -1.0228270277324053e-06   1.7561332845808346e-05
5.845261509764455e-07   -1.0228270277324053e-06   1.7561332845808346e-05
5.845261509764455e-07   -1.0228270277324053e-06   1.7561332845808346e-05
-1.0496037727610738e-05   6.149082965956152e-07   7.636757609315661e-08
-1.0496037727610738e-05   6.149082965956152e-07   7.636757609315661e-08
-1.0496037727610738e-05   6.149082965956152e-07   7.636757609315661e-08
-1.0496037727610738e-05   6.149082965956152e-07   7.636757609315661e-08
-1.1017277508023437e-05   -1.0127017795336785e-06   1.8972640925412373e-05
-1.1017277508023437e-05   -1.0127017795336785e-06   1.8972640925412373e-05
-1.1017277508023437e-05   -1.0127017795336785e-06   1.8972640925412373e-05
-1.1017277508023437e-05   -1.0127017795336785e-06   1.8972640925412373e-05
1.2743334610871047e-07   5.148793547151993e-07   -5.184258453573196e-07
1.2743334610871047e-07   5.148793547151993e-07   -5.184258453573196e-07
1.2743334610871047e-07   5.148793547151993e-07   -5.184258453573196e-07
1.2743334610871047e-07   5.148793547151993e-07   -5.184258453573196e-07
-5.144009308342484e-06   -4.2692032243261437e-08   8.601854744236714e-06
-5.144009308342484e-06   -4.2692032243261437e-08   8.601854744236714e-06
-5.144009308342484e-06   -4.2692032243261437e-08   8.601854744236714e-06
-5.144009308342484e-06   -4.2692032243261437e-08   8.601854744236714e-06
-9.640491917829105e-06   1.123154696349192e-06   1.536791957184832e-05
-9.640491917829105e-06   1.123154696349192e-06   1.536791957184832e-05
-9.640491917829105e-06   1.123154696349192e-06   1.536791957184832e-05
-9.640491917829105e-06   1.123154696349192e-06   1.536791957184832e-05
-2.040175816294086e-05   2.9249698259993084e-06   -1.4864350922144057e-06
-2.040175816294086e-05   2.9249698259993084e-06   -1.4864350922144057e-06
-2.040175816294086e-05   2.9249698259993084e-06   -1.4864350922144057e-06
-2.040175816294086e-05   2.9249698259993084e-06   -1.4864350922144057e-06
-2.093144086415596e-05   1.0690297947428713e-06   1.698516935274663e-05
-2.093144086415596e-05   1.0690297947428713e-06   1.698516935274663e-05
-2.093144086415596e-05   1.0690297947428713e-06   1.698516935274663e-05
-2.093144086415596e-05   1.0690297947428713e-06   1.698516935274663e-05
-1.000676508295433e-05   2.7758782634228164e-06   -2.2467326971307695e-06
-1.000676508295433e-05   2.7758782634228164e-06   -2.2467326971307695e-06
-1.000676508295433e-05   2.7758782634228164e-06   -2.2467326971307695e-06
-1.000676508295433e-05   2.7758782634228164e-06   -2.2467326971307695e-06
-1.5127455443626822e-05   2.0034922091675088e-06   6.75118286987658e-06
-1.5127455443626822e-05   2.0034922091675088e-06   6.75118286987658e-06
-1.5127455443626822e-05   2.0034922091675088e-06   6.75118286987658e-06
-1.5127455443626822e-05   2.0034922091675088e-06   6.75118286987658e-06
-1.0006765082954346e-05   1.0690297947429516e-06   1.596106027153851e-05
-1.0006765082954346e-05   1.0690297947429516e-06   1.596106027153851e-05
-1.0006765082954346e-05   1.0690297947429516e-06   1.596106027153851e-05
-1.0006765082954346e-05   1.0690297947429516e-06   1.596106027153851e-05
-2.093144086415592e-05   2.775878263422925e-06   -1.2226236159227862e-06
-2.093144086415592e-05   2.775878263422925e-06   -1.2226236159227862e-06
-2.093144086415592e-05   2.775878263422925e-06   -1.2226236159227862e-06
-2.093144086415592e-05   2.775878263422925e-06   -1.2226236159227862e-06
-2.1581863680270154e-05   9.60284635699712e-07   1.8026526834836695e-05
-2.1581863680270154e-05   9.60284635699712e-07   1.8026526834836695e-05
-2.1581863680270154e-05   9.60284635699712e-07   1.8026526834836695e-05
-2.1581863680270154e-05   9.60284635699712e-07   1.8026526834836695e-05
-1.049603772761074e-05   2.6366364846413387e-06   -1.4556608622939984e-06
-1.049603772761074e-05   2.6366364846413387e-06   -1.4556608622939984e-06
-1.049603772761074e-05   2.6366364846413387e-06   -1.4556608622939984e-06
-1.049603772761074e-05   2.6366364846413387e-06   -1.4556608622939984e-06
-1.5519383690108496e-05   1.9721829860149453e-06   7.3152545077115165e-06
-1.5519383690108496e-05   1.9721829860149453e-06   7.3152545077115165e-06
-1.5519383690108496e-05   1.9721829860149453e-06   7.3152545077115165e-06
-1.5519383690108496e-05   1.9721829860149453e-06   7.3152545077115165e-06
-1.0496037727610738e-05   9.60284635699659e-07   1.7020715725471697e-05
-1.0496037727610738e-05   9.60284635699659e-07   1.7020715725471697e-05
-1.0496037727610738e-05   9.60284635699659e-07   1.7020715725471697e-05
-1.0496037727610738e-05   9.60284635699659e-07   1.7020715725471697e-05
-2.1581863680270113e-05   2.6366364846413387e-06   -4.4984975292896006e-07
-2.1581863680270113e-05   2.6366364846413387e-06   -4.4984975292896006e-07
-2.1581863680270113e-05   2.6366364846413387e-06   -4.4984975292896006e-07
-2.1581863680270113e-05   2.6366364846413387e-06   -4.4984975292896006e-07
-2.2268609999993427e-05   8.359954940951719e-07   1.8845112760241872e-05
-2.2268609999993427e-05   8.359954940951719e-07   1.8845112760241872e-05
-2.2268609999993427e-05   8.359954940951719e-07   1.8845112760241872e-05
-2.2268609999993427e-05   8.359954940951719e-07   1.8845112760241872e-05
-1.10172775080234e-05   2.4479069184319942e-06   -8.742549143102199e-07
-1.10172775080234e-05   2.4479069184319942e-06   -8.742549143102199e-07
-1.10172775080234e-05   2.4479069184319942e-06   -8.742549143102199e-07
-1.10172775080234e-05   2.4479069184319942e-06   -8.742549143102199e-07
-1.6181382505072788e-05   1.8603004862915691e-06   8.085150606723234e-06
-1.6181382505072788e-05   1.8603004862915691e-06   8.085150606723234e-06
-1.6181382505072788e-05   1.8603004862915691e-06   8.085150606723234e-06
-1.6181382505072788e-05   1.8603004862915691e-06   8.085150606723234e-06
-2.040175816294086e-05   4.812390911791378e-06   8.084399808156307e-06
-2.040175816294086e-05   4.812390911791378e-06   8.084399808156307e-06
-2.040175816294086e-05   4.812390911791378e-06   8.084399808156307e-06
-2.040175816294086e-05   4.812390911791378e-06   8.084399808156307e-06
-3.073319613065583e-05   4.757012480601603e-06   -9.16789053008254e-06
-3.073319613065583e-05   4.757012480601603e-06   -9.16789053008254e-06
-3.073319613065583e-05   4.757012480601603e-06   -9.16789053008254e-06
-3.073319613065583e-05   4.757012480601603e-06   -9.16789053008254e-06
-3.1686203822534745e-05   4.660572255279919e-06   1.2041950110752622e-05
-3.1686203822534745e-05   4.660572255279919e-06   1.2041950110752622e-05
-3.1686203822534745e-05   4.660572255279919e-06   1.2041950110752622e-05
-3.1686203822534745e-05   4.660572255279919e-06   1.2041950110752622e-05
-2.093144086415592e-05   4.855112358424004e-06   -5.999378881765122e-06
-2.093144086415592e-05   4.855112358424004e-06   -5.999378881765122e-06
-2.093144086415592e-05   4.855112358424004e-06   -5.999378881765122e-06
-2.093144086415592e-05   4.855112358424004e-06   -5.999378881765122e-06
-2.4894070384091543e-05   4.840244033904183e-06   6.139246461728362e-07
-2.4894070384091543e-05   4.840244033904183e-06   6.139246461728362e-07
-2.4894070384091543e-05   4.840244033904183e-06   6.139246461728362e-07
-2.4894070384091543e-05   4.840244033904183e-06   6.139246461728362e-07
-2.0931440864155898e-05   4.660572255280131e-06   1.1925226048866344e-05
-2.0931440864155898e-05   4.660572255280131e-06   1.1925226048866344e-05
-2.0931440864155898e-05   4.660572255280131e-06   1.1925226048866344e-05
-2.0931440864155898e-05   4.660572255280131e-06   1.1925226048866344e-05
-3.1686203822534745e-05   4.855112358424004e-06   -5.882654819878844e-06
-3.1686203822534745e-05   4.855112358424004e-06   -5.882654819878844e-06
-3.1686203822534745e-05   4.855112358424004e-06   -5.882654819878844e-06
-3.1686203822534745e-05   4.855112358424004e-06   -5.882654819878844e-06
-3.2620617311465586e-05   4.546936109524552e-06   1.4806150063413756e-05
-3.2620617311465586e-05   4.546936109524552e-06   1.4806150063413756e-05
-3.2620617311465586e-05   4.546936109524552e-06   1.4806150063413756e-05
-3.2620617311465586e-05   4.546936109524552e-06   1.4806150063413756e-05
-2.1581863680270117e-05   4.822381427274452e-06   -3.7570398458953937e-06
-2.1581863680270117e-05   4.822381427274452e-06   -3.7570398458953937e-06
-2.1581863680270117e-05   4.822381427274452e-06   -3.7570398458953937e-06
-2.1581863680270117e-05   4.822381427274452e-06   -3.7570398458953937e-06
-2.5998808593764764e-05   4.845578377730758e-06   3.5906168396554965e-06
-2.5998808593764764e-05   4.845578377730758e-06   3.5906168396554965e-06
-2.5998808593764764e-05   4.845578377730758e-06   3.5906168396554965e-06
-2.5998808593764764e-05   4.845578377730758e-06   3.5906168396554965e-06
-2.1581863680270113e-05   4.5469361095243965e-06   1.4640882872763838e-05
-2.1581863680270113e-05   4.5469361095243965e-06   1.4640882872763838e-05
-2.1581863680270113e-05   4.5469361095243965e-06   1.4640882872763838e-05
-2.1581863680270113e-05   4.5469361095243965e-06   1.4640882872763838e-05
-3.262061731146564e-05   4.822381427274452e-06   -3.59177265524534e-06
-3.262061731146564e-05   4.822381427274452e-06   -3.59177265524534e-06
-3.262061731146564e-05   4.822381427274452e-06   -3.59177265524534e-06
-3.262061731146564e-05   4.822381427274452e-06   -3.59177265524534e-06
-3.3723771190659945e-05   3.8113002101519255e-06   1.9421382468506887e-05
-3.3723771190659945e-05   3.8113002101519255e-06   1.9421382468506887e-05
-3.3723771190659945e-05   3.8113002101519255e-06   1.9421382468506887e-05
-3.3723771190659945e-05   3.8113002101519255e-06   1.9421382468506887e-05
-2.2268609999993413e-05   4.446169617593372e-06   -5.147449373579631e-08
-2.2268609999993413e-05   4.446169617593372e-06   -5.147449373579631e-08
-2.2268609999993413e-05   4.446169617593372e-06   -5.147449373579631e-08
-2.2268609999993413e-05   4.446169617593372e-06   -5.147449373579631e-08
-2.6377578468973933e-05   4.620537360482276e-06   6.692185642165116e-06
-2.6377578468973933e-05   4.620537360482276e-06   6.692185642165116e-06
-2.6377578468973933e-05   4.620537360482276e-06   6.692185642165116e-06
-2.6377578468973933e-05   4.620537360482276e-06   6.692185642165116e-06
2.0435567600119805e-05   -2.8525897460188286e-06   1.5658358773322132e-05
2.0435567600119805e-05   -2.8525897460188286e-06   1.5658358773322132e-05
2.0435567600119805e-05   -2.8525897460188286e-06   1.5658358773322132e-05
2.0435567600119805e-05   -2.8525897460188286e-06   1.5658358773322132e-05
1.009667926416913e-05   -2.1093314767386658e-06   -1.1271668250276059e-06
1.009667926416913e-05   -2.1093314767386658e-06   -1.1271668250276059e-06
1.009667926416913e-05   -2.1093314767386658e-06   -1.1271668250276059e-06
1.009667926416913e-05   -2.1093314767386658e-06   -1.1271668250276059e-06
9.720480901529788e-06   -3.2268962949036925e-06   1.3599870357634803e-05
9.720480901529788e-06   -3.2268962949036925e-06   1.3599870357634803e-05
9.720480901529788e-06   -3.2268962949036925e-06   1.3599870357634803e-05
9.720480901529788e-06   -3.2268962949036925e-06   1.3599870357634803e-05
1.9744692019575672e-05   -2.4418602240906893e-06   -3.5781698149294076e-06
1.9744692019575672e-05   -2.4418602240906893e-06   -3.5781698149294076e-06
1.9744692019575672e-05   -2.4418602240906893e-06   -3.5781698149294076e-06
1.9744692019575672e-05   -2.4418602240906893e-06   -3.5781698149294076e-06
1.4312995473275342e-05   -2.6300700958965285e-06   5.587583685321334e-06
1.4312995473275342e-05   -2.6300700958965285e-06   5.587583685321334e-06
1.4312995473275342e-05   -2.6300700958965285e-06   5.587583685321334e-06
1.4312995473275342e-05   -2.6300700958965285e-06   5.587583685321334e-06
1.974469201957564e-05   -3.2268962949036756e-06   1.3128848715146936e-05
1.974469201957564e-05   -3.2268962949036756e-06   1.3128848715146936e-05
1.974469201957564e-05   -3.2268962949036756e-06   1.3128848715146936e-05
1.974469201957564e-05   -3.2268962949036756e-06   1.3128848715146936e-05
9.720480901529819e-06   -2.4418602240906893e-06   -3.107148172441462e-06
9.720480901529819e-06   -2.4418602240906893e-06   -3.107148172441462e-06
9.720480901529819e-06   -2.4418602240906893e-06   -3.107148172441462e-06
9.720480901529819e-06   -2.4418602240906893e-06   -3.107148172441462e-06
9.301848933694902e-06   -3.2810465614610106e-06   1.2177050062415736e-05
9.301848933694902e-06   -3.2810465614610106e-06   1.2177050062415736e-05
9.301848933694902e-06   -3.2810465614610106e-06   1.2177050062415736e-05
9.301848933694902e-06   -3.2810465614610106e-06   1.2177050062415736e-05
1.911782211809632e-05   -2.507655243434064e-06   -4.6469400357359785e-06
1.911782211809632e-05   -2.507655243434064e-06   -4.6469400357359785e-06
1.911782211809632e-05   -2.507655243434064e-06   -4.6469400357359785e-06
1.911782211809632e-05   -2.507655243434064e-06   -4.6469400357359785e-06
1.4059685948281874e-05   -2.7594021711433575e-06   3.934335070580172e-06
1.4059685948281874e-05   -2.7594021711433575e-06   3.934335070580172e-06
1.4059685948281874e-05   -2.7594021711433575e-06   3.934335070580172e-06
1.4059685948281874e-05   -2.7594021711433575e-06   3.934335070580172e-06
1.9117822118096256e-05   -3.2810465614610526e-06   1.1713015271599524e-05
1.9117822118096256e-05   -3.2810465614610526e-06   1.1713015271599524e-05
1.9117822118096256e-05   -3.2810465614610526e-06   1.1713015271599524e-05
1.9117822118096256e-05   -3.2810465614610526e-06   1.1713015271599524e-05
9.301848933694915e-06   -2.507655243434064e-06   -4.182905244919967e-06
9.301848933694915e-06   -2.507655243434064e-06   -4.182905244919967e-06
9.301848933694915e-06   -2.507655243434064e-06   -4.182905244919967e-06
9.301848933694915e-06   -2.507655243434064e-06   -4.182905244919967e-06
8.898644815453889e-06   -3.253687362723425e-06   1.0184560717543573e-05
8.898644815453889e-06   -3.253687362723425e-06   1.0184560717543573e-05
8.898644815453889e-06   -3.253687362723425e-06   1.0184560717543573e-05
8.898644815453889e-06   -3.253687362723425e-06   1.0184560717543573e-05
1.8406651557778105e-05   -2.529111221102236e-06   -6.0968628713028885e-06
1.8406651557778105e-05   -2.529111221102236e-06   -6.0968628713028885e-06
1.8406651557778105e-05   -2.529111221102236e-06   -6.0968628713028885e-06
1.8406651557778105e-05   -2.529111221102236e-06   -6.0968628713028885e-06
1.334928723917578e-05   -2.7106729026959726e-06   2.4410146686574825e-06
1.334928723917578e-05   -2.7106729026959726e-06   2.4410146686574825e-06
1.334928723917578e-05   -2.7106729026959726e-06   2.4410146686574825e-06
1.334928723917578e-05   -2.7106729026959726e-06   2.4410146686574825e-06
1.009667926416913e-05   -9.984550010312396e-07   1.6332739252857367e-05
1.009667926416913e-05   -9.984550010312396e-07   1.6332739252857367e-05
1.009667926416913e-05   -9.984550010312396e-07   1.6332739252857367e-05
1.009667926416913e-05   -9.984550010312396e-07   1.6332739252857367e-05
3.9103438342089834e-07   -4.054786882109031e-07   5.124502393025849e-07
3.9103438342089834e-07   -4.054786882109031e-07   5.124502393025849e-07
3.9103438342089834e-07   -4.054786882109031e-07   5.124502393025849e-07
3.9103438342089834e-07   -4.054786882109031e-07   5.124502393025849e-07
2.925701406685801e-08   -1.1981450571871798e-06   1.6495461521955686e-05
2.925701406685801e-08   -1.1981450571871798e-06   1.6495461521955686e-05
2.925701406685801e-08   -1.1981450571871798e-06   1.6495461521955686e-05
2.925701406685801e-08   -1.1981450571871798e-06   1.6495461521955686e-05
9.720480901529817e-06   -6.399811477381199e-07   8.523363847991097e-09
9.720480901529817e-06   -6.399811477381199e-07   8.523363847991097e-09
9.720480901529817e-06   -6.399811477381199e-07   8.523363847991097e-09
9.720480901529817e-06   -6.399811477381199e-07   8.523363847991097e-09
4.997619551773825e-06   -7.811742844600648e-07   7.964674828807879e-06
4.997619551773825e-06   -7.811742844600648e-07   7.964674828807879e-06
4.997619551773825e-06   -7.811742844600648e-07   7.964674828807879e-06
4.997619551773825e-06   -7.811742844600648e-07   7.964674828807879e-06
9.720480901529809e-06   -1.1981450571871933e-06   1.6160563176286294e-05
9.720480901529809e-06   -1.1981450571871933e-06   1.6160563176286294e-05
9.720480901529809e-06   -1.1981450571871933e-06   1.6160563176286294e-05
9.720480901529809e-06   -1.1981450571871933e-06   1.6160563176286294e-05
2.9257014066864787e-08   -6.399811477381199e-07   3.4342170951743786e-07
2.9257014066864787e-08   -6.399811477381199e-07   3.4342170951743786e-07
2.9257014066864787e-08   -6.399811477381199e-07   3.4342170951743786e-07
2.9257014066864787e-08   -6.399811477381199e-07   3.4342170951743786e-07
-3.4683481137090977e-07   -1.3270910577970136e-06   1.623841527143325e-05
-3.4683481137090977e-07   -1.3270910577970136e-06   1.623841527143325e-05
-3.4683481137090977e-07   -1.3270910577970136e-06   1.623841527143325e-05
-3.4683481137090977e-07   -1.3270910577970136e-06   1.623841527143325e-05
9.301848933694917e-06   -8.125512001775064e-07   -1.5144821824807238e-07
9.301848933694917e-06   -8.125512001775064e-07   -1.5144821824807238e-07
9.301848933694917e-06   -8.125512001775064e-07   -1.5144821824807238e-07
9.301848933694917e-06   -8.125512001775064e-07   -1.5144821824807238e-07
4.580823059464366e-06   -9.032969070498506e-07   7.771375662926497e-06
4.580823059464366e-06   -9.032969070498506e-07   7.771375662926497e-06
4.580823059464366e-06   -9.032969070498506e-07   7.771375662926497e-06
4.580823059464366e-06   -9.032969070498506e-07   7.771375662926497e-06
9.301848933694915e-06   -1.3270910577970386e-06   1.5929691356861547e-05
9.301848933694915e-06   -1.3270910577970386e-06   1.5929691356861547e-05
9.301848933694915e-06   -1.3270910577970386e-06   1.5929691356861547e-05
9.301848933694915e-06   -1.3270910577970386e-06   1.5929691356861547e-05
-3.4683481137090977e-07   -8.12551200177398e-07   1.5727569632349638e-07
-3.4683481137090977e-07   -8.12551200177398e-07   1.5727569632349638e-07
-3.4683481137090977e-07   -8.12551200177398e-07   1.5727569632349638e-07
-3.4683481137090977e-07   -8.12551200177398e-07   1.5727569632349638e-07
-7.383907136951541e-07   -1.3794211416303867e-06   1.6354232632735666e-05
-7.383907136951541e-07   -1.3794211416303867e-06   1.6354232632735666e-05
-7.383907136951541e-07   -1.3794211416303867e-06   1.6354232632735666e-05
-7.383907136951541e-07   -1.3794211416303867e-06   1.6354232632735666e-05
8.898644815453914e-06   -9.467236406958011e-07   3.28882502597313e-08
8.898644815453914e-06   -9.467236406958011e-07   3.28882502597313e-08
8.898644815453914e-06   -9.467236406958011e-07   3.28882502597313e-08
8.898644815453914e-06   -9.467236406958011e-07   3.28882502597313e-08
4.270006518456213e-06   -9.669089488635813e-07   7.759396596823489e-06
4.270006518456213e-06   -9.669089488635813e-07   7.759396596823489e-06
4.270006518456213e-06   -9.669089488635813e-07   7.759396596823489e-06
4.270006518456213e-06   -9.669089488635813e-07   7.759396596823489e-06
3.9103438342089834e-07   9.048829537378102e-07   1.6844108782764714e-05
3.9103438342089834e-07   9.048829537378102e-07   1.6844108782764714e-05
3.9103438342089834e-07   9.048829537378102e-07   1.6844108782764714e-05
3.9103438342089834e-07   9.048829537378102e-07   1.6844108782764714e-05
-9.035549911177627e-06   1.3003306104590173e-06   1.370403552466504e-06
-9.035549911177627e-06   1.3003306104590173e-06   1.370403552466504e-06
-9.035549911177627e-06   1.3003306104590173e-06   1.370403552466504e-06
-9.035549911177627e-06   1.3003306104590173e-06   1.370403552466504e-06
-9.413925310271953e-06   7.54694734229509e-07   1.7071347930761038e-05
-9.413925310271953e-06   7.54694734229509e-07   1.7071347930761038e-05
-9.413925310271953e-06   7.54694734229509e-07   1.7071347930761038e-05
-9.413925310271953e-06   7.54694734229509e-07   1.7071347930761038e-05
2.925701406686471e-08   1.107076259197065e-06   1.121281808549144e-06
2.925701406686471e-08   1.107076259197065e-06   1.121281808549144e-06
2.925701406686471e-08   1.107076259197065e-06   1.121281808549144e-06
2.925701406686471e-08   1.107076259197065e-06   1.121281808549144e-06
-4.514131925286799e-06   1.026617194706367e-06   8.741872146166311e-06
-4.514131925286799e-06   1.026617194706367e-06   8.741872146166311e-06
-4.514131925286799e-06   1.026617194706367e-06   8.741872146166311e-06
-4.514131925286799e-06   1.026617194706367e-06   8.741872146166311e-06
2.925701406685801e-08   7.546947342294825e-07   1.6859919015780505e-05
2.925701406685801e-08   7.546947342294825e-07   1.6859919015780505e-05
2.925701406685801e-08   7.546947342294825e-07   1.6859919015780505e-05
2.925701406685801e-08   7.546947342294825e-07   1.6859919015780505e-05
-9.413925310271953e-06   1.107076259197065e-06   1.332710723529664e-06
-9.413925310271953e-06   1.107076259197065e-06   1.332710723529664e-06
-9.413925310271953e-06   1.107076259197065e-06   1.332710723529664e-06
-9.413925310271953e-06   1.107076259197065e-06   1.332710723529664e-06
-9.812980802440946e-06   6.149082965956152e-07   1.7227508894584434e-05
-9.812980802440946e-06   6.149082965956152e-07   1.7227508894584434e-05
-9.812980802440946e-06   6.149082965956152e-07   1.7227508894584434e-05
-9.812980802440946e-06   6.149082965956152e-07   1.7227508894584434e-05
-3.468348113709113e-07   9.195115234411676e-07   1.267836973360383e-06
-3.468348113709113e-07   9.195115234411676e-07   1.267836973360383e-06
-3.468348113709113e-07   9.195115234411676e-07   1.267836973360383e-06
-3.468348113709113e-07   9.195115234411676e-07   1.267836973360383e-06
-4.865299621836404e-06   9.17342324552946e-07   8.799913176802453e-06
-4.865299621836404e-06   9.17342324552946e-07   8.799913176802453e-06
-4.865299621836404e-06   9.17342324552946e-07   8.799913176802453e-06
-4.865299621836404e-06   9.17342324552946e-07   8.799913176802453e-06
-3.4683481137090977e-07   6.149082965956624e-07   1.704474695847708e-05
-3.4683481137090977e-07   6.149082965956624e-07   1.704474695847708e-05
-3.4683481137090977e-07   6.149082965956624e-07   1.704474695847708e-05
-3.4683481137090977e-07   6.149082965956624e-07   1.704474695847708e-05
-9.812980802440946e-06   9.195115234410592e-07   1.450598909467709e-06
-9.812980802440946e-06   9.195115234410592e-07   1.450598909467709e-06
-9.812980802440946e-06   9.195115234410592e-07   1.450598909467709e-06
-9.812980802440946e-06   9.195115234410592e-07   1.450598909467709e-06
-1.0224487981749371e-05   5.148793547151993e-07   1.7476626468944205e-05
-1.0224487981749371e-05   5.148793547151993e-07   1.7476626468944205e-05
-1.0224487981749371e-05   5.148793547151993e-07   1.7476626468944205e-05
-1.0224487981749371e-05   5.148793547151993e-07   1.7476626468944205e-05
-7.383907136951534e-07   7.526747480331858e-07   1.5237871195297167e-06
-7.383907136951534e-07   7.526747480331858e-07   1.5237871195297167e-06
-7.383907136951534e-07   7.526747480331858e-07   1.5237871195297167e-06
-7.383907136951534e-07   7.526747480331858e-07   1.5237871195297167e-06
-5.245368514151618e-06   8.128687443547658e-07   8.999300389164565e-06
-5.245368514151618e-06   8.128687443547658e-07   8.999300389164565e-06
-5.245368514151618e-06   8.128687443547658e-07   8.999300389164565e-06
-5.245368514151618e-06   8.128687443547658e-07   8.999300389164565e-06
-9.035549911177654e-06   2.9249698259993486e-06   1.4725062356389412e-05
-9.035549911177654e-06   2.9249698259993486e-06   1.4725062356389412e-05
-9.035549911177654e-06   2.9249698259993486e-06   1.4725062356389412e-05
-9.035549911177654e-06   2.9249698259993486e-06   1.4725062356389412e-05
-1.818444523562944e-05   2.9624401637341454e-06   -5.006143150561391e-07
-1.818444523562944e-05   2.9624401637341454e-06   -5.006143150561391e-07
-1.818444523562944e-05   2.9624401637341454e-06   -5.006143150561391e-07
-1.818444523562944e-05   2.9624401637341454e-06   -5.006143150561391e-07
-1.8623468231304953e-05   2.775878263422925e-06   1.4982223341975095e-05
-1.8623468231304953e-05   2.775878263422925e-06   1.4982223341975095e-05
-1.8623468231304953e-05   2.775878263422925e-06   1.4982223341975095e-05
-1.8623468231304953e-05   2.775878263422925e-06   1.4982223341975095e-05
-9.41392531027197e-06   2.7795698651149033e-06   -3.692298207617282e-07
-9.41392531027197e-06   2.7795698651149033e-06   -3.692298207617282e-07
-9.41392531027197e-06   2.7795698651149033e-06   -3.692298207617282e-07
-9.41392531027197e-06   2.7795698651149033e-06   -3.692298207617282e-07
-1.3752702891920483e-05   2.851374367919264e-06   6.818983446969844e-06
-1.3752702891920483e-05   2.851374367919264e-06   6.818983446969844e-06
-1.3752702891920483e-05   2.851374367919264e-06   6.818983446969844e-06
-1.3752702891920483e-05   2.851374367919264e-06   6.818983446969844e-06
-9.413925310271967e-06   2.775878263422894e-06   1.498000838095993e-05
-9.413925310271967e-06   2.775878263422894e-06   1.498000838095993e-05
-9.413925310271967e-06   2.775878263422894e-06   1.498000838095993e-05
-9.413925310271967e-06   2.775878263422894e-06   1.498000838095993e-05
-1.8623468231304926e-05   2.7795698651149033e-06   -3.6701485974654927e-07
-1.8623468231304926e-05   2.7795698651149033e-06   -3.6701485974654927e-07
-1.8623468231304926e-05   2.7795698651149033e-06   -3.6701485974654927e-07
-1.8623468231304926e-05   2.7795698651149033e-06   -3.6701485974654927e-07
-1.9109115413855416e-05   2.6366364846413387e-06   1.5679225500209214e-05
-1.9109115413855416e-05   2.6366364846413387e-06   1.5679225500209214e-05
-1.9109115413855416e-05   2.6366364846413387e-06   1.5679225500209214e-05
-1.9109115413855416e-05   2.6366364846413387e-06   1.5679225500209214e-05
-9.812980802440958e-06   2.6095448913279013e-06   2.0192277050651124e-07
-9.812980802440958e-06   2.6095448913279013e-06   2.0192277050651124e-07
-9.812980802440958e-06   2.6095448913279013e-06   2.0192277050651124e-07
-9.812980802440958e-06   2.6095448913279013e-06   2.0192277050651124e-07
-1.4067164756288832e-05   2.7490616240319647e-06   7.208519320630555e-06
-1.4067164756288832e-05   2.7490616240319647e-06   7.208519320630555e-06
-1.4067164756288832e-05   2.7490616240319647e-06   7.208519320630555e-06
-1.4067164756288832e-05   2.7490616240319647e-06   7.208519320630555e-06
-9.81298080244096e-06   2.636636484641329e-06   1.569548045619732e-05
-9.81298080244096e-06   2.636636484641329e-06   1.569548045619732e-05
-9.81298080244096e-06   2.636636484641329e-06   1.569548045619732e-05
-9.81298080244096e-06   2.636636484641329e-06   1.569548045619732e-05
-1.9109115413855416e-05   2.6095448913279013e-06   1.8566781451856808e-07
-1.9109115413855416e-05   2.6095448913279013e-06   1.8566781451856808e-07
-1.9109115413855416e-05   2.6095448913279013e-06   1.8566781451856808e-07
-1.9109115413855416e-05   2.6095448913279013e-06   1.8566781451856808e-07
-1.957140326324511e-05   2.4479069184319942e-06   1.6175863917679907e-05
-1.957140326324511e-05   2.4479069184319942e-06   1.6175863917679907e-05
-1.957140326324511e-05   2.4479069184319942e-06   1.6175863917679907e-05
-1.957140326324511e-05   2.4479069184319942e-06   1.6175863917679907e-05
-1.0224487981749398e-05   2.400598915495381e-06   6.26056583615862e-07
-1.0224487981749398e-05   2.400598915495381e-06   6.26056583615862e-07
-1.0224487981749398e-05   2.400598915495381e-06   6.26056583615862e-07
-1.0224487981749398e-05   2.400598915495381e-06   6.26056583615862e-07
-1.4574003943769044e-05   2.614291005344888e-06   7.74703459973915e-06
-1.4574003943769044e-05   2.614291005344888e-06   7.74703459973915e-06
-1.4574003943769044e-05   2.614291005344888e-06   7.74703459973915e-06
-1.4574003943769044e-05   2.614291005344888e-06   7.74703459973915e-06
-1.8184445235629412e-05   4.757012480601632e-06   7.0993161798760035e-06
-1.8184445235629412e-05   4.757012480601632e-06   7.0993161798760035e-06
-1.8184445235629412e-05   4.757012480601632e-06   7.0993161798760035e-06
-1.8184445235629412e-05   4.757012480601632e-06   7.0993161798760035e-06
-2.6911696006125184e-05   4.281575570490108e-06   -7.73136391701726e-06
-2.6911696006125184e-05   4.281575570490108e-06   -7.73136391701726e-06
-2.6911696006125184e-05   4.281575570490108e-06   -7.73136391701726e-06
-2.6911696006125184e-05   4.281575570490108e-06   -7.73136391701726e-06
-2.760345849539749e-05   4.8551123584238956e-06   9.891753842955551e-06
-2.760345849539749e-05   4.8551123584238956e-06   9.891753842955551e-06
-2.760345849539749e-05   4.8551123584238956e-06   9.891753842955551e-06
-2.760345849539749e-05   4.8551123584238956e-06   9.891753842955551e-06
-1.8623468231304957e-05   4.332255303128802e-06   -4.761182364021688e-06
-1.8623468231304957e-05   4.332255303128802e-06   -4.761182364021688e-06
-1.8623468231304957e-05   4.332255303128802e-06   -4.761182364021688e-06
-1.8623468231304957e-05   4.332255303128802e-06   -4.761182364021688e-06
-2.1955703752199117e-05   4.5268490462059855e-06   6.757872582890522e-07
-2.1955703752199117e-05   4.5268490462059855e-06   6.757872582890522e-07
-2.1955703752199117e-05   4.5268490462059855e-06   6.757872582890522e-07
-2.1955703752199117e-05   4.5268490462059855e-06   6.757872582890522e-07
-1.8623468231304913e-05   4.855112358423996e-06   1.020546807613276e-05
-1.8623468231304913e-05   4.855112358423996e-06   1.020546807613276e-05
-1.8623468231304913e-05   4.855112358423996e-06   1.020546807613276e-05
-1.8623468231304913e-05   4.855112358423996e-06   1.020546807613276e-05
-2.7603458495397546e-05   4.332255303128802e-06   -5.07489659719876e-06
-2.7603458495397546e-05   4.332255303128802e-06   -5.07489659719876e-06
-2.7603458495397546e-05   4.332255303128802e-06   -5.07489659719876e-06
-2.7603458495397546e-05   4.332255303128802e-06   -5.07489659719876e-06
-2.8277546111131577e-05   4.822381427274343e-06   1.205023663425407e-05
-2.8277546111131577e-05   4.822381427274343e-06   1.205023663425407e-05
-2.8277546111131577e-05   4.822381427274343e-06   1.205023663425407e-05
-2.8277546111131577e-05   4.822381427274343e-06   1.205023663425407e-05
-1.910911541385542e-05   4.2860501389597625e-06   -2.9086824215508885e-06
-1.910911541385542e-05   4.2860501389597625e-06   -2.9086824215508885e-06
-1.910911541385542e-05   4.2860501389597625e-06   -2.9086824215508885e-06
-1.910911541385542e-05   4.2860501389597625e-06   -2.9086824215508885e-06
-2.281528201358053e-05   4.611539697845835e-06   3.072968175993194e-06
-2.281528201358053e-05   4.611539697845835e-06   3.072968175993194e-06
-2.281528201358053e-05   4.611539697845835e-06   3.072968175993194e-06
-2.281528201358053e-05   4.611539697845835e-06   3.072968175993194e-06
-1.9109115413855416e-05   4.822381427274407e-06   1.237203540724297e-05
-1.9109115413855416e-05   4.822381427274407e-06   1.237203540724297e-05
-1.9109115413855416e-05   4.822381427274407e-06   1.237203540724297e-05
-1.9109115413855416e-05   4.822381427274407e-06   1.237203540724297e-05
-2.8277546111131686e-05   4.2860501389597625e-06   -3.230481194539626e-06
-2.8277546111131686e-05   4.2860501389597625e-06   -3.230481194539626e-06
-2.8277546111131686e-05   4.2860501389597625e-06   -3.230481194539626e-06
-2.8277546111131686e-05   4.2860501389597625e-06   -3.230481194539626e-06
-2.906340764160747e-05   4.446169617593372e-06   1.573938390821031e-05
-2.906340764160747e-05   4.446169617593372e-06   1.573938390821031e-05
-2.906340764160747e-05   4.446169617593372e-06   1.573938390821031e-05
-2.906340764160747e-05   4.446169617593372e-06   1.573938390821031e-05
-1.9571403263245096e-05   3.95931365852341e-06   2.1149018638154534e-07
-1.9571403263245096e-05   3.95931365852341e-06   2.1149018638154534e-07
-1.9571403263245096e-05   3.95931365852341e-06   2.1149018638154534e-07
-1.9571403263245096e-05   3.95931365852341e-06   2.1149018638154534e-07
-2.301922634097584e-05   4.476412643363817e-06   5.647602591695328e-06
-2.301922634097584e-05   4.476412643363817e-06   5.647602591695328e-06
-2.301922634097584e-05   4.476412643363817e-06   5.647602591695328e-06
-2.301922634097584e-05   4.476412643363817e-06   5.647602591695328e-06
1.564096147662776e-05   -2.1093314767386467e-06   1.3165083616375963e-05
1.564096147662776e-05   -2.1093314767386467e-06   1.3165083616375963e-05
1.564096147662776e-05   -2.1093314767386467e-06   1.3165083616375963e-05
1.564096147662776e-05   -2.1093314767386467e-06   1.3165083616375963e-05
7.35196668841338e-06   -1.409725380318162e-06   -2.3014403946236724e-07
7.35196668841338e-06   -1.409725380318162e-06   -2.3014403946236724e-07
7.35196668841338e-06   -1.409725380318162e-06   -2.3014403946236724e-07
7.35196668841338e-06   -1.409725380318162e-06   -2.3014403946236724e-07
7.014894031526366e-06   -2.4418602240906893e-06   1.1554113893631496e-05
7.014894031526366e-06   -2.4418602240906893e-06   1.1554113893631496e-05
7.014894031526366e-06   -2.4418602240906893e-06   1.1554113893631496e-05
7.014894031526366e-06   -2.4418602240906893e-06   1.1554113893631496e-05
1.4987916412340985e-05   -1.7052874789159553e-06   -2.176200388164247e-06
1.4987916412340985e-05   -1.7052874789159553e-06   -2.176200388164247e-06
1.4987916412340985e-05   -1.7052874789159553e-06   -2.176200388164247e-06
1.4987916412340985e-05   -1.7052874789159553e-06   -2.176200388164247e-06
1.0720237585480036e-05   -1.9300423732655173e-06   5.0714505932136805e-06
1.0720237585480036e-05   -1.9300423732655173e-06   5.0714505932136805e-06
1.0720237585480036e-05   -1.9300423732655173e-06   5.0714505932136805e-06
1.0720237585480036e-05   -1.9300423732655173e-06   5.0714505932136805e-06
1.4987916412340958e-05   -2.441860224090662e-06   1.11121702465267e-05
1.4987916412340958e-05   -2.441860224090662e-06   1.11121702465267e-05
1.4987916412340958e-05   -2.441860224090662e-06   1.11121702465267e-05
1.4987916412340958e-05   -2.441860224090662e-06   1.11121702465267e-05
7.014894031526376e-06   -1.7052874789159553e-06   -1.7342567410594907e-06
7.014894031526376e-06   -1.7052874789159553e-06   -1.7342567410594907e-06
7.014894031526376e-06   -1.7052874789159553e-06   -1.7342567410594907e-06
7.014894031526376e-06   -1.7052874789159553e-06   -1.7342567410594907e-06
6.641995887401902e-06   -2.5076552434341723e-06   1.0423137246218695e-05
6.641995887401902e-06   -2.5076552434341723e-06   1.0423137246218695e-05
6.641995887401902e-06   -2.5076552434341723e-06   1.0423137246218695e-05
6.641995887401902e-06   -2.5076552434341723e-06   1.0423137246218695e-05
1.441450973067877e-05   -1.7833920719358912e-06   -2.965610395475053e-06
1.441450973067877e-05   -1.7833920719358912e-06   -2.965610395475053e-06
1.441450973067877e-05   -1.7833920719358912e-06   -2.965610395475053e-06
1.441450973067877e-05   -1.7833920719358912e-06   -2.965610395475053e-06
1.0455490588340258e-05   -2.050436451987692e-06   3.792981469787116e-06
1.0455490588340258e-05   -2.050436451987692e-06   3.792981469787116e-06
1.0455490588340258e-05   -2.050436451987692e-06   3.792981469787116e-06
1.0455490588340258e-05   -2.050436451987692e-06   3.792981469787116e-06
1.4414509730678744e-05   -2.5076552434341634e-06   9.988579343319683e-06
1.4414509730678744e-05   -2.5076552434341634e-06   9.988579343319683e-06
1.4414509730678744e-05   -2.5076552434341634e-06   9.988579343319683e-06
1.4414509730678744e-05   -2.5076552434341634e-06   9.988579343319683e-06
6.6419958874019156e-06   -1.7833920719358912e-06   -2.531052492576102e-06
6.6419958874019156e-06   -1.7833920719358912e-06   -2.531052492576102e-06
6.6419958874019156e-06   -1.7833920719358912e-06   -2.531052492576102e-06
6.6419958874019156e-06   -1.7833920719358912e-06   -2.531052492576102e-06
6.297194114716533e-06   -2.5291112211021276e-06   8.883403483930406e-06
6.297194114716533e-06   -2.5291112211021276e-06   8.883403483930406e-06
6.297194114716533e-06   -2.5291112211021276e-06   8.883403483930406e-06
6.297194114716533e-06   -2.5291112211021276e-06   8.883403483930406e-06
1.3772264402339403e-05   -1.8524210734317597e-06   -3.981061084043258e-06
1.3772264402339403e-05   -1.8524210734317597e-06   -3.981061084043258e-06
1.3772264402339403e-05   -1.8524210734317597e-06   -3.981061084043258e-06
1.3772264402339403e-05   -1.8524210734317597e-06   -3.981061084043258e-06
9.850888916136932e-06   -2.036688096868403e-06   2.6651249403560625e-06
9.850888916136932e-06   -2.036688096868403e-06   2.6651249403560625e-06
9.850888916136932e-06   -2.036688096868403e-06   2.6651249403560625e-06
9.850888916136932e-06   -2.036688096868403e-06   2.6651249403560625e-06
7.351966688413357e-06   -4.0547868821092085e-07   1.4868678550866233e-05
7.351966688413357e-06   -4.0547868821092085e-07   1.4868678550866233e-05
7.351966688413357e-06   -4.0547868821092085e-07   1.4868678550866233e-05
7.351966688413357e-06   -4.0547868821092085e-07   1.4868678550866233e-05
-4.872439463618535e-07   -1.5489763222726813e-08   2.0373208479004747e-06
-4.872439463618535e-07   -1.5489763222726813e-08   2.0373208479004747e-06
-4.872439463618535e-07   -1.5489763222726813e-08   2.0373208479004747e-06
-4.872439463618535e-07   -1.5489763222726813e-08   2.0373208479004747e-06
-8.046157216871992e-07   -6.399811477381199e-07   1.4891126047587248e-05
-8.046157216871992e-07   -6.399811477381199e-07   1.4891126047587248e-05
-8.046157216871992e-07   -6.399811477381199e-07   1.4891126047587248e-05
-8.046157216871992e-07   -6.399811477381199e-07   1.4891126047587248e-05
7.0148940315263755e-06   -2.710801182945243e-07   1.6372691745651495e-06
7.0148940315263755e-06   -2.710801182945243e-07   1.6372691745651495e-06
7.0148940315263755e-06   -2.710801182945243e-07   1.6372691745651495e-06
7.0148940315263755e-06   -2.710801182945243e-07   1.6372691745651495e-06
3.2155373926615616e-06   -3.4252897431385956e-07   8.012399552951479e-06
3.2155373926615616e-06   -3.4252897431385956e-07   8.012399552951479e-06
3.2155373926615616e-06   -3.4252897431385956e-07   8.012399552951479e-06
3.2155373926615616e-06   -3.4252897431385956e-07   8.012399552951479e-06
7.014894031526346e-06   -6.399811477381608e-07   1.4669785429921112e-05
7.014894031526346e-06   -6.399811477381608e-07   1.4669785429921112e-05
7.014894031526346e-06   -6.399811477381608e-07   1.4669785429921112e-05
7.014894031526346e-06   -6.399811477381608e-07   1.4669785429921112e-05
-8.046157216871992e-07   -2.710801182945243e-07   1.8586097922313936e-06
-8.046157216871992e-07   -2.710801182945243e-07   1.8586097922313936e-06
-8.046157216871992e-07   -2.710801182945243e-07   1.8586097922313936e-06
-8.046157216871992e-07   -2.710801182945243e-07   1.8586097922313936e-06
-1.1289347558686292e-06   -8.12551200177398e-07   1.465945187530712e-05
-1.1289347558686292e-06   -8.12551200177398e-07   1.465945187530712e-05
-1.1289347558686292e-06   -8.12551200177398e-07   1.465945187530712e-05
-1.1289347558686292e-06   -8.12551200177398e-07   1.465945187530712e-05
6.641995887401916e-06   -4.71121862816214e-07   1.5030432007728903e-06
6.641995887401916e-06   -4.71121862816214e-07   1.5030432007728903e-06
6.641995887401916e-06   -4.71121862816214e-07   1.5030432007728903e-06
6.641995887401916e-06   -4.71121862816214e-07   1.5030432007728903e-06
2.858249723412359e-06   -4.995165960897411e-07   7.826323647386746e-06
2.858249723412359e-06   -4.995165960897411e-07   7.826323647386746e-06
2.858249723412359e-06   -4.995165960897411e-07   7.826323647386746e-06
2.858249723412359e-06   -4.995165960897411e-07   7.826323647386746e-06
6.641995887401902e-06   -8.125512001774251e-07   1.4454594272890454e-05
6.641995887401902e-06   -8.125512001774251e-07   1.4454594272890454e-05
6.641995887401902e-06   -8.125512001774251e-07   1.4454594272890454e-05
6.641995887401902e-06   -8.125512001774251e-07   1.4454594272890454e-05
-1.1289347558686292e-06   -4.71121862816214e-07   1.7079008031895709e-06
-1.1289347558686292e-06   -4.71121862816214e-07   1.7079008031895709e-06
-1.1289347558686292e-06   -4.71121862816214e-07   1.7079008031895709e-06
-1.1289347558686292e-06   -4.71121862816214e-07   1.7079008031895709e-06
-1.4551325551726612e-06   -9.467236406958011e-07   1.4753669975144969e-05
-1.4551325551726612e-06   -9.467236406958011e-07   1.4753669975144969e-05
-1.4551325551726612e-06   -9.467236406958011e-07   1.4753669975144969e-05
-1.4551325551726612e-06   -9.467236406958011e-07   1.4753669975144969e-05
6.2971941147165374e-06   -6.546218829877031e-07   1.6578644707047821e-06
6.2971941147165374e-06   -6.546218829877031e-07   1.6578644707047821e-06
6.2971941147165374e-06   -6.546218829877031e-07   1.6578644707047821e-06
6.2971941147165374e-06   -6.546218829877031e-07   1.6578644707047821e-06
2.587533182529332e-06   -6.140229919320526e-07   7.816273356383388e-06
2.587533182529332e-06   -6.140229919320526e-07   7.816273356383388e-06
2.587533182529332e-06   -6.140229919320526e-07   7.816273356383388e-06
2.587533182529332e-06   -6.140229919320526e-07   7.816273356383388e-06
-4.872439463618602e-07   1.3003306104590738e-06   1.5723356624990537e-05
-4.872439463618602e-07   1.3003306104590738e-06   1.5723356624990537e-05
-4.872439463618602e-07   1.3003306104590738e-06   1.5723356624990537e-05
-4.872439463618602e-07   1.3003306104590738e-06   1.5723356624990537e-05
-8.161791974846833e-06   1.3416284708865243e-06   2.957221960438682e-06
-8.161791974846833e-06   1.3416284708865243e-06   2.957221960438682e-06
-8.161791974846833e-06   1.3416284708865243e-06   2.957221960438682e-06
-8.161791974846833e-06   1.3416284708865243e-06   2.957221960438682e-06
-8.481352667994799e-06   1.107076259197065e-06   1.5675926202745293e-05
-8.481352667994799e-06   1.107076259197065e-06   1.5675926202745293e-05
-8.481352667994799e-06   1.107076259197065e-06   1.5675926202745293e-05
-8.481352667994799e-06   1.107076259197065e-06   1.5675926202745293e-05
-8.046157216872006e-07   1.1186430194077245e-06   2.8744245694397046e-06
-8.046157216872006e-07   1.1186430194077245e-06   2.8744245694397046e-06
-8.046157216872006e-07   1.1186430194077245e-06   2.8744245694397046e-06
-8.046157216872006e-07   1.1186430194077245e-06   2.8744245694397046e-06
-4.4952837839097355e-06   1.1946932960999346e-06   8.97990784046186e-06
-4.4952837839097355e-06   1.1946932960999346e-06   8.97990784046186e-06
-4.4952837839097355e-06   1.1946932960999346e-06   8.97990784046186e-06
-4.4952837839097355e-06   1.1946932960999346e-06   8.97990784046186e-06
-8.046157216871992e-07   1.1070762591970246e-06   1.566898614661905e-05
-8.046157216871992e-07   1.1070762591970246e-06   1.566898614661905e-05
-8.046157216871992e-07   1.1070762591970246e-06   1.566898614661905e-05
-8.046157216871992e-07   1.1070762591970246e-06   1.566898614661905e-05
-8.481352667994799e-06   1.1186430194077245e-06   2.8813646255660026e-06
-8.481352667994799e-06   1.1186430194077245e-06   2.8813646255660026e-06
-8.481352667994799e-06   1.1186430194077245e-06   2.8813646255660026e-06
-8.481352667994799e-06   1.1186430194077245e-06   2.8813646255660026e-06
-8.808632125863292e-06   9.195115234410592e-07   1.5757868976416247e-05
-8.808632125863292e-06   9.195115234410592e-07   1.5757868976416247e-05
-8.808632125863292e-06   9.195115234410592e-07   1.5757868976416247e-05
-8.808632125863292e-06   9.195115234410592e-07   1.5757868976416247e-05
-1.1289347558686294e-06   8.99271230228333e-07   2.970517535686175e-06
-1.1289347558686294e-06   8.99271230228333e-07   2.970517535686175e-06
-1.1289347558686294e-06   8.99271230228333e-07   2.970517535686175e-06
-1.1289347558686294e-06   8.99271230228333e-07   2.970517535686175e-06
-4.791543484790227e-06   1.0454728078588106e-06   8.987144470644134e-06
-4.791543484790227e-06   1.0454728078588106e-06   8.987144470644134e-06
-4.791543484790227e-06   1.0454728078588106e-06   8.987144470644134e-06
-4.791543484790227e-06   1.0454728078588106e-06   8.987144470644134e-06
-1.1289347558686292e-06   9.195115234411469e-07   1.5770013152344034e-05
-1.1289347558686292e-06   9.195115234411469e-07   1.5770013152344034e-05
-1.1289347558686292e-06   9.195115234411469e-07   1.5770013152344034e-05
-1.1289347558686292e-06   9.195115234411469e-07   1.5770013152344034e-05
-8.808632125863319e-06   8.99271230228333e-07   2.9583733597584824e-06
-8.808632125863319e-06   8.99271230228333e-07   2.9583733597584824e-06
-8.808632125863319e-06   8.99271230228333e-07   2.9583733597584824e-06
-8.808632125863319e-06   8.99271230228333e-07   2.9583733597584824e-06
-9.13554245828932e-06   7.526747480331858e-07   1.594808295554153e-05
-9.13554245828932e-06   7.526747480331858e-07   1.594808295554153e-05
-9.13554245828932e-06   7.526747480331858e-07   1.594808295554153e-05
-9.13554245828932e-06   7.526747480331858e-07   1.594808295554153e-05
-1.4551325551726623e-06   6.912291008452122e-07   3.184267171993122e-06
-1.4551325551726623e-06   6.912291008452122e-07   3.184267171993122e-06
-1.4551325551726623e-06   6.912291008452122e-07   3.184267171993122e-06
-1.4551325551726623e-06   6.912291008452122e-07   3.184267171993122e-06
-5.101921363162548e-06   9.002700719671448e-07   9.13682393596976e-06
-5.101921363162548e-06   9.002700719671448e-07   9.13682393596976e-06
-5.101921363162548e-06   9.002700719671448e-07   9.13682393596976e-06
-5.101921363162548e-06   9.002700719671448e-07   9.13682393596976e-06
-8.16179197484682e-06   2.9624401637341534e-06   1.3854635271083452e-05
-8.16179197484682e-06   2.9624401637341534e-06   1.3854635271083452e-05
-8.16179197484682e-06   2.9624401637341534e-06   1.3854635271083452e-05
-8.16179197484682e-06   2.9624401637341534e-06   1.3854635271083452e-05
-1.5680431578516752e-05   2.649897890122355e-06   1.1360439007997679e-06
-1.5680431578516752e-05   2.649897890122355e-06   1.1360439007997679e-06
-1.5680431578516752e-05   2.649897890122355e-06   1.1360439007997679e-06
-1.5680431578516752e-05   2.649897890122355e-06   1.1360439007997679e-06
-1.6024692308632887e-05   2.7795698651149033e-06   1.3768879160092106e-05
-1.6024692308632887e-05   2.7795698651149033e-06   1.3768879160092106e-05
-1.6024692308632887e-05   2.7795698651149033e-06   1.3768879160092106e-05
-1.6024692308632887e-05   2.7795698651149033e-06   1.3768879160092106e-05
-8.481352667994816e-06   2.4377257011787192e-06   1.4017529240571084e-06
-8.481352667994816e-06   2.4377257011787192e-06   1.4017529240571084e-06
-8.481352667994816e-06   2.4377257011787192e-06   1.4017529240571084e-06
-8.481352667994816e-06   2.4377257011787192e-06   1.4017529240571084e-06
-1.204675976070963e-05   2.6704238635146807e-06   7.204479181180352e-06
-1.204675976070963e-05   2.6704238635146807e-06   7.204479181180352e-06
-1.204675976070963e-05   2.6704238635146807e-06   7.204479181180352e-06
-1.204675976070963e-05   2.6704238635146807e-06   7.204479181180352e-06
-8.481352667994799e-06   2.779569865114918e-06   1.3973985658453968e-05
-8.481352667994799e-06   2.779569865114918e-06   1.3973985658453968e-05
-8.481352667994799e-06   2.779569865114918e-06   1.3973985658453968e-05
-8.481352667994799e-06   2.779569865114918e-06   1.3973985658453968e-05
-1.6024692308632847e-05   2.4377257011787192e-06   1.1966464256953817e-06
-1.6024692308632847e-05   2.4377257011787192e-06   1.1966464256953817e-06
-1.6024692308632847e-05   2.4377257011787192e-06   1.1966464256953817e-06
-1.6024692308632847e-05   2.4377257011787192e-06   1.1966464256953817e-06
-1.640301920833368e-05   2.6095448913280098e-06   1.4286712854812687e-05
-1.640301920833368e-05   2.6095448913280098e-06   1.4286712854812687e-05
-1.640301920833368e-05   2.6095448913280098e-06   1.4286712854812687e-05
-1.640301920833368e-05   2.6095448913280098e-06   1.4286712854812687e-05
-8.808632125863324e-06   2.2387449202572072e-06   1.8518810333378714e-06
-8.808632125863324e-06   2.2387449202572072e-06   1.8518810333378714e-06
-8.808632125863324e-06   2.2387449202572072e-06   1.8518810333378714e-06
-8.808632125863324e-06   2.2387449202572072e-06   1.8518810333378714e-06
-1.2291126177580111e-05   2.535552929120474e-06   7.477952980881582e-06
-1.2291126177580111e-05   2.535552929120474e-06   7.477952980881582e-06
-1.2291126177580111e-05   2.535552929120474e-06   7.477952980881582e-06
-1.2291126177580111e-05   2.535552929120474e-06   7.477952980881582e-06
-8.808632125863319e-06   2.6095448913279344e-06   1.4509192837455212e-05
-8.808632125863319e-06   2.6095448913279344e-06   1.4509192837455212e-05
-8.808632125863319e-06   2.6095448913279344e-06   1.4509192837455212e-05
-8.808632125863319e-06   2.6095448913279344e-06   1.4509192837455212e-05
-1.640301920833368e-05   2.2387449202572072e-06   1.6294010506954278e-06
-1.640301920833368e-05   2.2387449202572072e-06   1.6294010506954278e-06
-1.640301920833368e-05   2.2387449202572072e-06   1.6294010506954278e-06
-1.640301920833368e-05   2.2387449202572072e-06   1.6294010506954278e-06
-1.6748173934056417e-05   2.400598915495381e-06   1.4670823435180658e-05
-1.6748173934056417e-05   2.400598915495381e-06   1.4670823435180658e-05
-1.6748173934056417e-05   2.400598915495381e-06   1.4670823435180658e-05
-1.6748173934056417e-05   2.400598915495381e-06   1.4670823435180658e-05
-9.135542458289342e-06   2.005846001401873e-06   2.2199560573583628e-06
-9.135542458289342e-06   2.005846001401873e-06   2.2199560573583628e-06
-9.135542458289342e-06   2.005846001401873e-06   2.2199560573583628e-06
-9.135542458289342e-06   2.005846001401873e-06   2.2199560573583628e-06
-1.2685605275926491e-05   2.3819925292012725e-06   7.911039503407204e-06
-1.2685605275926491e-05   2.3819925292012725e-06   7.911039503407204e-06
-1.2685605275926491e-05   2.3819925292012725e-06   7.911039503407204e-06
-1.2685605275926491e-05   2.3819925292012725e-06   7.911039503407204e-06
-1.5680431578516752e-05   4.281575570490079e-06   6.7216224510221545e-06
-1.5680431578516752e-05   4.281575570490079e-06   6.7216224510221545e-06
-1.5680431578516752e-05   4.281575570490079e-06   6.7216224510221545e-06
-1.5680431578516752e-05   4.281575570490079e-06   6.7216224510221545e-06
-2.285140466573552e-05   3.668880627497864e-06   -5.597616326804514e-06
-2.285140466573552e-05   3.668880627497864e-06   -5.597616326804514e-06
-2.285140466573552e-05   3.668880627497864e-06   -5.597616326804514e-06
-2.285140466573552e-05   3.668880627497864e-06   -5.597616326804514e-06
-2.3471639443569688e-05   4.332255303128802e-06   8.96865928261411e-06
-2.3471639443569688e-05   4.332255303128802e-06   8.96865928261411e-06
-2.3471639443569688e-05   4.332255303128802e-06   8.96865928261411e-06
-2.3471639443569688e-05   4.332255303128802e-06   8.96865928261411e-06
-1.6024692308632884e-05   3.6555013477906255e-06   -3.0368669024110923e-06
-1.6024692308632884e-05   3.6555013477906255e-06   -3.0368669024110923e-06
-1.6024692308632884e-05   3.6555013477906255e-06   -3.0368669024110923e-06
-1.6024692308632884e-05   3.6555013477906255e-06   -3.0368669024110923e-06
-1.8764157144527316e-05   3.92422844503631e-06   1.36767156573228e-06
-1.8764157144527316e-05   3.92422844503631e-06   1.36767156573228e-06
-1.8764157144527316e-05   3.92422844503631e-06   1.36767156573228e-06
-1.8764157144527316e-05   3.92422844503631e-06   1.36767156573228e-06
-1.602469230863286e-05   4.332255303128785e-06   9.374711655817103e-06
-1.602469230863286e-05   4.332255303128785e-06   9.374711655817103e-06
-1.602469230863286e-05   4.332255303128785e-06   9.374711655817103e-06
-1.602469230863286e-05   4.332255303128785e-06   9.374711655817103e-06
-2.3471639443569742e-05   3.6555013477906255e-06   -3.4429192756140034e-06
-2.3471639443569742e-05   3.6555013477906255e-06   -3.4429192756140034e-06
-2.3471639443569742e-05   3.6555013477906255e-06   -3.4429192756140034e-06
-2.3471639443569742e-05   3.6555013477906255e-06   -3.4429192756140034e-06
-2.402554013547972e-05   4.2860501389597625e-06   1.077032861564089e-05
-2.402554013547972e-05   4.2860501389597625e-06   1.077032861564089e-05
-2.402554013547972e-05   4.2860501389597625e-06   1.077032861564089e-05
-2.402554013547972e-05   4.2860501389597625e-06   1.077032861564089e-05
-1.640301920833371e-05   3.582660133789016e-06   -1.5118389265001472e-06
-1.640301920833371e-05   3.582660133789016e-06   -1.5118389265001472e-06
-1.640301920833371e-05   3.582660133789016e-06   -1.5118389265001472e-06
-1.640301920833371e-05   3.582660133789016e-06   -1.5118389265001472e-06
-1.9484111281010392e-05   3.969375351326127e-06   3.3912853974395088e-06
-1.9484111281010392e-05   3.969375351326127e-06   3.3912853974395088e-06
-1.9484111281010392e-05   3.969375351326127e-06   3.3912853974395088e-06
-1.9484111281010392e-05   3.969375351326127e-06   3.3912853974395088e-06
-1.640301920833368e-05   4.286050138959725e-06   1.1192362618743339e-05
-1.640301920833368e-05   4.286050138959725e-06   1.1192362618743339e-05
-1.640301920833368e-05   4.286050138959725e-06   1.1192362618743339e-05
-1.640301920833368e-05   4.286050138959725e-06   1.1192362618743339e-05
-2.4025540135479747e-05   3.582660133789016e-06   -1.933872929602541e-06
-2.4025540135479747e-05   3.582660133789016e-06   -1.933872929602541e-06
-2.4025540135479747e-05   3.582660133789016e-06   -1.933872929602541e-06
-2.4025540135479747e-05   3.582660133789016e-06   -1.933872929602541e-06
-2.4660631522984864e-05   3.959313658523519e-06   1.3863480799030173e-05
-2.4660631522984864e-05   3.959313658523519e-06   1.3863480799030173e-05
-2.4660631522984864e-05   3.959313658523519e-06   1.3863480799030173e-05
-2.4660631522984864e-05   3.959313658523519e-06   1.3863480799030173e-05
-1.6748173934056407e-05   3.2573785907262596e-06   1.0972125248275228e-06
-1.6748173934056407e-05   3.2573785907262596e-06   1.0972125248275228e-06
-1.6748173934056407e-05   3.2573785907262596e-06   1.0972125248275228e-06
-1.6748173934056407e-05   3.2573785907262596e-06   1.0972125248275228e-06
-1.962657701944683e-05   3.834034976168098e-06   5.548557169212916e-06
-1.962657701944683e-05   3.834034976168098e-06   5.548557169212916e-06
-1.962657701944683e-05   3.834034976168098e-06   5.548557169212916e-06
-1.962657701944683e-05   3.834034976168098e-06   5.548557169212916e-06
1.0896994852301805e-05   -1.4097253803180704e-06   1.0799861460328395e-05
1.0896994852301805e-05   -1.4097253803180704e-06   1.0799861460328395e-05
1.0896994852301805e-05   -1.4097253803180704e-06   1.0799861460328395e-05
1.0896994852301805e-05   -1.4097253803180704e-06   1.0799861460328395e-05
4.529173031690655e-06   -7.10311965576322e-07   6.064731414882289e-07
4.529173031690655e-06   -7.10311965576322e-07   6.064731414882289e-07
4.529173031690655e-06   -7.10311965576322e-07   6.064731414882289e-07
4.529173031690655e-06   -7.10311965576322e-07   6.064731414882289e-07
4.256539559857725e-06   -1.7052874789159553e-06   9.696035673455465e-06
4.256539559857725e-06   -1.7052874789159553e-06   9.696035673455465e-06
4.256539559857725e-06   -1.7052874789159553e-06   9.696035673455465e-06
4.256539559857725e-06   -1.7052874789159553e-06   9.696035673455465e-06
1.0314695379385116e-05   -9.765732409499055e-07   -8.381192352031533e-07
1.0314695379385116e-05   -9.765732409499055e-07   -8.381192352031533e-07
1.0314695379385116e-05   -9.765732409499055e-07   -8.381192352031533e-07
1.0314695379385116e-05   -9.765732409499055e-07   -8.381192352031533e-07
7.127063241182623e-06   -1.2281835717410693e-06   4.6255671936091905e-06
7.127063241182623e-06   -1.2281835717410693e-06   4.6255671936091905e-06
7.127063241182623e-06   -1.2281835717410693e-06   4.6255671936091905e-06
7.127063241182623e-06   -1.2281835717410693e-06   4.6255671936091905e-06
1.0314695379385133e-05   -1.7052874789160497e-06   9.258807130675879e-06
1.0314695379385133e-05   -1.7052874789160497e-06   9.258807130675879e-06
1.0314695379385133e-05   -1.7052874789160497e-06   9.258807130675879e-06
1.0314695379385133e-05   -1.7052874789160497e-06   9.258807130675879e-06
4.25653955985771e-06   -9.765732409499055e-07   -4.0089069242352617e-07
4.25653955985771e-06   -9.765732409499055e-07   -4.0089069242352617e-07
4.25653955985771e-06   -9.765732409499055e-07   -4.0089069242352617e-07
4.25653955985771e-06   -9.765732409499055e-07   -4.0089069242352617e-07
3.9493652111180365e-06   -1.7833920719358912e-06   8.878199890764997e-06
3.9493652111180365e-06   -1.7833920719358912e-06   8.878199890764997e-06
3.9493652111180365e-06   -1.7833920719358912e-06   8.878199890764997e-06
3.9493652111180365e-06   -1.7833920719358912e-06   8.878199890764997e-06
9.813839048373834e-06   -1.0672231855632331e-06   -1.325624503151664e-06
9.813839048373834e-06   -1.0672231855632331e-06   -1.325624503151664e-06
9.813839048373834e-06   -1.0672231855632331e-06   -1.325624503151664e-06
9.813839048373834e-06   -1.0672231855632331e-06   -1.325624503151664e-06
6.872819002489289e-06   -1.341481106567101e-06   3.7406303259251946e-06
6.872819002489289e-06   -1.341481106567101e-06   3.7406303259251946e-06
6.872819002489289e-06   -1.341481106567101e-06   3.7406303259251946e-06
6.872819002489289e-06   -1.341481106567101e-06   3.7406303259251946e-06
9.813839048373849e-06   -1.7833920719358646e-06   8.448498558941294e-06
9.813839048373849e-06   -1.7833920719358646e-06   8.448498558941294e-06
9.813839048373849e-06   -1.7833920719358646e-06   8.448498558941294e-06
9.813839048373849e-06   -1.7833920719358646e-06   8.448498558941294e-06
3.94936521111803e-06   -1.0672231855632331e-06   -8.959231713280081e-07
3.94936521111803e-06   -1.0672231855632331e-06   -8.959231713280081e-07
3.94936521111803e-06   -1.0672231855632331e-06   -8.959231713280081e-07
3.94936521111803e-06   -1.0672231855632331e-06   -8.959231713280081e-07
3.6736061278678257e-06   -1.8524210734317597e-06   7.808762546394183e-06
3.6736061278678257e-06   -1.8524210734317597e-06   7.808762546394183e-06
3.6736061278678257e-06   -1.8524210734317597e-06   7.808762546394183e-06
3.6736061278678257e-06   -1.8524210734317597e-06   7.808762546394183e-06
9.244075892113594e-06   -1.1838088907488485e-06   -1.8765210369586213e-06
9.244075892113594e-06   -1.1838088907488485e-06   -1.8765210369586213e-06
9.244075892113594e-06   -1.1838088907488485e-06   -1.8765210369586213e-06
9.244075892113594e-06   -1.1838088907488485e-06   -1.8765210369586213e-06
6.387481359387125e-06   -1.3614609477687403e-06   2.9910610851306525e-06
6.387481359387125e-06   -1.3614609477687403e-06   2.9910610851306525e-06
6.387481359387125e-06   -1.3614609477687403e-06   2.9910610851306525e-06
6.387481359387125e-06   -1.3614609477687403e-06   2.9910610851306525e-06
4.529173031690674e-06   -1.5489763222691873e-08   1.3252981041543359e-05
4.529173031690674e-06   -1.5489763222691873e-08   1.3252981041543359e-05
4.529173031690674e-06   -1.5489763222691873e-08   1.3252981041543359e-05
4.529173031690674e-06   -1.5489763222691873e-08   1.3252981041543359e-05
-1.4373382444598932e-06   3.423627498150674e-07   3.5235070891150694e-06
-1.4373382444598932e-06   3.423627498150674e-07   3.5235070891150694e-06
-1.4373382444598932e-06   3.423627498150674e-07   3.5235070891150694e-06
-1.4373382444598932e-06   3.423627498150674e-07   3.5235070891150694e-06
-1.6882729762042779e-06   -2.710801182945243e-07   1.3274969250250232e-05
-1.6882729762042779e-06   -2.710801182945243e-07   1.3274969250250232e-05
-1.6882729762042779e-06   -2.710801182945243e-07   1.3274969250250232e-05
-1.6882729762042779e-06   -2.710801182945243e-07   1.3274969250250232e-05
4.25653955985771e-06   7.459931698902082e-08   3.1595406956435027e-06
4.25653955985771e-06   7.459931698902082e-08   3.1595406956435027e-06
4.25653955985771e-06   7.459931698902082e-08   3.1595406956435027e-06
4.25653955985771e-06   7.459931698902082e-08   3.1595406956435027e-06
1.3721623778225003e-06   9.17092738837895e-09   8.006093032796132e-06
1.3721623778225003e-06   9.17092738837895e-09   8.006093032796132e-06
1.3721623778225003e-06   9.17092738837895e-09   8.006093032796132e-06
1.3721623778225003e-06   9.17092738837895e-09   8.006093032796132e-06
4.25653955985772e-06   -2.7108011829446737e-07   1.306756158908016e-05
4.25653955985772e-06   -2.7108011829446737e-07   1.306756158908016e-05
4.25653955985772e-06   -2.7108011829446737e-07   1.306756158908016e-05
4.25653955985772e-06   -2.7108011829446737e-07   1.306756158908016e-05
-1.6882729762042847e-06   7.459931698902082e-08   3.366948356813633e-06
-1.6882729762042847e-06   7.459931698902082e-08   3.366948356813633e-06
-1.6882729762042847e-06   7.459931698902082e-08   3.366948356813633e-06
-1.6882729762042847e-06   7.459931698902082e-08   3.366948356813633e-06
-1.9450527785647853e-06   -4.71121862816214e-07   1.310907377254718e-05
-1.9450527785647853e-06   -4.71121862816214e-07   1.310907377254718e-05
-1.9450527785647853e-06   -4.71121862816214e-07   1.310907377254718e-05
-1.9450527785647853e-06   -4.71121862816214e-07   1.310907377254718e-05
3.94936521111803e-06   -1.4315821542738773e-07   3.0882656013092515e-06
3.94936521111803e-06   -1.4315821542738773e-07   3.0882656013092515e-06
3.94936521111803e-06   -1.4315821542738773e-07   3.0882656013092515e-06
3.94936521111803e-06   -1.4315821542738773e-07   3.0882656013092515e-06
1.0953030312014704e-06   -1.6861761698526694e-07   7.860311542105294e-06
1.0953030312014704e-06   -1.6861761698526694e-07   7.860311542105294e-06
1.0953030312014704e-06   -1.6861761698526694e-07   7.860311542105294e-06
1.0953030312014704e-06   -1.6861761698526694e-07   7.860311542105294e-06
3.949365211118043e-06   -4.711218628162657e-07   1.2912295584113949e-05
3.949365211118043e-06   -4.711218628162657e-07   1.2912295584113949e-05
3.949365211118043e-06   -4.711218628162657e-07   1.2912295584113949e-05
3.949365211118043e-06   -4.711218628162657e-07   1.2912295584113949e-05
-1.9450527785647853e-06   -1.4315821542749615e-07   3.2850437897425635e-06
-1.9450527785647853e-06   -1.4315821542749615e-07   3.2850437897425635e-06
-1.9450527785647853e-06   -1.4315821542749615e-07   3.2850437897425635e-06
-1.9450527785647853e-06   -1.4315821542749615e-07   3.2850437897425635e-06
-2.199840450734151e-06   -6.546218829878115e-07   1.322082161193006e-05
-2.199840450734151e-06   -6.546218829878115e-07   1.322082161193006e-05
-2.199840450734151e-06   -6.546218829878115e-07   1.322082161193006e-05
-2.199840450734151e-06   -6.546218829878115e-07   1.322082161193006e-05
3.67360612786781e-06   -3.5604255067096195e-07   3.2525963815367473e-06
3.67360612786781e-06   -3.5604255067096195e-07   3.2525963815367473e-06
3.67360612786781e-06   -3.5604255067096195e-07   3.2525963815367473e-06
3.67360612786781e-06   -3.5604255067096195e-07   3.2525963815367473e-06
8.781658832973184e-07   -3.152210250149945e-07   7.88717054042705e-06
8.781658832973184e-07   -3.152210250149945e-07   7.88717054042705e-06
8.781658832973184e-07   -3.152210250149945e-07   7.88717054042705e-06
8.781658832973184e-07   -3.152210250149945e-07   7.88717054042705e-06
-1.4373382444598864e-06   1.3416284708865603e-06   1.4362814945647609e-05
-1.4373382444598864e-06   1.3416284708865603e-06   1.4362814945647609e-05
-1.4373382444598864e-06   1.3416284708865603e-06   1.4362814945647609e-05
-1.4373382444598864e-06   1.3416284708865603e-06   1.4362814945647609e-05
-7.3021733636749025e-06   1.3248599548047702e-06   4.578028637306918e-06
-7.3021733636749025e-06   1.3248599548047702e-06   4.578028637306918e-06
-7.3021733636749025e-06   1.3248599548047702e-06   4.578028637306918e-06
-7.3021733636749025e-06   1.3248599548047702e-06   4.578028637306918e-06
-7.5502146571940996e-06   1.1186430194077245e-06   1.426942363659089e-05
-7.5502146571940996e-06   1.1186430194077245e-06   1.426942363659089e-05
-7.5502146571940996e-06   1.1186430194077245e-06   1.426942363659089e-05
-7.5502146571940996e-06   1.1186430194077245e-06   1.426942363659089e-05
-1.6882729762042758e-06   1.0830423679615998e-06   4.520881225808759e-06
-1.6882729762042758e-06   1.0830423679615998e-06   4.520881225808759e-06
-1.6882729762042758e-06   1.0830423679615998e-06   4.520881225808759e-06
-1.6882729762042758e-06   1.0830423679615998e-06   4.520881225808759e-06
-4.505856386469724e-06   1.1858650310521152e-06   9.15515997839715e-06
-4.505856386469724e-06   1.1858650310521152e-06   9.15515997839715e-06
-4.505856386469724e-06   1.1858650310521152e-06   9.15515997839715e-06
-4.505856386469724e-06   1.1858650310521152e-06   9.15515997839715e-06
-1.6882729762042779e-06   1.1186430194076503e-06   1.4290784027458489e-05
-1.6882729762042779e-06   1.1186430194076503e-06   1.4290784027458489e-05
-1.6882729762042779e-06   1.1186430194076503e-06   1.4290784027458489e-05
-1.6882729762042779e-06   1.1186430194076503e-06   1.4290784027458489e-05
-7.550214657194127e-06   1.0830423679617082e-06   4.4995208349412415e-06
-7.550214657194127e-06   1.0830423679617082e-06   4.4995208349412415e-06
-7.550214657194127e-06   1.0830423679617082e-06   4.4995208349412415e-06
-7.550214657194127e-06   1.0830423679617082e-06   4.4995208349412415e-06
-7.804030401987062e-06   8.99271230228333e-07   1.4338555384226914e-05
-7.804030401987062e-06   8.99271230228333e-07   1.4338555384226914e-05
-7.804030401987062e-06   8.99271230228333e-07   1.4338555384226914e-05
-7.804030401987062e-06   8.99271230228333e-07   1.4338555384226914e-05
-1.9450527785647836e-06   8.440460288667608e-07   4.606727799340044e-06
-1.9450527785647836e-06   8.440460288667608e-07   4.606727799340044e-06
-1.9450527785647836e-06   8.440460288667608e-07   4.606727799340044e-06
-1.9450527785647836e-06   8.440460288667608e-07   4.606727799340044e-06
-4.732551461954185e-06   1.0109881800657349e-06   9.152393647603307e-06
-4.732551461954185e-06   1.0109881800657349e-06   9.152393647603307e-06
-4.732551461954185e-06   1.0109881800657349e-06   9.152393647603307e-06
-4.732551461954185e-06   1.0109881800657349e-06   9.152393647603307e-06
-1.9450527785647853e-06   8.992712302283113e-07   1.4371690505043824e-05
-1.9450527785647853e-06   8.992712302283113e-07   1.4371690505043824e-05
-1.9450527785647853e-06   8.992712302283113e-07   1.4371690505043824e-05
-1.9450527785647853e-06   8.992712302283113e-07   1.4371690505043824e-05
-7.804030401987075e-06   8.440460288667608e-07   4.573592678523133e-06
-7.804030401987075e-06   8.440460288667608e-07   4.573592678523133e-06
-7.804030401987075e-06   8.440460288667608e-07   4.573592678523133e-06
-7.804030401987075e-06   8.440460288667608e-07   4.573592678523133e-06
-8.05470057378891e-06   6.912291008453206e-07   1.4525729276468249e-05
-8.05470057378891e-06   6.912291008453206e-07   1.4525729276468249e-05
-8.05470057378891e-06   6.912291008453206e-07   1.4525729276468249e-05
-8.05470057378891e-06   6.912291008453206e-07   1.4525729276468249e-05
-2.1998404507341417e-06   6.141724639697728e-07   4.813863053502304e-06
-2.1998404507341417e-06   6.141724639697728e-07   4.813863053502304e-06
-2.1998404507341417e-06   6.141724639697728e-07   4.813863053502304e-06
-2.1998404507341417e-06   6.141724639697728e-07   4.813863053502304e-06
-4.969915698821395e-06   8.403908712917123e-07   9.294924089254305e-06
-4.969915698821395e-06   8.403908712917123e-07   9.294924089254305e-06
-4.969915698821395e-06   8.403908712917123e-07   9.294924089254305e-06
-4.969915698821395e-06   8.403908712917123e-07   9.294924089254305e-06
-7.3021733636749025e-06   2.649897890122409e-06   1.2719101140526846e-05
-7.3021733636749025e-06   2.649897890122409e-06   1.2719101140526846e-05
-7.3021733636749025e-06   2.649897890122409e-06   1.2719101140526846e-05
-7.3021733636749025e-06   2.649897890122409e-06   1.2719101140526846e-05
-1.3078366577042293e-05   2.281819720896766e-06   2.871265550045813e-06
-1.3078366577042293e-05   2.281819720896766e-06   2.871265550045813e-06
-1.3078366577042293e-05   2.281819720896766e-06   2.871265550045813e-06
-1.3078366577042293e-05   2.281819720896766e-06   2.871265550045813e-06
-1.3344996238327523e-05   2.4377257011787192e-06   1.255515676983792e-05
-1.3344996238327523e-05   2.4377257011787192e-06   1.255515676983792e-05
-1.3344996238327523e-05   2.4377257011787192e-06   1.255515676983792e-05
-1.3344996238327523e-05   2.4377257011787192e-06   1.255515676983792e-05
-7.550214657194089e-06   2.0466337591054304e-06   3.131842633192979e-06
-7.550214657194089e-06   2.0466337591054304e-06   3.131842633192979e-06
-7.550214657194089e-06   2.0466337591054304e-06   3.131842633192979e-06
-7.550214657194089e-06   2.0466337591054304e-06   3.131842633192979e-06
-1.028945243845506e-05   2.3123793685597607e-06   7.53779156962222e-06
-1.028945243845506e-05   2.3123793685597607e-06   7.53779156962222e-06
-1.028945243845506e-05   2.3123793685597607e-06   7.53779156962222e-06
-1.028945243845506e-05   2.3123793685597607e-06   7.53779156962222e-06
-7.550214657194127e-06   2.4377257011787336e-06   1.2789811935082023e-05
-7.550214657194127e-06   2.4377257011787336e-06   1.2789811935082023e-05
-7.550214657194127e-06   2.4377257011787336e-06   1.2789811935082023e-05
-7.550214657194127e-06   2.4377257011787336e-06   1.2789811935082023e-05
-1.334499623832751e-05   2.046633759105322e-06   2.897187467949011e-06
-1.334499623832751e-05   2.046633759105322e-06   2.897187467949011e-06
-1.334499623832751e-05   2.046633759105322e-06   2.897187467949011e-06
-1.334499623832751e-05   2.046633759105322e-06   2.897187467949011e-06
-1.3644551777734892e-05   2.2387449202572072e-06   1.2985562254417366e-05
-1.3644551777734892e-05   2.2387449202572072e-06   1.2985562254417366e-05
-1.3644551777734892e-05   2.2387449202572072e-06   1.2985562254417366e-05
-1.3644551777734892e-05   2.2387449202572072e-06   1.2985562254417366e-05
-7.804030401987045e-06   1.8279102479422686e-06   3.4978607648932653e-06
-7.804030401987045e-06   1.8279102479422686e-06   3.4978607648932653e-06
-7.804030401987045e-06   1.8279102479422686e-06   3.4978607648932653e-06
-7.804030401987045e-06   1.8279102479422686e-06   3.4978607648932653e-06
-1.0471847177796519e-05   2.152649355531208e-06   7.749378593355975e-06
-1.0471847177796519e-05   2.152649355531208e-06   7.749378593355975e-06
-1.0471847177796519e-05   2.152649355531208e-06   7.749378593355975e-06
-1.0471847177796519e-05   2.152649355531208e-06   7.749378593355975e-06
-7.804030401987075e-06   2.238744920257181e-06   1.3232063057806221e-05
-7.804030401987075e-06   2.238744920257181e-06   1.3232063057806221e-05
-7.804030401987075e-06   2.238744920257181e-06   1.3232063057806221e-05
-7.804030401987075e-06   2.238744920257181e-06   1.3232063057806221e-05
-1.3644551777734865e-05   1.8279102479422686e-06   3.251359961504302e-06
-1.3644551777734865e-05   1.8279102479422686e-06   3.251359961504302e-06
-1.3644551777734865e-05   1.8279102479422686e-06   3.251359961504302e-06
-1.3644551777734865e-05   1.8279102479422686e-06   3.251359961504302e-06
-1.3910059274657645e-05   2.005846001401873e-06   1.3344166503689403e-05
-1.3910059274657645e-05   2.005846001401873e-06   1.3344166503689403e-05
-1.3910059274657645e-05   2.005846001401873e-06   1.3344166503689403e-05
-1.3910059274657645e-05   2.005846001401873e-06   1.3344166503689403e-05
-8.054700573788893e-06   1.5823142573071066e-06   3.83935438203167e-06
-8.054700573788893e-06   1.5823142573071066e-06   3.83935438203167e-06
-8.054700573788893e-06   1.5823142573071066e-06   3.83935438203167e-06
-8.054700573788893e-06   1.5823142573071066e-06   3.83935438203167e-06
-1.0773369280937331e-05   1.9832828952178827e-06   8.129887711199013e-06
-1.0773369280937331e-05   1.9832828952178827e-06   8.129887711199013e-06
-1.0773369280937331e-05   1.9832828952178827e-06   8.129887711199013e-06
-1.0773369280937331e-05   1.9832828952178827e-06   8.129887711199013e-06
-1.3078366577042293e-05   3.6688806274978977e-06   6.132210977182503e-06
-1.3078366577042293e-05   3.6688806274978977e-06   6.132210977182503e-06
-1.3078366577042293e-05   3.6688806274978977e-06   6.132210977182503e-06
-1.3078366577042293e-05   3.6688806274978977e-06   6.132210977182503e-06
-1.8523798692437815e-05   3.0092234035286386e-06   -3.339303549524861e-06
-1.8523798692437815e-05   3.0092234035286386e-06   -3.339303549524861e-06
-1.8523798692437815e-05   3.0092234035286386e-06   -3.339303549524861e-06
-1.8523798692437815e-05   3.0092234035286386e-06   -3.339303549524861e-06
-1.9083406167450212e-05   3.6555013477906255e-06   7.890298204348348e-06
-1.9083406167450212e-05   3.6555013477906255e-06   7.890298204348348e-06
-1.9083406167450212e-05   3.6555013477906255e-06   7.890298204348348e-06
-1.9083406167450212e-05   3.6555013477906255e-06   7.890298204348348e-06
-1.3344996238327495e-05   2.936592618818642e-06   -1.2423731068061787e-06
-1.3344996238327495e-05   2.936592618818642e-06   -1.2423731068061787e-06
-1.3344996238327495e-05   2.936592618818642e-06   -1.2423731068061787e-06
-1.3344996238327495e-05   2.936592618818642e-06   -1.2423731068061787e-06
-1.5406995029589358e-05   3.2553432806804337e-06   2.003041148180201e-06
-1.5406995029589358e-05   3.2553432806804337e-06   2.003041148180201e-06
-1.5406995029589358e-05   3.2553432806804337e-06   2.003041148180201e-06
-1.5406995029589358e-05   3.2553432806804337e-06   2.003041148180201e-06
-1.3344996238327523e-05   3.6555013477907056e-06   8.321643441731473e-06
-1.3344996238327523e-05   3.6555013477907056e-06   8.321643441731473e-06
-1.3344996238327523e-05   3.6555013477907056e-06   8.321643441731473e-06
-1.3344996238327523e-05   3.6555013477907056e-06   8.321643441731473e-06
-1.9083406167450157e-05   2.9365926188187506e-06   -1.673718344189385e-06
-1.9083406167450157e-05   2.9365926188187506e-06   -1.673718344189385e-06
-1.9083406167450157e-05   2.9365926188187506e-06   -1.673718344189385e-06
-1.9083406167450157e-05   2.9365926188187506e-06   -1.673718344189385e-06
-1.957024175781028e-05   3.582660133789016e-06   9.400899503324268e-06
-1.957024175781028e-05   3.582660133789016e-06   9.400899503324268e-06
-1.957024175781028e-05   3.582660133789016e-06   9.400899503324268e-06
-1.957024175781028e-05   3.582660133789016e-06   9.400899503324268e-06
-1.3644551777734853e-05   2.8436221772933958e-06   -3.1827689570527746e-08
-1.3644551777734853e-05   2.8436221772933958e-06   -3.1827689570527746e-08
-1.3644551777734853e-05   2.8436221772933958e-06   -3.1827689570527746e-08
-1.3644551777734853e-05   2.8436221772933958e-06   -3.1827689570527746e-08
-1.600440095312756e-05   3.2595217783920084e-06   3.6517145087587956e-06
-1.600440095312756e-05   3.2595217783920084e-06   3.6517145087587956e-06
-1.600440095312756e-05   3.2595217783920084e-06   3.6517145087587956e-06
-1.600440095312756e-05   3.2595217783920084e-06   3.6517145087587956e-06
-1.3644551777734865e-05   3.5826601337890473e-06   9.844322277221683e-06
-1.3644551777734865e-05   3.5826601337890473e-06   9.844322277221683e-06
-1.3644551777734865e-05   3.5826601337890473e-06   9.844322277221683e-06
-1.3644551777734865e-05   3.5826601337890473e-06   9.844322277221683e-06
-1.9570241757810227e-05   2.8436221772933958e-06   -4.7525046346788904e-07
-1.9570241757810227e-05   2.8436221772933958e-06   -4.7525046346788904e-07
-1.9570241757810227e-05   2.8436221772933958e-06   -4.7525046346788904e-07
-1.9570241757810227e-05   2.8436221772933958e-06   -4.7525046346788904e-07
-2.0133738283295072e-05   3.2573785907262596e-06   1.2020868595127095e-05
-2.0133738283295072e-05   3.2573785907262596e-06   1.2020868595127095e-05
-2.0133738283295072e-05   3.2573785907262596e-06   1.2020868595127095e-05
-2.0133738283295072e-05   3.2573785907262596e-06   1.2020868595127095e-05
-1.3910059274657567e-05   2.5283683832469893e-06   2.0854763718856277e-06
-1.3910059274657567e-05   2.5283683832469893e-06   2.0854763718856277e-06
-1.3910059274657567e-05   2.5283683832469893e-06   2.0854763718856277e-06
-1.3910059274657567e-05   2.5283683832469893e-06   2.0854763718856277e-06
-1.6128865015193736e-05   3.1219190290637062e-06   5.427355551955134e-06
-1.6128865015193736e-05   3.1219190290637062e-06   5.427355551955134e-06
-1.6128865015193736e-05   3.1219190290637062e-06   5.427355551955134e-06
-1.6128865015193736e-05   3.1219190290637062e-06   5.427355551955134e-06
6.180734356135192e-06   -7.103119655763198e-07   8.570806575991768e-06
6.180734356135192e-06   -7.103119655763198e-07   8.570806575991768e-06
6.180734356135192e-06   -7.103119655763198e-07   8.570806575991768e-06
6.180734356135192e-06   -7.103119655763198e-07   8.570806575991768e-06
1.6662918264937163e-06   -1.2415076545589307e-08   1.46547382667443e-06
1.6662918264937163e-06   -1.2415076545589307e-08   1.46547382667443e-06
1.6662918264937163e-06   -1.2415076545589307e-08   1.46547382667443e-06
1.6662918264937163e-06   -1.2415076545589307e-08   1.46547382667443e-06
1.460299383312342e-06   -9.765732409499055e-07   7.973865973175641e-06
1.460299383312342e-06   -9.765732409499055e-07   7.973865973175641e-06
1.460299383312342e-06   -9.765732409499055e-07   7.973865973175641e-06
1.460299383312342e-06   -9.765732409499055e-07   7.973865973175641e-06
5.67008075936272e-06   -2.522503281090008e-07   5.229699320539167e-07
5.67008075936272e-06   -2.522503281090008e-07   5.229699320539167e-07
5.67008075936272e-06   -2.522503281090008e-07   5.229699320539167e-07
5.67008075936272e-06   -2.522503281090008e-07   5.229699320539167e-07
3.525645905368495e-06   -5.218070935113445e-07   4.258762081285961e-06
3.525645905368495e-06   -5.218070935113445e-07   4.258762081285961e-06
3.525645905368495e-06   -5.218070935113445e-07   4.258762081285961e-06
3.525645905368495e-06   -5.218070935113445e-07   4.258762081285961e-06
5.670080759362727e-06   -9.765732409499117e-07   7.539272225471098e-06
5.670080759362727e-06   -9.765732409499117e-07   7.539272225471098e-06
5.670080759362727e-06   -9.765732409499117e-07   7.539272225471098e-06
5.670080759362727e-06   -9.765732409499117e-07   7.539272225471098e-06
1.4602993833123385e-06   -2.522503281090008e-07   9.575636797584663e-07
1.4602993833123385e-06   -2.522503281090008e-07   9.575636797584663e-07
1.4602993833123385e-06   -2.522503281090008e-07   9.575636797584663e-07
1.4602993833123385e-06   -2.522503281090008e-07   9.575636797584663e-07
1.2193314141388653e-06   -1.0672231855632331e-06   7.472351257864008e-06
1.2193314141388653e-06   -1.0672231855632331e-06   7.472351257864008e-06
1.2193314141388653e-06   -1.0672231855632331e-06   7.472351257864008e-06
1.2193314141388653e-06   -1.0672231855632331e-06   7.472351257864008e-06
5.236679386034304e-06   -3.54225798394241e-07   3.4897287240369444e-07
5.236679386034304e-06   -3.54225798394241e-07   3.4897287240369444e-07
5.236679386034304e-06   -3.54225798394241e-07   3.4897287240369444e-07
5.236679386034304e-06   -3.54225798394241e-07   3.4897287240369444e-07
3.2823357851243017e-06   -6.266370706333249e-07   3.7696589705970775e-06
3.2823357851243017e-06   -6.266370706333249e-07   3.7696589705970775e-06
3.2823357851243017e-06   -6.266370706333249e-07   3.7696589705970775e-06
3.2823357851243017e-06   -6.266370706333249e-07   3.7696589705970775e-06
5.23667938603431e-06   -1.0672231855631605e-06   7.044552825562667e-06
5.23667938603431e-06   -1.0672231855631605e-06   7.044552825562667e-06
5.23667938603431e-06   -1.0672231855631605e-06   7.044552825562667e-06
5.23667938603431e-06   -1.0672231855631605e-06   7.044552825562667e-06
1.2193314141388602e-06   -3.54225798394241e-07   7.76771304705022e-07
1.2193314141388602e-06   -3.54225798394241e-07   7.76771304705022e-07
1.2193314141388602e-06   -3.54225798394241e-07   7.76771304705022e-07
1.2193314141388602e-06   -3.54225798394241e-07   7.76771304705022e-07
1.010084168293546e-06   -1.1838088907487401e-06   6.88398784611568e-06
1.010084168293546e-06   -1.1838088907487401e-06   6.88398784611568e-06
1.010084168293546e-06   -1.1838088907487401e-06   6.88398784611568e-06
1.010084168293546e-06   -1.1838088907487401e-06   6.88398784611568e-06
4.727679189099477e-06   -5.213796882895614e-07   2.9053862329699774e-07
4.727679189099477e-06   -5.213796882895614e-07   2.9053862329699774e-07
4.727679189099477e-06   -5.213796882895614e-07   2.9053862329699774e-07
4.727679189099477e-06   -5.213796882895614e-07   2.9053862329699774e-07
2.914142584935229e-06   -6.781002092821117e-07   3.4071319428329104e-06
2.914142584935229e-06   -6.781002092821117e-07   3.4071319428329104e-06
2.914142584935229e-06   -6.781002092821117e-07   3.4071319428329104e-06
2.914142584935229e-06   -6.781002092821117e-07   3.4071319428329104e-06
1.6662918264937214e-06   3.4236274981503476e-07   1.1691867149214393e-05
1.6662918264937214e-06   3.4236274981503476e-07   1.1691867149214393e-05
1.6662918264937214e-06   3.4236274981503476e-07   1.1691867149214393e-05
1.6662918264937214e-06   3.4236274981503476e-07   1.1691867149214393e-05
-2.438114634665624e-06   6.613034742671995e-07   5.042554148620081e-06
-2.438114634665624e-06   6.613034742671995e-07   5.042554148620081e-06
-2.438114634665624e-06   6.613034742671995e-07   5.042554148620081e-06
-2.438114634665624e-06   6.613034742671995e-07   5.042554148620081e-06
-2.619565226975389e-06   7.459931698902082e-08   1.1724854103522077e-05
-2.619565226975389e-06   7.459931698902082e-08   1.1724854103522077e-05
-2.619565226975389e-06   7.459931698902082e-08   1.1724854103522077e-05
-2.619565226975389e-06   7.459931698902082e-08   1.1724854103522077e-05
1.4602993833123381e-06   3.9219388745458626e-07   4.7345230107632745e-06
1.4602993833123381e-06   3.9219388745458626e-07   4.7345230107632745e-06
1.4602993833123381e-06   3.9219388745458626e-07   4.7345230107632745e-06
1.4602993833123381e-06   3.9219388745458626e-07   4.7345230107632745e-06
-5.140749801172482e-07   3.3996538387128395e-07   8.05648405196292e-06
-5.140749801172482e-07   3.3996538387128395e-07   8.05648405196292e-06
-5.140749801172482e-07   3.3996538387128395e-07   8.05648405196292e-06
-5.140749801172482e-07   3.3996538387128395e-07   8.05648405196292e-06
1.4602993833123402e-06   7.459931698899285e-08   1.1534297361242673e-05
1.4602993833123402e-06   7.459931698899285e-08   1.1534297361242673e-05
1.4602993833123402e-06   7.459931698899285e-08   1.1534297361242673e-05
1.4602993833123402e-06   7.459931698899285e-08   1.1534297361242673e-05
-2.619565226975389e-06   3.9219388745458626e-07   4.925079753042682e-06
-2.619565226975389e-06   3.9219388745458626e-07   4.925079753042682e-06
-2.619565226975389e-06   3.9219388745458626e-07   4.925079753042682e-06
-2.619565226975389e-06   3.9219388745458626e-07   4.925079753042682e-06
-2.8065206854878085e-06   -1.4315821542749615e-07   1.1641757063408334e-05
-2.8065206854878085e-06   -1.4315821542749615e-07   1.1641757063408334e-05
-2.8065206854878085e-06   -1.4315821542749615e-07   1.1641757063408334e-05
-2.8065206854878085e-06   -1.4315821542749615e-07   1.1641757063408334e-05
1.2193314141388602e-06   1.6553683941753373e-07   4.746786531123558e-06
1.2193314141388602e-06   1.6553683941753373e-07   4.746786531123558e-06
1.2193314141388602e-06   1.6553683941753373e-07   4.746786531123558e-06
1.2193314141388602e-06   1.6553683941753373e-07   4.746786531123558e-06
-7.083537373431414e-07   1.5316776440612353e-07   7.96701656193398e-06
-7.083537373431414e-07   1.5316776440612353e-07   7.96701656193398e-06
-7.083537373431414e-07   1.5316776440612353e-07   7.96701656193398e-06
-7.083537373431414e-07   1.5316776440612353e-07   7.96701656193398e-06
1.2193314141388653e-06   -1.431582154274314e-07   1.1456540030501349e-05
1.2193314141388653e-06   -1.431582154274314e-07   1.1456540030501349e-05
1.2193314141388653e-06   -1.431582154274314e-07   1.1456540030501349e-05
1.2193314141388653e-06   -1.431582154274314e-07   1.1456540030501349e-05
-2.806520685487822e-06   1.6553683941753373e-07   4.932003564030608e-06
-2.806520685487822e-06   1.6553683941753373e-07   4.932003564030608e-06
-2.806520685487822e-06   1.6553683941753373e-07   4.932003564030608e-06
-2.806520685487822e-06   1.6553683941753373e-07   4.932003564030608e-06
-2.990922528273767e-06   -3.5604255067107037e-07   1.1786947248565243e-05
-2.990922528273767e-06   -3.5604255067107037e-07   1.1786947248565243e-05
-2.990922528273767e-06   -3.5604255067107037e-07   1.1786947248565243e-05
-2.990922528273767e-06   -3.5604255067107037e-07   1.1786947248565243e-05
1.010084168293542e-06   -6.436039473101725e-08   4.943593460722488e-06
1.010084168293542e-06   -6.436039473101725e-08   4.943593460722488e-06
1.010084168293542e-06   -6.436039473101725e-08   4.943593460722488e-06
1.010084168293542e-06   -6.436039473101725e-08   4.943593460722488e-06
-8.719063484216525e-07   -1.2842169789823582e-08   8.049333386949717e-06
-8.719063484216525e-07   -1.2842169789823582e-08   8.049333386949717e-06
-8.719063484216525e-07   -1.2842169789823582e-08   8.049333386949717e-06
-8.719063484216525e-07   -1.2842169789823582e-08   8.049333386949717e-06
-2.438114634665624e-06   1.3248599548047863e-06   1.2947814241726584e-05
-2.438114634665624e-06   1.3248599548047863e-06   1.2947814241726584e-05
-2.438114634665624e-06   1.3248599548047863e-06   1.2947814241726584e-05
-2.438114634665624e-06   1.3248599548047863e-06   1.2947814241726584e-05
-6.467438616951845e-06   1.2534060888459231e-06   6.1894019516742064e-06
-6.467438616951845e-06   1.2534060888459231e-06   6.1894019516742064e-06
-6.467438616951845e-06   1.2534060888459231e-06   6.1894019516742064e-06
-6.467438616951845e-06   1.2534060888459231e-06   6.1894019516742064e-06
-6.641976607655957e-06   1.0830423679615998e-06   1.2833010982887306e-05
-6.641976607655957e-06   1.0830423679615998e-06   1.2833010982887306e-05
-6.641976607655957e-06   1.0830423679615998e-06   1.2833010982887306e-05
-6.641976607655957e-06   1.0830423679615998e-06   1.2833010982887306e-05
-2.6195652269753798e-06   1.0067490519117617e-06   6.1747680047164214e-06
-2.6195652269753798e-06   1.0067490519117617e-06   6.1747680047164214e-06
-2.6195652269753798e-06   1.0067490519117617e-06   6.1747680047164214e-06
-2.6195652269753798e-06   1.0067490519117617e-06   6.1747680047164214e-06
-4.5506788376909185e-06   1.1378184916014398e-06   9.314649025428859e-06
-4.5506788376909185e-06   1.1378184916014398e-06   9.314649025428859e-06
-4.5506788376909185e-06   1.1378184916014398e-06   9.314649025428859e-06
-4.5506788376909185e-06   1.1378184916014398e-06   9.314649025428859e-06
-2.619565226975389e-06   1.0830423679616436e-06   1.2878786972517285e-05
-2.619565226975389e-06   1.0830423679616436e-06   1.2878786972517285e-05
-2.619565226975389e-06   1.0830423679616436e-06   1.2878786972517285e-05
-2.619565226975389e-06   1.0830423679616436e-06   1.2878786972517285e-05
-6.641976607655957e-06   1.0067490519116533e-06   6.12899201508647e-06
-6.641976607655957e-06   1.0067490519116533e-06   6.12899201508647e-06
-6.641976607655957e-06   1.0067490519116533e-06   6.12899201508647e-06
-6.641976607655957e-06   1.0067490519116533e-06   6.12899201508647e-06
-6.82206795129136e-06   8.440460288667608e-07   1.2913851954271484e-05
-6.82206795129136e-06   8.440460288667608e-07   1.2913851954271484e-05
-6.82206795129136e-06   8.440460288667608e-07   1.2913851954271484e-05
-6.82206795129136e-06   8.440460288667608e-07   1.2913851954271484e-05
-2.8065206854878064e-06   7.613974976429299e-07   6.270862296666653e-06
-2.8065206854878064e-06   7.613974976429299e-07   6.270862296666653e-06
-2.8065206854878064e-06   7.613974976429299e-07   6.270862296666653e-06
-2.8065206854878064e-06   7.613974976429299e-07   6.270862296666653e-06
-4.705734333208112e-06   9.508698611947891e-07   9.322534958069342e-06
-4.705734333208112e-06   9.508698611947891e-07   9.322534958069342e-06
-4.705734333208112e-06   9.508698611947891e-07   9.322534958069342e-06
-4.705734333208112e-06   9.508698611947891e-07   9.322534958069342e-06
-2.806520685487822e-06   8.44046028866747e-07   1.2963441073005815e-05
-2.806520685487822e-06   8.44046028866747e-07   1.2963441073005815e-05
-2.806520685487822e-06   8.44046028866747e-07   1.2963441073005815e-05
-2.806520685487822e-06   8.44046028866747e-07   1.2963441073005815e-05
-6.82206795129136e-06   7.613974976429299e-07   6.221273177932363e-06
-6.82206795129136e-06   7.613974976429299e-07   6.221273177932363e-06
-6.82206795129136e-06   7.613974976429299e-07   6.221273177932363e-06
-6.82206795129136e-06   7.613974976429299e-07   6.221273177932363e-06
-6.999231203856426e-06   6.141724639697728e-07   1.3116668484400296e-05
-6.999231203856426e-06   6.141724639697728e-07   1.3116668484400296e-05
-6.999231203856426e-06   6.141724639697728e-07   1.3116668484400296e-05
-6.999231203856426e-06   6.141724639697728e-07   1.3116668484400296e-05
-2.9909225282737615e-06   5.268427360689051e-07   6.488551861836444e-06
-2.9909225282737615e-06   5.268427360689051e-07   6.488551861836444e-06
-2.9909225282737615e-06   5.268427360689051e-07   6.488551861836444e-06
-2.9909225282737615e-06   5.268427360689051e-07   6.488551861836444e-06
-4.87085621713291e-06   7.678550683047234e-07   9.477167277260136e-06
-4.87085621713291e-06   7.678550683047234e-07   9.477167277260136e-06
-4.87085621713291e-06   7.678550683047234e-07   9.477167277260136e-06
-4.87085621713291e-06   7.678550683047234e-07   9.477167277260136e-06
-6.467438616951845e-06   2.2818197208967714e-06   1.1419025736425449e-05
-6.467438616951845e-06   2.2818197208967714e-06   1.1419025736425449e-05
-6.467438616951845e-06   2.2818197208967714e-06   1.1419025736425449e-05
-6.467438616951845e-06   2.2818197208967714e-06   1.1419025736425449e-05
-1.043125594877908e-05   1.8717755462353824e-06   4.566637011916614e-06
-1.043125594877908e-05   1.8717755462353824e-06   4.566637011916614e-06
-1.043125594877908e-05   1.8717755462353824e-06   4.566637011916614e-06
-1.043125594877908e-05   1.8717755462353824e-06   4.566637011916614e-06
-1.0621980716505095e-05   2.046633759105322e-06   1.1211562612007775e-05
-1.0621980716505095e-05   2.046633759105322e-06   1.1211562612007775e-05
-1.0621980716505095e-05   2.046633759105322e-06   1.1211562612007775e-05
-1.0621980716505095e-05   2.046633759105322e-06   1.1211562612007775e-05
-6.64197660765594e-06   1.6236834772197749e-06   4.831992599723994e-06
-6.64197660765594e-06   1.6236834772197749e-06   4.831992599723994e-06
-6.64197660765594e-06   1.6236834772197749e-06   4.831992599723994e-06
-6.64197660765594e-06   1.6236834772197749e-06   4.831992599723994e-06
-8.51987148806531e-06   1.9223458622559487e-06   7.782619969385062e-06
-8.51987148806531e-06   1.9223458622559487e-06   7.782619969385062e-06
-8.51987148806531e-06   1.9223458622559487e-06   7.782619969385062e-06
-8.51987148806531e-06   1.9223458622559487e-06   7.782619969385062e-06
-6.641976607655957e-06   2.0466337591054156e-06   1.1465332781139125e-05
-6.641976607655957e-06   2.0466337591054156e-06   1.1465332781139125e-05
-6.641976607655957e-06   2.0466337591054156e-06   1.1465332781139125e-05
-6.641976607655957e-06   2.0466337591054156e-06   1.1465332781139125e-05
-1.0621980716505068e-05   1.6236834772198833e-06   4.5782224305926985e-06
-1.0621980716505068e-05   1.6236834772198833e-06   4.5782224305926985e-06
-1.0621980716505068e-05   1.6236834772198833e-06   4.5782224305926985e-06
-1.0621980716505068e-05   1.6236834772198833e-06   4.5782224305926985e-06
-1.0847275133803923e-05   1.8279102479422686e-06   1.1579690160932695e-05
-1.0847275133803923e-05   1.8279102479422686e-06   1.1579690160932695e-05
-1.0847275133803923e-05   1.8279102479422686e-06   1.1579690160932695e-05
-1.0847275133803923e-05   1.8279102479422686e-06   1.1579690160932695e-05
-6.8220679512913384e-06   1.39719378176059e-06   5.129441403120799e-06
-6.8220679512913384e-06   1.39719378176059e-06   5.129441403120799e-06
-6.8220679512913384e-06   1.39719378176059e-06   5.129441403120799e-06
-6.8220679512913384e-06   1.39719378176059e-06   5.129441403120799e-06
-8.641959728369151e-06   1.7473860912384839e-06   7.952478979230364e-06
-8.641959728369151e-06   1.7473860912384839e-06   7.952478979230364e-06
-8.641959728369151e-06   1.7473860912384839e-06   7.952478979230364e-06
-8.641959728369151e-06   1.7473860912384839e-06   7.952478979230364e-06
-6.82206795129136e-06   1.8279102479422823e-06   1.183812004064167e-05
-6.82206795129136e-06   1.8279102479422823e-06   1.183812004064167e-05
-6.82206795129136e-06   1.8279102479422823e-06   1.183812004064167e-05
-6.82206795129136e-06   1.8279102479422823e-06   1.183812004064167e-05
-1.0847275133803896e-05   1.3971937817604816e-06   4.87101152341177e-06
-1.0847275133803896e-05   1.3971937817604816e-06   4.87101152341177e-06
-1.0847275133803896e-05   1.3971937817604816e-06   4.87101152341177e-06
-1.0847275133803896e-05   1.3971937817604816e-06   4.87101152341177e-06
-1.1039877078433523e-05   1.5823142573071066e-06   1.1931505691937182e-05
-1.1039877078433523e-05   1.5823142573071066e-06   1.1931505691937182e-05
-1.1039877078433523e-05   1.5823142573071066e-06   1.1931505691937182e-05
-1.1039877078433523e-05   1.5823142573071066e-06   1.1931505691937182e-05
-6.999231203856406e-06   1.154167418777473e-06   5.453984004093177e-06
-6.999231203856406e-06   1.154167418777473e-06   5.453984004093177e-06
-6.999231203856406e-06   1.154167418777473e-06   5.453984004093177e-06
-6.999231203856406e-06   1.154167418777473e-06   5.453984004093177e-06
-8.854715620037881e-06   1.5711089208583513e-06   8.296293129813774e-06
-8.854715620037881e-06   1.5711089208583513e-06   8.296293129813774e-06
-8.854715620037881e-06   1.5711089208583513e-06   8.296293129813774e-06
-8.854715620037881e-06   1.5711089208583513e-06   8.296293129813774e-06
-1.043125594877908e-05   3.0092234035286314e-06   5.358224466439534e-06
-1.043125594877908e-05   3.0092234035286314e-06   5.358224466439534e-06
-1.043125594877908e-05   3.0092234035286314e-06   5.358224466439534e-06
-1.043125594877908e-05   3.0092234035286314e-06   5.358224466439534e-06
-1.403581799696866e-05   2.3181577688275844e-06   -1.0640183280304202e-06
-1.403581799696866e-05   2.3181577688275844e-06   -1.0640183280304202e-06
-1.403581799696866e-05   2.3181577688275844e-06   -1.0640183280304202e-06
-1.403581799696866e-05   2.3181577688275844e-06   -1.0640183280304202e-06
-1.4526050596681958e-05   2.9365926188187506e-06   6.6255571916669495e-06
-1.4526050596681958e-05   2.9365926188187506e-06   6.6255571916669495e-06
-1.4526050596681958e-05   2.9365926188187506e-06   6.6255571916669495e-06
-1.4526050596681958e-05   2.9365926188187506e-06   6.6255571916669495e-06
-1.062198071650506e-05   2.192517876176115e-06   5.652189036245078e-07
-1.062198071650506e-05   2.192517876176115e-06   5.652189036245078e-07
-1.062198071650506e-05   2.192517876176115e-06   5.652189036245078e-07
-1.062198071650506e-05   2.192517876176115e-06   5.652189036245078e-07
-1.1951250836937202e-05   2.5640118494380275e-06   2.5577727203880923e-06
-1.1951250836937202e-05   2.5640118494380275e-06   2.5577727203880923e-06
-1.1951250836937202e-05   2.5640118494380275e-06   2.5577727203880923e-06
-1.1951250836937202e-05   2.5640118494380275e-06   2.5577727203880923e-06
-1.0621980716505068e-05   2.9365926188187273e-06   7.072002037252531e-06
-1.0621980716505068e-05   2.9365926188187273e-06   7.072002037252531e-06
-1.0621980716505068e-05   2.9365926188187273e-06   7.072002037252531e-06
-1.0621980716505068e-05   2.9365926188187273e-06   7.072002037252531e-06
-1.4526050596681958e-05   2.1925178761760065e-06   1.1877405803888575e-07
-1.4526050596681958e-05   2.1925178761760065e-06   1.1877405803888575e-07
-1.4526050596681958e-05   2.1925178761760065e-06   1.1877405803888575e-07
-1.4526050596681958e-05   2.1925178761760065e-06   1.1877405803888575e-07
-1.4946812044449128e-05   2.8436221772933958e-06   7.841712583323262e-06
-1.4946812044449128e-05   2.8436221772933958e-06   7.841712583323262e-06
-1.4946812044449128e-05   2.8436221772933958e-06   7.841712583323262e-06
-1.4946812044449128e-05   2.8436221772933958e-06   7.841712583323262e-06
-1.0847275133803887e-05   2.0856389664025525e-06   1.4639409921157667e-06
-1.0847275133803887e-05   2.0856389664025525e-06   1.4639409921157667e-06
-1.0847275133803887e-05   2.0856389664025525e-06   1.4639409921157667e-06
-1.0847275133803887e-05   2.0856389664025525e-06   1.4639409921157667e-06
-1.2424818361012153e-05   2.5327050212681137e-06   3.824940071210474e-06
-1.2424818361012153e-05   2.5327050212681137e-06   3.824940071210474e-06
-1.2424818361012153e-05   2.5327050212681137e-06   3.824940071210474e-06
-1.2424818361012153e-05   2.5327050212681137e-06   3.824940071210474e-06
-1.0847275133803896e-05   2.8436221772934373e-06   8.296502509857811e-06
-1.0847275133803896e-05   2.8436221772934373e-06   8.296502509857811e-06
-1.0847275133803896e-05   2.8436221772934373e-06   8.296502509857811e-06
-1.0847275133803896e-05   2.8436221772934373e-06   8.296502509857811e-06
-1.4946812044449182e-05   2.085638966402661e-06   1.0091510655812987e-06
-1.4946812044449182e-05   2.085638966402661e-06   1.0091510655812987e-06
-1.4946812044449182e-05   2.085638966402661e-06   1.0091510655812987e-06
-1.4946812044449182e-05   2.085638966402661e-06   1.0091510655812987e-06
-1.5448928120014483e-05   2.528368383246881e-06   9.989829283291521e-06
-1.5448928120014483e-05   2.528368383246881e-06   9.989829283291521e-06
-1.5448928120014483e-05   2.528368383246881e-06   9.989829283291521e-06
-1.5448928120014483e-05   2.528368383246881e-06   9.989829283291521e-06
-1.1039877078433482e-05   1.7918393083194697e-06   3.0833283256130324e-06
-1.1039877078433482e-05   1.7918393083194697e-06   3.0833283256130324e-06
-1.1039877078433482e-05   1.7918393083194697e-06   3.0833283256130324e-06
-1.1039877078433482e-05   1.7918393083194697e-06   3.0833283256130324e-06
-1.2536816125869018e-05   2.3990856441308273e-06   5.213878936518354e-06
-1.2536816125869018e-05   2.3990856441308273e-06   5.213878936518354e-06
-1.2536816125869018e-05   2.3990856441308273e-06   5.213878936518354e-06
-1.2536816125869018e-05   2.3990856441308273e-06   5.213878936518354e-06
1.4271790539446092e-06   -1.2415076545591024e-08   6.463007053773048e-06
1.4271790539446092e-06   -1.2415076545591024e-08   6.463007053773048e-06
1.4271790539446092e-06   -1.2415076545591024e-08   6.463007053773048e-06
1.4271790539446092e-06   -1.2415076545591024e-08   6.463007053773048e-06
-1.2125412229233706e-06   6.623410470085202e-07   2.468326933125582e-06
-1.2125412229233706e-06   6.623410470085202e-07   2.468326933125582e-06
-1.2125412229233706e-06   6.623410470085202e-07   2.468326933125582e-06
-1.2125412229233706e-06   6.623410470085202e-07   2.468326933125582e-06
-1.3613150481944918e-06   -2.522503281090008e-07   6.350651612403214e-06
-1.3613150481944918e-06   -2.522503281090008e-07   6.350651612403214e-06
-1.3613150481944918e-06   -2.522503281090008e-07   6.350651612403214e-06
-1.3613150481944918e-06   -2.522503281090008e-07   6.350651612403214e-06
9.767678444653797e-07   4.3840834058981454e-07   2.0394515900842413e-06
9.767678444653797e-07   4.3840834058981454e-07   2.0394515900842413e-06
9.767678444653797e-07   4.3840834058981454e-07   2.0394515900842413e-06
9.767678444653797e-07   4.3840834058981454e-07   2.0394515900842413e-06
-1.0960838468467208e-07   1.6998328419707068e-07   4.0111336725032856e-06
-1.0960838468467208e-07   1.6998328419707068e-07   4.0111336725032856e-06
-1.0960838468467208e-07   1.6998328419707068e-07   4.0111336725032856e-06
-1.0960838468467208e-07   1.6998328419707068e-07   4.0111336725032856e-06
9.767678444653772e-07   -2.522503281089598e-07   5.936256411184012e-06
9.767678444653772e-07   -2.522503281089598e-07   5.936256411184012e-06
9.767678444653772e-07   -2.522503281089598e-07   5.936256411184012e-06
9.767678444653772e-07   -2.522503281089598e-07   5.936256411184012e-06
-1.3613150481944918e-06   4.3840834058981454e-07   2.453846791303498e-06
-1.3613150481944918e-06   4.3840834058981454e-07   2.453846791303498e-06
-1.3613150481944918e-06   4.3840834058981454e-07   2.453846791303498e-06
-1.3613150481944918e-06   4.3840834058981454e-07   2.453846791303498e-06
-1.5455820517235062e-06   -3.54225798394241e-07   6.169293398394923e-06
-1.5455820517235062e-06   -3.54225798394241e-07   6.169293398394923e-06
-1.5455820517235062e-06   -3.54225798394241e-07   6.169293398394923e-06
-1.5455820517235062e-06   -3.54225798394241e-07   6.169293398394923e-06
5.846613821371203e-07   3.1717131050967287e-07   2.216049409951459e-06
5.846613821371203e-07   3.1717131050967287e-07   2.216049409951459e-06
5.846613821371203e-07   3.1717131050967287e-07   2.216049409951459e-06
5.846613821371203e-07   3.1717131050967287e-07   2.216049409951459e-06
-3.505607031780861e-07   7.471942483808875e-08   3.92022401687976e-06
-3.505607031780861e-07   7.471942483808875e-08   3.92022401687976e-06
-3.505607031780861e-07   7.471942483808875e-08   3.92022401687976e-06
-3.505607031780861e-07   7.471942483808875e-08   3.92022401687976e-06
5.846613821371198e-07   -3.5422579839431085e-07   5.766455133052433e-06
5.846613821371198e-07   -3.5422579839431085e-07   5.766455133052433e-06
5.846613821371198e-07   -3.5422579839431085e-07   5.766455133052433e-06
5.846613821371198e-07   -3.5422579839431085e-07   5.766455133052433e-06
-1.5455820517235028e-06   3.1717131050967287e-07   2.61888767529386e-06
-1.5455820517235028e-06   3.1717131050967287e-07   2.61888767529386e-06
-1.5455820517235028e-06   3.1717131050967287e-07   2.61888767529386e-06
-1.5455820517235028e-06   3.1717131050967287e-07   2.61888767529386e-06
-1.7004034806390455e-06   -5.213796882895614e-07   6.082388333090755e-06
-1.7004034806390455e-06   -5.213796882895614e-07   6.082388333090755e-06
-1.7004034806390455e-06   -5.213796882895614e-07   6.082388333090755e-06
-1.7004034806390455e-06   -5.213796882895614e-07   6.082388333090755e-06
9.174076129677711e-08   6.199772495027716e-08   2.7454548152538807e-06
9.174076129677711e-08   6.199772495027716e-08   2.7454548152538807e-06
9.174076129677711e-08   6.199772495027716e-08   2.7454548152538807e-06
9.174076129677711e-08   6.199772495027716e-08   2.7454548152538807e-06
-6.172337659349084e-07   -9.628641410119702e-09   3.970054847122904e-06
-6.172337659349084e-07   -9.628641410119702e-09   3.970054847122904e-06
-6.172337659349084e-07   -9.628641410119702e-09   3.970054847122904e-06
-6.172337659349084e-07   -9.628641410119702e-09   3.970054847122904e-06
-1.2125412229233706e-06   6.613034742671903e-07   1.0253576615179972e-05
-1.2125412229233706e-06   6.613034742671903e-07   1.0253576615179972e-05
-1.2125412229233706e-06   6.613034742671903e-07   1.0253576615179972e-05
-1.2125412229233706e-06   6.613034742671903e-07   1.0253576615179972e-05
-3.418003580463454e-06   7.983017465910806e-07   6.660004982674179e-06
-3.418003580463454e-06   7.983017465910806e-07   6.660004982674179e-06
-3.418003580463454e-06   7.983017465910806e-07   6.660004982674179e-06
-3.418003580463454e-06   7.983017465910806e-07   6.660004982674179e-06
-3.531217481344969e-06   3.9219388745458626e-07   1.0221887560687146e-05
-3.531217481344969e-06   3.9219388745458626e-07   1.0221887560687146e-05
-3.531217481344969e-06   3.9219388745458626e-07   1.0221887560687146e-05
-3.531217481344969e-06   3.9219388745458626e-07   1.0221887560687146e-05
-1.3613150481944914e-06   5.493215829197149e-07   6.5111068881572565e-06
-1.3613150481944914e-06   5.493215829197149e-07   6.5111068881572565e-06
-1.3613150481944914e-06   5.493215829197149e-07   6.5111068881572565e-06
-1.3613150481944914e-06   5.493215829197149e-07   6.5111068881572565e-06
-2.3970467065747787e-06   5.702504533408224e-07   8.224768996538432e-06
-2.3970467065747787e-06   5.702504533408224e-07   8.224768996538432e-06
-2.3970467065747787e-06   5.702504533408224e-07   8.224768996538432e-06
-2.3970467065747787e-06   5.702504533408224e-07   8.224768996538432e-06
-1.3613150481944868e-06   3.921938874545561e-07   1.0127610943407972e-05
-1.3613150481944868e-06   3.921938874545561e-07   1.0127610943407972e-05
-1.3613150481944868e-06   3.921938874545561e-07   1.0127610943407972e-05
-1.3613150481944868e-06   3.921938874545561e-07   1.0127610943407972e-05
-3.531217481344969e-06   5.493215829197149e-07   6.605383505436333e-06
-3.531217481344969e-06   5.493215829197149e-07   6.605383505436333e-06
-3.531217481344969e-06   5.493215829197149e-07   6.605383505436333e-06
-3.531217481344969e-06   5.493215829197149e-07   6.605383505436333e-06
-3.6481368383691504e-06   1.6553683941764215e-07   1.0232774022848358e-05
-3.6481368383691504e-06   1.6553683941764215e-07   1.0232774022848358e-05
-3.6481368383691504e-06   1.6553683941764215e-07   1.0232774022848358e-05
-3.6481368383691504e-06   1.6553683941764215e-07   1.0232774022848358e-05
-1.545582051723503e-06   3.2131250280912444e-07   6.635050647070671e-06
-1.545582051723503e-06   3.2131250280912444e-07   6.635050647070671e-06
-1.545582051723503e-06   3.2131250280912444e-07   6.635050647070671e-06
-1.545582051723503e-06   3.2131250280912444e-07   6.635050647070671e-06
-2.5129627742067e-06   3.8938134887218446e-07   8.206510543571662e-06
-2.5129627742067e-06   3.8938134887218446e-07   8.206510543571662e-06
-2.5129627742067e-06   3.8938134887218446e-07   8.206510543571662e-06
-2.5129627742067e-06   3.8938134887218446e-07   8.206510543571662e-06
-1.5455820517235028e-06   1.6553683941757362e-07   1.013930862481336e-05
-1.5455820517235028e-06   1.6553683941757362e-07   1.013930862481336e-05
-1.5455820517235028e-06   1.6553683941757362e-07   1.013930862481336e-05
-1.5455820517235028e-06   1.6553683941757362e-07   1.013930862481336e-05
-3.6481368383691504e-06   3.2131250280912444e-07   6.728516045105608e-06
-3.6481368383691504e-06   3.2131250280912444e-07   6.728516045105608e-06
-3.6481368383691504e-06   3.2131250280912444e-07   6.728516045105608e-06
-3.6481368383691504e-06   3.2131250280912444e-07   6.728516045105608e-06
-3.763212526227551e-06   -6.436039473112568e-08   1.042233812054025e-05
-3.763212526227551e-06   -6.436039473112568e-08   1.042233812054025e-05
-3.763212526227551e-06   -6.436039473112568e-08   1.042233812054025e-05
-3.763212526227551e-06   -6.436039473112568e-08   1.042233812054025e-05
-1.7004034806390423e-06   7.622705776815343e-08   6.899970573059947e-06
-1.7004034806390423e-06   7.622705776815343e-08   6.899970573059947e-06
-1.7004034806390423e-06   7.622705776815343e-08   6.899970573059947e-06
-1.7004034806390423e-06   7.622705776815343e-08   6.899970573059947e-06
-2.62808537880005e-06   2.1335749607272235e-07   8.363828807012192e-06
-2.62808537880005e-06   2.1335749607272235e-07   8.363828807012192e-06
-2.62808537880005e-06   2.1335749607272235e-07   8.363828807012192e-06
-2.62808537880005e-06   2.1335749607272235e-07   8.363828807012192e-06
-3.418003580463454e-06   1.2534060888459434e-06   1.152549570120374e-05
-3.418003580463454e-06   1.2534060888459434e-06   1.152549570120374e-05
-3.418003580463454e-06   1.2534060888459434e-06   1.152549570120374e-05
-3.418003580463454e-06   1.2534060888459434e-06   1.152549570120374e-05
-5.605725788091097e-06   9.69370661102096e-07   7.70887076517805e-06
-5.605725788091097e-06   9.69370661102096e-07   7.70887076517805e-06
-5.605725788091097e-06   9.69370661102096e-07   7.70887076517805e-06
-5.605725788091097e-06   9.69370661102096e-07   7.70887076517805e-06
-5.7022143819485615e-06   1.0067490519117617e-06   1.1311578039379017e-05
-5.7022143819485615e-06   1.0067490519117617e-06   1.1311578039379017e-05
-5.7022143819485615e-06   1.0067490519117617e-06   1.1311578039379017e-05
-5.7022143819485615e-06   1.0067490519117617e-06   1.1311578039379017e-05
-3.531217481344966e-06   7.40086096941801e-07   7.853247644688265e-06
-3.531217481344966e-06   7.40086096941801e-07   7.853247644688265e-06
-3.531217481344966e-06   7.40086096941801e-07   7.853247644688265e-06
-3.531217481344966e-06   7.40086096941801e-07   7.853247644688265e-06
-4.567285896933315e-06   9.717487292118239e-07   9.44103075797354e-06
-4.567285896933315e-06   9.717487292118239e-07   9.44103075797354e-06
-4.567285896933315e-06   9.717487292118239e-07   9.44103075797354e-06
-4.567285896933315e-06   9.717487292118239e-07   9.44103075797354e-06
-3.531217481344969e-06   1.006749051911766e-06   1.147157581236094e-05
-3.531217481344969e-06   1.006749051911766e-06   1.147157581236094e-05
-3.531217481344969e-06   1.006749051911766e-06   1.147157581236094e-05
-3.531217481344969e-06   1.006749051911766e-06   1.147157581236094e-05
-5.7022143819485615e-06   7.40086096941801e-07   7.693249871706356e-06
-5.7022143819485615e-06   7.40086096941801e-07   7.693249871706356e-06
-5.7022143819485615e-06   7.40086096941801e-07   7.693249871706356e-06
-5.7022143819485615e-06   7.40086096941801e-07   7.693249871706356e-06
-5.8053485745550196e-06   7.613974976429299e-07   1.1419116682226198e-05
-5.8053485745550196e-06   7.613974976429299e-07   1.1419116682226198e-05
-5.8053485745550196e-06   7.613974976429299e-07   1.1419116682226198e-05
-5.8053485745550196e-06   7.613974976429299e-07   1.1419116682226198e-05
-3.6481368383691538e-06   5.072040422126104e-07   7.976279861841309e-06
-3.6481368383691538e-06   5.072040422126104e-07   7.976279861841309e-06
-3.6481368383691538e-06   5.072040422126104e-07   7.976279861841309e-06
-3.6481368383691538e-06   5.072040422126104e-07   7.976279861841309e-06
-4.649768714586227e-06   7.88928684765692e-07   9.476631536671214e-06
-4.649768714586227e-06   7.88928684765692e-07   9.476631536671214e-06
-4.649768714586227e-06   7.88928684765692e-07   9.476631536671214e-06
-4.649768714586227e-06   7.88928684765692e-07   9.476631536671214e-06
-3.6481368383691504e-06   7.613974976429918e-07   1.157163275548439e-05
-3.6481368383691504e-06   7.613974976429918e-07   1.157163275548439e-05
-3.6481368383691504e-06   7.613974976429918e-07   1.157163275548439e-05
-3.6481368383691504e-06   7.613974976429918e-07   1.157163275548439e-05
-5.8053485745550196e-06   5.072040422126104e-07   7.82376378858309e-06
-5.8053485745550196e-06   5.072040422126104e-07   7.82376378858309e-06
-5.8053485745550196e-06   5.072040422126104e-07   7.82376378858309e-06
-5.8053485745550196e-06   5.072040422126104e-07   7.82376378858309e-06
-5.906369349758806e-06   5.268427360689051e-07   1.1648473174327148e-05
-5.906369349758806e-06   5.268427360689051e-07   1.1648473174327148e-05
-5.906369349758806e-06   5.268427360689051e-07   1.1648473174327148e-05
-5.906369349758806e-06   5.268427360689051e-07   1.1648473174327148e-05
-3.763212526227556e-06   2.8715264646373946e-07   8.220359188871543e-06
-3.763212526227556e-06   2.8715264646373946e-07   8.220359188871543e-06
-3.763212526227556e-06   2.8715264646373946e-07   8.220359188871543e-06
-3.763212526227556e-06   2.8715264646373946e-07   8.220359188871543e-06
-4.741614071414322e-06   6.091565140869492e-07   9.65782611027553e-06
-4.741614071414322e-06   6.091565140869492e-07   9.65782611027553e-06
-4.741614071414322e-06   6.091565140869492e-07   9.65782611027553e-06
-4.741614071414322e-06   6.091565140869492e-07   9.65782611027553e-06
-5.605725788091097e-06   1.8717755462353503e-06   9.97833600959667e-06
-5.605725788091097e-06   1.8717755462353503e-06   9.97833600959667e-06
-5.605725788091097e-06   1.8717755462353503e-06   9.97833600959667e-06
-5.605725788091097e-06   1.8717755462353503e-06   9.97833600959667e-06
-7.762246041764434e-06   1.3183077226215168e-06   6.052054892639468e-06
-7.762246041764434e-06   1.3183077226215168e-06   6.052054892639468e-06
-7.762246041764434e-06   1.3183077226215168e-06   6.052054892639468e-06
-7.762246041764434e-06   1.3183077226215168e-06   6.052054892639468e-06
-7.868494533953027e-06   1.6236834772197749e-06   9.68672263545854e-06
-7.868494533953027e-06   1.6236834772197749e-06   9.68672263545854e-06
-7.868494533953027e-06   1.6236834772197749e-06   9.68672263545854e-06
-7.868494533953027e-06   1.6236834772197749e-06   9.68672263545854e-06
-5.702214381948559e-06   1.077256829623151e-06   6.4041117040091085e-06
-5.702214381948559e-06   1.077256829623151e-06   6.4041117040091085e-06
-5.702214381948559e-06   1.077256829623151e-06   6.4041117040091085e-06
-5.702214381948559e-06   1.077256829623151e-06   6.4041117040091085e-06
-6.720365370869868e-06   1.4582050606341888e-06   7.872461080271343e-06
-6.720365370869868e-06   1.4582050606341888e-06   7.872461080271343e-06
-6.720365370869868e-06   1.4582050606341888e-06   7.872461080271343e-06
-6.720365370869868e-06   1.4582050606341888e-06   7.872461080271343e-06
-5.7022143819485615e-06   1.623683477219865e-06   1.0014578624016515e-05
-5.7022143819485615e-06   1.623683477219865e-06   1.0014578624016515e-05
-5.7022143819485615e-06   1.623683477219865e-06   1.0014578624016515e-05
-5.7022143819485615e-06   1.623683477219865e-06   1.0014578624016515e-05
-7.868494533953e-06   1.077256829623151e-06   6.076255715451107e-06
-7.868494533953e-06   1.077256829623151e-06   6.076255715451107e-06
-7.868494533953e-06   1.077256829623151e-06   6.076255715451107e-06
-7.868494533953e-06   1.077256829623151e-06   6.076255715451107e-06
-8.013947687227513e-06   1.39719378176059e-06   1.0006221603169095e-05
-8.013947687227513e-06   1.39719378176059e-06   1.0006221603169095e-05
-8.013947687227513e-06   1.39719378176059e-06   1.0006221603169095e-05
-8.013947687227513e-06   1.39719378176059e-06   1.0006221603169095e-05
-5.805348574555022e-06   8.620882746845113e-07   6.646286386293847e-06
-5.805348574555022e-06   8.620882746845113e-07   6.646286386293847e-06
-5.805348574555022e-06   8.620882746845113e-07   6.646286386293847e-06
-5.805348574555022e-06   8.620882746845113e-07   6.646286386293847e-06
-6.778016429058975e-06   1.2810727634254967e-06   8.016008783889183e-06
-6.778016429058975e-06   1.2810727634254967e-06   8.016008783889183e-06
-6.778016429058975e-06   1.2810727634254967e-06   8.016008783889183e-06
-6.778016429058975e-06   1.2810727634254967e-06   8.016008783889183e-06
-5.8053485745550196e-06   1.3971937817604718e-06   1.032728490741458e-05
-5.8053485745550196e-06   1.3971937817604718e-06   1.032728490741458e-05
-5.8053485745550196e-06   1.3971937817604718e-06   1.032728490741458e-05
-5.8053485745550196e-06   1.3971937817604718e-06   1.032728490741458e-05
-8.013947687227486e-06   8.620882746845113e-07   6.325223082048254e-06
-8.013947687227486e-06   8.620882746845113e-07   6.325223082048254e-06
-8.013947687227486e-06   8.620882746845113e-07   6.325223082048254e-06
-8.013947687227486e-06   8.620882746845113e-07   6.325223082048254e-06
-8.130233090122987e-06   1.154167418777473e-06   1.0359077157729248e-05
-8.130233090122987e-06   1.154167418777473e-06   1.0359077157729248e-05
-8.130233090122987e-06   1.154167418777473e-06   1.0359077157729248e-05
-8.130233090122987e-06   1.154167418777473e-06   1.0359077157729248e-05
-5.906369349758793e-06   6.421240927855518e-07   6.959863586050773e-06
-5.906369349758793e-06   6.421240927855518e-07   6.959863586050773e-06
-5.906369349758793e-06   6.421240927855518e-07   6.959863586050773e-06
-5.906369349758793e-06   6.421240927855518e-07   6.959863586050773e-06
-6.899253283546718e-06   1.1117920622192353e-06   8.332869360703788e-06
-6.899253283546718e-06   1.1117920622192353e-06   8.332869360703788e-06
-6.899253283546718e-06   1.1117920622192353e-06   8.332869360703788e-06
-6.899253283546718e-06   1.1117920622192353e-06   8.332869360703788e-06
-7.762246041764434e-06   2.3181577688275946e-06   4.43023935630196e-06
-7.762246041764434e-06   2.3181577688275946e-06   4.43023935630196e-06
-7.762246041764434e-06   2.3181577688275946e-06   4.43023935630196e-06
-7.762246041764434e-06   2.3181577688275946e-06   4.43023935630196e-06
-9.490937101266803e-06   1.5711022808633196e-06   1.100854297686081e-06
-9.490937101266803e-06   1.5711022808633196e-06   1.100854297686081e-06
-9.490937101266803e-06   1.5711022808633196e-06   1.100854297686081e-06
-9.490937101266803e-06   1.5711022808633196e-06   1.100854297686081e-06
-9.889516332367527e-06   2.1925178761760065e-06   5.204751053150742e-06
-9.889516332367527e-06   2.1925178761760065e-06   5.204751053150742e-06
-9.889516332367527e-06   2.1925178761760065e-06   5.204751053150742e-06
-9.889516332367527e-06   2.1925178761760065e-06   5.204751053150742e-06
-7.868494533953022e-06   1.41090445061003e-06   2.3053494444660926e-06
-7.868494533953022e-06   1.41090445061003e-06   2.3053494444660926e-06
-7.868494533953022e-06   1.41090445061003e-06   2.3053494444660926e-06
-7.868494533953022e-06   1.41090445061003e-06   2.3053494444660926e-06
-8.448232667266354e-06   1.851740570432323e-06   3.007077994761603e-06
-8.448232667266354e-06   1.851740570432323e-06   3.007077994761603e-06
-8.448232667266354e-06   1.851740570432323e-06   3.007077994761603e-06
-8.448232667266354e-06   1.851740570432323e-06   3.007077994761603e-06
-7.868494533953e-06   2.192517876176002e-06   5.673719108490241e-06
-7.868494533953e-06   2.192517876176002e-06   5.673719108490241e-06
-7.868494533953e-06   2.192517876176002e-06   5.673719108490241e-06
-7.868494533953e-06   2.192517876176002e-06   5.673719108490241e-06
-9.889516332367581e-06   1.41090445061003e-06   1.8363813891264883e-06
-9.889516332367581e-06   1.41090445061003e-06   1.8363813891264883e-06
-9.889516332367581e-06   1.41090445061003e-06   1.8363813891264883e-06
-9.889516332367581e-06   1.41090445061003e-06   1.8363813891264883e-06
-1.0230673014084934e-05   2.0856389664025525e-06   6.1279067061642285e-06
-1.0230673014084934e-05   2.0856389664025525e-06   6.1279067061642285e-06
-1.0230673014084934e-05   2.0856389664025525e-06   6.1279067061642285e-06
-1.0230673014084934e-05   2.0856389664025525e-06   6.1279067061642285e-06
-8.013947687227517e-06   1.3002316902211851e-06   2.904608860444021e-06
-8.013947687227517e-06   1.3002316902211851e-06   2.904608860444021e-06
-8.013947687227517e-06   1.3002316902211851e-06   2.904608860444021e-06
-8.013947687227517e-06   1.3002316902211851e-06   2.904608860444021e-06
-8.787739269788197e-06   1.7902222409322491e-06   3.900267167618744e-06
-8.787739269788197e-06   1.7902222409322491e-06   3.900267167618744e-06
-8.787739269788197e-06   1.7902222409322491e-06   3.900267167618744e-06
-8.787739269788197e-06   1.7902222409322491e-06   3.900267167618744e-06
-8.013947687227513e-06   2.0856389664026304e-06   6.599151071873038e-06
-8.013947687227513e-06   2.0856389664026304e-06   6.599151071873038e-06
-8.013947687227513e-06   2.0856389664026304e-06   6.599151071873038e-06
-8.013947687227513e-06   2.0856389664026304e-06   6.599151071873038e-06
-1.0230673014084962e-05   1.3002316902212393e-06   2.4333644947351624e-06
-1.0230673014084962e-05   1.3002316902212393e-06   2.4333644947351624e-06
-1.0230673014084962e-05   1.3002316902212393e-06   2.4333644947351624e-06
-1.0230673014084962e-05   1.3002316902212393e-06   2.4333644947351624e-06
-1.066278094010169e-05   1.7918393083194697e-06   7.795930443000969e-06
-1.066278094010169e-05   1.7918393083194697e-06   7.795930443000969e-06
-1.066278094010169e-05   1.7918393083194697e-06   7.795930443000969e-06
-1.066278094010169e-05   1.7918393083194697e-06   7.795930443000969e-06
-8.130233090122975e-06   1.0428740760428626e-06   4.0243964990689706e-06
-8.130233090122975e-06   1.0428740760428626e-06   4.0243964990689706e-06
-8.130233090122975e-06   1.0428740760428626e-06   4.0243964990689706e-06
-8.130233090122975e-06   1.0428740760428626e-06   4.0243964990689706e-06
-8.881835878092278e-06   1.6679207367109507e-06   4.902039815950004e-06
-8.881835878092278e-06   1.6679207367109507e-06   4.902039815950004e-06
-8.881835878092278e-06   1.6679207367109507e-06   4.902039815950004e-06
-8.881835878092278e-06   1.6679207367109507e-06   4.902039815950004e-06
-3.566019270857946e-06   6.623410470085148e-07   4.674565023006386e-06
-3.566019270857946e-06   6.623410470085148e-07   4.674565023006386e-06
-3.566019270857946e-06   6.623410470085148e-07   4.674565023006386e-06
-3.566019270857946e-06   6.623410470085148e-07   4.674565023006386e-06
-4.039152333610373e-06   1.276388306968427e-06   4.254438274394943e-06
-4.039152333610373e-06   1.276388306968427e-06   4.254438274394943e-06
-4.039152333610373e-06   1.276388306968427e-06   4.254438274394943e-06
-4.039152333610373e-06   1.276388306968427e-06   4.254438274394943e-06
-4.150041735527417e-06   4.3840834058981454e-07   4.983349041473177e-06
-4.150041735527417e-06   4.3840834058981454e-07   4.983349041473177e-06
-4.150041735527417e-06   4.3840834058981454e-07   4.983349041473177e-06
-4.150041735527417e-06   4.3840834058981454e-07   4.983349041473177e-06
-4.018896167286867e-06   9.921411030584435e-07   4.4325334369244756e-06
-4.018896167286867e-06   9.921411030584435e-07   4.4325334369244756e-06
-4.018896167286867e-06   9.921411030584435e-07   4.4325334369244756e-06
-4.018896167286867e-06   9.921411030584435e-07   4.4325334369244756e-06
-3.849752198648357e-06   7.846994187872482e-07   4.275091833089636e-06
-3.849752198648357e-06   7.846994187872482e-07   4.275091833089636e-06
-3.849752198648357e-06   7.846994187872482e-07   4.275091833089636e-06
-3.849752198648357e-06   7.846994187872482e-07   4.275091833089636e-06
-4.018896167286871e-06   4.3840834058981576e-07   4.6511093839920374e-06
-4.018896167286871e-06   4.3840834058981576e-07   4.6511093839920374e-06
-4.018896167286871e-06   4.3840834058981576e-07   4.6511093839920374e-06
-4.018896167286871e-06   4.3840834058981576e-07   4.6511093839920374e-06
-4.150041735527417e-06   9.921411030584435e-07   4.764773094405615e-06
-4.150041735527417e-06   9.921411030584435e-07   4.764773094405615e-06
-4.150041735527417e-06   9.921411030584435e-07   4.764773094405615e-06
-4.150041735527417e-06   9.921411030584435e-07   4.764773094405615e-06
-4.293695782051109e-06   3.1717131050967287e-07   5.118881421863883e-06
-4.293695782051109e-06   3.1717131050967287e-07   5.118881421863883e-06
-4.293695782051109e-06   3.1717131050967287e-07   5.118881421863883e-06
-4.293695782051109e-06   3.1717131050967287e-07   5.118881421863883e-06
-4.460979658048555e-06   7.976399448091391e-07   5.109406701279941e-06
-4.460979658048555e-06   7.976399448091391e-07   5.109406701279941e-06
-4.460979658048555e-06   7.976399448091391e-07   5.109406701279941e-06
-4.460979658048555e-06   7.976399448091391e-07   5.109406701279941e-06
-4.118529844818397e-06   6.62693940858025e-07   4.619624614933725e-06
-4.118529844818397e-06   6.62693940858025e-07   4.619624614933725e-06
-4.118529844818397e-06   6.62693940858025e-07   4.619624614933725e-06
-4.118529844818397e-06   6.62693940858025e-07   4.619624614933725e-06
-4.460979658048556e-06   3.1717131050966853e-07   4.830600241284078e-06
-4.460979658048556e-06   3.1717131050966853e-07   4.830600241284078e-06
-4.460979658048556e-06   3.1717131050966853e-07   4.830600241284078e-06
-4.460979658048556e-06   3.1717131050966853e-07   4.830600241284078e-06
-4.293695782051109e-06   7.976399448091391e-07   5.3976878818596575e-06
-4.293695782051109e-06   7.976399448091391e-07   5.3976878818596575e-06
-4.293695782051109e-06   7.976399448091391e-07   5.3976878818596575e-06
-4.293695782051109e-06   7.976399448091391e-07   5.3976878818596575e-06
-4.387669711626327e-06   6.199772495027716e-08   5.587290600154413e-06
-4.387669711626327e-06   6.199772495027716e-08   5.587290600154413e-06
-4.387669711626327e-06   6.199772495027716e-08   5.587290600154413e-06
-4.387669711626327e-06   6.199772495027716e-08   5.587290600154413e-06
-4.932700194764548e-06   3.203520887173363e-07   6.340662120457837e-06
-4.932700194764548e-06   3.203520887173363e-07   6.340662120457837e-06
-4.932700194764548e-06   3.203520887173363e-07   6.340662120457837e-06
-4.932700194764548e-06   3.203520887173363e-07   6.340662120457837e-06
-4.314637805558982e-06   5.154740410145899e-07   5.193484967070006e-06
-4.314637805558982e-06   5.154740410145899e-07   5.193484967070006e-06
-4.314637805558982e-06   5.154740410145899e-07   5.193484967070006e-06
-4.314637805558982e-06   5.154740410145899e-07   5.193484967070006e-06
-4.039152333610373e-06   7.983017465910785e-07   9.152472465136523e-06
-4.039152333610373e-06   7.983017465910785e-07   9.152472465136523e-06
-4.039152333610373e-06   7.983017465910785e-07   9.152472465136523e-06
-4.039152333610373e-06   7.983017465910785e-07   9.152472465136523e-06
-4.17951639639454e-06   3.316721858494156e-07   8.638554624051242e-06
-4.17951639639454e-06   3.316721858494156e-07   8.638554624051242e-06
-4.17951639639454e-06   3.316721858494156e-07   8.638554624051242e-06
-4.17951639639454e-06   3.316721858494156e-07   8.638554624051242e-06
-4.217560747389857e-06   5.493215829197149e-07   8.804082803049687e-06
-4.217560747389857e-06   5.493215829197149e-07   8.804082803049687e-06
-4.217560747389857e-06   5.493215829197149e-07   8.804082803049687e-06
-4.217560747389857e-06   5.493215829197149e-07   8.804082803049687e-06
-4.150041735527417e-06   1.5511102412424848e-07   8.928077451889588e-06
-4.150041735527417e-06   1.5511102412424848e-07   8.928077451889588e-06
-4.150041735527417e-06   1.5511102412424848e-07   8.928077451889588e-06
-4.150041735527417e-06   1.5511102412424848e-07   8.928077451889588e-06
-4.13574393274593e-06   4.040074803658461e-07   8.754909906842172e-06
-4.13574393274593e-06   4.040074803658461e-07   8.754909906842172e-06
-4.13574393274593e-06   4.040074803658461e-07   8.754909906842172e-06
-4.13574393274593e-06   4.040074803658461e-07   8.754909906842172e-06
-4.150041735527421e-06   5.49321582919706e-07   9.040609138326946e-06
-4.150041735527421e-06   5.49321582919706e-07   9.040609138326946e-06
-4.150041735527421e-06   5.49321582919706e-07   9.040609138326946e-06
-4.150041735527421e-06   5.49321582919706e-07   9.040609138326946e-06
-4.217560747389857e-06   1.5511102412424848e-07   8.691551116612323e-06
-4.217560747389857e-06   1.5511102412424848e-07   8.691551116612323e-06
-4.217560747389857e-06   1.5511102412424848e-07   8.691551116612323e-06
-4.217560747389857e-06   1.5511102412424848e-07   8.691551116612323e-06
-4.263964928638344e-06   3.2131250280917865e-07   8.91461531561102e-06
-4.263964928638344e-06   3.2131250280917865e-07   8.91461531561102e-06
-4.263964928638344e-06   3.2131250280917865e-07   8.91461531561102e-06
-4.263964928638344e-06   3.2131250280917865e-07   8.91461531561102e-06
-4.2936957820511085e-06   -4.606929390700348e-08   9.184595815995322e-06
-4.2936957820511085e-06   -4.606929390700348e-08   9.184595815995322e-06
-4.2936957820511085e-06   -4.606929390700348e-08   9.184595815995322e-06
-4.2936957820511085e-06   -4.606929390700348e-08   9.184595815995322e-06
-4.181566339755343e-06   2.5966387858026825e-07   8.81427350867678e-06
-4.181566339755343e-06   2.5966387858026825e-07   8.81427350867678e-06
-4.181566339755343e-06   2.5966387858026825e-07   8.81427350867678e-06
-4.181566339755343e-06   2.5966387858026825e-07   8.81427350867678e-06
-4.293695782051109e-06   3.213125028091603e-07   9.135044393640578e-06
-4.293695782051109e-06   3.213125028091603e-07   9.135044393640578e-06
-4.293695782051109e-06   3.213125028091603e-07   9.135044393640578e-06
-4.293695782051109e-06   3.213125028091603e-07   9.135044393640578e-06
-4.263964928638338e-06   -4.606929390700348e-08   8.964166737965615e-06
-4.263964928638338e-06   -4.606929390700348e-08   8.964166737965615e-06
-4.263964928638338e-06   -4.606929390700348e-08   8.964166737965615e-06
-4.263964928638338e-06   -4.606929390700348e-08   8.964166737965615e-06
-4.299860738707211e-06   7.622705776815343e-08   9.161093752245322e-06
-4.299860738707211e-06   7.622705776815343e-08   9.161093752245322e-06
-4.299860738707211e-06   7.622705776815343e-08   9.161093752245322e-06
-4.299860738707211e-06   7.622705776815343e-08   9.161093752245322e-06
-4.387669711626315e-06   -3.082498718506117e-07   9.538128198214986e-06
-4.387669711626315e-06   -3.082498718506117e-07   9.538128198214986e-06
-4.387669711626315e-06   -3.082498718506117e-07   9.538128198214986e-06
-4.387669711626315e-06   -3.082498718506117e-07   9.538128198214986e-06
-4.250593479675116e-06   9.218652161411102e-08   9.069405975550497e-06
-4.250593479675116e-06   9.218652161411102e-08   9.069405975550497e-06
-4.250593479675116e-06   9.218652161411102e-08   9.069405975550497e-06
-4.250593479675116e-06   9.218652161411102e-08   9.069405975550497e-06
-4.179516396394546e-06   9.693706611020683e-07   1.0091781767841755e-05
-4.179516396394546e-06   9.693706611020683e-07   1.0091781767841755e-05
-4.179516396394546e-06   9.693706611020683e-07   1.0091781767841755e-05
-4.179516396394546e-06   9.693706611020683e-07   1.0091781767841755e-05
-4.569798764279305e-06   9.412003198989776e-08   8.916160777233196e-06
-4.569798764279305e-06   9.412003198989776e-08   8.916160777233196e-06
-4.569798764279305e-06   9.412003198989776e-08   8.916160777233196e-06
-4.569798764279305e-06   9.412003198989776e-08   8.916160777233196e-06
-4.586296493579308e-06   7.40086096941801e-07   9.576202596525403e-06
-4.586296493579308e-06   7.40086096941801e-07   9.576202596525403e-06
-4.586296493579308e-06   7.40086096941801e-07   9.576202596525403e-06
-4.586296493579308e-06   7.40086096941801e-07   9.576202596525403e-06
-4.21756074738986e-06   -5.282114601853731e-08   9.437387365319276e-06
-4.21756074738986e-06   -5.282114601853731e-08   9.437387365319276e-06
-4.21756074738986e-06   -5.282114601853731e-08   9.437387365319276e-06
-4.21756074738986e-06   -5.282114601853731e-08   9.437387365319276e-06
-4.381720707202206e-06   4.2178535352300605e-07   9.426223398614861e-06
-4.381720707202206e-06   4.2178535352300605e-07   9.426223398614861e-06
-4.381720707202206e-06   4.2178535352300605e-07   9.426223398614861e-06
-4.381720707202206e-06   4.2178535352300605e-07   9.426223398614861e-06
-4.217560747389857e-06   7.400860969418197e-07   1.0051946942301687e-05
-4.217560747389857e-06   7.400860969418197e-07   1.0051946942301687e-05
-4.217560747389857e-06   7.400860969418197e-07   1.0051946942301687e-05
-4.217560747389857e-06   7.400860969418197e-07   1.0051946942301687e-05
-4.586296493579295e-06   -5.282114601859152e-08   8.961643019543005e-06
-4.586296493579295e-06   -5.282114601859152e-08   8.961643019543005e-06
-4.586296493579295e-06   -5.282114601859152e-08   8.961643019543005e-06
-4.586296493579295e-06   -5.282114601859152e-08   8.961643019543005e-06
-4.612001890613482e-06   5.072040422126104e-07   9.72088928043142e-06
-4.612001890613482e-06   5.072040422126104e-07   9.72088928043142e-06
-4.612001890613482e-06   5.072040422126104e-07   9.72088928043142e-06
-4.612001890613482e-06   5.072040422126104e-07   9.72088928043142e-06
-4.26396492863834e-06   -2.286123776461626e-07   9.582317529054744e-06
-4.26396492863834e-06   -2.286123776461626e-07   9.582317529054744e-06
-4.26396492863834e-06   -2.286123776461626e-07   9.582317529054744e-06
-4.26396492863834e-06   -2.286123776461626e-07   9.582317529054744e-06
-4.389374423429053e-06   2.771889747613739e-07   9.48785254226145e-06
-4.389374423429053e-06   2.771889747613739e-07   9.48785254226145e-06
-4.389374423429053e-06   2.771889747613739e-07   9.48785254226145e-06
-4.389374423429053e-06   2.771889747613739e-07   9.48785254226145e-06
-4.263964928638338e-06   5.072040422125601e-07   1.0162379132346532e-05
-4.263964928638338e-06   5.072040422125601e-07   1.0162379132346532e-05
-4.263964928638338e-06   5.072040422125601e-07   1.0162379132346532e-05
-4.263964928638338e-06   5.072040422125601e-07   1.0162379132346532e-05
-4.612001890613482e-06   -2.286123776461626e-07   9.140827677139537e-06
-4.612001890613482e-06   -2.286123776461626e-07   9.140827677139537e-06
-4.612001890613482e-06   -2.286123776461626e-07   9.140827677139537e-06
-4.612001890613482e-06   -2.286123776461626e-07   9.140827677139537e-06
-4.630592067948476e-06   2.8715264646373946e-07   9.982586279589452e-06
-4.630592067948476e-06   2.8715264646373946e-07   9.982586279589452e-06
-4.630592067948476e-06   2.8715264646373946e-07   9.982586279589452e-06
-4.630592067948476e-06   2.8715264646373946e-07   9.982586279589452e-06
-4.299860738707211e-06   -4.037533818161362e-07   9.84591101448855e-06
-4.299860738707211e-06   -4.037533818161362e-07   9.84591101448855e-06
-4.299860738707211e-06   -4.037533818161362e-07   9.84591101448855e-06
-4.299860738707211e-06   -4.037533818161362e-07   9.84591101448855e-06
-4.4046120193164284e-06   1.2883296988177315e-07   9.700944671151381e-06
-4.4046120193164284e-06   1.2883296988177315e-07   9.700944671151381e-06
-4.4046120193164284e-06   1.2883296988177315e-07   9.700944671151381e-06
-4.4046120193164284e-06   1.2883296988177315e-07   9.700944671151381e-06
-4.569798764279305e-06   1.318307722621521e-06   8.24189621200419e-06
-4.569798764279305e-06   1.318307722621521e-06   8.24189621200419e-06
-4.569798764279305e-06   1.318307722621521e-06   8.24189621200419e-06
-4.569798764279305e-06   1.318307722621521e-06   8.24189621200419e-06
-5.103527694150212e-06   4.366797366558853e-07   6.8233712039732786e-06
-5.103527694150212e-06   4.366797366558853e-07   6.8233712039732786e-06
-5.103527694150212e-06   4.366797366558853e-07   6.8233712039732786e-06
-5.103527694150212e-06   4.366797366558853e-07   6.8233712039732786e-06
-5.117484807415552e-06   1.077256829623151e-06   7.786112388774634e-06
-5.117484807415552e-06   1.077256829623151e-06   7.786112388774634e-06
-5.117484807415552e-06   1.077256829623151e-06   7.786112388774634e-06
-5.117484807415552e-06   1.077256829623151e-06   7.786112388774634e-06
-4.586296493579302e-06   2.4233676286717406e-07   7.401750572434479e-06
-4.586296493579302e-06   2.4233676286717406e-07   7.401750572434479e-06
-4.586296493579302e-06   2.4233676286717406e-07   7.401750572434479e-06
-4.586296493579302e-06   2.4233676286717406e-07   7.401750572434479e-06
-4.83177694486078e-06   7.85004531801475e-07   7.485283996543052e-06
-4.83177694486078e-06   7.85004531801475e-07   7.485283996543052e-06
-4.83177694486078e-06   7.85004531801475e-07   7.485283996543052e-06
-4.83177694486078e-06   7.85004531801475e-07   7.485283996543052e-06
-4.586296493579308e-06   1.0772568296231766e-06   8.28706442882821e-06
-4.586296493579308e-06   1.0772568296231766e-06   8.28706442882821e-06
-4.586296493579308e-06   1.0772568296231766e-06   8.28706442882821e-06
-4.586296493579308e-06   1.0772568296231766e-06   8.28706442882821e-06
-5.117484807415552e-06   2.4233676286717406e-07   6.900798532380918e-06
-5.117484807415552e-06   2.4233676286717406e-07   6.900798532380918e-06
-5.117484807415552e-06   2.4233676286717406e-07   6.900798532380918e-06
-5.117484807415552e-06   2.4233676286717406e-07   6.900798532380918e-06
-5.177498847959449e-06   8.620882746845113e-07   8.071462286320943e-06
-5.177498847959449e-06   8.620882746845113e-07   8.071462286320943e-06
-5.177498847959449e-06   8.620882746845113e-07   8.071462286320943e-06
-5.177498847959449e-06   8.620882746845113e-07   8.071462286320943e-06
-4.612001890613485e-06   7.550562164903001e-08   7.600916949232305e-06
-4.612001890613485e-06   7.550562164903001e-08   7.600916949232305e-06
-4.612001890613485e-06   7.550562164903001e-08   7.600916949232305e-06
-4.612001890613485e-06   7.550562164903001e-08   7.600916949232305e-06
-4.822992545574337e-06   6.263787523005091e-07   7.62204416244287e-06
-4.822992545574337e-06   6.263787523005091e-07   7.62204416244287e-06
-4.822992545574337e-06   6.263787523005091e-07   7.62204416244287e-06
-4.822992545574337e-06   6.263787523005091e-07   7.62204416244287e-06
-4.612001890613482e-06   8.620882746845271e-07   8.543411878142096e-06
-4.612001890613482e-06   8.620882746845271e-07   8.543411878142096e-06
-4.612001890613482e-06   8.620882746845271e-07   8.543411878142096e-06
-4.612001890613482e-06   8.620882746845271e-07   8.543411878142096e-06
-5.177498847959449e-06   7.55056216489758e-08   7.1289673574110125e-06
-5.177498847959449e-06   7.55056216489758e-08   7.1289673574110125e-06
-5.177498847959449e-06   7.55056216489758e-08   7.1289673574110125e-06
-5.177498847959449e-06   7.55056216489758e-08   7.1289673574110125e-06
-5.214801567694863e-06   6.42124092785606e-07   8.42486304146082e-06
-5.214801567694863e-06   6.42124092785606e-07   8.42486304146082e-06
-5.214801567694863e-06   6.42124092785606e-07   8.42486304146082e-06
-5.214801567694863e-06   6.42124092785606e-07   8.42486304146082e-06
-4.630592067948467e-06   -9.294538899938315e-08   7.892222230954435e-06
-4.630592067948467e-06   -9.294538899938315e-08   7.892222230954435e-06
-4.630592067948467e-06   -9.294538899938315e-08   7.892222230954435e-06
-4.630592067948467e-06   -9.294538899938315e-08   7.892222230954435e-06
-4.852496494207731e-06   4.841342783155488e-07   7.915815140997068e-06
-4.852496494207731e-06   4.841342783155488e-07   7.915815140997068e-06
-4.852496494207731e-06   4.841342783155488e-07   7.915815140997068e-06
-4.852496494207731e-06   4.841342783155488e-07   7.915815140997068e-06
-5.103527694150212e-06   1.571102280863334e-06   3.209952118250021e-06
-5.103527694150212e-06   1.571102280863334e-06   3.209952118250021e-06
-5.103527694150212e-06   1.571102280863334e-06   3.209952118250021e-06
-5.103527694150212e-06   1.571102280863334e-06   3.209952118250021e-06
-5.1192424398793595e-06   7.290827219833831e-07   2.678549140040139e-06
-5.1192424398793595e-06   7.290827219833831e-07   2.678549140040139e-06
-5.1192424398793595e-06   7.290827219833831e-07   2.678549140040139e-06
-5.1192424398793595e-06   7.290827219833831e-07   2.678549140040139e-06
-5.38287493194193e-06   1.4109044506099757e-06   3.5228805501345416e-06
-5.38287493194193e-06   1.4109044506099757e-06   3.5228805501345416e-06
-5.38287493194193e-06   1.4109044506099757e-06   3.5228805501345416e-06
-5.38287493194193e-06   1.4109044506099757e-06   3.5228805501345416e-06
-5.117484807415529e-06   5.903618378515305e-07   3.5728892435789176e-06
-5.117484807415529e-06   5.903618378515305e-07   3.5728892435789176e-06
-5.117484807415529e-06   5.903618378515305e-07   3.5728892435789176e-06
-5.117484807415529e-06   5.903618378515305e-07   3.5728892435789176e-06
-5.011718162702503e-06   1.108768308019409e-06   3.0855676202898026e-06
-5.011718162702503e-06   1.108768308019409e-06   3.0855676202898026e-06
-5.011718162702503e-06   1.108768308019409e-06   3.0855676202898026e-06
-5.011718162702503e-06   1.108768308019409e-06   3.0855676202898026e-06
-5.117484807415525e-06   1.4109044506100003e-06   4.015206117789511e-06
-5.117484807415525e-06   1.4109044506100003e-06   4.015206117789511e-06
-5.117484807415525e-06   1.4109044506100003e-06   4.015206117789511e-06
-5.117484807415525e-06   1.4109044506100003e-06   4.015206117789511e-06
-5.382874931941903e-06   5.903618378515305e-07   3.0805636759238125e-06
-5.382874931941903e-06   5.903618378515305e-07   3.0805636759238125e-06
-5.382874931941903e-06   5.903618378515305e-07   3.0805636759238125e-06
-5.382874931941903e-06   5.903618378515305e-07   3.0805636759238125e-06
-5.6137672533042e-06   1.3002316902211851e-06   4.1706813000489925e-06
-5.6137672533042e-06   1.3002316902211851e-06   4.1706813000489925e-06
-5.6137672533042e-06   1.3002316902211851e-06   4.1706813000489925e-06
-5.6137672533042e-06   1.3002316902211851e-06   4.1706813000489925e-06
-5.177498847959447e-06   4.999537491083865e-07   3.923734055808728e-06
-5.177498847959447e-06   4.999537491083865e-07   3.923734055808728e-06
-5.177498847959447e-06   4.999537491083865e-07   3.923734055808728e-06
-5.177498847959447e-06   4.999537491083865e-07   3.923734055808728e-06
-5.201633290350541e-06   1.0295953333838205e-06   3.646173175895443e-06
-5.201633290350541e-06   1.0295953333838205e-06   3.646173175895443e-06
-5.201633290350541e-06   1.0295953333838205e-06   3.646173175895443e-06
-5.201633290350541e-06   1.0295953333838205e-06   3.646173175895443e-06
-5.177498847959449e-06   1.3002316902212207e-06   4.650848064716574e-06
-5.177498847959449e-06   1.3002316902212207e-06   4.650848064716574e-06
-5.177498847959449e-06   1.3002316902212207e-06   4.650848064716574e-06
-5.177498847959449e-06   1.3002316902212207e-06   4.650848064716574e-06
-5.613767253304227e-06   4.999537491083865e-07   3.443567291140984e-06
-5.613767253304227e-06   4.999537491083865e-07   3.443567291140984e-06
-5.613767253304227e-06   4.999537491083865e-07   3.443567291140984e-06
-5.613767253304227e-06   4.999537491083865e-07   3.443567291140984e-06
-5.9523477835109065e-06   1.0428740760428626e-06   5.359694213948507e-06
-5.9523477835109065e-06   1.0428740760428626e-06   5.359694213948507e-06
-5.9523477835109065e-06   1.0428740760428626e-06   5.359694213948507e-06
-5.9523477835109065e-06   1.0428740760428626e-06   5.359694213948507e-06
-5.214801567694823e-06   3.1466118249992873e-07   4.5673782570473465e-06
-5.214801567694823e-06   3.1466118249992873e-07   4.5673782570473465e-06
-5.214801567694823e-06   3.1466118249992873e-07   4.5673782570473465e-06
-5.214801567694823e-06   3.1466118249992873e-07   4.5673782570473465e-06
-5.26630614172352e-06   9.32765857458869e-07   4.2823564087856605e-06
-5.26630614172352e-06   9.32765857458869e-07   4.2823564087856605e-06
-5.26630614172352e-06   9.32765857458869e-07   4.2823564087856605e-06
-5.26630614172352e-06   9.32765857458869e-07   4.2823564087856605e-06
-9.626531848660831e-06   1.2763883069683866e-06   3.960933182925393e-06
-9.626531848660831e-06   1.2763883069683866e-06   3.960933182925393e-06
-9.626531848660831e-06   1.2763883069683866e-06   3.960933182925393e-06
-9.626531848660831e-06   1.2763883069683866e-06   3.960933182925393e-06
-6.562699535703095e-06   1.759579362820788e-06   9.357235004699727e-06
-6.562699535703095e-06   1.759579362820788e-06   9.357235004699727e-06
-6.562699535703095e-06   1.759579362820788e-06   9.357235004699727e-06
-6.562699535703095e-06   1.759579362820788e-06   9.357235004699727e-06
-6.563979563610471e-06   9.921411030584435e-07   4.439857465833786e-06
-6.563979563610471e-06   9.921411030584435e-07   4.439857465833786e-06
-6.563979563610471e-06   9.921411030584435e-07   4.439857465833786e-06
-6.563979563610471e-06   9.921411030584435e-07   4.439857465833786e-06
-1.0639178657981588e-05   6.813363294071845e-07   1.1418338820643056e-05
-1.0639178657981588e-05   6.813363294071845e-07   1.1418338820643056e-05
-1.0639178657981588e-05   6.813363294071845e-07   1.1418338820643056e-05
-1.0639178657981588e-05   6.813363294071845e-07   1.1418338820643056e-05
-7.915983654335395e-06   1.0353903524363617e-06   6.667248067415245e-06
-7.915983654335395e-06   1.0353903524363617e-06   6.667248067415245e-06
-7.915983654335395e-06   1.0353903524363617e-06   6.667248067415245e-06
-7.915983654335395e-06   1.0353903524363617e-06   6.667248067415245e-06
-1.0639178657981608e-05   9.921411030584064e-07   4.626340330024449e-06
-1.0639178657981608e-05   9.921411030584064e-07   4.626340330024449e-06
-1.0639178657981608e-05   9.921411030584064e-07   4.626340330024449e-06
-1.0639178657981608e-05   9.921411030584064e-07   4.626340330024449e-06
-6.563979563610457e-06   6.813363294071845e-07   1.1231855956452352e-05
-6.563979563610457e-06   6.813363294071845e-07   1.1231855956452352e-05
-6.563979563610457e-06   6.813363294071845e-07   1.1231855956452352e-05
-6.563979563610457e-06   6.813363294071845e-07   1.1231855956452352e-05
-6.6647314807025975e-06   7.976399448091391e-07   4.938065137478391e-06
-6.6647314807025975e-06   7.976399448091391e-07   4.938065137478391e-06
-6.6647314807025975e-06   7.976399448091391e-07   4.938065137478391e-06
-6.6647314807025975e-06   7.976399448091391e-07   4.938065137478391e-06
-1.0686788314601413e-05   4.777376978115579e-07   1.1833434542174975e-05
-1.0686788314601413e-05   4.777376978115579e-07   1.1833434542174975e-05
-1.0686788314601413e-05   4.777376978115579e-07   1.1833434542174975e-05
-1.0686788314601413e-05   4.777376978115579e-07   1.1833434542174975e-05
-8.464974217372503e-06   6.352699413408153e-07   8.035891700675846e-06
-8.464974217372503e-06   6.352699413408153e-07   8.035891700675846e-06
-8.464974217372503e-06   6.352699413408153e-07   8.035891700675846e-06
-8.464974217372503e-06   6.352699413408153e-07   8.035891700675846e-06
-1.0686788314601428e-05   7.976399448091311e-07   5.130006485677013e-06
-1.0686788314601428e-05   7.976399448091311e-07   5.130006485677013e-06
-1.0686788314601428e-05   7.976399448091311e-07   5.130006485677013e-06
-1.0686788314601428e-05   7.976399448091311e-07   5.130006485677013e-06
-6.664731480702587e-06   4.777376978115579e-07   1.1641493193976428e-05
-6.664731480702587e-06   4.777376978115579e-07   1.1641493193976428e-05
-6.664731480702587e-06   4.777376978115579e-07   1.1641493193976428e-05
-6.664731480702587e-06   4.777376978115579e-07   1.1641493193976428e-05
-6.604632008033432e-06   3.203520887173363e-07   5.807302236602438e-06
-6.604632008033432e-06   3.203520887173363e-07   5.807302236602438e-06
-6.604632008033432e-06   3.203520887173363e-07   5.807302236602438e-06
-6.604632008033432e-06   3.203520887173363e-07   5.807302236602438e-06
-1.0819981567463952e-05   -3.9469489128003926e-07   1.3261913023651696e-05
-1.0819981567463952e-05   -3.9469489128003926e-07   1.3261913023651696e-05
-1.0819981567463952e-05   -3.9469489128003926e-07   1.3261913023651696e-05
-1.0819981567463952e-05   -3.9469489128003926e-07   1.3261913023651696e-05
-8.347149978468585e-06   2.940753012876333e-07   8.727264926452149e-06
-8.347149978468585e-06   2.940753012876333e-07   8.727264926452149e-06
-8.347149978468585e-06   2.940753012876333e-07   8.727264926452149e-06
-8.347149978468585e-06   2.940753012876333e-07   8.727264926452149e-06
-6.562699535703107e-06   3.316721858494415e-07   8.914941902538146e-06
-6.562699535703107e-06   3.316721858494415e-07   8.914941902538146e-06
-6.562699535703107e-06   3.316721858494415e-07   8.914941902538146e-06
-6.562699535703107e-06   3.316721858494415e-07   8.914941902538146e-06
-4.0574166930410665e-06   -2.0881874145580186e-06   1.1638497546730391e-05
-4.0574166930410665e-06   -2.0881874145580186e-06   1.1638497546730391e-05
-4.0574166930410665e-06   -2.0881874145580186e-06   1.1638497546730391e-05
-4.0574166930410665e-06   -2.0881874145580186e-06   1.1638497546730391e-05
-4.072829817758227e-06   1.5511102412424848e-07   7.478001007241001e-06
-4.072829817758227e-06   1.5511102412424848e-07   7.478001007241001e-06
-4.072829817758227e-06   1.5511102412424848e-07   7.478001007241001e-06
-4.072829817758227e-06   1.5511102412424848e-07   7.478001007241001e-06
-6.563979563610458e-06   -1.7201570026702815e-06   1.275507806640481e-05
-6.563979563610458e-06   -1.7201570026702815e-06   1.275507806640481e-05
-6.563979563610458e-06   -1.7201570026702815e-06   1.275507806640481e-05
-6.563979563610458e-06   -1.7201570026702815e-06   1.275507806640481e-05
-5.288729543515603e-06   -1.034712288913687e-06   1.0218394537992747e-05
-5.288729543515603e-06   -1.034712288913687e-06   1.0218394537992747e-05
-5.288729543515603e-06   -1.034712288913687e-06   1.0218394537992747e-05
-5.288729543515603e-06   -1.034712288913687e-06   1.0218394537992747e-05
-6.563979563610464e-06   1.5511102412429123e-07   8.603161823317643e-06
-6.563979563610464e-06   1.5511102412429123e-07   8.603161823317643e-06
-6.563979563610464e-06   1.5511102412429123e-07   8.603161823317643e-06
-6.563979563610464e-06   1.5511102412429123e-07   8.603161823317643e-06
-4.07282981775822e-06   -1.7201570026702815e-06   1.162991725032808e-05
-4.07282981775822e-06   -1.7201570026702815e-06   1.162991725032808e-05
-4.07282981775822e-06   -1.7201570026702815e-06   1.162991725032808e-05
-4.07282981775822e-06   -1.7201570026702815e-06   1.162991725032808e-05
-4.099082726711924e-06   -4.606929390705769e-08   7.699186840712398e-06
-4.099082726711924e-06   -4.606929390705769e-08   7.699186840712398e-06
-4.099082726711924e-06   -4.606929390705769e-08   7.699186840712398e-06
-4.099082726711924e-06   -4.606929390705769e-08   7.699186840712398e-06
-6.6647314807025865e-06   -1.7557130120765042e-06   1.3001054328265217e-05
-6.6647314807025865e-06   -1.7557130120765042e-06   1.3001054328265217e-05
-6.6647314807025865e-06   -1.7557130120765042e-06   1.3001054328265217e-05
-6.6647314807025865e-06   -1.7557130120765042e-06   1.3001054328265217e-05
-5.257469220196044e-06   -9.045191897434472e-07   1.0144900934021142e-05
-5.257469220196044e-06   -9.045191897434472e-07   1.0144900934021142e-05
-5.257469220196044e-06   -9.045191897434472e-07   1.0144900934021142e-05
-5.257469220196044e-06   -9.045191897434472e-07   1.0144900934021142e-05
-6.6647314807025975e-06   -4.606929390703666e-08   8.724973071614137e-06
-6.6647314807025975e-06   -4.606929390703666e-08   8.724973071614137e-06
-6.6647314807025975e-06   -4.606929390703666e-08   8.724973071614137e-06
-6.6647314807025975e-06   -4.606929390703666e-08   8.724973071614137e-06
-4.099082726711904e-06   -1.7557130120765042e-06   1.197526809736353e-05
-4.099082726711904e-06   -1.7557130120765042e-06   1.197526809736353e-05
-4.099082726711904e-06   -1.7557130120765042e-06   1.197526809736353e-05
-4.099082726711904e-06   -1.7557130120765042e-06   1.197526809736353e-05
-4.071373464271466e-06   -3.082498718506117e-07   7.977508318975584e-06
-4.071373464271466e-06   -3.082498718506117e-07   7.977508318975584e-06
-4.071373464271466e-06   -3.082498718506117e-07   7.977508318975584e-06
-4.071373464271466e-06   -3.082498718506117e-07   7.977508318975584e-06
-6.604632008033416e-06   -1.761995500390237e-06   1.307185326903589e-05
-6.604632008033416e-06   -1.761995500390237e-06   1.307185326903589e-05
-6.604632008033416e-06   -1.761995500390237e-06   1.307185326903589e-05
-6.604632008033416e-06   -1.761995500390237e-06   1.307185326903589e-05
-5.292828632029824e-06   -1.0090019891254476e-06   1.0433718202271038e-05
-5.292828632029824e-06   -1.0090019891254476e-06   1.0433718202271038e-05
-5.292828632029824e-06   -1.0090019891254476e-06   1.0433718202271038e-05
-5.292828632029824e-06   -1.0090019891254476e-06   1.0433718202271038e-05
-4.0574166930410665e-06   9.4120031989949e-08   8.265782672942898e-06
-4.0574166930410665e-06   9.4120031989949e-08   8.265782672942898e-06
-4.0574166930410665e-06   9.4120031989949e-08   8.265782672942898e-06
-4.0574166930410665e-06   9.4120031989949e-08   8.265782672942898e-06
-3.0223496867067277e-06   -1.6324130826173748e-06   8.954974481402402e-06
-3.0223496867067277e-06   -1.6324130826173748e-06   8.954974481402402e-06
-3.0223496867067277e-06   -1.6324130826173748e-06   8.954974481402402e-06
-3.0223496867067277e-06   -1.6324130826173748e-06   8.954974481402402e-06
-3.003623382679974e-06   -5.282114601859152e-08   7.293569177197574e-06
-3.003623382679974e-06   -5.282114601859152e-08   7.293569177197574e-06
-3.003623382679974e-06   -5.282114601859152e-08   7.293569177197574e-06
-3.003623382679974e-06   -5.282114601859152e-08   7.293569177197574e-06
-4.072829817758223e-06   -1.6032679439359238e-06   1.0005847981078405e-05
-4.072829817758223e-06   -1.6032679439359238e-06   1.0005847981078405e-05
-4.072829817758223e-06   -1.6032679439359238e-06   1.0005847981078405e-05
-4.072829817758223e-06   -1.6032679439359238e-06   1.0005847981078405e-05
-3.5185609892281444e-06   -8.227480496698014e-07   8.613754663635274e-06
-3.5185609892281444e-06   -8.227480496698014e-07   8.613754663635274e-06
-3.5185609892281444e-06   -8.227480496698014e-07   8.613754663635274e-06
-3.5185609892281444e-06   -8.227480496698014e-07   8.613754663635274e-06
-4.07282981775822e-06   -5.282114601856661e-08   8.223837255947887e-06
-4.07282981775822e-06   -5.282114601856661e-08   8.223837255947887e-06
-4.07282981775822e-06   -5.282114601856661e-08   8.223837255947887e-06
-4.07282981775822e-06   -5.282114601856661e-08   8.223837255947887e-06
-3.003623382679974e-06   -1.6032679439359238e-06   9.075579902328e-06
-3.003623382679974e-06   -1.6032679439359238e-06   9.075579902328e-06
-3.003623382679974e-06   -1.6032679439359238e-06   9.075579902328e-06
-3.003623382679974e-06   -1.6032679439359238e-06   9.075579902328e-06
-2.9903499843766815e-06   -2.286123776461626e-07   7.464368273657658e-06
-2.9903499843766815e-06   -2.286123776461626e-07   7.464368273657658e-06
-2.9903499843766815e-06   -2.286123776461626e-07   7.464368273657658e-06
-2.9903499843766815e-06   -2.286123776461626e-07   7.464368273657658e-06
-4.099082726711907e-06   -1.6502279745525517e-06   1.0165225535693577e-05
-4.099082726711907e-06   -1.6502279745525517e-06   1.0165225535693577e-05
-4.099082726711907e-06   -1.6502279745525517e-06   1.0165225535693577e-05
-4.099082726711907e-06   -1.6502279745525517e-06   1.0165225535693577e-05
-3.4958336133876848e-06   -8.729306017403492e-07   8.693431923132453e-06
-3.4958336133876848e-06   -8.729306017403492e-07   8.693431923132453e-06
-3.4958336133876848e-06   -8.729306017403492e-07   8.693431923132453e-06
-3.4958336133876848e-06   -8.729306017403492e-07   8.693431923132453e-06
-4.099082726711904e-06   -2.286123776461435e-07   8.317337631801594e-06
-4.099082726711904e-06   -2.286123776461435e-07   8.317337631801594e-06
-4.099082726711904e-06   -2.286123776461435e-07   8.317337631801594e-06
-4.099082726711904e-06   -2.286123776461435e-07   8.317337631801594e-06
-2.9903499843766815e-06   -1.6502279745525517e-06   9.312256177549732e-06
-2.9903499843766815e-06   -1.6502279745525517e-06   9.312256177549732e-06
-2.9903499843766815e-06   -1.6502279745525517e-06   9.312256177549732e-06
-2.9903499843766815e-06   -1.6502279745525517e-06   9.312256177549732e-06
-2.9433377850501905e-06   -4.037533818161904e-07   7.730133538078878e-06
-2.9433377850501905e-06   -4.037533818161904e-07   7.730133538078878e-06
-2.9433377850501905e-06   -4.037533818161904e-07   7.730133538078878e-06
-2.9433377850501905e-06   -4.037533818161904e-07   7.730133538078878e-06
-4.071373464271471e-06   -1.7134929733853411e-06   1.0396036758389139e-05
-4.071373464271471e-06   -1.7134929733853411e-06   1.0396036758389139e-05
-4.071373464271471e-06   -1.7134929733853411e-06   1.0396036758389139e-05
-4.071373464271471e-06   -1.7134929733853411e-06   1.0396036758389139e-05
-3.469890960537145e-06   -9.480732226776415e-07   8.934314068407314e-06
-3.469890960537145e-06   -9.480732226776415e-07   8.934314068407314e-06
-3.469890960537145e-06   -9.480732226776415e-07   8.934314068407314e-06
-3.469890960537145e-06   -9.480732226776415e-07   8.934314068407314e-06
-3.0223496867067277e-06   4.3667973665586085e-07   5.666050022497954e-06
-3.0223496867067277e-06   4.3667973665586085e-07   5.666050022497954e-06
-3.0223496867067277e-06   4.3667973665586085e-07   5.666050022497954e-06
-3.0223496867067277e-06   4.3667973665586085e-07   5.666050022497954e-06
-2.563763234167784e-06   -6.736009872210062e-07   5.764192342403419e-06
-2.563763234167784e-06   -6.736009872210062e-07   5.764192342403419e-06
-2.563763234167784e-06   -6.736009872210062e-07   5.764192342403419e-06
-2.563763234167784e-06   -6.736009872210062e-07   5.764192342403419e-06
-2.518225478963888e-06   2.4233676286717406e-07   5.117281660990008e-06
-2.518225478963888e-06   2.4233676286717406e-07   5.117281660990008e-06
-2.518225478963888e-06   2.4233676286717406e-07   5.117281660990008e-06
-2.518225478963888e-06   2.4233676286717406e-07   5.117281660990008e-06
-3.003623382679968e-06   -7.849883522976933e-07   6.542673236282457e-06
-3.003623382679968e-06   -7.849883522976933e-07   6.542673236282457e-06
-3.003623382679968e-06   -7.849883522976933e-07   6.542673236282457e-06
-3.003623382679968e-06   -7.849883522976933e-07   6.542673236282457e-06
-2.7571524338313334e-06   -1.5428524317273574e-07   5.753466456059756e-06
-2.7571524338313334e-06   -1.5428524317273574e-07   5.753466456059756e-06
-2.7571524338313334e-06   -1.5428524317273574e-07   5.753466456059756e-06
-2.7571524338313334e-06   -1.5428524317273574e-07   5.753466456059756e-06
-3.003623382679974e-06   2.4233676286716633e-07   5.733676730088939e-06
-3.003623382679974e-06   2.4233676286716633e-07   5.733676730088939e-06
-3.003623382679974e-06   2.4233676286716633e-07   5.733676730088939e-06
-3.003623382679974e-06   2.4233676286716633e-07   5.733676730088939e-06
-2.518225478963915e-06   -7.849883522977204e-07   5.926278167183512e-06
-2.518225478963915e-06   -7.849883522977204e-07   5.926278167183512e-06
-2.518225478963915e-06   -7.849883522977204e-07   5.926278167183512e-06
-2.518225478963915e-06   -7.849883522977204e-07   5.926278167183512e-06
-2.5032444894097013e-06   7.550562164903001e-08   5.3565830836538775e-06
-2.5032444894097013e-06   7.550562164903001e-08   5.3565830836538775e-06
-2.5032444894097013e-06   7.550562164903001e-08   5.3565830836538775e-06
-2.5032444894097013e-06   7.550562164903001e-08   5.3565830836538775e-06
-2.990349984376685e-06   -8.709518151785774e-07   6.736300037362168e-06
-2.990349984376685e-06   -8.709518151785774e-07   6.736300037362168e-06
-2.990349984376685e-06   -8.709518151785774e-07   6.736300037362168e-06
-2.990349984376685e-06   -8.709518151785774e-07   6.736300037362168e-06
-2.711683132604664e-06   -2.7129796710502127e-07   5.912062975564495e-06
-2.711683132604664e-06   -2.7129796710502127e-07   5.912062975564495e-06
-2.711683132604664e-06   -2.7129796710502127e-07   5.912062975564495e-06
-2.711683132604664e-06   -2.7129796710502127e-07   5.912062975564495e-06
-2.990349984376695e-06   7.550562164901495e-08   5.924457545750534e-06
-2.990349984376695e-06   7.550562164901495e-08   5.924457545750534e-06
-2.990349984376695e-06   7.550562164901495e-08   5.924457545750534e-06
-2.990349984376695e-06   7.550562164901495e-08   5.924457545750534e-06
-2.5032444894097013e-06   -8.709518151786045e-07   6.168425575265606e-06
-2.5032444894097013e-06   -8.709518151786045e-07   6.168425575265606e-06
-2.5032444894097013e-06   -8.709518151786045e-07   6.168425575265606e-06
-2.5032444894097013e-06   -8.709518151786045e-07   6.168425575265606e-06
-2.4724498722923855e-06   -9.294538899932894e-08   5.657069964605348e-06
-2.4724498722923855e-06   -9.294538899932894e-08   5.657069964605348e-06
-2.4724498722923855e-06   -9.294538899932894e-08   5.657069964605348e-06
-2.4724498722923855e-06   -9.294538899932894e-08   5.657069964605348e-06
-2.943337785050192e-06   -9.82809400511687e-07   6.975801559442349e-06
-2.943337785050192e-06   -9.82809400511687e-07   6.975801559442349e-06
-2.943337785050192e-06   -9.82809400511687e-07   6.975801559442349e-06
-2.943337785050192e-06   -9.82809400511687e-07   6.975801559442349e-06
-2.6798509645883194e-06   -3.747344339245719e-07   6.171811878720305e-06
-2.6798509645883194e-06   -3.747344339245719e-07   6.171811878720305e-06
-2.6798509645883194e-06   -3.747344339245719e-07   6.171811878720305e-06
-2.6798509645883194e-06   -3.747344339245719e-07   6.171811878720305e-06
-2.5637632341677567e-06   7.290827219833837e-07   1.3602712595666485e-06
-2.5637632341677567e-06   7.290827219833837e-07   1.3602712595666485e-06
-2.5637632341677567e-06   7.290827219833837e-07   1.3602712595666485e-06
-2.5637632341677567e-06   7.290827219833837e-07   1.3602712595666485e-06
-1.5506544680904638e-06   -6.928266972947668e-08   2.569766634667758e-06
-1.5506544680904638e-06   -6.928266972947668e-08   2.569766634667758e-06
-1.5506544680904638e-06   -6.928266972947668e-08   2.569766634667758e-06
-1.5506544680904638e-06   -6.928266972947668e-08   2.569766634667758e-06
-1.6462121706902822e-06   5.903618378515305e-07   1.3756658804274773e-06
-1.6462121706902822e-06   5.903618378515305e-07   1.3756658804274773e-06
-1.6462121706902822e-06   5.903618378515305e-07   1.3756658804274773e-06
-1.6462121706902822e-06   5.903618378515305e-07   1.3756658804274773e-06
-2.5182254789638864e-06   -9.914898174961245e-08   3.242727885977492e-06
-2.5182254789638864e-06   -9.914898174961245e-08   3.242727885977492e-06
-2.5182254789638864e-06   -9.914898174961245e-08   3.242727885977492e-06
-2.5182254789638864e-06   -9.914898174961245e-08   3.242727885977492e-06
-1.9983422414840906e-06   3.7631373912103854e-07   2.0909781909887694e-06
-1.9983422414840906e-06   3.7631373912103854e-07   2.0909781909887694e-06
-1.9983422414840906e-06   3.7631373912103854e-07   2.0909781909887694e-06
-1.9983422414840906e-06   3.7631373912103854e-07   2.0909781909887694e-06
-2.518225478963915e-06   5.903618378515671e-07   1.789372372187995e-06
-2.518225478963915e-06   5.903618378515671e-07   1.789372372187995e-06
-2.518225478963915e-06   5.903618378515671e-07   1.789372372187995e-06
-2.518225478963915e-06   5.903618378515671e-07   1.789372372187995e-06
-1.6462121706903093e-06   -9.914898174961245e-08   2.8290213942168115e-06
-1.6462121706903093e-06   -9.914898174961245e-08   2.8290213942168115e-06
-1.6462121706903093e-06   -9.914898174961245e-08   2.8290213942168115e-06
-1.6462121706903093e-06   -9.914898174961245e-08   2.8290213942168115e-06
-1.725875605906982e-06   4.999537491083865e-07   1.7681380365788856e-06
-1.725875605906982e-06   4.999537491083865e-07   1.7681380365788856e-06
-1.725875605906982e-06   4.999537491083865e-07   1.7681380365788856e-06
-1.725875605906982e-06   4.999537491083865e-07   1.7681380365788856e-06
-2.503244489409696e-06   -1.387324933461748e-07   3.446964587889537e-06
-2.503244489409696e-06   -1.387324933461748e-07   3.446964587889537e-06
-2.503244489409696e-06   -1.387324933461748e-07   3.446964587889537e-06
-2.503244489409696e-06   -1.387324933461748e-07   3.446964587889537e-06
-2.043496942835284e-06   3.0925807047201535e-07   2.4119243386412333e-06
-2.043496942835284e-06   3.0925807047201535e-07   2.4119243386412333e-06
-2.043496942835284e-06   3.0925807047201535e-07   2.4119243386412333e-06
-2.043496942835284e-06   3.0925807047201535e-07   2.4119243386412333e-06
-2.5032444894097013e-06   4.999537491083897e-07   2.151349782051671e-06
-2.5032444894097013e-06   4.999537491083897e-07   2.151349782051671e-06
-2.5032444894097013e-06   4.999537491083897e-07   2.151349782051671e-06
-2.5032444894097013e-06   4.999537491083897e-07   2.151349782051671e-06
-1.7258756059069548e-06   -1.387324933461748e-07   3.063752842416724e-06
-1.7258756059069548e-06   -1.387324933461748e-07   3.063752842416724e-06
-1.7258756059069548e-06   -1.387324933461748e-07   3.063752842416724e-06
-1.7258756059069548e-06   -1.387324933461748e-07   3.063752842416724e-06
-1.9055735686852122e-06   3.1466118249992873e-07   2.470685590209734e-06
-1.9055735686852122e-06   3.1466118249992873e-07   2.470685590209734e-06
-1.9055735686852122e-06   3.1466118249992873e-07   2.470685590209734e-06
-1.9055735686852122e-06   3.1466118249992873e-07   2.470685590209734e-06
-2.4724498722923897e-06   -1.8964230009941327e-07   3.7180615191144493e-06
-2.4724498722923897e-06   -1.8964230009941327e-07   3.7180615191144493e-06
-2.4724498722923897e-06   -1.8964230009941327e-07   3.7180615191144493e-06
-2.4724498722923897e-06   -1.8964230009941327e-07   3.7180615191144493e-06
-2.0564307602714424e-06   2.6236989266885434e-07   2.753489016751767e-06
-2.0564307602714424e-06   2.6236989266885434e-07   2.753489016751767e-06
-2.0564307602714424e-06   2.6236989266885434e-07   2.753489016751767e-06
-2.0564307602714424e-06   2.6236989266885434e-07   2.753489016751767e-06
-2.2904072262802404e-05   1.7595793628207908e-06   1.0227972362696094e-05
-2.2904072262802404e-05   1.7595793628207908e-06   1.0227972362696094e-05
-2.2904072262802404e-05   1.7595793628207908e-06   1.0227972362696094e-05
-2.2904072262802404e-05   1.7595793628207908e-06   1.0227972362696094e-05
-5.336934138921477e-06   -1.169836765393319e-05   3.1431767692445276e-05
-5.336934138921477e-06   -1.169836765393319e-05   3.1431767692445276e-05
-5.336934138921477e-06   -1.169836765393319e-05   3.1431767692445276e-05
-5.336934138921477e-06   -1.169836765393319e-05   3.1431767692445276e-05
-6.296742361733052e-06   6.813363294072116e-07   5.5729366844219614e-06
-6.296742361733052e-06   6.813363294072116e-07   5.5729366844219614e-06
-6.296742361733052e-06   6.813363294072116e-07   5.5729366844219614e-06
-6.296742361733052e-06   6.813363294072116e-07   5.5729366844219614e-06
-2.0889509875203527e-05   -9.16900870712896e-06   3.580442289546107e-05
-2.0889509875203527e-05   -9.16900870712896e-06   3.580442289546107e-05
-2.0889509875203527e-05   -9.16900870712896e-06   3.580442289546107e-05
-2.0889509875203527e-05   -9.16900870712896e-06   3.580442289546107e-05
-1.3915451869760747e-05   -4.561392559411599e-06   2.1416423197759354e-05
-1.3915451869760747e-05   -4.561392559411599e-06   2.1416423197759354e-05
-1.3915451869760747e-05   -4.561392559411599e-06   2.1416423197759354e-05
-1.3915451869760747e-05   -4.561392559411599e-06   2.1416423197759354e-05
-2.088950987520349e-05   6.813363294072167e-07   1.1483143706343658e-05
-2.088950987520349e-05   6.813363294072167e-07   1.1483143706343658e-05
-2.088950987520349e-05   6.813363294072167e-07   1.1483143706343658e-05
-2.088950987520349e-05   6.813363294072167e-07   1.1483143706343658e-05
-6.296742361733062e-06   -9.16900870712896e-06   2.9894215873539376e-05
-6.296742361733062e-06   -9.16900870712896e-06   2.9894215873539376e-05
-6.296742361733062e-06   -9.16900870712896e-06   2.9894215873539376e-05
-6.296742361733062e-06   -9.16900870712896e-06   2.9894215873539376e-05
-6.455391435632492e-06   4.777376978115579e-07   6.126929123997516e-06
-6.455391435632492e-06   4.777376978115579e-07   6.126929123997516e-06
-6.455391435632492e-06   4.777376978115579e-07   6.126929123997516e-06
-6.455391435632492e-06   4.777376978115579e-07   6.126929123997516e-06
-1.971341705953471e-05   -7.960423215141863e-06   3.328653504493987e-05
-1.971341705953471e-05   -7.960423215141863e-06   3.328653504493987e-05
-1.971341705953471e-05   -7.960423215141863e-06   3.328653504493987e-05
-1.971341705953471e-05   -7.960423215141863e-06   3.328653504493987e-05
-1.3512040933684546e-05   -4.3295576987164235e-06   2.077238885866769e-05
-1.3512040933684546e-05   -4.3295576987164235e-06   2.077238885866769e-05
-1.3512040933684546e-05   -4.3295576987164235e-06   2.077238885866769e-05
-1.3512040933684546e-05   -4.3295576987164235e-06   2.077238885866769e-05
-1.9713417059534676e-05   4.777376978115516e-07   1.118982567176954e-05
-1.9713417059534676e-05   4.777376978115516e-07   1.118982567176954e-05
-1.9713417059534676e-05   4.777376978115516e-07   1.118982567176954e-05
-1.9713417059534676e-05   4.777376978115516e-07   1.118982567176954e-05
-6.455391435632505e-06   -7.960423215141863e-06   2.8223638497167824e-05
-6.455391435632505e-06   -7.960423215141863e-06   2.8223638497167824e-05
-6.455391435632505e-06   -7.960423215141863e-06   2.8223638497167824e-05
-6.455391435632505e-06   -7.960423215141863e-06   2.8223638497167824e-05
-7.104358294116332e-06   -3.9469489128006637e-07   7.657139008632606e-06
-7.104358294116332e-06   -3.9469489128006637e-07   7.657139008632606e-06
-7.104358294116332e-06   -3.9469489128006637e-07   7.657139008632606e-06
-7.104358294116332e-06   -3.9469489128006637e-07   7.657139008632606e-06
-1.8200411157274343e-05   -6.348888398121488e-06   2.9723076551334102e-05
-1.8200411157274343e-05   -6.348888398121488e-06   2.9723076551334102e-05
-1.8200411157274343e-05   -6.348888398121488e-06   2.9723076551334102e-05
-1.8200411157274343e-05   -6.348888398121488e-06   2.9723076551334102e-05
-1.30136811312108e-05   -4.000180109389224e-06   1.9669301534655512e-05
-1.30136811312108e-05   -4.000180109389224e-06   1.9669301534655512e-05
-1.30136811312108e-05   -4.000180109389224e-06   1.9669301534655512e-05
-1.30136811312108e-05   -4.000180109389224e-06   1.9669301534655512e-05
-5.33693413892147e-06   -2.088187414558019e-06   5.88638245491884e-06
-5.33693413892147e-06   -2.088187414558019e-06   5.88638245491884e-06
-5.33693413892147e-06   -2.088187414558019e-06   5.88638245491884e-06
-5.33693413892147e-06   -2.088187414558019e-06   5.88638245491884e-06
-1.8451589079050435e-06   -3.7663114844897134e-06   1.0699133397987223e-05
-1.8451589079050435e-06   -3.7663114844897134e-06   1.0699133397987223e-05
-1.8451589079050435e-06   -3.7663114844897134e-06   1.0699133397987223e-05
-1.8451589079050435e-06   -3.7663114844897134e-06   1.0699133397987223e-05
-2.080364937305385e-06   -1.7201570026702815e-06   5.167227387910733e-06
-2.080364937305385e-06   -1.7201570026702815e-06   5.167227387910733e-06
-2.080364937305385e-06   -1.7201570026702815e-06   5.167227387910733e-06
-2.080364937305385e-06   -1.7201570026702815e-06   5.167227387910733e-06
-6.296742361733064e-06   -4.93504268010982e-06   1.4123454501753873e-05
-6.296742361733064e-06   -4.93504268010982e-06   1.4123454501753873e-05
-6.296742361733064e-06   -4.93504268010982e-06   1.4123454501753873e-05
-6.296742361733064e-06   -4.93504268010982e-06   1.4123454501753873e-05
-3.68668095330326e-06   -2.5644919444825303e-06   8.351021712994455e-06
-3.68668095330326e-06   -2.5644919444825303e-06   8.351021712994455e-06
-3.68668095330326e-06   -2.5644919444825303e-06   8.351021712994455e-06
-3.68668095330326e-06   -2.5644919444825303e-06   8.351021712994455e-06
-6.296742361733049e-06   -1.720157002670283e-06   7.096158794374379e-06
-6.296742361733049e-06   -1.720157002670283e-06   7.096158794374379e-06
-6.296742361733049e-06   -1.720157002670283e-06   7.096158794374379e-06
-6.296742361733049e-06   -1.720157002670283e-06   7.096158794374379e-06
-2.080364937305385e-06   -4.93504268010982e-06   1.2194523095290162e-05
-2.080364937305385e-06   -4.93504268010982e-06   1.2194523095290162e-05
-2.080364937305385e-06   -4.93504268010982e-06   1.2194523095290162e-05
-2.080364937305385e-06   -4.93504268010982e-06   1.2194523095290162e-05
-2.283347177005926e-06   -1.7557130120765042e-06   5.812408033187416e-06
-2.283347177005926e-06   -1.7557130120765042e-06   5.812408033187416e-06
-2.283347177005926e-06   -1.7557130120765042e-06   5.812408033187416e-06
-2.283347177005926e-06   -1.7557130120765042e-06   5.812408033187416e-06
-6.455391435632505e-06   -4.545850053908023e-06   1.4439897355997216e-05
-6.455391435632505e-06   -4.545850053908023e-06   1.4439897355997216e-05
-6.455391435632505e-06   -4.545850053908023e-06   1.4439897355997216e-05
-6.455391435632505e-06   -4.545850053908023e-06   1.4439897355997216e-05
-4.17873334033512e-06   -3.1169257223468842e-06   9.788112598231637e-06
-4.17873334033512e-06   -3.1169257223468842e-06   9.788112598231637e-06
-4.17873334033512e-06   -3.1169257223468842e-06   9.788112598231637e-06
-4.17873334033512e-06   -3.1169257223468842e-06   9.788112598231637e-06
-6.455391435632505e-06   -1.7557130120764997e-06   7.486490258286322e-06
-6.455391435632505e-06   -1.7557130120764997e-06   7.486490258286322e-06
-6.455391435632505e-06   -1.7557130120764997e-06   7.486490258286322e-06
-6.455391435632505e-06   -1.7557130120764997e-06   7.486490258286322e-06
-2.283347177005926e-06   -4.545850053908023e-06   1.2765815130898307e-05
-2.283347177005926e-06   -4.545850053908023e-06   1.2765815130898307e-05
-2.283347177005926e-06   -4.545850053908023e-06   1.2765815130898307e-05
-2.283347177005926e-06   -4.545850053908023e-06   1.2765815130898307e-05
-2.616733177158393e-06   -1.761995500390237e-06   6.375143577012129e-06
-2.616733177158393e-06   -1.761995500390237e-06   6.375143577012129e-06
-2.616733177158393e-06   -1.761995500390237e-06   6.375143577012129e-06
-2.616733177158393e-06   -1.761995500390237e-06   6.375143577012129e-06
-7.104358294116326e-06   -4.296935275395378e-06   1.5375482636945052e-05
-7.104358294116326e-06   -4.296935275395378e-06   1.5375482636945052e-05
-7.104358294116326e-06   -4.296935275395378e-06   1.5375482636945052e-05
-7.104358294116326e-06   -4.296935275395378e-06   1.5375482636945052e-05
-4.477033571052592e-06   -2.8489451999142112e-06   1.0127814053216796e-05
-4.477033571052592e-06   -2.8489451999142112e-06   1.0127814053216796e-05
-4.477033571052592e-06   -2.8489451999142112e-06   1.0127814053216796e-05
-4.477033571052592e-06   -2.8489451999142112e-06   1.0127814053216796e-05
-1.8451589079050435e-06   -1.6324130826173833e-06   3.2319048163962293e-06
-1.8451589079050435e-06   -1.6324130826173833e-06   3.2319048163962293e-06
-1.8451589079050435e-06   -1.6324130826173833e-06   3.2319048163962293e-06
-1.8451589079050435e-06   -1.6324130826173833e-06   3.2319048163962293e-06
-1.0380701473953108e-06   -1.1313193729028186e-06   4.877708976407856e-06
-1.0380701473953108e-06   -1.1313193729028186e-06   4.877708976407856e-06
-1.0380701473953108e-06   -1.1313193729028186e-06   4.877708976407856e-06
-1.0380701473953108e-06   -1.1313193729028186e-06   4.877708976407856e-06
-1.007741618191336e-06   -1.6032679439359238e-06   3.6321910803114536e-06
-1.007741618191336e-06   -1.6032679439359238e-06   3.6321910803114536e-06
-1.007741618191336e-06   -1.6032679439359238e-06   3.6321910803114536e-06
-1.007741618191336e-06   -1.6032679439359238e-06   3.6321910803114536e-06
-2.0803649373053793e-06   -1.4548796745186154e-06   5.330863650517738e-06
-2.0803649373053793e-06   -1.4548796745186154e-06   5.330863650517738e-06
-2.0803649373053793e-06   -1.4548796745186154e-06   5.330863650517738e-06
-2.0803649373053793e-06   -1.4548796745186154e-06   5.330863650517738e-06
-1.3974215000438566e-06   -1.3649040794705305e-06   4.138639231386268e-06
-1.3974215000438566e-06   -1.3649040794705305e-06   4.138639231386268e-06
-1.3974215000438566e-06   -1.3649040794705305e-06   4.138639231386268e-06
-1.3974215000438566e-06   -1.3649040794705305e-06   4.138639231386268e-06
-2.080364937305385e-06   -1.603267943935933e-06   3.543158118661044e-06
-2.080364937305385e-06   -1.603267943935933e-06   3.543158118661044e-06
-2.080364937305385e-06   -1.603267943935933e-06   3.543158118661044e-06
-2.080364937305385e-06   -1.603267943935933e-06   3.543158118661044e-06
-1.0077416181913495e-06   -1.454879674518612e-06   5.419896612168093e-06
-1.0077416181913495e-06   -1.454879674518612e-06   5.419896612168093e-06
-1.0077416181913495e-06   -1.454879674518612e-06   5.419896612168093e-06
-1.0077416181913495e-06   -1.454879674518612e-06   5.419896612168093e-06
-1.019775738696869e-06   -1.6502279745525517e-06   3.890260694884535e-06
-1.019775738696869e-06   -1.6502279745525517e-06   3.890260694884535e-06
-1.019775738696869e-06   -1.6502279745525517e-06   3.890260694884535e-06
-1.019775738696869e-06   -1.6502279745525517e-06   3.890260694884535e-06
-2.283347177005928e-06   -1.8370692689407415e-06   6.1083178686991525e-06
-2.283347177005928e-06   -1.8370692689407415e-06   6.1083178686991525e-06
-2.283347177005928e-06   -1.8370692689407415e-06   6.1083178686991525e-06
-2.283347177005928e-06   -1.8370692689407415e-06   6.1083178686991525e-06
-1.4945508966928626e-06   -1.4917164826920538e-06   4.586445729761504e-06
-1.4945508966928626e-06   -1.4917164826920538e-06   4.586445729761504e-06
-1.4945508966928626e-06   -1.4917164826920538e-06   4.586445729761504e-06
-1.4945508966928626e-06   -1.4917164826920538e-06   4.586445729761504e-06
-2.283347177005926e-06   -1.6502279745525566e-06   4.002365471517436e-06
-2.283347177005926e-06   -1.6502279745525566e-06   4.002365471517436e-06
-2.283347177005926e-06   -1.6502279745525566e-06   4.002365471517436e-06
-2.283347177005926e-06   -1.6502279745525566e-06   4.002365471517436e-06
-1.019775738696869e-06   -1.8370692689407415e-06   5.996213092066238e-06
-1.019775738696869e-06   -1.8370692689407415e-06   5.996213092066238e-06
-1.019775738696869e-06   -1.8370692689407415e-06   5.996213092066238e-06
-1.019775738696869e-06   -1.8370692689407415e-06   5.996213092066238e-06
-1.0539376148297895e-06   -1.7134929733853411e-06   4.280430885573213e-06
-1.0539376148297895e-06   -1.7134929733853411e-06   4.280430885573213e-06
-1.0539376148297895e-06   -1.7134929733853411e-06   4.280430885573213e-06
-1.0539376148297895e-06   -1.7134929733853411e-06   4.280430885573213e-06
-2.6167331771583975e-06   -2.1987322365785695e-06   7.176233714036758e-06
-2.6167331771583975e-06   -2.1987322365785695e-06   7.176233714036758e-06
-2.6167331771583975e-06   -2.1987322365785695e-06   7.176233714036758e-06
-2.6167331771583975e-06   -2.1987322365785695e-06   7.176233714036758e-06
-1.6076716321309097e-06   -1.6195025283306471e-06   5.146926647375566e-06
-1.6076716321309097e-06   -1.6195025283306471e-06   5.146926647375566e-06
-1.6076716321309097e-06   -1.6195025283306471e-06   5.146926647375566e-06
-1.6076716321309097e-06   -1.6195025283306471e-06   5.146926647375566e-06
-1.0380701473953108e-06   -6.736009872210089e-07   1.0079473375520988e-06
-1.0380701473953108e-06   -6.736009872210089e-07   1.0079473375520988e-06
-1.0380701473953108e-06   -6.736009872210089e-07   1.0079473375520988e-06
-1.0380701473953108e-06   -6.736009872210089e-07   1.0079473375520988e-06
-7.904872826176824e-07   1.0437353025621616e-07   1.8873701560011237e-06
-7.904872826176824e-07   1.0437353025621616e-07   1.8873701560011237e-06
-7.904872826176824e-07   1.0437353025621616e-07   1.8873701560011237e-06
-7.904872826176824e-07   1.0437353025621616e-07   1.8873701560011237e-06
-6.48281159393386e-07   -7.849883522977204e-07   1.5590895077447929e-06
-6.48281159393386e-07   -7.849883522977204e-07   1.5590895077447929e-06
-6.48281159393386e-07   -7.849883522977204e-07   1.5590895077447929e-06
-6.48281159393386e-07   -7.849883522977204e-07   1.5590895077447929e-06
-1.0077416181913425e-06   -1.8646529832924588e-08   1.6983851789290723e-06
-1.0077416181913425e-06   -1.8646529832924588e-08   1.6983851789290723e-06
-1.0077416181913425e-06   -1.8646529832924588e-08   1.6983851789290723e-06
-1.0077416181913425e-06   -1.8646529832924588e-08   1.6983851789290723e-06
-8.166347788018201e-07   -3.4373417957812814e-07   1.5749263697935464e-06
-8.166347788018201e-07   -3.4373417957812814e-07   1.5749263697935464e-06
-8.166347788018201e-07   -3.4373417957812814e-07   1.5749263697935464e-06
-8.166347788018201e-07   -3.4373417957812814e-07   1.5749263697935464e-06
-1.007741618191336e-06   -7.849883522977114e-07   1.0992844142659127e-06
-1.007741618191336e-06   -7.849883522977114e-07   1.0992844142659127e-06
-1.007741618191336e-06   -7.849883522977114e-07   1.0992844142659127e-06
-1.007741618191336e-06   -7.849883522977114e-07   1.0992844142659127e-06
-6.482811593934131e-07   -1.8646529832924588e-08   2.1581902724079796e-06
-6.482811593934131e-07   -1.8646529832924588e-08   2.1581902724079796e-06
-6.482811593934131e-07   -1.8646529832924588e-08   2.1581902724079796e-06
-6.482811593934131e-07   -1.8646529832924588e-08   2.1581902724079796e-06
-5.739722107947487e-07   -8.709518151786045e-07   1.7136557192376175e-06
-5.739722107947487e-07   -8.709518151786045e-07   1.7136557192376175e-06
-5.739722107947487e-07   -8.709518151786045e-07   1.7136557192376175e-06
-5.739722107947487e-07   -8.709518151786045e-07   1.7136557192376175e-06
-1.0197757386968742e-06   -2.0536654094419688e-07   2.057310434533762e-06
-1.0197757386968742e-06   -2.0536654094419688e-07   2.057310434533762e-06
-1.0197757386968742e-06   -2.0536654094419688e-07   2.057310434533762e-06
-1.0197757386968742e-06   -2.0536654094419688e-07   2.057310434533762e-06
-7.482523154274108e-07   -4.3434010477744667e-07   1.7421555340512394e-06
-7.482523154274108e-07   -4.3434010477744667e-07   1.7421555340512394e-06
-7.482523154274108e-07   -4.3434010477744667e-07   1.7421555340512394e-06
-7.482523154274108e-07   -4.3434010477744667e-07   1.7421555340512394e-06
-1.019775738696869e-06   -8.709518151785871e-07   1.3143045546969671e-06
-1.019775738696869e-06   -8.709518151785871e-07   1.3143045546969671e-06
-1.019775738696869e-06   -8.709518151785871e-07   1.3143045546969671e-06
-1.019775738696869e-06   -8.709518151785871e-07   1.3143045546969671e-06
-5.739722107947487e-07   -2.0536654094419688e-07   2.456661599074399e-06
-5.739722107947487e-07   -2.0536654094419688e-07   2.456661599074399e-06
-5.739722107947487e-07   -2.0536654094419688e-07   2.456661599074399e-06
-5.739722107947487e-07   -2.0536654094419688e-07   2.456661599074399e-06
-4.6052827615364897e-07   -9.82809400511687e-07   1.8886399049014395e-06
-4.6052827615364897e-07   -9.82809400511687e-07   1.8886399049014395e-06
-4.6052827615364897e-07   -9.82809400511687e-07   1.8886399049014395e-06
-4.6052827615364897e-07   -9.82809400511687e-07   1.8886399049014395e-06
-1.0539376148297948e-06   -5.784752949558233e-07   2.635055006028098e-06
-1.0539376148297948e-06   -5.784752949558233e-07   2.635055006028098e-06
-1.0539376148297948e-06   -5.784752949558233e-07   2.635055006028098e-06
-1.0539376148297948e-06   -5.784752949558233e-07   2.635055006028098e-06
-6.967118347836336e-07   -5.689349622348019e-07   2.0339545063185745e-06
-6.967118347836336e-07   -5.689349622348019e-07   2.0339545063185745e-06
-6.967118347836336e-07   -5.689349622348019e-07   2.0339545063185745e-06
-6.967118347836336e-07   -5.689349622348019e-07   2.0339545063185745e-06
-7.904872826176824e-07   -6.928266972946139e-08   -1.2406744246694942e-06
-7.904872826176824e-07   -6.928266972946139e-08   -1.2406744246694942e-06
-7.904872826176824e-07   -6.928266972946139e-08   -1.2406744246694942e-06
-7.904872826176824e-07   -6.928266972946139e-08   -1.2406744246694942e-06
-1.6777485416002904e-07   1.0484971734387851e-07   -9.834094499605638e-08
-1.6777485416002904e-07   1.0484971734387851e-07   -9.834094499605638e-08
-1.6777485416002904e-07   1.0484971734387851e-07   -9.834094499605638e-08
-1.6777485416002904e-07   1.0484971734387851e-07   -9.834094499605638e-08
-2.8895616847971492e-08   -9.914898174961245e-08   -9.581121806307921e-07
-2.8895616847971492e-08   -9.914898174961245e-08   -9.581121806307921e-07
-2.8895616847971492e-08   -9.914898174961245e-08   -9.581121806307921e-07
-2.8895616847971492e-08   -9.914898174961245e-08   -9.581121806307921e-07
-6.482811593934195e-07   1.7809867296778034e-07   -9.215153588565828e-08
-6.482811593934195e-07   1.7809867296778034e-07   -9.215153588565828e-08
-6.482811593934195e-07   1.7809867296778034e-07   -9.215153588565828e-08
-6.482811593934195e-07   1.7809867296778034e-07   -9.215153588565828e-08
-3.735937176897241e-07   5.0981233061777524e-08   -4.7369347478163444e-07
-3.735937176897241e-07   5.0981233061777524e-08   -4.7369347478163444e-07
-3.735937176897241e-07   5.0981233061777524e-08   -4.7369347478163444e-07
-3.735937176897241e-07   5.0981233061777524e-08   -4.7369347478163444e-07
-6.48281159393386e-07   -9.914898174960356e-08   -1.1244607734613626e-06
-6.48281159393386e-07   -9.914898174960356e-08   -1.1244607734613626e-06
-6.48281159393386e-07   -9.914898174960356e-08   -1.1244607734613626e-06
-6.48281159393386e-07   -9.914898174960356e-08   -1.1244607734613626e-06
-2.8895616847998597e-08   1.7809867296778034e-07   7.419705694479027e-08
-2.8895616847998597e-08   1.7809867296778034e-07   7.419705694479027e-08
-2.8895616847998597e-08   1.7809867296778034e-07   7.419705694479027e-08
-2.8895616847998597e-08   1.7809867296778034e-07   7.419705694479027e-08
3.995232338932725e-08   -1.387324933461748e-07   -8.385691021214068e-07
3.995232338932725e-08   -1.387324933461748e-07   -8.385691021214068e-07
3.995232338932725e-08   -1.387324933461748e-07   -8.385691021214068e-07
3.995232338932725e-08   -1.387324933461748e-07   -8.385691021214068e-07
-5.739722107947567e-07   1.4332778334910003e-07   1.5402288834859106e-08
-5.739722107947567e-07   1.4332778334910003e-07   1.5402288834859106e-08
-5.739722107947567e-07   1.4332778334910003e-07   1.5402288834859106e-08
-5.739722107947567e-07   1.4332778334910003e-07   1.5402288834859106e-08
-2.7293303078732504e-07   3.2548468528056603e-08   -4.1986208895142436e-07
-2.7293303078732504e-07   3.2548468528056603e-08   -4.1986208895142436e-07
-2.7293303078732504e-07   3.2548468528056603e-08   -4.1986208895142436e-07
-2.7293303078732504e-07   3.2548468528056603e-08   -4.1986208895142436e-07
-5.739722107947487e-07   -1.387324933461864e-07   -1.0078052681385466e-06
-5.739722107947487e-07   -1.387324933461864e-07   -1.0078052681385466e-06
-5.739722107947487e-07   -1.387324933461864e-07   -1.0078052681385466e-06
-5.739722107947487e-07   -1.387324933461864e-07   -1.0078052681385466e-06
3.995232338932725e-08   1.4332778334910003e-07   1.8463845485205315e-07
3.995232338932725e-08   1.4332778334910003e-07   1.8463845485205315e-07
3.995232338932725e-08   1.4332778334910003e-07   1.8463845485205315e-07
3.995232338932725e-08   1.4332778334910003e-07   1.8463845485205315e-07
1.2305392006905125e-07   -1.8964230009941327e-07   -6.581686885085347e-07
1.2305392006905125e-07   -1.8964230009941327e-07   -6.581686885085347e-07
1.2305392006905125e-07   -1.8964230009941327e-07   -6.581686885085347e-07
1.2305392006905125e-07   -1.8964230009941327e-07   -6.581686885085347e-07
-4.6052827615363854e-07   1.0537943325128092e-07   1.3745526518534838e-07
-4.6052827615363854e-07   1.0537943325128092e-07   1.3745526518534838e-07
-4.6052827615363854e-07   1.0537943325128092e-07   1.3745526518534838e-07
-4.6052827615363854e-07   1.0537943325128092e-07   1.3745526518534838e-07
-1.8272716653461312e-07   8.476478445678683e-09   -2.674048112964928e-07
-1.8272716653461312e-07   8.476478445678683e-09   -2.674048112964928e-07
-1.8272716653461312e-07   8.476478445678683e-09   -2.674048112964928e-07
-1.8272716653461312e-07   8.476478445678683e-09   -2.674048112964928e-07
              </DataArray>   
             <DataArray type="Float64" NumberOfComponents="3" Name="Stress" format="ascii">   
-1.1963337128572402   -0.29908342821431005   -0.29908342821431005
-1.1963337128572402   -0.29908342821431005   -0.29908342821431005
-1.1963337128572402   -0.29908342821431005   -0.29908342821431005
-1.1963337128572402   -0.29908342821431005   -0.29908342821431005
-0.6920172982610978   -0.022536346268540314   -0.014114484599881322
-0.6920172982610978   -0.022536346268540314   -0.014114484599881322
-0.6920172982610978   -0.022536346268540314   -0.014114484599881322
-0.6920172982610978   -0.022536346268540314   -0.014114484599881322
-0.745383411490996   -0.186345852872749   -0.186345852872749
-0.745383411490996   -0.186345852872749   -0.186345852872749
-0.745383411490996   -0.186345852872749   -0.186345852872749
-0.745383411490996   -0.186345852872749   -0.186345852872749
-1.1527833821248827   -0.09515011638838822   -0.03653959118647104
-1.1527833821248827   -0.09515011638838822   -0.03653959118647104
-1.1527833821248827   -0.09515011638838822   -0.03653959118647104
-1.1527833821248827   -0.09515011638838822   -0.03653959118647104
-0.9039760348708936   -0.148487102556911   -0.0025295420140336276
-0.9039760348708936   -0.148487102556911   -0.0025295420140336276
-0.9039760348708936   -0.148487102556911   -0.0025295420140336276
-0.9039760348708936   -0.148487102556911   -0.0025295420140336276
-1.2516060451221254   -0.31290151128053134   -0.31290151128053134
-1.2516060451221254   -0.31290151128053134   -0.31290151128053134
-1.2516060451221254   -0.31290151128053134   -0.31290151128053134
-1.2516060451221254   -0.31290151128053134   -0.31290151128053134
-0.6700462425055491   0.007920048007600294   -0.003925908825864112
-0.6700462425055491   0.007920048007600294   -0.003925908825864112
-0.6700462425055491   0.007920048007600294   -0.003925908825864112
-0.6700462425055491   0.007920048007600294   -0.003925908825864112
-0.7471236809366135   -0.18678092023415338   -0.18678092023415338
-0.7471236809366135   -0.18678092023415338   -0.18678092023415338
-0.7471236809366135   -0.18678092023415338   -0.18678092023415338
-0.7471236809366135   -0.18678092023415338   -0.18678092023415338
-1.191119848429649   -0.095949129818409   -0.05349294967308404
-1.191119848429649   -0.095949129818409   -0.05349294967308404
-1.191119848429649   -0.095949129818409   -0.05349294967308404
-1.191119848429649   -0.095949129818409   -0.05349294967308404
-0.9373040542630464   -0.13967231090063875   -0.049706076782438505
-0.9373040542630464   -0.13967231090063875   -0.049706076782438505
-0.9373040542630464   -0.13967231090063875   -0.049706076782438505
-0.9373040542630464   -0.13967231090063875   -0.049706076782438505
-1.2902571472570579   -0.32256428681426447   -0.32256428681426447
-1.2902571472570579   -0.32256428681426447   -0.32256428681426447
-1.2902571472570579   -0.32256428681426447   -0.32256428681426447
-1.2902571472570579   -0.32256428681426447   -0.32256428681426447
-0.6677613071894848   0.020059311681422415   0.0031907165859090397
-0.6677613071894848   0.020059311681422415   0.0031907165859090397
-0.6677613071894848   0.020059311681422415   0.0031907165859090397
-0.6677613071894848   0.020059311681422415   0.0031907165859090397
-0.7463230773457018   -0.18658076933642545   -0.18658076933642545
-0.7463230773457018   -0.18658076933642545   -0.18658076933642545
-0.7463230773457018   -0.18658076933642545   -0.18658076933642545
-0.7463230773457018   -0.18658076933642545   -0.18658076933642545
-1.2597296288268154   -0.08389645223401093   -0.0322855734010732
-1.2597296288268154   -0.08389645223401093   -0.0322855734010732
-1.2597296288268154   -0.08389645223401093   -0.0322855734010732
-1.2597296288268154   -0.08389645223401093   -0.0322855734010732
-0.9618910785040337   -0.13738833547412987   -0.08976155168983717
-0.9618910785040337   -0.13738833547412987   -0.08976155168983717
-0.9618910785040337   -0.13738833547412987   -0.08976155168983717
-0.9618910785040337   -0.13738833547412987   -0.08976155168983717
-0.7607634800971272   -0.1901908700242818   -0.1901908700242818
-0.7607634800971272   -0.1901908700242818   -0.1901908700242818
-0.7607634800971272   -0.1901908700242818   -0.1901908700242818
-0.7607634800971272   -0.1901908700242818   -0.1901908700242818
-0.31789132412916243   -0.021554447500765045   -0.0069680546286411855
-0.31789132412916243   -0.021554447500765045   -0.0069680546286411855
-0.31789132412916243   -0.021554447500765045   -0.0069680546286411855
-0.31789132412916243   -0.021554447500765045   -0.0069680546286411855
-0.3332660782287437   -0.08331651955718593   -0.08331651955718593
-0.3332660782287437   -0.08331651955718593   -0.08331651955718593
-0.3332660782287437   -0.08331651955718593   -0.08331651955718593
-0.3332660782287437   -0.08331651955718593   -0.08331651955718593
-0.6923826253483076   -0.08167291189036786   -0.026014863141688497
-0.6923826253483076   -0.08167291189036786   -0.026014863141688497
-0.6923826253483076   -0.08167291189036786   -0.026014863141688497
-0.6923826253483076   -0.08167291189036786   -0.026014863141688497
-0.5109117215595304   -0.09692372004394385   0.003931618479498715
-0.5109117215595304   -0.09692372004394385   0.003931618479498715
-0.5109117215595304   -0.09692372004394385   0.003931618479498715
-0.5109117215595304   -0.09692372004394385   0.003931618479498715
-0.7453834114909953   -0.18634585287274882   -0.18634585287274882
-0.7453834114909953   -0.18634585287274882   -0.18634585287274882
-0.7453834114909953   -0.18634585287274882   -0.18634585287274882
-0.7453834114909953   -0.18634585287274882   -0.18634585287274882
-0.29959190102625277   0.0020298124849979643   -0.00029196558691511193
-0.29959190102625277   0.0020298124849979643   -0.00029196558691511193
-0.29959190102625277   0.0020298124849979643   -0.00029196558691511193
-0.29959190102625277   0.0020298124849979643   -0.00029196558691511193
-0.3254753981868269   -0.08136884954670673   -0.08136884954670673
-0.3254753981868269   -0.08136884954670673   -0.08136884954670673
-0.3254753981868269   -0.08136884954670673   -0.08136884954670673
-0.3254753981868269   -0.08136884954670673   -0.08136884954670673
-0.6902906364170716   -0.06653151721742359   -0.022865100653173376
-0.6902906364170716   -0.06653151721742359   -0.022865100653173376
-0.6902906364170716   -0.06653151721742359   -0.022865100653173376
-0.6902906364170716   -0.06653151721742359   -0.022865100653173376
-0.5034479876228928   -0.08152402460218439   -0.02628359173717683
-0.5034479876228928   -0.08152402460218439   -0.02628359173717683
-0.5034479876228928   -0.08152402460218439   -0.02628359173717683
-0.5034479876228928   -0.08152402460218439   -0.02628359173717683
-0.7471236809366135   -0.18678092023415338   -0.18678092023415338
-0.7471236809366135   -0.18678092023415338   -0.18678092023415338
-0.7471236809366135   -0.18678092023415338   -0.18678092023415338
-0.7471236809366135   -0.18678092023415338   -0.18678092023415338
-0.28736195692472605   0.020160950212582365   0.007668557004510881
-0.28736195692472605   0.020160950212582365   0.007668557004510881
-0.28736195692472605   0.020160950212582365   0.007668557004510881
-0.28736195692472605   0.020160950212582365   0.007668557004510881
-0.3183215992385758   -0.07958039980964395   -0.07958039980964395
-0.3183215992385758   -0.07958039980964395   -0.07958039980964395
-0.3183215992385758   -0.07958039980964395   -0.07958039980964395
-0.3183215992385758   -0.07958039980964395   -0.07958039980964395
-0.6848344209475434   -0.051235406816734025   -0.014482849865333977
-0.6848344209475434   -0.051235406816734025   -0.014482849865333977
-0.6848344209475434   -0.051235406816734025   -0.014482849865333977
-0.6848344209475434   -0.051235406816734025   -0.014482849865333977
-0.5055601333706662   -0.0720435705245567   -0.058505215934598974
-0.5055601333706662   -0.0720435705245567   -0.058505215934598974
-0.5055601333706662   -0.0720435705245567   -0.058505215934598974
-0.5055601333706662   -0.0720435705245567   -0.058505215934598974
-0.34687424855920196   -0.08671856213980049   -0.08671856213980049
-0.34687424855920196   -0.08671856213980049   -0.08671856213980049
-0.34687424855920196   -0.08671856213980049   -0.08671856213980049
-0.34687424855920196   -0.08671856213980049   -0.08671856213980049
0.04003198544841278   0.002427457509300875   0.00034410892037933403
0.04003198544841278   0.002427457509300875   0.00034410892037933403
0.04003198544841278   0.002427457509300875   0.00034410892037933403
0.04003198544841278   0.002427457509300875   0.00034410892037933403
0.05271788764071894   0.013179471910179735   0.013179471910179735
0.05271788764071894   0.013179471910179735   0.013179471910179735
0.05271788764071894   0.013179471910179735   0.013179471910179735
0.05271788764071894   0.013179471910179735   0.013179471910179735
-0.31327956506483695   -0.054138049982679265   -0.012562423312158798
-0.31327956506483695   -0.054138049982679265   -0.012562423312158798
-0.31327956506483695   -0.054138049982679265   -0.012562423312158798
-0.31327956506483695   -0.054138049982679265   -0.012562423312158798
-0.13468330707429338   -0.034142371485675366   0.02257764818079366
-0.13468330707429338   -0.034142371485675366   0.02257764818079366
-0.13468330707429338   -0.034142371485675366   0.02257764818079366
-0.13468330707429338   -0.034142371485675366   0.02257764818079366
-0.3332660782287443   -0.08331651955718608   -0.08331651955718608
-0.3332660782287443   -0.08331651955718608   -0.08331651955718608
-0.3332660782287443   -0.08331651955718608   -0.08331651955718608
-0.3332660782287443   -0.08331651955718608   -0.08331651955718608
0.05371119254406637   0.02336473322412701   0.007960735112969254
0.05371119254406637   0.02336473322412701   0.007960735112969254
0.05371119254406637   0.02336473322412701   0.007960735112969254
0.05371119254406637   0.02336473322412701   0.007960735112969254
0.05975370016817576   0.01493842504204394   0.01493842504204394
0.05975370016817576   0.01493842504204394   0.01493842504204394
0.05975370016817576   0.01493842504204394   0.01493842504204394
0.05975370016817576   0.01493842504204394   0.01493842504204394
-0.3018777342116328   -0.036328570413712014   -0.008420808803733037
-0.3018777342116328   -0.036328570413712014   -0.008420808803733037
-0.3018777342116328   -0.036328570413712014   -0.008420808803733037
-0.3018777342116328   -0.036328570413712014   -0.008420808803733037
-0.12885630667348538   -0.021052025350193706   -0.007826657380955285
-0.12885630667348538   -0.021052025350193706   -0.007826657380955285
-0.12885630667348538   -0.021052025350193706   -0.007826657380955285
-0.12885630667348538   -0.021052025350193706   -0.007826657380955285
-0.32547539818682747   -0.08136884954670687   -0.08136884954670687
-0.32547539818682747   -0.08136884954670687   -0.08136884954670687
-0.32547539818682747   -0.08136884954670687   -0.08136884954670687
-0.32547539818682747   -0.08136884954670687   -0.08136884954670687
0.06474126779497151   0.04136860782664058   0.013446080391425645
0.06474126779497151   0.04136860782664058   0.013446080391425645
0.06474126779497151   0.04136860782664058   0.013446080391425645
0.06474126779497151   0.04136860782664058   0.013446080391425645
0.06910030332227932   0.01727507583056983   0.01727507583056983
0.06910030332227932   0.01727507583056983   0.01727507583056983
0.06910030332227932   0.01727507583056983   0.01727507583056983
0.06910030332227932   0.01727507583056983   0.01727507583056983
-0.28947498922526776   -0.015117925045529376   0.00019017549278018894
-0.28947498922526776   -0.015117925045529376   0.00019017549278018894
-0.28947498922526776   -0.015117925045529376   0.00019017549278018894
-0.28947498922526776   -0.015117925045529376   0.00019017549278018894
-0.12464698113079278   -0.008431984649364403   -0.037958957559367304
-0.12464698113079278   -0.008431984649364403   -0.037958957559367304
-0.12464698113079278   -0.008431984649364403   -0.037958957559367304
-0.12464698113079278   -0.008431984649364403   -0.037958957559367304
0.04386408018052979   0.010966020045132448   0.010966020045132448
0.04386408018052979   0.010966020045132448   0.010966020045132448
0.04386408018052979   0.010966020045132448   0.010966020045132448
0.04386408018052979   0.010966020045132448   0.010966020045132448
0.43212642728907386   0.039694441616929615   0.01353157313665804
0.43212642728907386   0.039694441616929615   0.01353157313665804
0.43212642728907386   0.039694441616929615   0.01353157313665804
0.43212642728907386   0.039694441616929615   0.01353157313665804
0.4695925975925489   0.11739814939813722   0.11739814939813722
0.4695925975925489   0.11739814939813722   0.11739814939813722
0.4695925975925489   0.11739814939813722   0.11739814939813722
0.4695925975925489   0.11739814939813722   0.11739814939813722
0.04012759288587257   -0.030391890716569878   -0.006200639237302856
0.04012759288587257   -0.030391890716569878   -0.006200639237302856
0.04012759288587257   -0.030391890716569878   -0.006200639237302856
0.04012759288587257   -0.030391890716569878   -0.006200639237302856
0.2461134404122056   0.030662186457393974   0.04462749061420705
0.2461134404122056   0.030662186457393974   0.04462749061420705
0.2461134404122056   0.030662186457393974   0.04462749061420705
0.2461134404122056   0.030662186457393974   0.04462749061420705
0.05271788764071912   0.01317947191017978   0.01317947191017978
0.05271788764071912   0.01317947191017978   0.01317947191017978
0.05271788764071912   0.01317947191017978   0.01317947191017978
0.05271788764071912   0.01317947191017978   0.01317947191017978
0.43768699469222255   0.054511478625908334   0.020756805668738235
0.43768699469222255   0.054511478625908334   0.020756805668738235
0.43768699469222255   0.054511478625908334   0.020756805668738235
0.43768699469222255   0.054511478625908334   0.020756805668738235
0.4679669508560736   0.1169917377140184   0.1169917377140184
0.4679669508560736   0.1169917377140184   0.1169917377140184
0.4679669508560736   0.1169917377140184   0.1169917377140184
0.4679669508560736   0.1169917377140184   0.1169917377140184
0.05122550045404423   -0.01296233211392468   0.00019818362735451664
0.05122550045404423   -0.01296233211392468   0.00019818362735451664
0.05122550045404423   -0.01296233211392468   0.00019818362735451664
0.05122550045404423   -0.01296233211392468   0.00019818362735451664
0.24468982750607884   0.04038789569414172   0.011520355218468871
0.24468982750607884   0.04038789569414172   0.011520355218468871
0.24468982750607884   0.04038789569414172   0.011520355218468871
0.24468982750607884   0.04038789569414172   0.011520355218468871
0.059753700168175855   0.014938425042043964   0.014938425042043964
0.059753700168175855   0.014938425042043964   0.014938425042043964
0.059753700168175855   0.014938425042043964   0.014938425042043964
0.059753700168175855   0.014938425042043964   0.014938425042043964
0.4403112568885735   0.06996348630468185   0.02574151928585803
0.4403112568885735   0.06996348630468185   0.02574151928585803
0.4403112568885735   0.06996348630468185   0.02574151928585803
0.4403112568885735   0.06996348630468185   0.02574151928585803
0.47740052516231296   0.11935013129057824   0.11935013129057824
0.47740052516231296   0.11935013129057824   0.11935013129057824
0.47740052516231296   0.11935013129057824   0.11935013129057824
0.47740052516231296   0.11935013129057824   0.11935013129057824
0.06567668839521122   0.010060528399710965   0.0073715486260876265
0.06567668839521122   0.010060528399710965   0.0073715486260876265
0.06567668839521122   0.010060528399710965   0.0073715486260876265
0.06567668839521122   0.010060528399710965   0.0073715486260876265
0.24886166694693207   0.05488639452442594   -0.019175066783365526
0.24886166694693207   0.05488639452442594   -0.019175066783365526
0.24886166694693207   0.05488639452442594   -0.019175066783365526
0.24886166694693207   0.05488639452442594   -0.019175066783365526
0.46831247148706423   0.11707811787176606   0.11707811787176606
0.46831247148706423   0.11707811787176606   0.11707811787176606
0.46831247148706423   0.11707811787176606   0.11707811787176606
0.46831247148706423   0.11707811787176606   0.11707811787176606
0.9737455867255143   0.07434820523238503   0.02596466904842759
0.9737455867255143   0.07434820523238503   0.02596466904842759
0.9737455867255143   0.07434820523238503   0.02596466904842759
0.9737455867255143   0.07434820523238503   0.02596466904842759
0.9957614043253276   0.2489403510813319   0.2489403510813319
0.9957614043253276   0.2489403510813319   0.2489403510813319
0.9957614043253276   0.2489403510813319   0.2489403510813319
0.9957614043253276   0.2489403510813319   0.2489403510813319
0.41751473385226895   -0.023552805025860518   -0.0020402148792610236
0.41751473385226895   -0.023552805025860518   -0.0020402148792610236
0.41751473385226895   -0.023552805025860518   -0.0020402148792610236
0.41751473385226895   -0.023552805025860518   -0.0020402148792610236
0.6941506940156471   0.09838026148265741   0.07820698801769649
0.6941506940156471   0.09838026148265741   0.07820698801769649
0.6941506940156471   0.09838026148265741   0.07820698801769649
0.6941506940156471   0.09838026148265741   0.07820698801769649
0.46959259759254846   0.11739814939813711   0.11739814939813711
0.46959259759254846   0.11739814939813711   0.11739814939813711
0.46959259759254846   0.11739814939813711   0.11739814939813711
0.46959259759254846   0.11739814939813711   0.11739814939813711
0.9229668090993683   0.08727266517165391   0.04663506086121357
0.9229668090993683   0.08727266517165391   0.04663506086121357
0.9229668090993683   0.08727266517165391   0.04663506086121357
0.9229668090993683   0.08727266517165391   0.04663506086121357
0.9664749861313329   0.24161874653283322   0.24161874653283322
0.9664749861313329   0.24161874653283322   0.24161874653283322
0.9664749861313329   0.24161874653283322   0.24161874653283322
0.9664749861313329   0.24161874653283322   0.24161874653283322
0.41933932834955023   -0.01278301148299886   0.0036283743784224186
0.41933932834955023   -0.01278301148299886   0.0036283743784224186
0.41933932834955023   -0.01278301148299886   0.0036283743784224186
0.41933932834955023   -0.01278301148299886   0.0036283743784224186
0.6739940430013539   0.1013405523199631   0.03747759930807497
0.6739940430013539   0.1013405523199631   0.03747759930807497
0.6739940430013539   0.1013405523199631   0.03747759930807497
0.6739940430013539   0.1013405523199631   0.03747759930807497
0.4679669508560736   0.1169917377140184   0.1169917377140184
0.4679669508560736   0.1169917377140184   0.1169917377140184
0.4679669508560736   0.1169917377140184   0.1169917377140184
0.4679669508560736   0.1169917377140184   0.1169917377140184
0.8936750832998844   0.08767171701089152   0.03156626189754006
0.8936750832998844   0.08767171701089152   0.03156626189754006
0.8936750832998844   0.08767171701089152   0.03156626189754006
0.8936750832998844   0.08767171701089152   0.03156626189754006
0.9226062692763829   0.23065156731909572   0.23065156731909572
0.9226062692763829   0.23065156731909572   0.23065156731909572
0.9226062692763829   0.23065156731909572   0.23065156731909572
0.9226062692763829   0.23065156731909572   0.23065156731909572
0.43524861914844604   0.014337031695776284   0.01360370081605149
0.43524861914844604   0.014337031695776284   0.01360370081605149
0.43524861914844604   0.014337031695776284   0.01360370081605149
0.43524861914844604   0.014337031695776284   0.01360370081605149
0.6457745179737829   0.11002280443099034   -0.009939959860097347
0.6457745179737829   0.11002280443099034   -0.009939959860097347
0.6457745179737829   0.11002280443099034   -0.009939959860097347
0.6457745179737829   0.11002280443099034   -0.009939959860097347
-0.9421968368676603   -0.06752896754306956   0.011101947634036758
-0.9421968368676603   -0.06752896754306956   0.011101947634036758
-0.9421968368676603   -0.06752896754306956   0.011101947634036758
-0.9421968368676603   -0.06752896754306956   0.011101947634036758
-0.6002102244007006   -0.014315733736561545   -0.004055228513501926
-0.6002102244007006   -0.014315733736561545   -0.004055228513501926
-0.6002102244007006   -0.014315733736561545   -0.004055228513501926
-0.6002102244007006   -0.014315733736561545   -0.004055228513501926
-0.603881843701634   0.024523004840311946   0.012924476533781794
-0.603881843701634   0.024523004840311946   0.012924476533781794
-0.603881843701634   0.024523004840311946   0.012924476533781794
-0.603881843701634   0.024523004840311946   0.012924476533781794
-0.956025180316344   -0.06546319942617077   -0.011539312502851895
-0.956025180316344   -0.06546319942617077   -0.011539312502851895
-0.956025180316344   -0.06546319942617077   -0.011539312502851895
-0.956025180316344   -0.06546319942617077   -0.011539312502851895
-0.745108369756894   -0.025594837207987803   -0.003207981380495682
-0.745108369756894   -0.025594837207987803   -0.003207981380495682
-0.745108369756894   -0.025594837207987803   -0.003207981380495682
-0.745108369756894   -0.025594837207987803   -0.003207981380495682
-0.9488509409643746   -0.04606831079402293   0.004936995624847833
-0.9488509409643746   -0.04606831079402293   0.004936995624847833
-0.9488509409643746   -0.04606831079402293   0.004936995624847833
-0.9488509409643746   -0.04606831079402293   0.004936995624847833
-0.6120354069510475   0.004148792310722016   -0.007469127183686336
-0.6120354069510475   0.004148792310722016   -0.007469127183686336
-0.6120354069510475   0.004148792310722016   -0.007469127183686336
-0.6120354069510475   0.004148792310722016   -0.007469127183686336
-0.6043638900654865   0.03502704395954759   0.014631960852537568
-0.6043638900654865   0.03502704395954759   0.014631960852537568
-0.6043638900654865   0.03502704395954759   0.014631960852537568
-0.6043638900654865   0.03502704395954759   0.014631960852537568
-0.9614868064605409   -0.05757340730614244   -0.015209219999675325
-0.9614868064605409   -0.05757340730614244   -0.015209219999675325
-0.9614868064605409   -0.05757340730614244   -0.015209219999675325
-0.9614868064605409   -0.05757340730614244   -0.015209219999675325
-0.7657348577341426   -0.017038037729845107   -0.007384702095712833
-0.7657348577341426   -0.017038037729845107   -0.007384702095712833
-0.7657348577341426   -0.017038037729845107   -0.007384702095712833
-0.7657348577341426   -0.017038037729845107   -0.007384702095712833
-0.9439744587178538   -0.02738803304992632   0.04216714445753558
-0.9439744587178538   -0.02738803304992632   0.04216714445753558
-0.9439744587178538   -0.02738803304992632   0.04216714445753558
-0.9439744587178538   -0.02738803304992632   0.04216714445753558
-0.6146415065690715   0.012076400942432924   -0.013805478648267908
-0.6146415065690715   0.012076400942432924   -0.013805478648267908
-0.6146415065690715   0.012076400942432924   -0.013805478648267908
-0.6146415065690715   0.012076400942432924   -0.013805478648267908
-0.5931035364743305   0.06115412770336623   0.026341233933328528
-0.5931035364743305   0.06115412770336623   0.026341233933328528
-0.5931035364743305   0.06115412770336623   0.026341233933328528
-0.5931035364743305   0.06115412770336623   0.026341233933328528
-0.9344157146080103   -0.04624739772925926   -0.024764807682060234
-0.9344157146080103   -0.04624739772925926   -0.024764807682060234
-0.9344157146080103   -0.04624739772925926   -0.024764807682060234
-0.9344157146080103   -0.04624739772925926   -0.024764807682060234
-0.7360789567175013   0.007087502525394168   0.01639410238904576
-0.7360789567175013   0.007087502525394168   0.01639410238904576
-0.7360789567175013   0.007087502525394168   0.01639410238904576
-0.7360789567175013   0.007087502525394168   0.01639410238904576
-0.6149806820127527   -0.08168613184484962   -0.010537118465474244
-0.6149806820127527   -0.08168613184484962   -0.010537118465474244
-0.6149806820127527   -0.08168613184484962   -0.010537118465474244
-0.6149806820127527   -0.08168613184484962   -0.010537118465474244
-0.2839345363061214   -0.006619128081204545   0.002940378631789876
-0.2839345363061214   -0.006619128081204545   0.002940378631789876
-0.2839345363061214   -0.006619128081204545   0.002940378631789876
-0.2839345363061214   -0.006619128081204545   0.002940378631789876
-0.2878309998884801   0.00532433934777625   0.004419767589203654
-0.2878309998884801   0.00532433934777625   0.004419767589203654
-0.2878309998884801   0.00532433934777625   0.004419767589203654
-0.2878309998884801   0.00532433934777625   0.004419767589203654
-0.6270216520069385   -0.05974766072082635   -0.018503899431602328
-0.6270216520069385   -0.05974766072082635   -0.018503899431602328
-0.6270216520069385   -0.05974766072082635   -0.018503899431602328
-0.6270216520069385   -0.05974766072082635   -0.018503899431602328
-0.45345228726795095   -0.0369645912632979   -0.010520440889778642
-0.45345228726795095   -0.0369645912632979   -0.010520440889778642
-0.45345228726795095   -0.0369645912632979   -0.010520440889778642
-0.45345228726795095   -0.0369645912632979   -0.010520440889778642
-0.6263831788956811   -0.06523490740894476   -0.009824287187199791
-0.6263831788956811   -0.06523490740894476   -0.009824287187199791
-0.6263831788956811   -0.06523490740894476   -0.009824287187199791
-0.6263831788956811   -0.06523490740894476   -0.009824287187199791
-0.2873572057268438   0.011923853308787674   0.00018922443637118397
-0.2873572057268438   0.011923853308787674   0.00018922443637118397
-0.2873572057268438   0.011923853308787674   0.00018922443637118397
-0.2873572057268438   0.011923853308787674   0.00018922443637118397
-0.28653385720904295   0.019974578011168836   0.005908596281761165
-0.28653385720904295   0.019974578011168836   0.005908596281761165
-0.28653385720904295   0.019974578011168836   0.005908596281761165
-0.28653385720904295   0.019974578011168836   0.005908596281761165
-0.6270345683623395   -0.04366305728674247   -0.020031329385437925
-0.6270345683623395   -0.04366305728674247   -0.020031329385437925
-0.6270345683623395   -0.04366305728674247   -0.020031329385437925
-0.6270345683623395   -0.04366305728674247   -0.020031329385437925
-0.4523584098059667   -0.020521199344220253   -0.005010905922359983
-0.4523584098059667   -0.020521199344220253   -0.005010905922359983
-0.4523584098059667   -0.020521199344220253   -0.005010905922359983
-0.4523584098059667   -0.020521199344220253   -0.005010905922359983
-0.6245422272854076   -0.04921279293163376   -0.0020198883558869146
-0.6245422272854076   -0.04921279293163376   -0.0020198883558869146
-0.6245422272854076   -0.04921279293163376   -0.0020198883558869146
-0.6245422272854076   -0.04921279293163376   -0.0020198883558869146
-0.28695789426632   0.027592617675715456   -0.0038296286691677645
-0.28695789426632   0.027592617675715456   -0.0038296286691677645
-0.28695789426632   0.027592617675715456   -0.0038296286691677645
-0.28695789426632   0.027592617675715456   -0.0038296286691677645
-0.2815328362116253   0.03466866492129114   0.011735924088872786
-0.2815328362116253   0.03466866492129114   0.011735924088872786
-0.2815328362116253   0.03466866492129114   0.011735924088872786
-0.2815328362116253   0.03466866492129114   0.011735924088872786
-0.6200823225959887   -0.02507470577455119   -0.02232386319704829
-0.6200823225959887   -0.02507470577455119   -0.02232386319704829
-0.6200823225959887   -0.02507470577455119   -0.02232386319704829
-0.6200823225959887   -0.02507470577455119   -0.02232386319704829
-0.4502371706150452   -0.004956215871152997   0.0022492858458177667
-0.4502371706150452   -0.004956215871152997   0.0022492858458177667
-0.4502371706150452   -0.004956215871152997   0.0022492858458177667
-0.4502371706150452   -0.004956215871152997   0.0022492858458177667
-0.29931161314779586   -0.06801909227131221   -0.01254504138647736
-0.29931161314779586   -0.06801909227131221   -0.01254504138647736
-0.29931161314779586   -0.06801909227131221   -0.01254504138647736
-0.29931161314779586   -0.06801909227131221   -0.01254504138647736
0.02984004502466177   0.006770582529752316   0.011658571922233905
0.02984004502466177   0.006770582529752316   0.011658571922233905
0.02984004502466177   0.006770582529752316   0.011658571922233905
0.02984004502466177   0.006770582529752316   0.011658571922233905
0.02864333843822161   0.016953326024646435   0.0009715532214101871
0.02864333843822161   0.016953326024646435   0.0009715532214101871
0.02864333843822161   0.016953326024646435   0.0009715532214101871
0.02864333843822161   0.016953326024646435   0.0009715532214101871
-0.3003791366150265   -0.044976550735003555   -0.008020025960751059
-0.3003791366150265   -0.044976550735003555   -0.008020025960751059
-0.3003791366150265   -0.044976550735003555   -0.008020025960751059
-0.3003791366150265   -0.044976550735003555   -0.008020025960751059
-0.13661422988146485   -0.0226356922558956   -0.004387081125255962
-0.13661422988146485   -0.0226356922558956   -0.004387081125255962
-0.13661422988146485   -0.0226356922558956   -0.004387081125255962
-0.13661422988146485   -0.0226356922558956   -0.004387081125255962
-0.30246346813595737   -0.051788327328794376   -0.011629906971614534
-0.30246346813595737   -0.051788327328794376   -0.011629906971614534
-0.30246346813595737   -0.051788327328794376   -0.011629906971614534
-0.30246346813595737   -0.051788327328794376   -0.011629906971614534
0.03186790335173468   0.02490533601101936   0.009142367802602344
0.03186790335173468   0.02490533601101936   0.009142367802602344
0.03186790335173468   0.02490533601101936   0.009142367802602344
0.03186790335173468   0.02490533601101936   0.009142367802602344
0.03120859568750564   0.033052407443988144   0.005397750585629324
0.03120859568750564   0.033052407443988144   0.005397750585629324
0.03120859568750564   0.033052407443988144   0.005397750585629324
0.03120859568750564   0.033052407443988144   0.005397750585629324
-0.2991782996113835   -0.02731606059706697   -0.010022977121707785
-0.2991782996113835   -0.02731606059706697   -0.010022977121707785
-0.2991782996113835   -0.02731606059706697   -0.010022977121707785
-0.2991782996113835   -0.02731606059706697   -0.010022977121707785
-0.13426793260136785   -0.005541504168466667   0.0015534360548973046
-0.13426793260136785   -0.005541504168466667   0.0015534360548973046
-0.13426793260136785   -0.005541504168466667   0.0015534360548973046
-0.13426793260136785   -0.005541504168466667   0.0015534360548973046
-0.300000575481726   -0.035465883600901284   -0.005984533469585973
-0.300000575481726   -0.035465883600901284   -0.005984533469585973
-0.300000575481726   -0.035465883600901284   -0.005984533469585973
-0.300000575481726   -0.035465883600901284   -0.005984533469585973
0.03325997153397766   0.04243133042395226   0.006275706838025303
0.03325997153397766   0.04243133042395226   0.006275706838025303
0.03325997153397766   0.04243133042395226   0.006275706838025303
0.03325997153397766   0.04243133042395226   0.006275706838025303
0.0321661093165356   0.05094138019828869   0.008845603170068137
0.0321661093165356   0.05094138019828869   0.008845603170068137
0.0321661093165356   0.05094138019828869   0.008845603170068137
0.0321661093165356   0.05094138019828869   0.008845603170068137
-0.29503539000459955   -0.008453773835617864   -0.012654406119090477
-0.29503539000459955   -0.008453773835617864   -0.012654406119090477
-0.29503539000459955   -0.008453773835617864   -0.012654406119090477
-0.29503539000459955   -0.008453773835617864   -0.012654406119090477
-0.13068579717930337   0.012334257726825209   0.008057395475401349
-0.13068579717930337   0.012334257726825209   0.008057395475401349
-0.13068579717930337   0.012334257726825209   0.008057395475401349
-0.13068579717930337   0.012334257726825209   0.008057395475401349
0.013064421777132781   -0.049928388724934915   -0.015520573060723821
0.013064421777132781   -0.049928388724934915   -0.015520573060723821
0.013064421777132781   -0.049928388724934915   -0.015520573060723821
0.013064421777132781   -0.049928388724934915   -0.015520573060723821
0.3540935322122529   0.024302885199867327   0.021472962697299983
0.3540935322122529   0.024302885199867327   0.021472962697299983
0.3540935322122529   0.024302885199867327   0.021472962697299983
0.3540935322122529   0.024302885199867327   0.021472962697299983
0.3538635223270102   0.032899420607593814   -0.003480012057621963
0.3538635223270102   0.032899420607593814   -0.003480012057621963
0.3538635223270102   0.032899420607593814   -0.003480012057621963
0.3538635223270102   0.032899420607593814   -0.003480012057621963
0.019545033197459736   -0.029843416673830062   0.002276769716077055
0.019545033197459736   -0.029843416673830062   0.002276769716077055
0.019545033197459736   -0.029843416673830062   0.002276769716077055
0.019545033197459736   -0.029843416673830062   0.002276769716077055
0.18284592981058995   -0.004376796938991394   0.00031259216182592635
0.18284592981058995   -0.004376796938991394   0.00031259216182592635
0.18284592981058995   -0.004376796938991394   0.00031259216182592635
0.18284592981058995   -0.004376796938991394   0.00031259216182592635
0.015444921908079983   -0.03641811478799844   -0.011649088616653085
0.015444921908079983   -0.03641811478799844   -0.011649088616653085
0.015444921908079983   -0.03641811478799844   -0.011649088616653085
0.015444921908079983   -0.03641811478799844   -0.011649088616653085
0.3600268466527655   0.041537331758137855   0.018698698420610824
0.3600268466527655   0.041537331758137855   0.018698698420610824
0.3600268466527655   0.041537331758137855   0.018698698420610824
0.3600268466527655   0.041537331758137855   0.018698698420610824
0.3569460856914522   0.04883688941329821   0.003473706026062023
0.3569460856914522   0.04883688941329821   0.003473706026062023
0.3569460856914522   0.04883688941329821   0.003473706026062023
0.3569460856914522   0.04883688941329821   0.003473706026062023
0.02052621418674425   -0.014045593534658184   -0.0009161559395312749
0.02052621418674425   -0.014045593534658184   -0.0009161559395312749
0.02052621418674425   -0.014045593534658184   -0.0009161559395312749
0.02052621418674425   -0.014045593534658184   -0.0009161559395312749
0.18556620072332333   0.010848062317783722   0.007615401661203759
0.18556620072332333   0.010848062317783722   0.007615401661203759
0.18556620072332333   0.010848062317783722   0.007615401661203759
0.18556620072332333   0.010848062317783722   0.007615401661203759
0.017514247962007595   -0.021457112881147898   -0.00856446771672487
0.017514247962007595   -0.021457112881147898   -0.00856446771672487
0.017514247962007595   -0.021457112881147898   -0.00856446771672487
0.017514247962007595   -0.021457112881147898   -0.00856446771672487
0.36145336440643155   0.05774372125003053   0.01710326776422686
0.36145336440643155   0.05774372125003053   0.01710326776422686
0.36145336440643155   0.05774372125003053   0.01710326776422686
0.36145336440643155   0.05774372125003053   0.01710326776422686
0.351445557319235   0.06722409258490522   0.00742050062803507
0.351445557319235   0.06722409258490522   0.00742050062803507
0.351445557319235   0.06722409258490522   0.00742050062803507
0.351445557319235   0.06722409258490522   0.00742050062803507
0.020573097871166523   0.0054748834340323   -0.0036529572925208783
0.020573097871166523   0.0054748834340323   -0.0036529572925208783
0.020573097871166523   0.0054748834340323   -0.0036529572925208783
0.020573097871166523   0.0054748834340323   -0.0036529572925208783
0.1885836889339218   0.02824491946627153   0.014389833215458026
0.1885836889339218   0.02824491946627153   0.014389833215458026
0.1885836889339218   0.02824491946627153   0.014389833215458026
0.1885836889339218   0.02824491946627153   0.014389833215458026
0.32592416776787003   -0.06618600602814859   -0.028884968296598368
0.32592416776787003   -0.06618600602814859   -0.028884968296598368
0.32592416776787003   -0.06618600602814859   -0.028884968296598368
0.32592416776787003   -0.06618600602814859   -0.028884968296598368
0.6722820613901054   0.044419292991754455   0.021146058605340176
0.6722820613901054   0.044419292991754455   0.021146058605340176
0.6722820613901054   0.044419292991754455   0.021146058605340176
0.6722820613901054   0.044419292991754455   0.021146058605340176
0.6801892558351906   0.020694681990992655   -0.04347730177791596
0.6801892558351906   0.020694681990992655   -0.04347730177791596
0.6801892558351906   0.020694681990992655   -0.04347730177791596
0.6801892558351906   0.020694681990992655   -0.04347730177791596
0.3478794171794255   -0.013225566532263255   0.012724449344308289
0.3478794171794255   -0.013225566532263255   0.012724449344308289
0.3478794171794255   -0.013225566532263255   0.012724449344308289
0.3478794171794255   -0.013225566532263255   0.012724449344308289
0.48133761664435815   -0.008663955918948613   -0.01223366324401274
0.48133761664435815   -0.008663955918948613   -0.01223366324401274
0.48133761664435815   -0.008663955918948613   -0.01223366324401274
0.48133761664435815   -0.008663955918948613   -0.01223366324401274
0.33544110129241994   -0.043415023238811315   -0.01927767338416602
0.33544110129241994   -0.043415023238811315   -0.01927767338416602
0.33544110129241994   -0.043415023238811315   -0.01927767338416602
0.33544110129241994   -0.043415023238811315   -0.01927767338416602
0.6988548710211674   0.05711143799651386   0.01343401814645196
0.6988548710211674   0.05711143799651386   0.01343401814645196
0.6988548710211674   0.05711143799651386   0.01343401814645196
0.6988548710211674   0.05711143799651386   0.01343401814645196
0.6881143248589228   0.03821699910307286   -0.010146569200591489
0.6881143248589228   0.03821699910307286   -0.010146569200591489
0.6881143248589228   0.03821699910307286   -0.010146569200591489
0.6881143248589228   0.03821699910307286   -0.010146569200591489
0.3467545773374144   -0.005319770447284863   0.006672824116455835
0.3467545773374144   -0.005319770447284863   0.006672824116455835
0.3467545773374144   -0.005319770447284863   0.006672824116455835
0.3467545773374144   -0.005319770447284863   0.006672824116455835
0.5070066107976101   0.012690021266902704   0.008380069761960134
0.5070066107976101   0.012690021266902704   0.008380069761960134
0.5070066107976101   0.012690021266902704   0.008380069761960134
0.5070066107976101   0.012690021266902704   0.008380069761960134
0.33673496806470327   -0.0331487974621074   -0.015596195232273803
0.33673496806470327   -0.0331487974621074   -0.015596195232273803
0.33673496806470327   -0.0331487974621074   -0.015596195232273803
0.33673496806470327   -0.0331487974621074   -0.015596195232273803
0.6973374724229509   0.06524956440921316   0.008936603313409335
0.6973374724229509   0.06524956440921316   0.008936603313409335
0.6973374724229509   0.06524956440921316   0.008936603313409335
0.6973374724229509   0.06524956440921316   0.008936603313409335
0.6874527293248626   0.058973544904084324   -0.01541784331882574
0.6874527293248626   0.058973544904084324   -0.01541784331882574
0.6874527293248626   0.058973544904084324   -0.01541784331882574
0.6874527293248626   0.058973544904084324   -0.01541784331882574
0.3398364358528904   0.012806540064752979   0.003792445816463064
0.3398364358528904   0.012806540064752979   0.003792445816463064
0.3398364358528904   0.012806540064752979   0.003792445816463064
0.3398364358528904   0.012806540064752979   0.003792445816463064
0.4943818839966499   0.022410164162236443   0.006365521905206825
0.4943818839966499   0.022410164162236443   0.006365521905206825
0.4943818839966499   0.022410164162236443   0.006365521905206825
0.4943818839966499   0.022410164162236443   0.006365521905206825
-0.7378155600587358   -0.03331948424863254   0.038531354584177765
-0.7378155600587358   -0.03331948424863254   0.038531354584177765
-0.7378155600587358   -0.03331948424863254   0.038531354584177765
-0.7378155600587358   -0.03331948424863254   0.038531354584177765
-0.4908460740054457   -0.019003149078997278   -0.010025700448380696
-0.4908460740054457   -0.019003149078997278   -0.010025700448380696
-0.4908460740054457   -0.019003149078997278   -0.010025700448380696
-0.4908460740054457   -0.019003149078997278   -0.010025700448380696
-0.47284209200418315   0.03993498924943188   0.0322685425630005
-0.47284209200418315   0.03993498924943188   0.0322685425630005
-0.47284209200418315   0.03993498924943188   0.0322685425630005
-0.47284209200418315   0.03993498924943188   0.0322685425630005
-0.741104830913106   -0.05303540044327178   -0.015675541508506436
-0.741104830913106   -0.05303540044327178   -0.015675541508506436
-0.741104830913106   -0.05303540044327178   -0.015675541508506436
-0.741104830913106   -0.05303540044327178   -0.015675541508506436
-0.5859138716907781   -0.009052159497376283   -0.0013281122323108852
-0.5859138716907781   -0.009052159497376283   -0.0013281122323108852
-0.5859138716907781   -0.009052159497376283   -0.0013281122323108852
-0.5859138716907781   -0.009052159497376283   -0.0013281122323108852
-0.7202216800554644   -0.007378062005115343   0.0430828743415452
-0.7202216800554644   -0.007378062005115343   0.0430828743415452
-0.7202216800554644   -0.007378062005115343   0.0430828743415452
-0.7202216800554644   -0.007378062005115343   0.0430828743415452
-0.49044163634810806   -0.002438742675007821   -0.013355447232184504
-0.49044163634810806   -0.002438742675007821   -0.013355447232184504
-0.49044163634810806   -0.002438742675007821   -0.013355447232184504
-0.49044163634810806   -0.002438742675007821   -0.013355447232184504
-0.4707908041508779   0.049580879311006035   0.029866210776404147
-0.4707908041508779   0.049580879311006035   0.029866210776404147
-0.4707908041508779   0.049580879311006035   0.029866210776404147
-0.4707908041508779   0.049580879311006035   0.029866210776404147
-0.729355597785341   -0.04427820868359722   -0.021423215442808376
-0.729355597785341   -0.04427820868359722   -0.021423215442808376
-0.729355597785341   -0.04427820868359722   -0.021423215442808376
-0.729355597785341   -0.04427820868359722   -0.021423215442808376
-0.5869367178087039   0.0022773557679707235   0.006643713321863122
-0.5869367178087039   0.0022773557679707235   0.006643713321863122
-0.5869367178087039   0.0022773557679707235   0.006643713321863122
-0.5869367178087039   0.0022773557679707235   0.006643713321863122
-0.7099243441858181   0.0017265816024824576   0.029728262268726362
-0.7099243441858181   0.0017265816024824576   0.029728262268726362
-0.7099243441858181   0.0017265816024824576   0.029728262268726362
-0.7099243441858181   0.0017265816024824576   0.029728262268726362
-0.48914141345558454   0.004656733319743242   -0.016962689755862473
-0.48914141345558454   0.004656733319743242   -0.016962689755862473
-0.48914141345558454   0.004656733319743242   -0.016962689755862473
-0.48914141345558454   0.004656733319743242   -0.016962689755862473
-0.4711353134573609   0.05610181249416679   0.02370084228442077
-0.4711353134573609   0.05610181249416679   0.02370084228442077
-0.4711353134573609   0.05610181249416679   0.02370084228442077
-0.4711353134573609   0.05610181249416679   0.02370084228442077
-0.7141782649857434   -0.03490404180796508   -0.02728464587837591
-0.7141782649857434   -0.03490404180796508   -0.02728464587837591
-0.7141782649857434   -0.03490404180796508   -0.02728464587837591
-0.7141782649857434   -0.03490404180796508   -0.02728464587837591
-0.5698779220490102   0.012455916045613732   0.014036344260001082
-0.5698779220490102   0.012455916045613732   0.014036344260001082
-0.5698779220490102   0.012455916045613732   0.014036344260001082
-0.5698779220490102   0.012455916045613732   0.014036344260001082
-0.49214765273118555   -0.046630979769825755   0.011094236613748554
-0.49214765273118555   -0.046630979769825755   0.011094236613748554
-0.49214765273118555   -0.046630979769825755   0.011094236613748554
-0.49214765273118555   -0.046630979769825755   0.011094236613748554
-0.24933128911380492   -0.009215363878485427   0.00043956872580344815
-0.24933128911380492   -0.009215363878485427   0.00043956872580344815
-0.24933128911380492   -0.009215363878485427   0.00043956872580344815
-0.24933128911380492   -0.009215363878485427   0.00043956872580344815
-0.24210789156114668   0.0244393519729771   0.017517403591621183
-0.24210789156114668   0.0244393519729771   0.017517403591621183
-0.24210789156114668   0.0244393519729771   0.017517403591621183
-0.24210789156114668   0.0244393519729771   0.017517403591621183
-0.4999274563179312   -0.045984952217691236   -0.017238337538616536
-0.4999274563179312   -0.045984952217691236   -0.017238337538616536
-0.4999274563179312   -0.045984952217691236   -0.017238337538616536
-0.4999274563179312   -0.045984952217691236   -0.017238337538616536
-0.36958928642560773   -0.018139510722131796   -0.007606966265868775
-0.36958928642560773   -0.018139510722131796   -0.007606966265868775
-0.36958928642560773   -0.018139510722131796   -0.007606966265868775
-0.36958928642560773   -0.018139510722131796   -0.007606966265868775
-0.49046265226539343   -0.026595778987434024   0.010696509493812973
-0.49046265226539343   -0.026595778987434024   0.010696509493812973
-0.49046265226539343   -0.026595778987434024   0.010696509493812973
-0.49046265226539343   -0.026595778987434024   0.010696509493812973
-0.2496639833935433   0.006958890962861515   -0.0027825945602444266
-0.2496639833935433   0.006958890962861515   -0.0027825945602444266
-0.2496639833935433   0.006958890962861515   -0.0027825945602444266
-0.2496639833935433   0.006958890962861515   -0.0027825945602444266
-0.24123265459339385   0.04053069181707809   0.015135502364719229
-0.24123265459339385   0.04053069181707809   0.015135502364719229
-0.24123265459339385   0.04053069181707809   0.015135502364719229
-0.24123265459339385   0.04053069181707809   0.015135502364719229
-0.49695080101686495   -0.030986135509659354   -0.020366758732866242
-0.49695080101686495   -0.030986135509659354   -0.020366758732866242
-0.49695080101686495   -0.030986135509659354   -0.020366758732866242
-0.49695080101686495   -0.030986135509659354   -0.020366758732866242
-0.36543602921680757   -0.0018954357547920353   -9.181783438716104e-05
-0.36543602921680757   -0.0018954357547920353   -9.181783438716104e-05
-0.36543602921680757   -0.0018954357547920353   -9.181783438716104e-05
-0.36543602921680757   -0.0018954357547920353   -9.181783438716104e-05
-0.4872953399815464   -0.010270052955569028   0.007194463889636519
-0.4872953399815464   -0.010270052955569028   0.007194463889636519
-0.4872953399815464   -0.010270052955569028   0.007194463889636519
-0.4872953399815464   -0.010270052955569028   0.007194463889636519
-0.24933464945965492   0.02136807543204617   -0.006211855581552392
-0.24933464945965492   0.02136807543204617   -0.006211855581552392
-0.24933464945965492   0.02136807543204617   -0.006211855581552392
-0.24933464945965492   0.02136807543204617   -0.006211855581552392
-0.24105549810991309   0.05746030954944551   0.011324388936859536
-0.24105549810991309   0.05746030954944551   0.011324388936859536
-0.24105549810991309   0.05746030954944551   0.011324388936859536
-0.24105549810991309   0.05746030954944551   0.011324388936859536
-0.4944318835985329   -0.014773387899061241   -0.02190680802821312
-0.4944318835985329   -0.014773387899061241   -0.02190680802821312
-0.4944318835985329   -0.014773387899061241   -0.02190680802821312
-0.4944318835985329   -0.014773387899061241   -0.02190680802821312
-0.36554394577377014   0.01303847236428661   0.0056696195823398195
-0.36554394577377014   0.01303847236428661   0.0056696195823398195
-0.36554394577377014   0.01303847236428661   0.0056696195823398195
-0.36554394577377014   0.01303847236428661   0.0056696195823398195
-0.2585507082454012   -0.053511550559033706   -0.0013613402516320333
-0.2585507082454012   -0.053511550559033706   -0.0013613402516320333
-0.2585507082454012   -0.053511550559033706   -0.0013613402516320333
-0.2585507082454012   -0.053511550559033706   -0.0013613402516320333
-0.009995137711193062   0.0023844033119796966   0.011032454676740007
-0.009995137711193062   0.0023844033119796966   0.011032454676740007
-0.009995137711193062   0.0023844033119796966   0.011032454676740007
-0.009995137711193062   0.0023844033119796966   0.011032454676740007
-0.010837094568782625   0.015593404547827462   0.005287708407160166
-0.010837094568782625   0.015593404547827462   0.005287708407160166
-0.010837094568782625   0.015593404547827462   0.005287708407160166
-0.010837094568782625   0.015593404547827462   0.005287708407160166
-0.2586178760775946   -0.03418207593865531   -0.006411091078988535
-0.2586178760775946   -0.03418207593865531   -0.006411091078988535
-0.2586178760775946   -0.03418207593865531   -0.006411091078988535
-0.2586178760775946   -0.03418207593865531   -0.006411091078988535
-0.1349189064372943   -0.016853566015932228   -0.004282989890773182
-0.1349189064372943   -0.016853566015932228   -0.004282989890773182
-0.1349189064372943   -0.016853566015932228   -0.004282989890773182
-0.1349189064372943   -0.016853566015932228   -0.004282989890773182
-0.25833827611003635   -0.03566950573152117   -0.003525661448329008
-0.25833827611003635   -0.03566950573152117   -0.003525661448329008
-0.25833827611003635   -0.03566950573152117   -0.003525661448329008
-0.25833827611003635   -0.03566950573152117   -0.003525661448329008
-0.00969582092353755   0.018501707953497006   0.008085773227716007
-0.00969582092353755   0.018501707953497006   0.008085773227716007
-0.00969582092353755   0.018501707953497006   0.008085773227716007
-0.00969582092353755   0.018501707953497006   0.008085773227716007
-0.009548052491904713   0.03311479805990089   0.0025010690436508285
-0.009548052491904713   0.03311479805990089   0.0025010690436508285
-0.009548052491904713   0.03311479805990089   0.0025010690436508285
-0.009548052491904713   0.03311479805990089   0.0025010690436508285
-0.2578560077810963   -0.01803149510532319   -0.009419076651391979
-0.2578560077810963   -0.01803149510532319   -0.009419076651391979
-0.2578560077810963   -0.01803149510532319   -0.009419076651391979
-0.2578560077810963   -0.01803149510532319   -0.009419076651391979
-0.13350402944442424   -0.0006674798106074582   0.001794775251912688
-0.13350402944442424   -0.0006674798106074582   0.001794775251912688
-0.13350402944442424   -0.0006674798106074582   0.001794775251912688
-0.13350402944442424   -0.0006674798106074582   0.001794775251912688
-0.25747109786680794   -0.01839602438405393   -0.007129997801219477
-0.25747109786680794   -0.01839602438405393   -0.007129997801219477
-0.25747109786680794   -0.01839602438405393   -0.007129997801219477
-0.25747109786680794   -0.01839602438405393   -0.007129997801219477
-0.008760600522436544   0.03465168922238806   0.004901437728504487
-0.008760600522436544   0.03465168922238806   0.004901437728504487
-0.008760600522436544   0.03465168922238806   0.004901437728504487
-0.008760600522436544   0.03465168922238806   0.004901437728504487
-0.009187259039938367   0.051152846363357436   -0.00046943608887704477
-0.009187259039938367   0.051152846363357436   -0.00046943608887704477
-0.009187259039938367   0.051152846363357436   -0.00046943608887704477
-0.009187259039938367   0.051152846363357436   -0.00046943608887704477
-0.2576283121320712   -0.0016126403516995777   -0.012466731272784824
-0.2576283121320712   -0.0016126403516995777   -0.012466731272784824
-0.2576283121320712   -0.0016126403516995777   -0.012466731272784824
-0.2576283121320712   -0.0016126403516995777   -0.012466731272784824
-0.13238050187236797   0.01553459424914672   0.007370146969036687
-0.13238050187236797   0.01553459424914672   0.007370146969036687
-0.13238050187236797   0.01553459424914672   0.007370146969036687
-0.13238050187236797   0.01553459424914672   0.007370146969036687
-0.02699666794623336   -0.05877325500715514   -0.01281753817932658
-0.02699666794623336   -0.05877325500715514   -0.01281753817932658
-0.02699666794623336   -0.05877325500715514   -0.01281753817932658
-0.02699666794623336   -0.05877325500715514   -0.01281753817932658
0.22825017034711817   0.015930090368144995   0.02098952303241422
0.22825017034711817   0.015930090368144995   0.02098952303241422
0.22825017034711817   0.015930090368144995   0.02098952303241422
0.22825017034711817   0.015930090368144995   0.02098952303241422
0.2207518585972574   0.008261879843520344   -0.008403573096968564
0.2207518585972574   0.008261879843520344   -0.008403573096968564
0.2207518585972574   0.008261879843520344   -0.008403573096968564
0.2207518585972574   0.008261879843520344   -0.008403573096968564
-0.01836694764969656   -0.021374470396854486   0.004606317947272475
-0.01836694764969656   -0.021374470396854486   0.004606317947272475
-0.01836694764969656   -0.021374470396854486   0.004606317947272475
-0.01836694764969656   -0.021374470396854486   0.004606317947272475
0.09946964446631185   -0.013764462903395148   -0.0024435753881116825
0.09946964446631185   -0.013764462903395148   -0.0024435753881116825
0.09946964446631185   -0.013764462903395148   -0.0024435753881116825
0.09946964446631185   -0.013764462903395148   -0.0024435753881116825
-0.026798146101557365   -0.042793529515521914   -0.016130615193364152
-0.026798146101557365   -0.042793529515521914   -0.016130615193364152
-0.026798146101557365   -0.042793529515521914   -0.016130615193364152
-0.026798146101557365   -0.042793529515521914   -0.016130615193364152
0.23079990536932365   0.031297787282392756   0.018800753324488446
0.23079990536932365   0.031297787282392756   0.018800753324488446
0.23079990536932365   0.031297787282392756   0.018800753324488446
0.23079990536932365   0.031297787282392756   0.018800753324488446
0.22450407751106097   0.02457348538149947   -0.01179862468305779
0.22450407751106097   0.02457348538149947   -0.01179862468305779
0.22450407751106097   0.02457348538149947   -0.01179862468305779
0.22450407751106097   0.02457348538149947   -0.01179862468305779
-0.01777338268681749   -0.0069005859628105595   0.0013898020917984693
-0.01777338268681749   -0.0069005859628105595   0.0013898020917984693
-0.01777338268681749   -0.0069005859628105595   0.0013898020917984693
-0.01777338268681749   -0.0069005859628105595   0.0013898020917984693
0.10049430704677267   0.0009045501072666474   0.0036054867064820428
0.10049430704677267   0.0009045501072666474   0.0036054867064820428
0.10049430704677267   0.0009045501072666474   0.0036054867064820428
0.10049430704677267   0.0009045501072666474   0.0036054867064820428
-0.025976406218922797   -0.02705672227849444   -0.019469179253044283
-0.025976406218922797   -0.02705672227849444   -0.019469179253044283
-0.025976406218922797   -0.02705672227849444   -0.019469179253044283
-0.025976406218922797   -0.02705672227849444   -0.019469179253044283
0.2344699468728862   0.046492467526903065   0.016111739980662912
0.2344699468728862   0.046492467526903065   0.016111739980662912
0.2344699468728862   0.046492467526903065   0.016111739980662912
0.2344699468728862   0.046492467526903065   0.016111739980662912
0.22686584717639932   0.044991071632526955   -0.012364765605280409
0.22686584717639932   0.044991071632526955   -0.012364765605280409
0.22686584717639932   0.044991071632526955   -0.012364765605280409
0.22686584717639932   0.044991071632526955   -0.012364765605280409
-0.017692392485054737   0.009977501297829563   -0.001819758248930835
-0.017692392485054737   0.009977501297829563   -0.001819758248930835
-0.017692392485054737   0.009977501297829563   -0.001819758248930835
-0.017692392485054737   0.009977501297829563   -0.001819758248930835
0.10414392437727271   0.017222171020111626   0.010772056848646154
0.10414392437727271   0.017222171020111626   0.010772056848646154
0.10414392437727271   0.017222171020111626   0.010772056848646154
0.10414392437727271   0.017222171020111626   0.010772056848646154
0.20416453857654585   -0.05844594365207119   -0.025062601800229217
0.20416453857654585   -0.05844594365207119   -0.025062601800229217
0.20416453857654585   -0.05844594365207119   -0.025062601800229217
0.20416453857654585   -0.05844594365207119   -0.025062601800229217
0.4502698488247522   0.033474374668258144   0.02351134212490221
0.4502698488247522   0.033474374668258144   0.02351134212490221
0.4502698488247522   0.033474374668258144   0.02351134212490221
0.4502698488247522   0.033474374668258144   0.02351134212490221
0.44679821742889064   -0.0026600105294606463   -0.03336657089114581
0.44679821742889064   -0.0026600105294606463   -0.03336657089114581
0.44679821742889064   -0.0026600105294606463   -0.03336657089114581
0.44679821742889064   -0.0026600105294606463   -0.03336657089114581
0.22301787115075686   -0.004640563004553587   0.015828932518602318
0.22301787115075686   -0.004640563004553587   0.015828932518602318
0.22301787115075686   -0.004640563004553587   0.015828932518602318
0.22301787115075686   -0.004640563004553587   0.015828932518602318
0.31498348045845237   -0.01153544173560897   -0.010435732587667458
0.31498348045845237   -0.01153544173560897   -0.010435732587667458
0.31498348045845237   -0.01153544173560897   -0.010435732587667458
0.31498348045845237   -0.01153544173560897   -0.010435732587667458
0.2044889755258911   -0.050616472044906276   -0.030839636565372912
0.2044889755258911   -0.050616472044906276   -0.030839636565372912
0.2044889755258911   -0.050616472044906276   -0.030839636565372912
0.2044889755258911   -0.050616472044906276   -0.030839636565372912
0.46665450633371464   0.04464329179085017   0.01861157131266332
0.46665450633371464   0.04464329179085017   0.01861157131266332
0.46665450633371464   0.04464329179085017   0.01861157131266332
0.46665450633371464   0.04464329179085017   0.01861157131266332
0.45806319712391863   0.0066438206669423155   -0.044817840098912556
0.45806319712391863   0.0066438206669423155   -0.044817840098912556
0.45806319712391863   0.0066438206669423155   -0.044817840098912556
0.45806319712391863   0.0066438206669423155   -0.044817840098912556
0.22480838865970335   0.0024612699296413035   0.01183514651201416
0.22480838865970335   0.0024612699296413035   0.01183514651201416
0.22480838865970335   0.0024612699296413035   0.01183514651201416
0.22480838865970335   0.0024612699296413035   0.01183514651201416
0.3295010887136785   -0.001452361967066565   -0.003126287078988375
0.3295010887136785   -0.001452361967066565   -0.003126287078988375
0.3295010887136785   -0.001452361967066565   -0.003126287078988375
0.3295010887136785   -0.001452361967066565   -0.003126287078988375
0.2069597281612128   -0.04133556859664672   -0.0336113174541524
0.2069597281612128   -0.04133556859664672   -0.0336113174541524
0.2069597281612128   -0.04133556859664672   -0.0336113174541524
0.2069597281612128   -0.04133556859664672   -0.0336113174541524
0.4788484027243269   0.05337720429514851   0.0123748042749266
0.4788484027243269   0.05337720429514851   0.0123748042749266
0.4788484027243269   0.05337720429514851   0.0123748042749266
0.4788484027243269   0.05337720429514851   0.0123748042749266
0.47593352457115135   0.030821509184744057   -0.042229797301844424
0.47593352457115135   0.030821509184744057   -0.042229797301844424
0.47593352457115135   0.030821509184744057   -0.042229797301844424
0.47593352457115135   0.030821509184744057   -0.042229797301844424
0.2256867660090644   0.018061908240049093   0.008668991950527805
0.2256867660090644   0.018061908240049093   0.008668991950527805
0.2256867660090644   0.018061908240049093   0.008668991950527805
0.2256867660090644   0.018061908240049093   0.008668991950527805
0.33220827525062335   0.010039761254056145   0.004999356056077802
0.33220827525062335   0.010039761254056145   0.004999356056077802
0.33220827525062335   0.010039761254056145   0.004999356056077802
0.33220827525062335   0.010039761254056145   0.004999356056077802
-0.52506817184667   -0.0168902650821659   0.03476081737700194
-0.52506817184667   -0.0168902650821659   0.03476081737700194
-0.52506817184667   -0.0168902650821659   0.03476081737700194
-0.52506817184667   -0.0168902650821659   0.03476081737700194
-0.36844291811815266   -0.024886425501035342   -0.013063480437601211
-0.36844291811815266   -0.024886425501035342   -0.013063480437601211
-0.36844291811815266   -0.024886425501035342   -0.013063480437601211
-0.36844291811815266   -0.024886425501035342   -0.013063480437601211
-0.34661716809314735   0.03491810680458013   0.0296043319107945
-0.34661716809314735   0.03491810680458013   0.0296043319107945
-0.34661716809314735   0.03491810680458013   0.0296043319107945
-0.34661716809314735   0.03491810680458013   0.0296043319107945
-0.5250966991230026   -0.04328395879829075   -0.01912262267306878
-0.5250966991230026   -0.04328395879829075   -0.01912262267306878
-0.5250966991230026   -0.04328395879829075   -0.01912262267306878
-0.5250966991230026   -0.04328395879829075   -0.01912262267306878
-0.42328581940408183   -0.0066838893808224414   -0.0011536421175412231
-0.42328581940408183   -0.0066838893808224414   -0.0011536421175412231
-0.42328581940408183   -0.0066838893808224414   -0.0011536421175412231
-0.42328581940408183   -0.0066838893808224414   -0.0011536421175412231
-0.505232586506359   0.0038807942184583832   0.03303318739339914
-0.505232586506359   0.0038807942184583832   0.03303318739339914
-0.505232586506359   0.0038807942184583832   0.03303318739339914
-0.505232586506359   0.0038807942184583832   0.03303318739339914
-0.3648600356272848   -0.010625401129663994   -0.01606649782564513
-0.3648600356272848   -0.010625401129663994   -0.01606649782564513
-0.3648600356272848   -0.010625401129663994   -0.01606649782564513
-0.3648600356272848   -0.010625401129663994   -0.01606649782564513
-0.34334287419942283   0.04220769777985302   0.02499359328852469
-0.34334287419942283   0.04220769777985302   0.02499359328852469
-0.34334287419942283   0.04220769777985302   0.02499359328852469
-0.34334287419942283   0.04220769777985302   0.02499359328852469
-0.5125314240058403   -0.0351525798221238   -0.02414026259182431
-0.5125314240058403   -0.0351525798221238   -0.02414026259182431
-0.5125314240058403   -0.0351525798221238   -0.02414026259182431
-0.5125314240058403   -0.0351525798221238   -0.02414026259182431
-0.4202285169095827   0.0029168716392971583   0.004296211733895664
-0.4202285169095827   0.0029168716392971583   0.004296211733895664
-0.4202285169095827   0.0029168716392971583   0.004296211733895664
-0.4202285169095827   0.0029168716392971583   0.004296211733895664
-0.49285612573605697   0.012602548834845823   0.026481100100123563
-0.49285612573605697   0.012602548834845823   0.026481100100123563
-0.49285612573605697   0.012602548834845823   0.026481100100123563
-0.49285612573605697   0.012602548834845823   0.026481100100123563
-0.36155721933029467   -0.004086477738205738   -0.019783956847772025
-0.36155721933029467   -0.004086477738205738   -0.019783956847772025
-0.36155721933029467   -0.004086477738205738   -0.019783956847772025
-0.36155721933029467   -0.004086477738205738   -0.019783956847772025
-0.3415344652343282   0.04938241454466705   0.02150383613337343
-0.3415344652343282   0.04938241454466705   0.02150383613337343
-0.3415344652343282   0.04938241454466705   0.02150383613337343
-0.3415344652343282   0.04938241454466705   0.02150383613337343
-0.49574124289061205   -0.024367936177816976   -0.028882113639515428
-0.49574124289061205   -0.024367936177816976   -0.028882113639515428
-0.49574124289061205   -0.024367936177816976   -0.028882113639515428
-0.49574124289061205   -0.024367936177816976   -0.028882113639515428
-0.4043893344790105   0.011945301503166597   0.011899449842827056
-0.4043893344790105   0.011945301503166597   0.011899449842827056
-0.4043893344790105   0.011945301503166597   0.011899449842827056
-0.4043893344790105   0.011945301503166597   0.011899449842827056
-0.3641401731539099   -0.029626908879293992   0.013190727761867159
-0.3641401731539099   -0.029626908879293992   0.013190727761867159
-0.3641401731539099   -0.029626908879293992   0.013190727761867159
-0.3641401731539099   -0.029626908879293992   0.013190727761867159
-0.21213313470494255   -0.016119256410240163   -0.0021125275845522125
-0.21213313470494255   -0.016119256410240163   -0.0021125275845522125
-0.21213313470494255   -0.016119256410240163   -0.0021125275845522125
-0.21213313470494255   -0.016119256410240163   -0.0021125275845522125
-0.20133053736016496   0.020373601512533097   0.01595751215473514
-0.20133053736016496   0.020373601512533097   0.01595751215473514
-0.20133053736016496   0.020373601512533097   0.01595751215473514
-0.20133053736016496   0.020373601512533097   0.01595751215473514
-0.3696665351655274   -0.035327898249713344   -0.015396498396811831
-0.3696665351655274   -0.035327898249713344   -0.015396498396811831
-0.3696665351655274   -0.035327898249713344   -0.015396498396811831
-0.3696665351655274   -0.035327898249713344   -0.015396498396811831
-0.2856937218264398   -0.013864173123178058   -0.005927559433717464
-0.2856937218264398   -0.013864173123178058   -0.005927559433717464
-0.2856937218264398   -0.013864173123178058   -0.005927559433717464
-0.2856937218264398   -0.013864173123178058   -0.005927559433717464
-0.3598382745052306   -0.012363389180363504   0.010780295835319795
-0.3598382745052306   -0.012363389180363504   0.010780295835319795
-0.3598382745052306   -0.012363389180363504   0.010780295835319795
-0.3598382745052306   -0.012363389180363504   0.010780295835319795
-0.20989652417915905   -0.0013286337155140673   -0.005170186712191466
-0.20989652417915905   -0.0013286337155140673   -0.005170186712191466
-0.20989652417915905   -0.0013286337155140673   -0.005170186712191466
-0.20989652417915905   -0.0013286337155140673   -0.005170186712191466
-0.1987736572163204   0.03533685780577953   0.013071064043783673
-0.1987736572163204   0.03533685780577953   0.013071064043783673
-0.1987736572163204   0.03533685780577953   0.013071064043783673
-0.1987736572163204   0.03533685780577953   0.013071064043783673
-0.36466056974458744   -0.021238051861893197   -0.01814913479555169
-0.36466056974458744   -0.021238051861893197   -0.01814913479555169
-0.36466056974458744   -0.021238051861893197   -0.01814913479555169
-0.36466056974458744   -0.021238051861893197   -0.01814913479555169
-0.2802006711034899   0.0008059501480264519   0.00037716827945551666
-0.2802006711034899   0.0008059501480264519   0.00037716827945551666
-0.2802006711034899   0.0008059501480264519   0.00037716827945551666
-0.2802006711034899   0.0008059501480264519   0.00037716827945551666
-0.354089140816889   0.003627949894265653   0.00984200808678104
-0.354089140816889   0.003627949894265653   0.00984200808678104
-0.354089140816889   0.003627949894265653   0.00984200808678104
-0.354089140816889   0.003627949894265653   0.00984200808678104
-0.20777767536867006   0.012038266824969654   -0.008650435737154823
-0.20777767536867006   0.012038266824969654   -0.008650435737154823
-0.20777767536867006   0.012038266824969654   -0.008650435737154823
-0.20777767536867006   0.012038266824969654   -0.008650435737154823
-0.1963020867764752   0.05131056400492558   0.010383154669659434
-0.1963020867764752   0.05131056400492558   0.010383154669659434
-0.1963020867764752   0.05131056400492558   0.010383154669659434
-0.1963020867764752   0.05131056400492558   0.010383154669659434
-0.36092532654694254   -0.006023144284644344   -0.02004491160038942
-0.36092532654694254   -0.006023144284644344   -0.02004491160038942
-0.36092532654694254   -0.006023144284644344   -0.02004491160038942
-0.36092532654694254   -0.006023144284644344   -0.02004491160038942
-0.27805749598824975   0.014649959091541778   0.0063959444868338725
-0.27805749598824975   0.014649959091541778   0.0063959444868338725
-0.27805749598824975   0.014649959091541778   0.0063959444868338725
-0.27805749598824975   0.014649959091541778   0.0063959444868338725
-0.21656146455022415   -0.04100836636284554   0.0006349331416475044
-0.21656146455022415   -0.04100836636284554   0.0006349331416475044
-0.21656146455022415   -0.04100836636284554   0.0006349331416475044
-0.21656146455022415   -0.04100836636284554   0.0006349331416475044
-0.05734242403149522   -0.0050126487252067035   0.008807550811709452
-0.05734242403149522   -0.0050126487252067035   0.008807550811709452
-0.05734242403149522   -0.0050126487252067035   0.008807550811709452
-0.05734242403149522   -0.0050126487252067035   0.008807550811709452
-0.05597981234089137   0.008228627960587426   0.0030043646805219264
-0.05597981234089137   0.008228627960587426   0.0030043646805219264
-0.05597981234089137   0.008228627960587426   0.0030043646805219264
-0.05597981234089137   0.008228627960587426   0.0030043646805219264
-0.21419057621742238   -0.02389076334501809   -0.004078317274003765
-0.21419057621742238   -0.02389076334501809   -0.004078317274003765
-0.21419057621742238   -0.02389076334501809   -0.004078317274003765
-0.21419057621742238   -0.02389076334501809   -0.004078317274003765
-0.13625528928910177   -0.014755011692199114   -0.004224866493307866
-0.13625528928910177   -0.014755011692199114   -0.004224866493307866
-0.13625528928910177   -0.014755011692199114   -0.004224866493307866
-0.13625528928910177   -0.014755011692199114   -0.004224866493307866
-0.21383469415442233   -0.024317629499189433   -0.0018720408048306172
-0.21383469415442233   -0.024317629499189433   -0.0018720408048306172
-0.21383469415442233   -0.024317629499189433   -0.0018720408048306172
-0.21383469415442233   -0.024317629499189433   -0.0018720408048306172
-0.05507004266620588   0.009921145852444439   0.005860695162092365
-0.05507004266620588   0.009921145852444439   0.005860695162092365
-0.05507004266620588   0.009921145852444439   0.005860695162092365
-0.05507004266620588   0.009921145852444439   0.005860695162092365
-0.05288965119476162   0.02499471318622552   0.0007456082200168537
-0.05288965119476162   0.02499471318622552   0.0007456082200168537
-0.05288965119476162   0.02499471318622552   0.0007456082200168537
-0.05288965119476162   0.02499471318622552   0.0007456082200168537
-0.2116293692109064   -0.008849674289940324   -0.007020963833426151
-0.2116293692109064   -0.008849674289940324   -0.007020963833426151
-0.2116293692109064   -0.008849674289940324   -0.007020963833426151
-0.2116293692109064   -0.008849674289940324   -0.007020963833426151
-0.13295318169251125   0.000295805132352521   0.0017238915187552956
-0.13295318169251125   0.000295805132352521   0.0017238915187552956
-0.13295318169251125   0.000295805132352521   0.0017238915187552956
-0.13295318169251125   0.000295805132352521   0.0017238915187552956
-0.2108377737054968   -0.007605470899323993   -0.004307189696995022
-0.2108377737054968   -0.007605470899323993   -0.004307189696995022
-0.2108377737054968   -0.007605470899323993   -0.004307189696995022
-0.2108377737054968   -0.007605470899323993   -0.004307189696995022
-0.05251248482774062   0.024919271668038347   0.002706881573309038
-0.05251248482774062   0.024919271668038347   0.002706881573309038
-0.05251248482774062   0.024919271668038347   0.002706881573309038
-0.05251248482774062   0.024919271668038347   0.002706881573309038
-0.050112708960647234   0.04200412726710326   -0.0018984963501946298
-0.050112708960647234   0.04200412726710326   -0.0018984963501946298
-0.050112708960647234   0.04200412726710326   -0.0018984963501946298
-0.050112708960647234   0.04200412726710326   -0.0018984963501946298
-0.20938994808093758   0.006362463164063227   -0.010108051011789763
-0.20938994808093758   0.006362463164063227   -0.010108051011789763
-0.20938994808093758   0.006362463164063227   -0.010108051011789763
-0.20938994808093758   0.006362463164063227   -0.010108051011789763
-0.1299393184017489   0.015419097147206299   0.007455093950254222
-0.1299393184017489   0.015419097147206299   0.007455093950254222
-0.1299393184017489   0.015419097147206299   0.007455093950254222
-0.1299393184017489   0.015419097147206299   0.007455093950254222
-0.0704913512628781   -0.050338387812016015   -0.01161134625839614
-0.0704913512628781   -0.050338387812016015   -0.01161134625839614
-0.0704913512628781   -0.050338387812016015   -0.01161134625839614
-0.0704913512628781   -0.050338387812016015   -0.01161134625839614
0.09518592875793422   0.007422314829183228   0.019086931096681047
0.09518592875793422   0.007422314829183228   0.019086931096681047
0.09518592875793422   0.007422314829183228   0.019086931096681047
0.09518592875793422   0.007422314829183228   0.019086931096681047
0.08829729782943545   -0.0031253112494092038   -0.010812131794633126
0.08829729782943545   -0.0031253112494092038   -0.010812131794633126
0.08829729782943545   -0.0031253112494092038   -0.010812131794633126
0.08829729782943545   -0.0031253112494092038   -0.010812131794633126
-0.05912030339055448   -0.011603306076787964   0.007133843469581198
-0.05912030339055448   -0.011603306076787964   0.007133843469581198
-0.05912030339055448   -0.011603306076787964   0.007133843469581198
-0.05912030339055448   -0.011603306076787964   0.007133843469581198
0.0128715007289966   -0.014008842027107176   -0.003016043656532098
0.0128715007289966   -0.014008842027107176   -0.003016043656532098
0.0128715007289966   -0.014008842027107176   -0.003016043656532098
0.0128715007289966   -0.014008842027107176   -0.003016043656532098
-0.068112053364194   -0.035108664686907556   -0.01431954778849623
-0.068112053364194   -0.035108664686907556   -0.01431954778849623
-0.068112053364194   -0.035108664686907556   -0.01431954778849623
-0.068112053364194   -0.035108664686907556   -0.01431954778849623
0.09879426789324802   0.02188526745088367   0.016662139824136876
0.09879426789324802   0.02188526745088367   0.016662139824136876
0.09879426789324802   0.02188526745088367   0.016662139824136876
0.09879426789324802   0.02188526745088367   0.016662139824136876
0.09406355880290442   0.012737111695541004   -0.012258651106165617
0.09406355880290442   0.012737111695541004   -0.012258651106165617
0.09406355880290442   0.012737111695541004   -0.012258651106165617
0.09406355880290442   0.012737111695541004   -0.012258651106165617
-0.056891898233979554   0.001847492776752998   0.003881593433399304
-0.056891898233979554   0.001847492776752998   0.003881593433399304
-0.056891898233979554   0.001847492776752998   0.003881593433399304
-0.056891898233979554   0.001847492776752998   0.003881593433399304
0.015949163250776045   -0.000339622319375457   0.00304272895168178
0.015949163250776045   -0.000339622319375457   0.00304272895168178
0.015949163250776045   -0.000339622319375457   0.00304272895168178
0.015949163250776045   -0.000339622319375457   0.00304272895168178
-0.06556986437759245   -0.020224993017422917   -0.01743575149048887
-0.06556986437759245   -0.020224993017422917   -0.01743575149048887
-0.06556986437759245   -0.020224993017422917   -0.01743575149048887
-0.06556986437759245   -0.020224993017422917   -0.01743575149048887
0.10404761136400789   0.0361156839072075   0.014283039487684382
0.10404761136400789   0.0361156839072075   0.014283039487684382
0.10404761136400789   0.0361156839072075   0.014283039487684382
0.10404761136400789   0.0361156839072075   0.014283039487684382
0.09871359135918269   0.030786504990594557   -0.014180723629339441
0.09871359135918269   0.030786504990594557   -0.014180723629339441
0.09871359135918269   0.030786504990594557   -0.014180723629339441
0.09871359135918269   0.030786504990594557   -0.014180723629339441
-0.05451202293299174   0.01732161786377906   0.0007874431914070036
-0.05451202293299174   0.01732161786377906   0.0007874431914070036
-0.05451202293299174   0.01732161786377906   0.0007874431914070036
-0.05451202293299174   0.01732161786377906   0.0007874431914070036
0.02066808219369056   0.014488113216055422   0.009303015398833717
0.02066808219369056   0.014488113216055422   0.009303015398833717
0.02066808219369056   0.014488113216055422   0.009303015398833717
0.02066808219369056   0.014488113216055422   0.009303015398833717
0.07511331268298144   -0.050858306562380384   -0.02299552788651832
0.07511331268298144   -0.050858306562380384   -0.02299552788651832
0.07511331268298144   -0.050858306562380384   -0.02299552788651832
0.07511331268298144   -0.050858306562380384   -0.02299552788651832
0.23005715267845475   0.022814103096207246   0.024857175547436796
0.23005715267845475   0.022814103096207246   0.024857175547436796
0.23005715267845475   0.022814103096207246   0.024857175547436796
0.23005715267845475   0.022814103096207246   0.024857175547436796
0.22767823014195845   -0.012931926061557679   -0.030288241757619717
0.22767823014195845   -0.012931926061557679   -0.030288241757619717
0.22767823014195845   -0.012931926061557679   -0.030288241757619717
0.22767823014195845   -0.012931926061557679   -0.030288241757619717
0.0956705951086699   0.004358034959282043   0.018571008392847786
0.0956705951086699   0.004358034959282043   0.018571008392847786
0.0956705951086699   0.004358034959282043   0.018571008392847786
0.0956705951086699   0.004358034959282043   0.018571008392847786
0.14892422685985993   -0.010653392206177816   -0.007997651521279162
0.14892422685985993   -0.010653392206177816   -0.007997651521279162
0.14892422685985993   -0.010653392206177816   -0.007997651521279162
0.14892422685985993   -0.010653392206177816   -0.007997651521279162
0.07730845466908182   -0.04227047047814274   -0.026611188367666763
0.07730845466908182   -0.04227047047814274   -0.026611188367666763
0.07730845466908182   -0.04227047047814274   -0.026611188367666763
0.07730845466908182   -0.04227047047814274   -0.026611188367666763
0.24757493800271496   0.03523114679703576   0.02103222468757133
0.24757493800271496   0.03523114679703576   0.02103222468757133
0.24757493800271496   0.03523114679703576   0.02103222468757133
0.24757493800271496   0.03523114679703576   0.02103222468757133
0.2404322146855596   -0.004055524211060237   -0.03637265021734979
0.2404322146855596   -0.004055524211060237   -0.03637265021734979
0.2404322146855596   -0.004055524211060237   -0.03637265021734979
0.2404322146855596   -0.004055524211060237   -0.03637265021734979
0.09904195548945659   0.010863183474111235   0.014507260548023912
0.09904195548945659   0.010863183474111235   0.014507260548023912
0.09904195548945659   0.010863183474111235   0.014507260548023912
0.09904195548945659   0.010863183474111235   0.014507260548023912
0.1617295334222984   -0.0016814395052111852   -0.0008799783104936603
0.1617295334222984   -0.0016814395052111852   -0.0008799783104936603
0.1617295334222984   -0.0016814395052111852   -0.0008799783104936603
0.1617295334222984   -0.0016814395052111852   -0.0008799783104936603
0.08081202409336684   -0.03488406239807579   -0.03089515056023668
0.08081202409336684   -0.03488406239807579   -0.03089515056023668
0.08081202409336684   -0.03488406239807579   -0.03089515056023668
0.08081202409336684   -0.03488406239807579   -0.03089515056023668
0.2602653539939335   0.04329492957341209   0.015442592540051338
0.2602653539939335   0.04329492957341209   0.015442592540051338
0.2602653539939335   0.04329492957341209   0.015442592540051338
0.2602653539939335   0.04329492957341209   0.015442592540051338
0.26006023326802447   0.015407447090274536   -0.03897678105730885
0.26006023326802447   0.015407447090274536   -0.03897678105730885
0.26006023326802447   0.015407447090274536   -0.03897678105730885
0.26006023326802447   0.015407447090274536   -0.03897678105730885
0.10248935268365272   0.0239469475111944   0.011537640472410715
0.10248935268365272   0.0239469475111944   0.011537640472410715
0.10248935268365272   0.0239469475111944   0.011537640472410715
0.10248935268365272   0.0239469475111944   0.011537640472410715
0.168241930785397   0.008170318554769341   0.0052786270162354645
0.168241930785397   0.008170318554769341   0.0052786270162354645
0.168241930785397   0.008170318554769341   0.0052786270162354645
0.168241930785397   0.008170318554769341   0.0052786270162354645
-0.3127244600936731   -0.0049253275313834305   0.031023551386178405
-0.3127244600936731   -0.0049253275313834305   0.031023551386178405
-0.3127244600936731   -0.0049253275313834305   0.031023551386178405
-0.3127244600936731   -0.0049253275313834305   0.031023551386178405
-0.24530420385153096   -0.03136497445495204   -0.015242445617757791
-0.24530420385153096   -0.03136497445495204   -0.015242445617757791
-0.24530420385153096   -0.03136497445495204   -0.015242445617757791
-0.24530420385153096   -0.03136497445495204   -0.015242445617757791
-0.22198776730045455   0.02646179069381268   0.02649719296490798
-0.22198776730045455   0.02646179069381268   0.02649719296490798
-0.22198776730045455   0.02646179069381268   0.02649719296490798
-0.22198776730045455   0.02646179069381268   0.02649719296490798
-0.31147163102428876   -0.033981323415331666   -0.02078937010107355
-0.31147163102428876   -0.033981323415331666   -0.02078937010107355
-0.31147163102428876   -0.033981323415331666   -0.02078937010107355
-0.31147163102428876   -0.033981323415331666   -0.02078937010107355
-0.2624927957407708   -0.00715438815399333   -0.0040796521836225785
-0.2624927957407708   -0.00715438815399333   -0.0040796521836225785
-0.2624927957407708   -0.00715438815399333   -0.0040796521836225785
-0.2624927957407708   -0.00715438815399333   -0.0040796521836225785
-0.2919759793192613   0.013088518915680934   0.02961904609305245
-0.2919759793192613   0.013088518915680934   0.02961904609305245
-0.2919759793192613   0.013088518915680934   0.02961904609305245
-0.2919759793192613   0.013088518915680934   0.02961904609305245
-0.2401164494529425   -0.01924108208465898   -0.018443345019056385
-0.2401164494529425   -0.01924108208465898   -0.018443345019056385
-0.2401164494529425   -0.01924108208465898   -0.018443345019056385
-0.2401164494529425   -0.01924108208465898   -0.018443345019056385
-0.2165539837513469   0.03334887427316122   0.022389567630107347
-0.2165539837513469   0.03334887427316122   0.022389567630107347
-0.2165539837513469   0.03334887427316122   0.022389567630107347
-0.2165539837513469   0.03334887427316122   0.022389567630107347
-0.2970999687740208   -0.02617375131423156   -0.02593813005646925
-0.2970999687740208   -0.02617375131423156   -0.02593813005646925
-0.2970999687740208   -0.02617375131423156   -0.02593813005646925
-0.2970999687740208   -0.02617375131423156   -0.02593813005646925
-0.2549778587370504   0.001844374106414734   0.0016836328637757168
-0.2549778587370504   0.001844374106414734   0.0016836328637757168
-0.2549778587370504   0.001844374106414734   0.0016836328637757168
-0.2549778587370504   0.001844374106414734   0.0016836328637757168
-0.27760802509109433   0.02144143323997961   0.023906403803947235
-0.27760802509109433   0.02144143323997961   0.023906403803947235
-0.27760802509109433   0.02144143323997961   0.023906403803947235
-0.27760802509109433   0.02144143323997961   0.023906403803947235
-0.23475670181279354   -0.012977084659570669   -0.022298063744391965
-0.23475670181279354   -0.012977084659570669   -0.022298063744391965
-0.23475670181279354   -0.012977084659570669   -0.022298063744391965
-0.23475670181279354   -0.012977084659570669   -0.022298063744391965
-0.2121750830964108   0.041982991352349466   0.019306364217115565
-0.2121750830964108   0.041982991352349466   0.019306364217115565
-0.2121750830964108   0.041982991352349466   0.019306364217115565
-0.2121750830964108   0.041982991352349466   0.019306364217115565
-0.27780248408920843   -0.013662848290593013   -0.030003196422800887
-0.27780248408920843   -0.013662848290593013   -0.030003196422800887
-0.27780248408920843   -0.013662848290593013   -0.030003196422800887
-0.27780248408920843   -0.013662848290593013   -0.030003196422800887
-0.23986487932644912   0.01074960040864778   0.00880788012500532
-0.23986487932644912   0.01074960040864778   0.00880788012500532
-0.23986487932644912   0.01074960040864778   0.00880788012500532
-0.23986487932644912   0.01074960040864778   0.00880788012500532
-0.2365551708372392   -0.017628007600032986   0.014765752598781882
-0.2365551708372392   -0.017628007600032986   0.014765752598781882
-0.2365551708372392   -0.017628007600032986   0.014765752598781882
-0.2365551708372392   -0.017628007600032986   0.014765752598781882
-0.1748920832112376   -0.023763837072131335   -0.0045050986393643635
-0.1748920832112376   -0.023763837072131335   -0.0045050986393643635
-0.1748920832112376   -0.023763837072131335   -0.0045050986393643635
-0.1748920832112376   -0.023763837072131335   -0.0045050986393643635
-0.16194558529299555   0.012005581375139553   0.013549949854913155
-0.16194558529299555   0.012005581375139553   0.013549949854913155
-0.16194558529299555   0.012005581375139553   0.013549949854913155
-0.16194558529299555   0.012005581375139553   0.013549949854913155
-0.2401789263352636   -0.02504368024317131   -0.01295313127214803
-0.2401789263352636   -0.02504368024317131   -0.01295313127214803
-0.2401789263352636   -0.02504368024317131   -0.01295313127214803
-0.2401789263352636   -0.02504368024317131   -0.01295313127214803
-0.20286133568870782   -0.01251538675044988   -0.005536971033315904
-0.20286133568870782   -0.01251538675044988   -0.005536971033315904
-0.20286133568870782   -0.01251538675044988   -0.005536971033315904
-0.20286133568870782   -0.01251538675044988   -0.005536971033315904
-0.23044526615008182   -0.0018917057376197505   0.012563195148204122
-0.23044526615008182   -0.0018917057376197505   0.012563195148204122
-0.23044526615008182   -0.0018917057376197505   0.012563195148204122
-0.23044526615008182   -0.0018917057376197505   0.012563195148204122
-0.17057713612861253   -0.01004428378084796   -0.007557939167182347
-0.17057713612861253   -0.01004428378084796   -0.007557939167182347
-0.17057713612861253   -0.01004428378084796   -0.007557939167182347
-0.17057713612861253   -0.01004428378084796   -0.007557939167182347
-0.15726805134022318   0.02603596426857261   0.010828427452413098
-0.15726805134022318   0.02603596426857261   0.010828427452413098
-0.15726805134022318   0.02603596426857261   0.010828427452413098
-0.15726805134022318   0.02603596426857261   0.010828427452413098
-0.2331226187295004   -0.011590308775049199   -0.015514424212445982
-0.2331226187295004   -0.011590308775049199   -0.015514424212445982
-0.2331226187295004   -0.011590308775049199   -0.015514424212445982
-0.2331226187295004   -0.011590308775049199   -0.015514424212445982
-0.19606122361846587   0.0009766110977679487   0.000505247779591763
-0.19606122361846587   0.0009766110977679487   0.000505247779591763
-0.19606122361846587   0.0009766110977679487   0.000505247779591763
-0.19606122361846587   0.0009766110977679487   0.000505247779591763
-0.2228161158099835   0.013038518505128695   0.011389263104956799
-0.2228161158099835   0.013038518505128695   0.011389263104956799
-0.2228161158099835   0.013038518505128695   0.011389263104956799
-0.2228161158099835   0.013038518505128695   0.011389263104956799
-0.16630241706667326   0.002679274181458975   -0.010986711092724583
-0.16630241706667326   0.002679274181458975   -0.010986711092724583
-0.16630241706667326   0.002679274181458975   -0.010986711092724583
-0.16630241706667326   0.002679274181458975   -0.010986711092724583
-0.15260404833111463   0.04129731347882455   0.00823609900112715
-0.15260404833111463   0.04129731347882455   0.00823609900112715
-0.15260404833111463   0.04129731347882455   0.00823609900112715
-0.15260404833111463   0.04129731347882455   0.00823609900112715
-0.2273234970123838   0.003136076534999581   -0.01758879054539598
-0.2273234970123838   0.003136076534999581   -0.01758879054539598
-0.2273234970123838   0.003136076534999581   -0.01758879054539598
-0.2273234970123838   0.003136076534999581   -0.01758879054539598
-0.19115518655141045   0.014241738207454759   0.006429327562459676
-0.19115518655141045   0.014241738207454759   0.006429327562459676
-0.19115518655141045   0.014241738207454759   0.006429327562459676
-0.19115518655141045   0.014241738207454759   0.006429327562459676
-0.17464469658847664   -0.029700844932069162   0.0026688423343751667
-0.17464469658847664   -0.029700844932069162   0.0026688423343751667
-0.17464469658847664   -0.029700844932069162   0.0026688423343751667
-0.17464469658847664   -0.029700844932069162   0.0026688423343751667
-0.10533829411089014   -0.01271172453398456   0.006378552043658782
-0.10533829411089014   -0.01271172453398456   0.006378552043658782
-0.10533829411089014   -0.01271172453398456   0.006378552043658782
-0.10533829411089014   -0.01271172453398456   0.006378552043658782
-0.10188477885142311   -0.00045168593590045464   0.000811272405585128
-0.10188477885142311   -0.00045168593590045464   0.000811272405585128
-0.10188477885142311   -0.00045168593590045464   0.000811272405585128
-0.10188477885142311   -0.00045168593590045464   0.000811272405585128
-0.1700466560204285   -0.013472147183613132   -0.0014776752234988751
-0.1700466560204285   -0.013472147183613132   -0.0014776752234988751
-0.1700466560204285   -0.013472147183613132   -0.0014776752234988751
-0.1700466560204285   -0.013472147183613132   -0.0014776752234988751
-0.13820065761780048   -0.013421182039893235   -0.004043468609395825
-0.13820065761780048   -0.013421182039893235   -0.004043468609395825
-0.13820065761780048   -0.013421182039893235   -0.004043468609395825
-0.13820065761780048   -0.013421182039893235   -0.004043468609395825
-0.16983025164889262   -0.014147162571998599   0.00027936202256494905
-0.16983025164889262   -0.014147162571998599   0.00027936202256494905
-0.16983025164889262   -0.014147162571998599   0.00027936202256494905
-0.16983025164889262   -0.014147162571998599   0.00027936202256494905
-0.10100421243976013   0.0013203002356846731   0.003442118292314086
-0.10100421243976013   0.0013203002356846731   0.003442118292314086
-0.10100421243976013   0.0013203002356846731   0.003442118292314086
-0.10100421243976013   0.0013203002356846731   0.003442118292314086
-0.0967935224956699   0.015237543567639907   -0.001420721260761518
-0.0967935224956699   0.015237543567639907   -0.001420721260761518
-0.0967935224956699   0.015237543567639907   -0.001420721260761518
-0.0967935224956699   0.015237543567639907   -0.001420721260761518
-0.16535925778193636   0.0007615552117468463   -0.004353195699328202
-0.16535925778193636   0.0007615552117468463   -0.004353195699328202
-0.16535925778193636   0.0007615552117468463   -0.004353195699328202
-0.16535925778193636   0.0007615552117468463   -0.004353195699328202
-0.1328246840851359   0.0006679082290631591   0.0018240915606846974
-0.1328246840851359   0.0006679082290631591   0.0018240915606846974
-0.1328246840851359   0.0006679082290631591   0.0018240915606846974
-0.1328246840851359   0.0006679082290631591   0.0018240915606846974
-0.1647738556797691   0.0014939126563516952   -0.0021585426330983735
-0.1647738556797691   0.0014939126563516952   -0.0021585426330983735
-0.1647738556797691   0.0014939126563516952   -0.0021585426330983735
-0.1647738556797691   0.0014939126563516952   -0.0021585426330983735
-0.09638626660782049   0.015497844113050333   0.0003552576330733796
-0.09638626660782049   0.015497844113050333   0.0003552576330733796
-0.09638626660782049   0.015497844113050333   0.0003552576330733796
-0.09638626660782049   0.015497844113050333   0.0003552576330733796
-0.09198311167785111   0.031074188563513294   -0.003956260417618197
-0.09198311167785111   0.031074188563513294   -0.003956260417618197
-0.09198311167785111   0.031074188563513294   -0.003956260417618197
-0.09198311167785111   0.031074188563513294   -0.003956260417618197
-0.16097732860201017   0.015103799467966736   -0.007436788342490383
-0.16097732860201017   0.015103799467966736   -0.007436788342490383
-0.16097732860201017   0.015103799467966736   -0.007436788342490383
-0.16097732860201017   0.015103799467966736   -0.007436788342490383
-0.1277461503791863   0.01480811056858473   0.0074546231518081065
-0.1277461503791863   0.01480811056858473   0.0074546231518081065
-0.1277461503791863   0.01480811056858473   0.0074546231518081065
-0.1277461503791863   0.01480811056858473   0.0074546231518081065
-0.11401120284166337   -0.04014503411575892   -0.009552682028434772
-0.11401120284166337   -0.04014503411575892   -0.009552682028434772
-0.11401120284166337   -0.04014503411575892   -0.009552682028434772
-0.11401120284166337   -0.04014503411575892   -0.009552682028434772
-0.03797694268980387   -0.0009824371376864673   0.01670506852697816
-0.03797694268980387   -0.0009824371376864673   0.01670506852697816
-0.03797694268980387   -0.0009824371376864673   0.01670506852697816
-0.03797694268980387   -0.0009824371376864673   0.01670506852697816
-0.04285874374677802   -0.01226985012080055   -0.012460436394258192
-0.04285874374677802   -0.01226985012080055   -0.012460436394258192
-0.04285874374677802   -0.01226985012080055   -0.012460436394258192
-0.04285874374677802   -0.01226985012080055   -0.012460436394258192
-0.10033803742540309   -0.0015230455731409694   0.009616339172924813
-0.10033803742540309   -0.0015230455731409694   0.009616339172924813
-0.10033803742540309   -0.0015230455731409694   0.009616339172924813
-0.10033803742540309   -0.0015230455731409694   0.009616339172924813
-0.07375575542252646   -0.013134862446373687   -0.002921267094283286
-0.07375575542252646   -0.013134862446373687   -0.002921267094283286
-0.07375575542252646   -0.013134862446373687   -0.002921267094283286
-0.07375575542252646   -0.013134862446373687   -0.002921267094283286
-0.10948397893032996   -0.02552507721969164   -0.012111336705159705
-0.10948397893032996   -0.02552507721969164   -0.012111336705159705
-0.10948397893032996   -0.02552507721969164   -0.012111336705159705
-0.10948397893032996   -0.02552507721969164   -0.012111336705159705
-0.03248526076401913   0.012959723003580392   0.014177405395155334
-0.03248526076401913   0.012959723003580392   0.014177405395155334
-0.03248526076401913   0.012959723003580392   0.014177405395155334
-0.03248526076401913   0.012959723003580392   0.014177405395155334
-0.035361639607926106   0.0025708403979467446   -0.01403192708668541
-0.035361639607926106   0.0025708403979467446   -0.01403192708668541
-0.035361639607926106   0.0025708403979467446   -0.01403192708668541
-0.035361639607926106   0.0025708403979467446   -0.01403192708668541
-0.09602087220436467   0.011254456225956125   0.0064256175374474474
-0.09602087220436467   0.011254456225956125   0.0064256175374474474
-0.09602087220436467   0.011254456225956125   0.0064256175374474474
-0.09602087220436467   0.011254456225956125   0.0064256175374474474
-0.06801404509539256   5.346854480510477e-06   0.0030646914914126714
-0.06801404509539256   5.346854480510477e-06   0.0030646914914126714
-0.06801404509539256   5.346854480510477e-06   0.0030646914914126714
-0.06801404509539256   5.346854480510477e-06   0.0030646914914126714
-0.10487568607946182   -0.011536985501199942   -0.015057010110883005
-0.10487568607946182   -0.011536985501199942   -0.015057010110883005
-0.10487568607946182   -0.011536985501199942   -0.015057010110883005
-0.10487568607946182   -0.011536985501199942   -0.015057010110883005
-0.025363569152747484   0.02650553870518414   0.012023726881970329
-0.025363569152747484   0.02650553870518414   0.012023726881970329
-0.025363569152747484   0.02650553870518414   0.012023726881970329
-0.025363569152747484   0.02650553870518414   0.012023726881970329
-0.029024518634126695   0.01911533898603687   -0.01573145549617668
-0.029024518634126695   0.01911533898603687   -0.01573145549617668
-0.029024518634126695   0.01911533898603687   -0.01573145549617668
-0.029024518634126695   0.01911533898603687   -0.01573145549617668
-0.09160061902023782   0.025681310921651372   0.003349080512310256
-0.09160061902023782   0.025681310921651372   0.003349080512310256
-0.09160061902023782   0.025681310921651372   0.003349080512310256
-0.09160061902023782   0.025681310921651372   0.003349080512310256
-0.062096322512469056   0.013662175981837582   0.009037463677615222
-0.062096322512469056   0.013662175981837582   0.009037463677615222
-0.062096322512469056   0.013662175981837582   0.009037463677615222
-0.062096322512469056   0.013662175981837582   0.009037463677615222
-0.05391371001121169   -0.04311978799563613   -0.020841417222112163
-0.05391371001121169   -0.04311978799563613   -0.020841417222112163
-0.05391371001121169   -0.04311978799563613   -0.020841417222112163
-0.05391371001121169   -0.04311978799563613   -0.020841417222112163
0.012016975722094429   0.012336525695529153   0.025608199057260167
0.012016975722094429   0.012336525695529153   0.025608199057260167
0.012016975722094429   0.012336525695529153   0.025608199057260167
0.012016975722094429   0.012336525695529153   0.025608199057260167
0.012022889056554943   -0.02161271613431867   -0.0276350410230485
0.012022889056554943   -0.02161271613431867   -0.0276350410230485
0.012022889056554943   -0.02161271613431867   -0.0276350410230485
0.012022889056554943   -0.02161271613431867   -0.0276350410230485
-0.031043465401514952   0.013381544832569498   0.02096456037868693
-0.031043465401514952   0.013381544832569498   0.02096456037868693
-0.031043465401514952   0.013381544832569498   0.02096456037868693
-0.031043465401514952   0.013381544832569498   0.02096456037868693
-0.015585680945412496   -0.009289195755097896   -0.004769607329711149
-0.015585680945412496   -0.009289195755097896   -0.004769607329711149
-0.015585680945412496   -0.009289195755097896   -0.004769607329711149
-0.015585680945412496   -0.009289195755097896   -0.004769607329711149
-0.049337444100215413   -0.0331521101812618   -0.023971678100984908
-0.049337444100215413   -0.0331521101812618   -0.023971678100984908
-0.049337444100215413   -0.0331521101812618   -0.023971678100984908
-0.049337444100215413   -0.0331521101812618   -0.023971678100984908
0.0316272029361862   0.026231274060441803   0.022542538180347307
0.0316272029361862   0.026231274060441803   0.022542538180347307
0.0316272029361862   0.026231274060441803   0.022542538180347307
0.0316272029361862   0.026231274060441803   0.022542538180347307
0.02646049881157028   -0.013127019242795626   -0.03286229635862406
0.02646049881157028   -0.013127019242795626   -0.03286229635862406
0.02646049881157028   -0.013127019242795626   -0.03286229635862406
0.02646049881157028   -0.013127019242795626   -0.03286229635862406
-0.025795082216682298   0.019540169802977823   0.016831530464502288
-0.025795082216682298   0.019540169802977823   0.016831530464502288
-0.025795082216682298   0.019540169802977823   0.016831530464502288
-0.025795082216682298   0.019540169802977823   0.016831530464502288
-0.0037990499036893795   -0.0005394654534460931   0.0016962682646396278
-0.0037990499036893795   -0.0005394654534460931   0.0016962682646396278
-0.0037990499036893795   -0.0005394654534460931   0.0016962682646396278
-0.0037990499036893795   -0.0005394654534460931   0.0016962682646396278
-0.04385388010573805   -0.026168244658410028   -0.027754044519388326
-0.04385388010573805   -0.026168244658410028   -0.027754044519388326
-0.04385388010573805   -0.026168244658410028   -0.027754044519388326
-0.04385388010573805   -0.026168244658410028   -0.027754044519388326
0.045834221151213404   0.033896319669180705   0.016982976427613306
0.045834221151213404   0.033896319669180705   0.016982976427613306
0.045834221151213404   0.033896319669180705   0.016982976427613306
0.045834221151213404   0.033896319669180705   0.016982976427613306
0.04677104125053037   0.003450735359819765   -0.03522510885134777
0.04677104125053037   0.003450735359819765   -0.03522510885134777
0.04677104125053037   0.003450735359819765   -0.03522510885134777
0.04677104125053037   0.003450735359819765   -0.03522510885134777
-0.02089849404953646   0.030331976876029648   0.013682029536781734
-0.02089849404953646   0.030331976876029648   0.013682029536781734
-0.02089849404953646   0.030331976876029648   0.013682029536781734
-0.02089849404953646   0.030331976876029648   0.013682029536781734
0.006958347877379421   0.00861916963092322   0.008046338848783065
0.006958347877379421   0.00861916963092322   0.008046338848783065
0.006958347877379421   0.00861916963092322   0.008046338848783065
0.006958347877379421   0.00861916963092322   0.008046338848783065
-0.10144218169888226   0.00631091248806661   0.029274966944687408
-0.10144218169888226   0.00631091248806661   0.029274966944687408
-0.10144218169888226   0.00631091248806661   0.029274966944687408
-0.10144218169888226   0.00631091248806661   0.029274966944687408
-0.12317662982690303   -0.03803326011008354   -0.017132312740993055
-0.12317662982690303   -0.03803326011008354   -0.017132312740993055
-0.12317662982690303   -0.03803326011008354   -0.017132312740993055
-0.12317662982690303   -0.03803326011008354   -0.017132312740993055
-0.0983439559147661   0.0175902139571924   0.0239406416520241
-0.0983439559147661   0.0175902139571924   0.0239406416520241
-0.0983439559147661   0.0175902139571924   0.0239406416520241
-0.0983439559147661   0.0175902139571924   0.0239406416520241
-0.09858089212736108   -0.024669739411388836   -0.022133021157107143
-0.09858089212736108   -0.024669739411388836   -0.022133021157107143
-0.09858089212736108   -0.024669739411388836   -0.022133021157107143
-0.09858089212736108   -0.024669739411388836   -0.022133021157107143
-0.10280439983646658   -0.007893226298606826   -0.0081256533573758
-0.10280439983646658   -0.007893226298606826   -0.0081256533573758
-0.10280439983646658   -0.007893226298606826   -0.0081256533573758
-0.10280439983646658   -0.007893226298606826   -0.0081256533573758
-0.07935940813436826   0.02204993921846754   0.02725472017800107
-0.07935940813436826   0.02204993921846754   0.02725472017800107
-0.07935940813436826   0.02204993921846754   0.02725472017800107
-0.07935940813436826   0.02204993921846754   0.02725472017800107
-0.11634297477942947   -0.027906999544336532   -0.020557239169761904
-0.11634297477942947   -0.027906999544336532   -0.020557239169761904
-0.11634297477942947   -0.027906999544336532   -0.020557239169761904
-0.11634297477942947   -0.027906999544336532   -0.020557239169761904
-0.09081039384241699   0.024296881445184968   0.020125458809017303
-0.09081039384241699   0.024296881445184968   0.020125458809017303
-0.09081039384241699   0.024296881445184968   0.020125458809017303
-0.09081039384241699   0.024296881445184968   0.020125458809017303
-0.08222332123759792   -0.017090331468120824   -0.02752668460812714
-0.08222332123759792   -0.017090331468120824   -0.02752668460812714
-0.08222332123759792   -0.017090331468120824   -0.02752668460812714
-0.08222332123759792   -0.017090331468120824   -0.02752668460812714
-0.09074154940639795   0.0006572232009986259   -0.001802556140445567
-0.09074154940639795   0.0006572232009986259   -0.001802556140445567
-0.09074154940639795   0.0006572232009986259   -0.001802556140445567
-0.09074154940639795   0.0006572232009986259   -0.001802556140445567
-0.06290998155121406   0.030201507177297596   0.021748175178376107
-0.06290998155121406   0.030201507177297596   0.021748175178376107
-0.06290998155121406   0.030201507177297596   0.021748175178376107
-0.06290998155121406   0.030201507177297596   0.021748175178376107
-0.10897650722604338   -0.021847730897474705   -0.02456049576645109
-0.10897650722604338   -0.021847730897474705   -0.02456049576645109
-0.10897650722604338   -0.021847730897474705   -0.02456049576645109
-0.10897650722604338   -0.021847730897474705   -0.02456049576645109
-0.08393651855646081   0.03458673132111918   0.017378736103012465
-0.08393651855646081   0.03458673132111918   0.017378736103012465
-0.08393651855646081   0.03458673132111918   0.017378736103012465
-0.08393651855646081   0.03458673132111918   0.017378736103012465
-0.06037988709074784   -0.002687469916804845   -0.03099589922739374
-0.06037988709074784   -0.002687469916804845   -0.03099589922739374
-0.06037988709074784   -0.002687469916804845   -0.03099589922739374
-0.06037988709074784   -0.002687469916804845   -0.03099589922739374
-0.07629211457620394   0.00962238976440407   0.004945371483240071
-0.07629211457620394   0.00962238976440407   0.004945371483240071
-0.07629211457620394   0.00962238976440407   0.004945371483240071
-0.07629211457620394   0.00962238976440407   0.004945371483240071
-0.11010196435700653   -0.006552702228109627   0.01676045672651553
-0.11010196435700653   -0.006552702228109627   0.01676045672651553
-0.11010196435700653   -0.006552702228109627   0.01676045672651553
-0.11010196435700653   -0.006552702228109627   0.01676045672651553
-0.13840304574706358   -0.031034994423840202   -0.0066898655887032525
-0.13840304574706358   -0.031034994423840202   -0.0066898655887032525
-0.13840304574706358   -0.031034994423840202   -0.0066898655887032525
-0.13840304574706358   -0.031034994423840202   -0.0066898655887032525
-0.12362760719286806   0.0030805444119630723   0.011116672861128343
-0.12362760719286806   0.0030805444119630723   0.011116672861128343
-0.12362760719286806   0.0030805444119630723   0.011116672861128343
-0.12362760719286806   0.0030805444119630723   0.011116672861128343
-0.11154500993188407   -0.01439589811366609   -0.010078516362705792
-0.11154500993188407   -0.01439589811366609   -0.010078516362705792
-0.11154500993188407   -0.01439589811366609   -0.010078516362705792
-0.11154500993188407   -0.01439589811366609   -0.010078516362705792
-0.12103361009454024   -0.011273191770674353   -0.005658773534662403
-0.12103361009454024   -0.011273191770674353   -0.005658773534662403
-0.12103361009454024   -0.011273191770674353   -0.005658773534662403
-0.12103361009454024   -0.011273191770674353   -0.005658773534662403
-0.10210822654990657   0.008085822045859756   0.014623680387654384
-0.10210822654990657   0.008085822045859756   0.014623680387654384
-0.10210822654990657   0.008085822045859756   0.014623680387654384
-0.10210822654990657   0.008085822045859756   0.014623680387654384
-0.1321048601996791   -0.018441645372397397   -0.009747402388567283
-0.1321048601996791   -0.018441645372397397   -0.009747402388567283
-0.1321048601996791   -0.018441645372397397   -0.009747402388567283
-0.1321048601996791   -0.018441645372397397   -0.009747402388567283
-0.11691125900430781   0.01644965272421684   0.008474023558691635
-0.11691125900430781   0.01644965272421684   0.008474023558691635
-0.11691125900430781   0.01644965272421684   0.008474023558691635
-0.11691125900430781   0.01644965272421684   0.008474023558691635
-0.1025078595310036   -0.0015468099812651522   -0.012518178207462503
-0.1025078595310036   -0.0015468099812651522   -0.012518178207462503
-0.1025078595310036   -0.0015468099812651522   -0.012518178207462503
-0.1025078595310036   -0.0015468099812651522   -0.012518178207462503
-0.11298416734194495   0.001169688567418635   0.00016684575877422194
-0.11298416734194495   0.001169688567418635   0.00016684575877422194
-0.11298416734194495   0.001169688567418635   0.00016684575877422194
-0.11298416734194495   0.001169688567418635   0.00016684575877422194
-0.09260934839155827   0.022250619697272187   0.013176947811223642
-0.09260934839155827   0.022250619697272187   0.013176947811223642
-0.09260934839155827   0.022250619697272187   0.013176947811223642
-0.09260934839155827   0.022250619697272187   0.013176947811223642
-0.12578629053483545   -0.006324297345401894   -0.013127184024329691
-0.12578629053483545   -0.006324297345401894   -0.013127184024329691
-0.12578629053483545   -0.006324297345401894   -0.013127184024329691
-0.12578629053483545   -0.006324297345401894   -0.013127184024329691
-0.11015931082437799   0.031279044734967176   0.005961864266436216
-0.11015931082437799   0.031279044734967176   0.005961864266436216
-0.11015931082437799   0.031279044734967176   0.005961864266436216
-0.11015931082437799   0.031279044734967176   0.005961864266436216
-0.09473898178981657   0.012747163130887217   -0.014794011873533344
-0.09473898178981657   0.012747163130887217   -0.014794011873533344
-0.09473898178981657   0.012747163130887217   -0.014794011873533344
-0.09473898178981657   0.012747163130887217   -0.014794011873533344
-0.10537065133144537   0.014055869903568989   0.006109048524153166
-0.10537065133144537   0.014055869903568989   0.006109048524153166
-0.10537065133144537   0.014055869903568989   0.006109048524153166
-0.10537065133144537   0.014055869903568989   0.006109048524153166
-0.13364610713373534   -0.0186975257803894   0.0047573588344843164
-0.13364610713373534   -0.0186975257803894   0.0047573588344843164
-0.13364610713373534   -0.0186975257803894   0.0047573588344843164
-0.13364610713373534   -0.0186975257803894   0.0047573588344843164
-0.15349303761531394   -0.01978819375241879   0.004024586407029098
-0.15349303761531394   -0.01978819375241879   0.004024586407029098
-0.15349303761531394   -0.01978819375241879   0.004024586407029098
-0.15349303761531394   -0.01978819375241879   0.004024586407029098
-0.14814544039086286   -0.009087995285527603   -0.0014581313626445625
-0.14814544039086286   -0.009087995285527603   -0.0014581313626445625
-0.14814544039086286   -0.009087995285527603   -0.0014581313626445625
-0.14814544039086286   -0.009087995285527603   -0.0014581313626445625
-0.1267169874250475   -0.0025866907068958327   0.0013370068190888835
-0.1267169874250475   -0.0025866907068958327   0.0013370068190888835
-0.1267169874250475   -0.0025866907068958327   0.0013370068190888835
-0.1267169874250475   -0.0025866907068958327   0.0013370068190888835
-0.140711622180032   -0.011830300216573178   -0.003774329108994501
-0.140711622180032   -0.011830300216573178   -0.003774329108994501
-0.140711622180032   -0.011830300216573178   -0.003774329108994501
-0.140711622180032   -0.011830300216573178   -0.003774329108994501
-0.12679698297501657   -0.004047174881133559   0.0023975132434796756
-0.12679698297501657   -0.004047174881133559   0.0023975132434796756
-0.12679698297501657   -0.004047174881133559   0.0023975132434796756
-0.12679698297501657   -0.004047174881133559   0.0023975132434796756
-0.14715833926465968   -0.006720405535056095   0.0011097845178997786
-0.14715833926465968   -0.006720405535056095   0.0011097845178997786
-0.14715833926465968   -0.006720405535056095   0.0011097845178997786
-0.14715833926465968   -0.006720405535056095   0.0011097845178997786
-0.14107952084904532   0.005750771927973665   -0.0036868490510851507
-0.14107952084904532   0.005750771927973665   -0.0036868490510851507
-0.14107952084904532   0.005750771927973665   -0.0036868490510851507
-0.14107952084904532   0.005750771927973665   -0.0036868490510851507
-0.12002296236529067   0.010839877687669305   -0.0014747182096763456
-0.12002296236529067   0.010839877687669305   -0.0014747182096763456
-0.12002296236529067   0.010839877687669305   -0.0014747182096763456
-0.12002296236529067   0.010839877687669305   -0.0014747182096763456
-0.1333229681695498   0.0014188776661365893   0.001986027306864923
-0.1333229681695498   0.0014188776661365893   0.001986027306864923
-0.1333229681695498   0.0014188776661365893   0.001986027306864923
-0.1333229681695498   0.0014188776661365893   0.001986027306864923
-0.1197616704586772   0.010738363015397344   -6.67440043376679e-05
-0.1197616704586772   0.010738363015397344   -6.67440043376679e-05
-0.1197616704586772   0.010738363015397344   -6.67440043376679e-05
-0.1197616704586772   0.010738363015397344   -6.67440043376679e-05
-0.1405479619561102   0.006645137399794374   -0.0019234200582314842
-0.1405479619561102   0.006645137399794374   -0.0019234200582314842
-0.1405479619561102   0.006645137399794374   -0.0019234200582314842
-0.1405479619561102   0.006645137399794374   -0.0019234200582314842
-0.13431257731413965   0.020685617424873792   -0.00619244984582561
-0.13431257731413965   0.020685617424873792   -0.00619244984582561
-0.13431257731413965   0.020685617424873792   -0.00619244984582561
-0.13431257731413965   0.020685617424873792   -0.00619244984582561
-0.11365765666904697   0.024321481300126072   -0.004572301522066301
-0.11365765666904697   0.024321481300126072   -0.004572301522066301
-0.11365765666904697   0.024321481300126072   -0.004572301522066301
-0.11365765666904697   0.024321481300126072   -0.004572301522066301
-0.12628458393833042   0.014693728443602973   0.0074758057477883125
-0.12628458393833042   0.014693728443602973   0.0074758057477883125
-0.12628458393833042   0.014693728443602973   0.0074758057477883125
-0.12628458393833042   0.014693728443602973   0.0074758057477883125
-0.15780576975484148   -0.029795558220578354   -0.00753170982245034
-0.15780576975484148   -0.029795558220578354   -0.00753170982245034
-0.15780576975484148   -0.029795558220578354   -0.00753170982245034
-0.15780576975484148   -0.029795558220578354   -0.00753170982245034
-0.1699753608826566   -0.008765786682606864   0.014243093251554656
-0.1699753608826566   -0.008765786682606864   0.014243093251554656
-0.1699753608826566   -0.008765786682606864   0.014243093251554656
-0.1699753608826566   -0.008765786682606864   0.014243093251554656
-0.1728334899934146   -0.020790994398511592   -0.0142279523859091
-0.1728334899934146   -0.020790994398511592   -0.0142279523859091
-0.1728334899934146   -0.020790994398511592   -0.0142279523859091
-0.1728334899934146   -0.020790994398511592   -0.0142279523859091
-0.14184387361732134   0.00887470771868698   0.012086999500848652
-0.14184387361732134   0.00887470771868698   0.012086999500848652
-0.14184387361732134   0.00887470771868698   0.012086999500848652
-0.14184387361732134   0.00887470771868698   0.012086999500848652
-0.15992944655768343   -0.01181507344791637   -0.002379882594163998
-0.15992944655768343   -0.01181507344791637   -0.002379882594163998
-0.15992944655768343   -0.01181507344791637   -0.002379882594163998
-0.15992944655768343   -0.01181507344791637   -0.002379882594163998
-0.15115129595400845   -0.015603371671857356   -0.009972032792044002
-0.15115129595400845   -0.015603371671857356   -0.009972032792044002
-0.15115129595400845   -0.015603371671857356   -0.009972032792044002
-0.15115129595400845   -0.015603371671857356   -0.009972032792044002
-0.16257538632819948   0.004637766320557943   0.011633805221096957
-0.16257538632819948   0.004637766320557943   0.011633805221096957
-0.16257538632819948   0.004637766320557943   0.011633805221096957
-0.16257538632819948   0.004637766320557943   0.011633805221096957
-0.16351797674335553   -0.006723234030851191   -0.01596572920759829
-0.16351797674335553   -0.006723234030851191   -0.01596572920759829
-0.16351797674335553   -0.006723234030851191   -0.01596572920759829
-0.16351797674335553   -0.006723234030851191   -0.01596572920759829
-0.1355001371225226   0.020979446213468683   0.008981395296032127
-0.1355001371225226   0.020979446213468683   0.008981395296032127
-0.1355001371225226   0.020979446213468683   0.008981395296032127
-0.1355001371225226   0.020979446213468683   0.008981395296032127
-0.15149549451848804   0.0009572556050104208   0.0035726000156116
-0.15149549451848804   0.0009572556050104208   0.0035726000156116
-0.15149549451848804   0.0009572556050104208   0.0035726000156116
-0.15149549451848804   0.0009572556050104208   0.0035726000156116
-0.14451743677953405   -0.0022959262930652632   -0.012829730482492509
-0.14451743677953405   -0.0022959262930652632   -0.012829730482492509
-0.14451743677953405   -0.0022959262930652632   -0.012829730482492509
-0.14451743677953405   -0.0022959262930652632   -0.012829730482492509
-0.15354003477188877   0.017512780790136004   0.009687965828750285
-0.15354003477188877   0.017512780790136004   0.009687965828750285
-0.15354003477188877   0.017512780790136004   0.009687965828750285
-0.15354003477188877   0.017512780790136004   0.009687965828750285
-0.1553742989549866   0.008750889029517386   -0.01752934901361084
-0.1553742989549866   0.008750889029517386   -0.01752934901361084
-0.1553742989549866   0.008750889029517386   -0.01752934901361084
-0.1553742989549866   0.008750889029517386   -0.01752934901361084
-0.12913953041871445   0.03444096940573779   0.005917432650436295
-0.12913953041871445   0.03444096940573779   0.005917432650436295
-0.12913953041871445   0.03444096940573779   0.005917432650436295
-0.12913953041871445   0.03444096940573779   0.005917432650436295
-0.14438424155904483   0.013595392322925004   0.009251634117104206
-0.14438424155904483   0.013595392322925004   0.009251634117104206
-0.14438424155904483   0.013595392322925004   0.009251634117104206
-0.14438424155904483   0.013595392322925004   0.009251634117104206
-0.18193745932045766   -0.0353688652070374   -0.01896432041302299
-0.18193745932045766   -0.0353688652070374   -0.01896432041302299
-0.18193745932045766   -0.0353688652070374   -0.01896432041302299
-0.18193745932045766   -0.0353688652070374   -0.01896432041302299
-0.20298732099364042   0.0023177475946338302   0.02579062844403407
-0.20298732099364042   0.0023177475946338302   0.02579062844403407
-0.20298732099364042   0.0023177475946338302   0.02579062844403407
-0.20298732099364042   0.0023177475946338302   0.02579062844403407
-0.2005215889307345   -0.029771203907804706   -0.025321059793972246
-0.2005215889307345   -0.029771203907804706   -0.025321059793972246
-0.2005215889307345   -0.029771203907804706   -0.025321059793972246
-0.2005215889307345   -0.029771203907804706   -0.025321059793972246
-0.1567372914529173   0.022348484536700505   0.023113561381363733
-0.1567372914529173   0.022348484536700505   0.023113561381363733
-0.1567372914529173   0.022348484536700505   0.023113561381363733
-0.1567372914529173   0.022348484536700505   0.023113561381363733
-0.17807305647292498   -0.0077341029287145875   -0.0010383210071704613
-0.17807305647292498   -0.0077341029287145875   -0.0010383210071704613
-0.17807305647292498   -0.0077341029287145875   -0.0010383210071704613
-0.17807305647292498   -0.0077341029287145875   -0.0010383210071704613
-0.17495526771159442   -0.023932745650206526   -0.021695089725117002
-0.17495526771159442   -0.023932745650206526   -0.021695089725117002
-0.17495526771159442   -0.023932745650206526   -0.021695089725117002
-0.17495526771159442   -0.023932745650206526   -0.021695089725117002
-0.18129953794416367   0.017514101006994895   0.023503890224082107
-0.18129953794416367   0.017514101006994895   0.023503890224082107
-0.18129953794416367   0.017514101006994895   0.023503890224082107
-0.18129953794416367   0.017514101006994895   0.023503890224082107
-0.1843192384916311   -0.02157246721705551   -0.030207498360715613
-0.1843192384916311   -0.02157246721705551   -0.030207498360715613
-0.1843192384916311   -0.02157246721705551   -0.030207498360715613
-0.1843192384916311   -0.02157246721705551   -0.030207498360715613
-0.14956885255417185   0.028124249163064975   0.018932408544403832
-0.14956885255417185   0.028124249163064975   0.018932408544403832
-0.14956885255417185   0.028124249163064975   0.018932408544403832
-0.14956885255417185   0.028124249163064975   0.018932408544403832
-0.1672268481625718   0.0008522052850610945   0.004655516807863443
-0.1672268481625718   0.0008522052850610945   0.004655516807863443
-0.1672268481625718   0.0008522052850610945   0.004655516807863443
-0.1672268481625718   0.0008522052850610945   0.004655516807863443
-0.1674423675716011   -0.017181480697367545   -0.025129436682310824
-0.1674423675716011   -0.017181480697367545   -0.025129436682310824
-0.1674423675716011   -0.017181480697367545   -0.025129436682310824
-0.1674423675716011   -0.017181480697367545   -0.025129436682310824
-0.16539185709681403   0.02478712902076837   0.01806981237554764
-0.16539185709681403   0.02478712902076837   0.01806981237554764
-0.16539185709681403   0.02478712902076837   0.01806981237554764
-0.16539185709681403   0.02478712902076837   0.01806981237554764
-0.16296810337713716   -0.007426772270028102   -0.03304210686589867
-0.16296810337713716   -0.007426772270028102   -0.03304210686589867
-0.16296810337713716   -0.007426772270028102   -0.03304210686589867
-0.16296810337713716   -0.007426772270028102   -0.03304210686589867
-0.14316602555016672   0.03666891293744852   0.015593994102557034
-0.14316602555016672   0.03666891293744852   0.015593994102557034
-0.14316602555016672   0.03666891293744852   0.015593994102557034
-0.14316602555016672   0.03666891293744852   0.015593994102557034
-0.15214504444495147   0.009399247089844333   0.011278245391640586
-0.15214504444495147   0.009399247089844333   0.011278245391640586
-0.15214504444495147   0.009399247089844333   0.011278245391640586
-0.15214504444495147   0.009399247089844333   0.011278245391640586
0.11042156726815165   0.017742839143731183   0.028149986433019407
0.11042156726815165   0.017742839143731183   0.028149986433019407
0.11042156726815165   0.017742839143731183   0.028149986433019407
0.11042156726815165   0.017742839143731183   0.028149986433019407
-0.0019445360597734346   -0.04512636469037767   -0.018494843774503653
-0.0019445360597734346   -0.04512636469037767   -0.018494843774503653
-0.0019445360597734346   -0.04512636469037767   -0.018494843774503653
-0.0019445360597734346   -0.04512636469037767   -0.018494843774503653
0.024363563252994096   0.008689824453650265   0.021720342787733195
0.024363563252994096   0.008689824453650265   0.021720342787733195
0.024363563252994096   0.008689824453650265   0.021720342787733195
0.024363563252994096   0.008689824453650265   0.021720342787733195
0.11487635814571091   -0.015441793856600338   -0.02319945730188473
0.11487635814571091   -0.015441793856600338   -0.02319945730188473
0.11487635814571091   -0.015441793856600338   -0.02319945730188473
0.11487635814571091   -0.015441793856600338   -0.02319945730188473
0.056421954747440564   -0.00862731612817557   -0.013480758677943697
0.056421954747440564   -0.00862731612817557   -0.013480758677943697
0.056421954747440564   -0.00862731612817557   -0.013480758677943697
0.056421954747440564   -0.00862731612817557   -0.013480758677943697
0.13395208963559735   0.031342452025677606   0.025394954265271594
0.13395208963559735   0.031342452025677606   0.025394954265271594
0.13395208963559735   0.031342452025677606   0.025394954265271594
0.13395208963559735   0.031342452025677606   0.025394954265271594
0.006479372551135277   -0.03690288064060054   -0.022107905627310093
0.006479372551135277   -0.03690288064060054   -0.022107905627310093
0.006479372551135277   -0.03690288064060054   -0.022107905627310093
0.006479372551135277   -0.03690288064060054   -0.022107905627310093
0.03381754488986463   0.015244199597489525   0.018105104592462055
0.03381754488986463   0.015244199597489525   0.018105104592462055
0.03381754488986463   0.015244199597489525   0.018105104592462055
0.03381754488986463   0.015244199597489525   0.018105104592462055
0.13318261084686853   -0.008042410041803894   -0.028968784785365007
0.13318261084686853   -0.008042410041803894   -0.028968784785365007
0.13318261084686853   -0.008042410041803894   -0.028968784785365007
0.13318261084686853   -0.008042410041803894   -0.028968784785365007
0.07296359577848846   -0.0004777140899720582   -0.006397736645642339
0.07296359577848846   -0.0004777140899720582   -0.006397736645642339
0.07296359577848846   -0.0004777140899720582   -0.006397736645642339
0.07296359577848846   -0.0004777140899720582   -0.006397736645642339
0.152449066978986   0.03934475021958705   0.019976335613831407
0.152449066978986   0.03934475021958705   0.019976335613831407
0.152449066978986   0.03934475021958705   0.019976335613831407
0.152449066978986   0.03934475021958705   0.019976335613831407
0.015708486307293795   -0.030985563114354978   -0.02621042560854569
0.015708486307293795   -0.030985563114354978   -0.02621042560854569
0.015708486307293795   -0.030985563114354978   -0.02621042560854569
0.015708486307293795   -0.030985563114354978   -0.02621042560854569
0.04298422633741736   0.027317470874434584   0.01566469130062286
0.04298422633741736   0.027317470874434584   0.01566469130062286
0.04298422633741736   0.027317470874434584   0.01566469130062286
0.04298422633741736   0.027317470874434584   0.01566469130062286
0.15750554459236535   0.008506756228672557   -0.03193002385969203
0.15750554459236535   0.008506756228672557   -0.03193002385969203
0.15750554459236535   0.008506756228672557   -0.03193002385969203
0.15750554459236535   0.008506756228672557   -0.03193002385969203
0.08674167456742186   0.008685976893136726   0.00027393289795118927
0.08674167456742186   0.008685976893136726   0.00027393289795118927
0.08674167456742186   0.008685976893136726   0.00027393289795118927
0.08674167456742186   0.008685976893136726   0.00027393289795118927
0.015614465450702891   0.004951033959129584   0.019222765128370733
0.015614465450702891   0.004951033959129584   0.019222765128370733
0.015614465450702891   0.004951033959129584   0.019222765128370733
0.015614465450702891   0.004951033959129584   0.019222765128370733
-0.10321819796794048   -0.03836557193705073   -0.008494621791595783
-0.10321819796794048   -0.03836557193705073   -0.008494621791595783
-0.10321819796794048   -0.03836557193705073   -0.008494621791595783
-0.10321819796794048   -0.03836557193705073   -0.008494621791595783
-0.08669786194161927   -0.00566576169962309   0.008725017717229071
-0.08669786194161927   -0.00566576169962309   0.008725017717229071
-0.08669786194161927   -0.00566576169962309   0.008725017717229071
-0.08669786194161927   -0.00566576169962309   0.008725017717229071
0.01612042963398135   -0.004124102630002187   -0.006681398223677546
0.01612042963398135   -0.004124102630002187   -0.006681398223677546
0.01612042963398135   -0.004124102630002187   -0.006681398223677546
0.01612042963398135   -0.004124102630002187   -0.006681398223677546
-0.04041214985966943   -0.009819543808487504   -0.006450603495562493
-0.04041214985966943   -0.009819543808487504   -0.006450603495562493
-0.04041214985966943   -0.009819543808487504   -0.006450603495562493
-0.04041214985966943   -0.009819543808487504   -0.006450603495562493
0.02537435612753079   0.018413753911309533   0.017050377702759308
0.02537435612753079   0.018413753911309533   0.017050377702759308
0.02537435612753079   0.018413753911309533   0.017050377702759308
0.02537435612753079   0.018413753911309533   0.017050377702759308
-0.0950787943562999   -0.027330624162068638   -0.011514781893728551
-0.0950787943562999   -0.027330624162068638   -0.011514781893728551
-0.0950787943562999   -0.027330624162068638   -0.011514781893728551
-0.0950787943562999   -0.027330624162068638   -0.011514781893728551
-0.07808784896400604   0.007072597458579369   0.006158848424762558
-0.07808784896400604   0.007072597458579369   0.006158848424762558
-0.07808784896400604   0.007072597458579369   0.006158848424762558
-0.07808784896400604   0.007072597458579369   0.006158848424762558
0.02692367992274334   0.007932039482677613   -0.009052060128332784
0.02692367992274334   0.007932039482677613   -0.009052060128332784
0.02692367992274334   0.007932039482677613   -0.009052060128332784
0.02692367992274334   0.007932039482677613   -0.009052060128332784
-0.03128028784971379   0.0013930035544065956   -0.0008103322790264222
-0.03128028784971379   0.0013930035544065956   -0.0008103322790264222
-0.03128028784971379   0.0013930035544065956   -0.0008103322790264222
-0.03128028784971379   0.0013930035544065956   -0.0008103322790264222
0.03657041267560502   0.0318293406044   0.015284302514253528
0.03657041267560502   0.0318293406044   0.015284302514253528
0.03657041267560502   0.0318293406044   0.015284302514253528
0.03657041267560502   0.0318293406044   0.015284302514253528
-0.08689218940543791   -0.01598231135171297   -0.014807944972104452
-0.08689218940543791   -0.01598231135171297   -0.014807944972104452
-0.08689218940543791   -0.01598231135171297   -0.014807944972104452
-0.08689218940543791   -0.01598231135171297   -0.014807944972104452
-0.06942180867599387   0.021511994262148153   0.0037129706689486477
-0.06942180867599387   0.021511994262148153   0.0037129706689486477
-0.06942180867599387   0.021511994262148153   0.0037129706689486477
-0.06942180867599387   0.021511994262148153   0.0037129706689486477
0.03640603122278453   0.021637492170391685   -0.011546305568498384
0.03640603122278453   0.021637492170391685   -0.011546305568498384
0.03640603122278453   0.021637492170391685   -0.011546305568498384
0.03640603122278453   0.021637492170391685   -0.011546305568498384
-0.021145711190831314   0.01380759074896314   0.005215806652234966
-0.021145711190831314   0.01380759074896314   0.005215806652234966
-0.021145711190831314   0.01380759074896314   0.005215806652234966
-0.021145711190831314   0.01380759074896314   0.005215806652234966
-0.09391149943170257   -0.007285119672161737   0.0069584186247046865
-0.09391149943170257   -0.007285119672161737   0.0069584186247046865
-0.09391149943170257   -0.007285119672161737   0.0069584186247046865
-0.09391149943170257   -0.007285119672161737   0.0069584186247046865
-0.20263066508108601   -0.027457055576599297   0.0017160365944274842
-0.20263066508108601   -0.027457055576599297   0.0017160365944274842
-0.20263066508108601   -0.027457055576599297   0.0017160365944274842
-0.20263066508108601   -0.027457055576599297   0.0017160365944274842
-0.19512990818792636   -0.01729761043197013   -0.003804671043403733
-0.19512990818792636   -0.01729761043197013   -0.003804671043403733
-0.19512990818792636   -0.01729761043197013   -0.003804671043403733
-0.19512990818792636   -0.01729761043197013   -0.003804671043403733
-0.0850175130428306   0.007201975775594664   0.004259024735955427
-0.0850175130428306   0.007201975775594664   0.004259024735955427
-0.0850175130428306   0.007201975775594664   0.004259024735955427
-0.0850175130428306   0.007201975775594664   0.004259024735955427
-0.14438161821118556   -0.010302859276853139   -0.0037811394011309013
-0.14438161821118556   -0.010302859276853139   -0.0037811394011309013
-0.14438161821118556   -0.010302859276853139   -0.0037811394011309013
-0.14438161821118556   -0.010302859276853139   -0.0037811394011309013
-0.08510768012233876   0.006391502010524398   0.004618663103485056
-0.08510768012233876   0.006391502010524398   0.004618663103485056
-0.08510768012233876   0.006391502010524398   0.004618663103485056
-0.08510768012233876   0.006391502010524398   0.004618663103485056
-0.19428589062645596   -0.015733286184938383   -0.0011489074830844858
-0.19428589062645596   -0.015733286184938383   -0.0011489074830844858
-0.19428589062645596   -0.015733286184938383   -0.0011489074830844858
-0.19428589062645596   -0.015733286184938383   -0.0011489074830844858
-0.1860672703626693   -0.0032704420716763577   -0.005982009009026051
-0.1860672703626693   -0.0032704420716763577   -0.005982009009026051
-0.1860672703626693   -0.0032704420716763577   -0.005982009009026051
-0.1860672703626693   -0.0032704420716763577   -0.005982009009026051
-0.07649450150547461   0.019608318055957946   0.0015898651200417918
-0.07649450150547461   0.019608318055957946   0.0015898651200417918
-0.07649450150547461   0.019608318055957946   0.0015898651200417918
-0.07649450150547461   0.019608318055957946   0.0015898651200417918
-0.13501792194584814   0.002005619533790623   0.0019102264815975198
-0.13501792194584814   0.002005619533790623   0.0019102264815975198
-0.13501792194584814   0.002005619533790623   0.0019102264815975198
-0.13501792194584814   0.002005619533790623   0.0019102264815975198
-0.07625061255786647   0.02031068072824684   0.0021069471857939536
-0.07625061255786647   0.02031068072824684   0.0021069471857939536
-0.07625061255786647   0.02031068072824684   0.0021069471857939536
-0.07625061255786647   0.02031068072824684   0.0021069471857939536
-0.18570491930139224   -0.003366564735078806   -0.004074131039239717
-0.18570491930139224   -0.003366564735078806   -0.004074131039239717
-0.18570491930139224   -0.003366564735078806   -0.004074131039239717
-0.18570491930139224   -0.003366564735078806   -0.004074131039239717
-0.17736826918205556   0.010802622192977764   -0.008455984544783888
-0.17736826918205556   0.010802622192977764   -0.008455984544783888
-0.17736826918205556   0.010802622192977764   -0.008455984544783888
-0.17736826918205556   0.010802622192977764   -0.008455984544783888
-0.06835538896719387   0.03205098840767591   -0.0014939249325779391
-0.06835538896719387   0.03205098840767591   -0.0014939249325779391
-0.06835538896719387   0.03205098840767591   -0.0014939249325779391
-0.06835538896719387   0.03205098840767591   -0.0014939249325779391
-0.12615165340968235   0.014283700453988555   0.007230328388862386
-0.12615165340968235   0.014283700453988555   0.007230328388862386
-0.12615165340968235   0.014283700453988555   0.007230328388862386
-0.12615165340968235   0.014283700453988555   0.007230328388862386
-0.2024634293373385   -0.019244155897117202   -0.0056606843663156185
-0.2024634293373385   -0.019244155897117202   -0.0056606843663156185
-0.2024634293373385   -0.019244155897117202   -0.0056606843663156185
-0.2024634293373385   -0.019244155897117202   -0.0056606843663156185
-0.3012948283992744   -0.01719497234553774   0.011718620347669541
-0.3012948283992744   -0.01719497234553774   0.011718620347669541
-0.3012948283992744   -0.01719497234553774   0.011718620347669541
-0.3012948283992744   -0.01719497234553774   0.011718620347669541
-0.3016224311841877   -0.02871357957218968   -0.01607587938666829
-0.3016224311841877   -0.02871357957218968   -0.01607587938666829
-0.3016224311841877   -0.02871357957218968   -0.01607587938666829
-0.3016224311841877   -0.02871357957218968   -0.01607587938666829
-0.18439915174744664   0.0180814586254568   0.014470042101566627
-0.18439915174744664   0.0180814586254568   0.014470042101566627
-0.18439915174744664   0.0180814586254568   0.014470042101566627
-0.18439915174744664   0.0180814586254568   0.014470042101566627
-0.24605013006110324   -0.010586367364286656   -0.0016120976464105152
-0.24605013006110324   -0.010586367364286656   -0.0016120976464105152
-0.24605013006110324   -0.010586367364286656   -0.0016120976464105152
-0.24605013006110324   -0.010586367364286656   -0.0016120976464105152
-0.19359060876432882   -0.005477663401969493   -0.007928120955416557
-0.19359060876432882   -0.005477663401969493   -0.007928120955416557
-0.19359060876432882   -0.005477663401969493   -0.007928120955416557
-0.19359060876432882   -0.005477663401969493   -0.007928120955416557
-0.2918012145590253   -0.004524697936484197   0.008841322103440349
-0.2918012145590253   -0.004524697936484197   0.008841322103440349
-0.2918012145590253   -0.004524697936484197   0.008841322103440349
-0.2918012145590253   -0.004524697936484197   0.008841322103440349
-0.2902194138767762   -0.015338748861601623   -0.017890303325050417
-0.2902194138767762   -0.015338748861601623   -0.017890303325050417
-0.2902194138767762   -0.015338748861601623   -0.017890303325050417
-0.2902194138767762   -0.015338748861601623   -0.017890303325050417
-0.17603981137758878   0.02936489853418623   0.011519945310513875
-0.17603981137758878   0.02936489853418623   0.011519945310513875
-0.17603981137758878   0.02936489853418623   0.011519945310513875
-0.17603981137758878   0.02936489853418623   0.011519945310513875
-0.23476419439665192   0.001827540961599823   0.004261438446563872
-0.23476419439665192   0.001827540961599823   0.004261438446563872
-0.23476419439665192   0.001827540961599823   0.004261438446563872
-0.23476419439665192   0.001827540961599823   0.004261438446563872
-0.1849241058761997   0.007159206394878159   -0.010695835043232679
-0.1849241058761997   0.007159206394878159   -0.010695835043232679
-0.1849241058761997   0.007159206394878159   -0.010695835043232679
-0.1849241058761997   0.007159206394878159   -0.010695835043232679
-0.2806284019625016   0.007573660693370891   0.007152346691350014
-0.2806284019625016   0.007573660693370891   0.007152346691350014
-0.2806284019625016   0.007573660693370891   0.007152346691350014
-0.2806284019625016   0.007573660693370891   0.007152346691350014
-0.28002534878198254   -0.0007729285658981677   -0.019266238844475446
-0.28002534878198254   -0.0007729285658981677   -0.019266238844475446
-0.28002534878198254   -0.0007729285658981677   -0.019266238844475446
-0.28002534878198254   -0.0007729285658981677   -0.019266238844475446
-0.16776926948437548   0.041796103554512236   0.008545532582081908
-0.16776926948437548   0.041796103554512236   0.008545532582081908
-0.16776926948437548   0.041796103554512236   0.008545532582081908
-0.16776926948437548   0.041796103554512236   0.008545532582081908
-0.22639663857465445   0.013375633247664886   0.009516659416370307
-0.22639663857465445   0.013375633247664886   0.009516659416370307
-0.22639663857465445   0.013375633247664886   0.009516659416370307
-0.22639663857465445   0.013375633247664886   0.009516659416370307
-0.30918050642489997   -0.02754996967135255   -0.017354772454643216
-0.30918050642489997   -0.02754996967135255   -0.017354772454643216
-0.30918050642489997   -0.02754996967135255   -0.017354772454643216
-0.30918050642489997   -0.02754996967135255   -0.017354772454643216
-0.41400872929454674   -0.007611566781029977   0.02561082031403982
-0.41400872929454674   -0.007611566781029977   0.02561082031403982
-0.41400872929454674   -0.007611566781029977   0.02561082031403982
-0.41400872929454674   -0.007611566781029977   0.02561082031403982
-0.4085773088178947   -0.03729209889637129   -0.023249338419017756
-0.4085773088178947   -0.03729209889637129   -0.023249338419017756
-0.4085773088178947   -0.03729209889637129   -0.023249338419017756
-0.4085773088178947   -0.03729209889637129   -0.023249338419017756
-0.28148851983719303   0.030634351039101865   0.025245746737013495
-0.28148851983719303   0.030634351039101865   0.025245746737013495
-0.28148851983719303   0.030634351039101865   0.025245746737013495
-0.28148851983719303   0.030634351039101865   0.025245746737013495
-0.33805750203327145   -0.006035492783489443   0.0029155473374081076
-0.33805750203327145   -0.006035492783489443   0.0029155473374081076
-0.33805750203327145   -0.006035492783489443   0.0029155473374081076
-0.33805750203327145   -0.006035492783489443   0.0029155473374081076
-0.29954544383222986   -0.01476396887937241   -0.019640553319695237
-0.29954544383222986   -0.01476396887937241   -0.019640553319695237
-0.29954544383222986   -0.01476396887937241   -0.019640553319695237
-0.29954544383222986   -0.01476396887937241   -0.019640553319695237
-0.3899442518583495   0.008682353986611616   0.023941493495718762
-0.3899442518583495   0.008682353986611616   0.023941493495718762
-0.3899442518583495   0.008682353986611616   0.023941493495718762
-0.3899442518583495   0.008682353986611616   0.023941493495718762
-0.3904130281577719   -0.029370201323479575   -0.027695668284734222
-0.3904130281577719   -0.029370201323479575   -0.027695668284734222
-0.3904130281577719   -0.029370201323479575   -0.027695668284734222
-0.3904130281577719   -0.029370201323479575   -0.027695668284734222
-0.2722389789541503   0.035845344678969625   0.020827777747505983
-0.2722389789541503   0.035845344678969625   0.020827777747505983
-0.2722389789541503   0.035845344678969625   0.020827777747505983
-0.2722389789541503   0.035845344678969625   0.020827777747505983
-0.32793090807005043   0.002295918240765471   0.007644187671015323
-0.32793090807005043   0.002295918240765471   0.007644187671015323
-0.32793090807005043   0.002295918240765471   0.007644187671015323
-0.32793090807005043   0.002295918240765471   0.007644187671015323
-0.2897637386576836   -0.008242787487294463   -0.02270788860389475
-0.2897637386576836   -0.008242787487294463   -0.02270788860389475
-0.2897637386576836   -0.008242787487294463   -0.02270788860389475
-0.2897637386576836   -0.008242787487294463   -0.02270788860389475
-0.37218811896878057   0.015418080328238895   0.018640596008497972
-0.37218811896878057   0.015418080328238895   0.018640596008497972
-0.37218811896878057   0.015418080328238895   0.018640596008497972
-0.37218811896878057   0.015418080328238895   0.018640596008497972
-0.3679527396782989   -0.01759081947673953   -0.030917953840251068
-0.3679527396782989   -0.01759081947673953   -0.030917953840251068
-0.3679527396782989   -0.01759081947673953   -0.030917953840251068
-0.3679527396782989   -0.01759081947673953   -0.030917953840251068
-0.2641377194741894   0.04205269006520984   0.017346289063380177
-0.2641377194741894   0.04205269006520984   0.017346289063380177
-0.2641377194741894   0.04205269006520984   0.017346289063380177
-0.2641377194741894   0.04205269006520984   0.017346289063380177
-0.30851956486457704   0.010070157454857773   0.014341573228752943
-0.30851956486457704   0.010070157454857773   0.014341573228752943
-0.30851956486457704   0.010070157454857773   0.014341573228752943
-0.30851956486457704   0.010070157454857773   0.014341573228752943
0.3254368099096655   0.029634449607142538   0.027927881743654757
0.3254368099096655   0.029634449607142538   0.027927881743654757
0.3254368099096655   0.029634449607142538   0.027927881743654757
0.3254368099096655   0.029634449607142538   0.027927881743654757
0.1188271903795799   -0.05348615787034911   -0.018367428965458357
0.1188271903795799   -0.05348615787034911   -0.018367428965458357
0.1188271903795799   -0.05348615787034911   -0.018367428965458357
0.1188271903795799   -0.05348615787034911   -0.018367428965458357
0.1462351468537028   -0.0005175744847620498   0.020062850849314806
0.1462351468537028   -0.0005175744847620498   0.020062850849314806
0.1462351468537028   -0.0005175744847620498   0.020062850849314806
0.1462351468537028   -0.0005175744847620498   0.020062850849314806
0.3310530561301403   -0.006963225636822612   -0.023470991293172986
0.3310530561301403   -0.006963225636822612   -0.023470991293172986
0.3310530561301403   -0.006963225636822612   -0.023470991293172986
0.3310530561301403   -0.006963225636822612   -0.023470991293172986
0.21622273300944228   -0.009537259932547969   -0.02073222658777786
0.21622273300944228   -0.009537259932547969   -0.02073222658777786
0.21622273300944228   -0.009537259932547969   -0.02073222658777786
0.21622273300944228   -0.009537259932547969   -0.02073222658777786
0.3502182219702274   0.04112066068563791   0.024270951584794743
0.3502182219702274   0.04112066068563791   0.024270951584794743
0.3502182219702274   0.04112066068563791   0.024270951584794743
0.3502182219702274   0.04112066068563791   0.024270951584794743
0.12844114421249989   -0.04723029760833748   -0.02219443923312231
0.12844114421249989   -0.04723029760833748   -0.02219443923312231
0.12844114421249989   -0.04723029760833748   -0.02219443923312231
0.12844114421249989   -0.04723029760833748   -0.02219443923312231
0.15691976859275167   0.005803050423200437   0.016521359793773498
0.15691976859275167   0.005803050423200437   0.016521359793773498
0.15691976859275167   0.005803050423200437   0.016521359793773498
0.15691976859275167   0.005803050423200437   0.016521359793773498
0.3507167816770397   0.00020991301227939185   -0.029499215525957752
0.3507167816770397   0.00020991301227939185   -0.029499215525957752
0.3507167816770397   0.00020991301227939185   -0.029499215525957752
0.3507167816770397   0.00020991301227939185   -0.029499215525957752
0.23682172510062477   -0.0018074481842345613   -0.012598372061890344
0.23682172510062477   -0.0018074481842345613   -0.012598372061890344
0.23682172510062477   -0.0018074481842345613   -0.012598372061890344
0.23682172510062477   -0.0018074481842345613   -0.012598372061890344
0.37007803040030535   0.04886151587207126   0.018655425230575715
0.37007803040030535   0.04886151587207126   0.018655425230575715
0.37007803040030535   0.04886151587207126   0.018655425230575715
0.37007803040030535   0.04886151587207126   0.018655425230575715
0.13900418529510236   -0.04140288701097555   -0.025850619260295162
0.13900418529510236   -0.04140288701097555   -0.025850619260295162
0.13900418529510236   -0.04140288701097555   -0.025850619260295162
0.13900418529510236   -0.04140288701097555   -0.025850619260295162
0.1675926594022852   0.019773841967978784   0.014318290026919249
0.1675926594022852   0.019773841967978784   0.014318290026919249
0.1675926594022852   0.019773841967978784   0.014318290026919249
0.1675926594022852   0.019773841967978784   0.014318290026919249
0.37657201177710137   0.01890876717395723   -0.03179953670529568
0.37657201177710137   0.01890876717395723   -0.03179953670529568
0.37657201177710137   0.01890876717395723   -0.03179953670529568
0.37657201177710137   0.01890876717395723   -0.03179953670529568
0.24936090729887433   0.007629532613365124   -0.005600941696611345
0.24936090729887433   0.007629532613365124   -0.005600941696611345
0.24936090729887433   0.007629532613365124   -0.005600941696611345
0.24936090729887433   0.007629532613365124   -0.005600941696611345
0.141024433160375   0.01667367005047055   0.022458957017695732
0.141024433160375   0.01667367005047055   0.022458957017695732
0.141024433160375   0.01667367005047055   0.022458957017695732
0.141024433160375   0.01667367005047055   0.022458957017695732
-0.06939352063679405   -0.049930662583262564   -0.009646054242096485
-0.06939352063679405   -0.049930662583262564   -0.009646054242096485
-0.06939352063679405   -0.049930662583262564   -0.009646054242096485
-0.06939352063679405   -0.049930662583262564   -0.009646054242096485
-0.050633848937888803   -0.014791256478412229   0.00673711110614239
-0.050633848937888803   -0.014791256478412229   0.00673711110614239
-0.050633848937888803   -0.014791256478412229   0.00673711110614239
-0.050633848937888803   -0.014791256478412229   0.00673711110614239
0.14192528344696054   0.0008721150906283205   -0.0028761557597867604
0.14192528344696054   0.0008721150906283205   -0.0028761557597867604
0.14192528344696054   0.0008721150906283205   -0.0028761557597867604
0.14192528344696054   0.0008721150906283205   -0.0028761557597867604
0.038870836371989015   -0.010420594123954068   -0.00878341527380478
0.038870836371989015   -0.010420594123954068   -0.00878341527380478
0.038870836371989015   -0.010420594123954068   -0.00878341527380478
0.038870836371989015   -0.010420594123954068   -0.00878341527380478
0.15201923705602458   0.02840423664531149   0.020061490730850243
0.15201923705602458   0.02840423664531149   0.020061490730850243
0.15201923705602458   0.02840423664531149   0.020061490730850243
0.15201923705602458   0.02840423664531149   0.020061490730850243
-0.05989001455853212   -0.04148559004467768   -0.012849383430808773
-0.05989001455853212   -0.04148559004467768   -0.012849383430808773
-0.05989001455853212   -0.04148559004467768   -0.012849383430808773
-0.05989001455853212   -0.04148559004467768   -0.012849383430808773
-0.04068917707120017   -0.0029315277201078333   0.004242960851683492
-0.04068917707120017   -0.0029315277201078333   0.004242960851683492
-0.04068917707120017   -0.0029315277201078333   0.004242960851683492
-0.04068917707120017   -0.0029315277201078333   0.004242960851683492
0.15367175183257234   0.011488820502932647   -0.005404494086853854
0.15367175183257234   0.011488820502932647   -0.005404494086853854
0.15367175183257234   0.011488820502932647   -0.005404494086853854
0.15367175183257234   0.011488820502932647   -0.005404494086853854
0.04846183287436584   -0.0010627406468326165   -0.0034856268987460857
0.04846183287436584   -0.0010627406468326165   -0.0034856268987460857
0.04846183287436584   -0.0010627406468326165   -0.0034856268987460857
0.04846183287436584   -0.0010627406468326165   -0.0034856268987460857
0.1641728476316913   0.04075853844372284   0.0178312669679492
0.1641728476316913   0.04075853844372284   0.0178312669679492
0.1641728476316913   0.04075853844372284   0.0178312669679492
0.1641728476316913   0.04075853844372284   0.0178312669679492
-0.050352583539605644   -0.031363556330185435   -0.01564204288026627
-0.050352583539605644   -0.031363556330185435   -0.01564204288026627
-0.050352583539605644   -0.031363556330185435   -0.01564204288026627
-0.050352583539605644   -0.031363556330185435   -0.01564204288026627
-0.0308616121175457   0.010845990799154805   0.0017638309156474438
-0.0308616121175457   0.010845990799154805   0.0017638309156474438
-0.0308616121175457   0.010845990799154805   0.0017638309156474438
-0.0308616121175457   0.010845990799154805   0.0017638309156474438
0.16406172328318816   0.024163321383248455   -0.0077258699838331345
0.16406172328318816   0.024163321383248455   -0.0077258699838331345
0.16406172328318816   0.024163321383248455   -0.0077258699838331345
0.16406172328318816   0.024163321383248455   -0.0077258699838331345
0.06038933002927274   0.010445171855861687   0.002709295828058308
0.06038933002927274   0.010445171855861687   0.002709295828058308
0.06038933002927274   0.010445171855861687   0.002709295828058308
0.06038933002927274   0.010445171855861687   0.002709295828058308
-0.054823529660209765   0.003679843166835506   0.009593394890727766
-0.054823529660209765   0.003679843166835506   0.009593394890727766
-0.054823529660209765   0.003679843166835506   0.009593394890727766
-0.054823529660209765   0.003679843166835506   0.009593394890727766
-0.253893719858065   -0.044173285627800395   -0.001329538593406794
-0.253893719858065   -0.044173285627800395   -0.001329538593406794
-0.253893719858065   -0.044173285627800395   -0.001329538593406794
-0.253893719858065   -0.044173285627800395   -0.001329538593406794
-0.2421395297422393   -0.026263643287473777   -0.005947053879978126
-0.2421395297422393   -0.026263643287473777   -0.005947053879978126
-0.2421395297422393   -0.026263643287473777   -0.005947053879978126
-0.2421395297422393   -0.026263643287473777   -0.005947053879978126
-0.046363022415090084   0.006961507769022445   0.00633847947270129
-0.046363022415090084   0.006961507769022445   0.00633847947270129
-0.046363022415090084   0.006961507769022445   0.00633847947270129
-0.046363022415090084   0.006961507769022445   0.00633847947270129
-0.14956275432986355   -0.013536164158006216   -0.005495032236670699
-0.14956275432986355   -0.013536164158006216   -0.005495032236670699
-0.14956275432986355   -0.013536164158006216   -0.005495032236670699
-0.14956275432986355   -0.013536164158006216   -0.005495032236670699
-0.044380917835229225   0.01593299324844063   0.007277516892587408
-0.044380917835229225   0.01593299324844063   0.007277516892587408
-0.044380917835229225   0.01593299324844063   0.007277516892587408
-0.044380917835229225   0.01593299324844063   0.007277516892587408
-0.24355083469726396   -0.03466432914205636   -0.004602892800518861
-0.24355083469726396   -0.03466432914205636   -0.004602892800518861
-0.24355083469726396   -0.03466432914205636   -0.004602892800518861
-0.24355083469726396   -0.03466432914205636   -0.004602892800518861
-0.23117171591894467   -0.013251021782979447   -0.008029619661190483
-0.23117171591894467   -0.013251021782979447   -0.008029619661190483
-0.23117171591894467   -0.013251021782979447   -0.008029619661190483
-0.23117171591894467   -0.013251021782979447   -0.008029619661190483
-0.036687846745345615   0.017691597183404052   0.0036264875774449316
-0.036687846745345615   0.017691597183404052   0.0036264875774449316
-0.036687846745345615   0.017691597183404052   0.0036264875774449316
-0.036687846745345615   0.017691597183404052   0.0036264875774449316
-0.1384948394121139   -0.002653683807565428   -7.751385832708516e-05
-0.1384948394121139   -0.002653683807565428   -7.751385832708516e-05
-0.1384948394121139   -0.002653683807565428   -7.751385832708516e-05
-0.1384948394121139   -0.002653683807565428   -7.751385832708516e-05
-0.03429157063269181   0.028659020226109135   0.004640445098009309
-0.03429157063269181   0.028659020226109135   0.004640445098009309
-0.03429157063269181   0.028659020226109135   0.004640445098009309
-0.03429157063269181   0.028659020226109135   0.004640445098009309
-0.23304015531085223   -0.023690608104939854   -0.006932230298767957
-0.23304015531085223   -0.023690608104939854   -0.006932230298767957
-0.23304015531085223   -0.023690608104939854   -0.006932230298767957
-0.23304015531085223   -0.023690608104939854   -0.006932230298767957
-0.22095775499140405   -0.00027185089239146337   -0.010505755408704593
-0.22095775499140405   -0.00027185089239146337   -0.010505755408704593
-0.22095775499140405   -0.00027185089239146337   -0.010505755408704593
-0.22095775499140405   -0.00027185089239146337   -0.010505755408704593
-0.02746840775966114   0.02864028330205353   0.0009355602021706034
-0.02746840775966114   0.02864028330205353   0.0009355602021706034
-0.02746840775966114   0.02864028330205353   0.0009355602021706034
-0.02746840775966114   0.02864028330205353   0.0009355602021706034
-0.12833687036359387   0.008190258594128128   0.00507297452905993
-0.12833687036359387   0.008190258594128128   0.00507297452905993
-0.12833687036359387   0.008190258594128128   0.00507297452905993
-0.12833687036359387   0.008190258594128128   0.00507297452905993
-0.2474218805734853   -0.009494027007978051   -0.00364960079032808
-0.2474218805734853   -0.009494027007978051   -0.00364960079032808
-0.2474218805734853   -0.009494027007978051   -0.00364960079032808
-0.2474218805734853   -0.009494027007978051   -0.00364960079032808
-0.4345831639307735   -0.03594545245977708   0.00812815850537528
-0.4345831639307735   -0.03594545245977708   0.00812815850537528
-0.4345831639307735   -0.03594545245977708   0.00812815850537528
-0.4345831639307735   -0.03594545245977708   0.00812815850537528
-0.4290682147167041   -0.03731851549796854   -0.01786076554630263
-0.4290682147167041   -0.03731851549796854   -0.01786076554630263
-0.4290682147167041   -0.03731851549796854   -0.01786076554630263
-0.4290682147167041   -0.03731851549796854   -0.01786076554630263
-0.22914622803131773   0.01691766207471302   0.015838149312445426
-0.22914622803131773   0.01691766207471302   0.015838149312445426
-0.22914622803131773   0.01691766207471302   0.015838149312445426
-0.22914622803131773   0.01691766207471302   0.015838149312445426
-0.33273829852409603   -0.014420518673490944   -0.0019275295793641251
-0.33273829852409603   -0.014420518673490944   -0.0019275295793641251
-0.33273829852409603   -0.014420518673490944   -0.0019275295793641251
-0.33273829852409603   -0.014420518673490944   -0.0019275295793641251
-0.2360742646669918   0.003729627719159849   -0.005613999510371814
-0.2360742646669918   0.003729627719159849   -0.005613999510371814
-0.2360742646669918   0.003729627719159849   -0.005613999510371814
-0.2360742646669918   0.003729627719159849   -0.005613999510371814
-0.4220781758892339   -0.024068478950619435   0.0038393920436993276
-0.4220781758892339   -0.024068478950619435   0.0038393920436993276
-0.4220781758892339   -0.024068478950619435   0.0038393920436993276
-0.4220781758892339   -0.024068478950619435   0.0038393920436993276
-0.4146970384546699   -0.024621996417719907   -0.01975730237193571
-0.4146970384546699   -0.024621996417719907   -0.01975730237193571
-0.4146970384546699   -0.024621996417719907   -0.01975730237193571
-0.4146970384546699   -0.024621996417719907   -0.01975730237193571
-0.21895462518683823   0.027129664405321934   0.012675147811041981
-0.21895462518683823   0.027129664405321934   0.012675147811041981
-0.21895462518683823   0.027129664405321934   0.012675147811041981
-0.21895462518683823   0.027129664405321934   0.012675147811041981
-0.31807701278389733   -0.0024020200919277757   0.003520031230221406
-0.31807701278389733   -0.0024020200919277757   0.003520031230221406
-0.31807701278389733   -0.0024020200919277757   0.003520031230221406
-0.31807701278389733   -0.0024020200919277757   0.003520031230221406
-0.22545925361244132   0.015527795868985568   -0.008246125780636777
-0.22545925361244132   0.015527795868985568   -0.008246125780636777
-0.22545925361244132   0.015527795868985568   -0.008246125780636777
-0.22545925361244132   0.015527795868985568   -0.008246125780636777
-0.4078147490578566   -0.012642466910173303   0.0026746151045841313
-0.4078147490578566   -0.012642466910173303   0.0026746151045841313
-0.4078147490578566   -0.012642466910173303   0.0026746151045841313
-0.4078147490578566   -0.012642466910173303   0.0026746151045841313
-0.40185077294853694   -0.010886120399627802   -0.020784083724456816
-0.40185077294853694   -0.010886120399627802   -0.020784083724456816
-0.40185077294853694   -0.010886120399627802   -0.020784083724456816
-0.40185077294853694   -0.010886120399627802   -0.020784083724456816
-0.20908434906533463   0.03832697563160779   0.01026244769764514
-0.20908434906533463   0.03832697563160779   0.01026244769764514
-0.20908434906533463   0.03832697563160779   0.01026244769764514
-0.20908434906533463   0.03832697563160779   0.01026244769764514
-0.3082739468323804   0.00784809349587158   0.008210456886263299
-0.3082739468323804   0.00784809349587158   0.008210456886263299
-0.3082739468323804   0.00784809349587158   0.008210456886263299
-0.3082739468323804   0.00784809349587158   0.008210456886263299
-0.43627617362440757   -0.020369740161936573   -0.01591260226063557
-0.43627617362440757   -0.020369740161936573   -0.01591260226063557
-0.43627617362440757   -0.020369740161936573   -0.01591260226063557
-0.43627617362440757   -0.020369740161936573   -0.01591260226063557
-0.6225982774309686   -0.022565022672413337   0.027527676964795033
-0.6225982774309686   -0.022565022672413337   0.027527676964795033
-0.6225982774309686   -0.022565022672413337   0.027527676964795033
-0.6225982774309686   -0.022565022672413337   0.027527676964795033
-0.61114242835645   -0.044587813792269976   -0.02121116890058871
-0.61114242835645   -0.044587813792269976   -0.02121116890058871
-0.61114242835645   -0.044587813792269976   -0.02121116890058871
-0.61114242835645   -0.044587813792269976   -0.02121116890058871
-0.40551173740600943   0.03455964267242935   0.028043462836769062
-0.40551173740600943   0.03455964267242935   0.028043462836769062
-0.40551173740600943   0.03455964267242935   0.028043462836769062
-0.40551173740600943   0.03455964267242935   0.028043462836769062
-0.4958387331702358   -0.006117891183513746   0.005914833963120314
-0.4958387331702358   -0.006117891183513746   0.005914833963120314
-0.4958387331702358   -0.006117891183513746   0.005914833963120314
-0.4958387331702358   -0.006117891183513746   0.005914833963120314
-0.4228166732693657   -0.0062206197968758675   -0.017700954010704845
-0.4228166732693657   -0.0062206197968758675   -0.017700954010704845
-0.4228166732693657   -0.0062206197968758675   -0.017700954010704845
-0.4228166732693657   -0.0062206197968758675   -0.017700954010704845
-0.5935248226971178   -0.0034948815269916222   0.02578392713078787
-0.5935248226971178   -0.0034948815269916222   0.02578392713078787
-0.5935248226971178   -0.0034948815269916222   0.02578392713078787
-0.5935248226971178   -0.0034948815269916222   0.02578392713078787
-0.5892633140811476   -0.03672587067204544   -0.025003963880572015
-0.5892633140811476   -0.03672587067204544   -0.025003963880572015
-0.5892633140811476   -0.03672587067204544   -0.025003963880572015
-0.5892633140811476   -0.03672587067204544   -0.025003963880572015
-0.39348984412501553   0.03940493222662454   0.022251740631991715
-0.39348984412501553   0.03940493222662454   0.022251740631991715
-0.39348984412501553   0.03940493222662454   0.022251740631991715
-0.39348984412501553   0.03940493222662454   0.022251740631991715
-0.48479663432874287   0.0024746160233089787   0.010404560805539427
-0.48479663432874287   0.0024746160233089787   0.010404560805539427
-0.48479663432874287   0.0024746160233089787   0.010404560805539427
-0.48479663432874287   0.0024746160233089787   0.010404560805539427
-0.40983162081152225   0.00012568220267467067   -0.020177892776592085
-0.40983162081152225   0.00012568220267467067   -0.020177892776592085
-0.40983162081152225   0.00012568220267467067   -0.020177892776592085
-0.40983162081152225   0.00012568220267467067   -0.020177892776592085
-0.572604159547054   0.002870757199488802   0.01869518091835149
-0.572604159547054   0.002870757199488802   0.01869518091835149
-0.572604159547054   0.002870757199488802   0.01869518091835149
-0.572604159547054   0.002870757199488802   0.01869518091835149
-0.5652733508636583   -0.027349695117276113   -0.028530005459580586
-0.5652733508636583   -0.027349695117276113   -0.028530005459580586
-0.5652733508636583   -0.027349695117276113   -0.028530005459580586
-0.5652733508636583   -0.027349695117276113   -0.028530005459580586
-0.38296112670306187   0.043836828454759544   0.018941198648529722
-0.38296112670306187   0.043836828454759544   0.018941198648529722
-0.38296112670306187   0.043836828454759544   0.018941198648529722
-0.38296112670306187   0.043836828454759544   0.018941198648529722
-0.4604827926834842   0.009587462754972548   0.017261178606575802
-0.4604827926834842   0.009587462754972548   0.017261178606575802
-0.4604827926834842   0.009587462754972548   0.017261178606575802
-0.4604827926834842   0.009587462754972548   0.017261178606575802
0.5428810621029327   0.04068286799287851   0.028423828627325728
0.5428810621029327   0.04068286799287851   0.028423828627325728
0.5428810621029327   0.04068286799287851   0.028423828627325728
0.5428810621029327   0.04068286799287851   0.028423828627325728
0.23891202903552933   -0.06330063037550518   -0.013205869776184525
0.23891202903552933   -0.06330063037550518   -0.013205869776184525
0.23891202903552933   -0.06330063037550518   -0.013205869776184525
0.23891202903552933   -0.06330063037550518   -0.013205869776184525
0.2659224044373677   -0.01140144649240174   0.01946855612168862
0.2659224044373677   -0.01140144649240174   0.01946855612168862
0.2659224044373677   -0.01140144649240174   0.01946855612168862
0.2659224044373677   -0.01140144649240174   0.01946855612168862
0.5486001871605408   -0.0003686745320893581   -0.020598817963563137
0.5486001871605408   -0.0003686745320893581   -0.020598817963563137
0.5486001871605408   -0.0003686745320893581   -0.020598817963563137
0.5486001871605408   -0.0003686745320893581   -0.020598817963563137
0.3757328963487749   -0.011134881076044156   -0.029161033816418352
0.3757328963487749   -0.011134881076044156   -0.029161033816418352
0.3757328963487749   -0.011134881076044156   -0.029161033816418352
0.3757328963487749   -0.011134881076044156   -0.029161033816418352
0.567502930436293   0.04977516021638796   0.02377106366671462
0.567502930436293   0.04977516021638796   0.02377106366671462
0.567502930436293   0.04977516021638796   0.02377106366671462
0.567502930436293   0.04977516021638796   0.02377106366671462
0.24884074919357108   -0.05972419320892427   -0.017616973380767946
0.24884074919357108   -0.05972419320892427   -0.017616973380767946
0.24884074919357108   -0.05972419320892427   -0.017616973380767946
0.24884074919357108   -0.05972419320892427   -0.017616973380767946
0.276380523366936   -0.005614162834021094   0.01571666355262812
0.276380523366936   -0.005614162834021094   0.01571666355262812
0.276380523366936   -0.005614162834021094   0.01571666355262812
0.276380523366936   -0.005614162834021094   0.01571666355262812
0.5670322693153772   0.006002368794713581   -0.025670700922653472
0.5670322693153772   0.006002368794713581   -0.025670700922653472
0.5670322693153772   0.006002368794713581   -0.025670700922653472
0.5670322693153772   0.006002368794713581   -0.025670700922653472
0.39898450451333434   -0.004348819564661793   -0.0198755414237103
0.39898450451333434   -0.004348819564661793   -0.0198755414237103
0.39898450451333434   -0.004348819564661793   -0.0198755414237103
0.39898450451333434   -0.004348819564661793   -0.0198755414237103
0.5858151250695607   0.056648845103810797   0.01759710153916689
0.5858151250695607   0.056648845103810797   0.01759710153916689
0.5858151250695607   0.056648845103810797   0.01759710153916689
0.5858151250695607   0.056648845103810797   0.01759710153916689
0.2591855864152937   -0.054672720340575236   -0.021199463699029326
0.2591855864152937   -0.054672720340575236   -0.021199463699029326
0.2591855864152937   -0.054672720340575236   -0.021199463699029326
0.2591855864152937   -0.054672720340575236   -0.021199463699029326
0.2858684722758803   0.009883885127482575   0.013779592563552056
0.2858684722758803   0.009883885127482575   0.013779592563552056
0.2858684722758803   0.009883885127482575   0.013779592563552056
0.2858684722758803   0.009883885127482575   0.013779592563552056
0.5897599411153662   0.024665311227484138   -0.0268589994156894
0.5897599411153662   0.024665311227484138   -0.0268589994156894
0.5897599411153662   0.024665311227484138   -0.0268589994156894
0.5897599411153662   0.024665311227484138   -0.0268589994156894
0.4074719711121415   0.0048269080956227645   -0.013484648727319064
0.4074719711121415   0.0048269080956227645   -0.013484648727319064
0.4074719711121415   0.0048269080956227645   -0.013484648727319064
0.4074719711121415   0.0048269080956227645   -0.013484648727319064
0.2642485925524128   0.023968528657954992   0.02620778877476903
0.2642485925524128   0.023968528657954992   0.02620778877476903
0.2642485925524128   0.023968528657954992   0.02620778877476903
0.2642485925524128   0.023968528657954992   0.02620778877476903
-0.033785869197495544   -0.0777382501462569   -0.007558249539360202
-0.033785869197495544   -0.0777382501462569   -0.007558249539360202
-0.033785869197495544   -0.0777382501462569   -0.007558249539360202
-0.033785869197495544   -0.0777382501462569   -0.007558249539360202
-0.010636028350407705   -0.027756875802629574   0.006540201571307332
-0.010636028350407705   -0.027756875802629574   0.006540201571307332
-0.010636028350407705   -0.027756875802629574   0.006540201571307332
-0.010636028350407705   -0.027756875802629574   0.006540201571307332
0.2619100830798772   -0.01337363688829312   0.0013791397301274946
0.2619100830798772   -0.01337363688829312   0.0013791397301274946
0.2619100830798772   -0.01337363688829312   0.0013791397301274946
0.2619100830798772   -0.01337363688829312   0.0013791397301274946
0.11716488177075983   -0.021388132040467866   -0.01377745349507411
0.11716488177075983   -0.021388132040467866   -0.01377745349507411
0.11716488177075983   -0.021388132040467866   -0.01377745349507411
0.11716488177075983   -0.021388132040467866   -0.01377745349507411
0.2755171141792432   0.03281153671397699   0.023229121624689174
0.2755171141792432   0.03281153671397699   0.023229121624689174
0.2755171141792432   0.03281153671397699   0.023229121624689174
0.2755171141792432   0.03281153671397699   0.023229121624689174
-0.023271759206753825   -0.0729707491618795   -0.011424579351173336
-0.023271759206753825   -0.0729707491618795   -0.011424579351173336
-0.023271759206753825   -0.0729707491618795   -0.011424579351173336
-0.023271759206753825   -0.0729707491618795   -0.011424579351173336
2.226843092579655e-05   -0.017368894921689807   0.003956412191680411
2.226843092579655e-05   -0.017368894921689807   0.003956412191680411
2.226843092579655e-05   -0.017368894921689807   0.003956412191680411
2.226843092579655e-05   -0.017368894921689807   0.003956412191680411
0.27285742075502634   -0.005536843261873932   -0.0019761690790667426
0.27285742075502634   -0.005536843261873932   -0.0019761690790667426
0.27285742075502634   -0.005536843261873932   -0.0019761690790667426
0.27285742075502634   -0.005536843261873932   -0.0019761690790667426
0.12638071784040175   -0.015000271071726707   -0.008908373649960936
0.12638071784040175   -0.015000271071726707   -0.008908373649960936
0.12638071784040175   -0.015000271071726707   -0.008908373649960936
0.12638071784040175   -0.015000271071726707   -0.008908373649960936
0.2871957174804236   0.04342517225590074   0.02075329903014442
0.2871957174804236   0.04342517225590074   0.02075329903014442
0.2871957174804236   0.04342517225590074   0.02075329903014442
0.2871957174804236   0.04342517225590074   0.02075329903014442
-0.013728032219985737   -0.06574291436498274   -0.01642107161958337
-0.013728032219985737   -0.06574291436498274   -0.01642107161958337
-0.013728032219985737   -0.06574291436498274   -0.01642107161958337
-0.013728032219985737   -0.06574291436498274   -0.01642107161958337
0.008395460782045878   -0.005154897573117864   0.001349297735477583
0.008395460782045878   -0.005154897573117864   0.001349297735477583
0.008395460782045878   -0.005154897573117864   0.001349297735477583
0.008395460782045878   -0.005154897573117864   0.001349297735477583
0.28103444687332396   0.004490415181298897   -0.0049970645030483745
0.28103444687332396   0.004490415181298897   -0.0049970645030483745
0.28103444687332396   0.004490415181298897   -0.0049970645030483745
0.28103444687332396   0.004490415181298897   -0.0049970645030483745
0.13778938306822827   -0.005426383610685783   -0.003653470178110363
0.13778938306822827   -0.005426383610685783   -0.003653470178110363
0.13778938306822827   -0.005426383610685783   -0.003653470178110363
0.13778938306822827   -0.005426383610685783   -0.003653470178110363
-0.012726702382522468   0.00693824371986494   0.013061090669383314
-0.012726702382522468   0.00693824371986494   0.013061090669383314
-0.012726702382522468   0.00693824371986494   0.013061090669383314
-0.012726702382522468   0.00693824371986494   0.013061090669383314
-0.3043283490053763   -0.09729583497847796   -0.006006095498858175
-0.3043283490053763   -0.09729583497847796   -0.006006095498858175
-0.3043283490053763   -0.09729583497847796   -0.006006095498858175
-0.3043283490053763   -0.09729583497847796   -0.006006095498858175
-0.28105090358035306   -0.042530237501074264   -0.006432365712519292
-0.28105090358035306   -0.042530237501074264   -0.006432365712519292
-0.28105090358035306   -0.042530237501074264   -0.006432365712519292
-0.28105090358035306   -0.042530237501074264   -0.006432365712519292
-0.011657571021607738   -0.03228287309365892   0.005958485506336925
-0.011657571021607738   -0.03228287309365892   0.005958485506336925
-0.011657571021607738   -0.03228287309365892   0.005958485506336925
-0.011657571021607738   -0.03228287309365892   0.005958485506336925
-0.15311077441677565   -0.039074933188037134   -0.012274420339330775
-0.15311077441677565   -0.039074933188037134   -0.012274420339330775
-0.15311077441677565   -0.039074933188037134   -0.012274420339330775
-0.15311077441677565   -0.039074933188037134   -0.012274420339330775
-0.0008829500470110439   0.01691630817102503   0.010632409114636041
-0.0008829500470110439   0.01691630817102503   0.010632409114636041
-0.0008829500470110439   0.01691630817102503   0.010632409114636041
-0.0008829500470110439   0.01691630817102503   0.010632409114636041
-0.29111963527413937   -0.09102352948494802   -0.008282732197576989
-0.29111963527413937   -0.09102352948494802   -0.008282732197576989
-0.29111963527413937   -0.09102352948494802   -0.008282732197576989
-0.29111963527413937   -0.09102352948494802   -0.008282732197576989
-0.2678206025223954   -0.03100525791137673   -0.008725032119409191
-0.2678206025223954   -0.03100525791137673   -0.008725032119409191
-0.2678206025223954   -0.03100525791137673   -0.008725032119409191
-0.2678206025223954   -0.03100525791137673   -0.008725032119409191
-0.0017382850046603884   -0.024742929357967465   0.0025276794500276555
-0.0017382850046603884   -0.024742929357967465   0.0025276794500276555
-0.0017382850046603884   -0.024742929357967465   0.0025276794500276555
-0.0017382850046603884   -0.024742929357967465   0.0025276794500276555
-0.14026714590645   -0.030772219006733485   -0.0067745510955463896
-0.14026714590645   -0.030772219006733485   -0.0067745510955463896
-0.14026714590645   -0.030772219006733485   -0.0067745510955463896
-0.14026714590645   -0.030772219006733485   -0.0067745510955463896
0.00995114278288542   0.02795039614960055   0.008281492880189128
0.00995114278288542   0.02795039614960055   0.008281492880189128
0.00995114278288542   0.02795039614960055   0.008281492880189128
0.00995114278288542   0.02795039614960055   0.008281492880189128
-0.2794886583983281   -0.08367721150733035   -0.014393357903119075
-0.2794886583983281   -0.08367721150733035   -0.014393357903119075
-0.2794886583983281   -0.08367721150733035   -0.014393357903119075
-0.2794886583983281   -0.08367721150733035   -0.014393357903119075
-0.258465305261107   -0.020002120804412424   -0.011279562828713357
-0.258465305261107   -0.020002120804412424   -0.011279562828713357
-0.258465305261107   -0.020002120804412424   -0.011279562828713357
-0.258465305261107   -0.020002120804412424   -0.011279562828713357
0.004759675715975565   -0.018674648340497865   -0.0033098768274941437
0.004759675715975565   -0.018674648340497865   -0.0033098768274941437
0.004759675715975565   -0.018674648340497865   -0.0033098768274941437
0.004759675715975565   -0.018674648340497865   -0.0033098768274941437
-0.13085328329479892   -0.023006139612105892   -0.0033000932533874937
-0.13085328329479892   -0.023006139612105892   -0.0033000932533874937
-0.13085328329479892   -0.023006139612105892   -0.0033000932533874937
-0.13085328329479892   -0.023006139612105892   -0.0033000932533874937
-0.2852895668084919   -0.007778307195817985   -0.0003297122970957987
-0.2852895668084919   -0.007778307195817985   -0.0003297122970957987
-0.2852895668084919   -0.007778307195817985   -0.0003297122970957987
-0.2852895668084919   -0.007778307195817985   -0.0003297122970957987
-0.5763695107520201   -0.10460454109381298   -0.004759877090595121
-0.5763695107520201   -0.10460454109381298   -0.004759877090595121
-0.5763695107520201   -0.10460454109381298   -0.004759877090595121
-0.5763695107520201   -0.10460454109381298   -0.004759877090595121
-0.5515151490549249   -0.05451831416458068   -0.018972810860415804
-0.5515151490549249   -0.05451831416458068   -0.018972810860415804
-0.5515151490549249   -0.05451831416458068   -0.018972810860415804
-0.5515151490549249   -0.05451831416458068   -0.018972810860415804
-0.2754734402014586   -0.03358278298061815   0.012507496661497306
-0.2754734402014586   -0.03358278298061815   0.012507496661497306
-0.2754734402014586   -0.03358278298061815   0.012507496661497306
-0.2754734402014586   -0.03358278298061815   0.012507496661497306
-0.41850234131332953   -0.04711573095607198   -0.00863305246496994
-0.41850234131332953   -0.04711573095607198   -0.00863305246496994
-0.41850234131332953   -0.04711573095607198   -0.00863305246496994
-0.41850234131332953   -0.04711573095607198   -0.00863305246496994
-0.2706705872124181   0.005027463417682988   -0.002088484791601581
-0.2706705872124181   0.005027463417682988   -0.002088484791601581
-0.2706705872124181   0.005027463417682988   -0.002088484791601581
-0.2706705872124181   0.005027463417682988   -0.002088484791601581
-0.5564982889262842   -0.09330884744520018   -0.005097976936587264
-0.5564982889262842   -0.09330884744520018   -0.005097976936587264
-0.5564982889262842   -0.09330884744520018   -0.005097976936587264
-0.5564982889262842   -0.09330884744520018   -0.005097976936587264
-0.5325628656577831   -0.0425164409115133   -0.021947138302189376
-0.5325628656577831   -0.0425164409115133   -0.021947138302189376
-0.5325628656577831   -0.0425164409115133   -0.021947138302189376
-0.5325628656577831   -0.0425164409115133   -0.021947138302189376
-0.262654751988872   -0.024596656433027535   0.010695619069860794
-0.262654751988872   -0.024596656433027535   0.010695619069860794
-0.262654751988872   -0.024596656433027535   0.010695619069860794
-0.262654751988872   -0.024596656433027535   0.010695619069860794
-0.39895962494716997   -0.03559808646048688   -0.0027454966807925994
-0.39895962494716997   -0.03559808646048688   -0.0027454966807925994
-0.39895962494716997   -0.03559808646048688   -0.0027454966807925994
-0.39895962494716997   -0.03559808646048688   -0.0027454966807925994
-0.257416304388911   0.016133782608356392   -0.0038425819717204136
-0.257416304388911   0.016133782608356392   -0.0038425819717204136
-0.257416304388911   0.016133782608356392   -0.0038425819717204136
-0.257416304388911   0.016133782608356392   -0.0038425819717204136
-0.538678627799629   -0.08412419449478054   -0.010918195428147266
-0.538678627799629   -0.08412419449478054   -0.010918195428147266
-0.538678627799629   -0.08412419449478054   -0.010918195428147266
-0.538678627799629   -0.08412419449478054   -0.010918195428147266
-0.5172556039068374   -0.029892476430059697   -0.022663557769189508
-0.5172556039068374   -0.029892476430059697   -0.022663557769189508
-0.5172556039068374   -0.029892476430059697   -0.022663557769189508
-0.5172556039068374   -0.029892476430059697   -0.022663557769189508
-0.25530523489636   -0.018883417423440976   0.0034020856140525102
-0.25530523489636   -0.018883417423440976   0.0034020856140525102
-0.25530523489636   -0.018883417423440976   0.0034020856140525102
-0.25530523489636   -0.018883417423440976   0.0034020856140525102
-0.38836219637485053   -0.028590262160280794   -0.0008036122816801466
-0.38836219637485053   -0.028590262160280794   -0.0008036122816801466
-0.38836219637485053   -0.028590262160280794   -0.0008036122816801466
-0.38836219637485053   -0.028590262160280794   -0.0008036122816801466
-0.5609176470156227   -0.018462876568987957   -0.013642222933433812
-0.5609176470156227   -0.018462876568987957   -0.013642222933433812
-0.5609176470156227   -0.018462876568987957   -0.013642222933433812
-0.5609176470156227   -0.018462876568987957   -0.013642222933433812
-0.8459506947186666   -0.07135700223764106   0.03128801080290965
-0.8459506947186666   -0.07135700223764106   0.03128801080290965
-0.8459506947186666   -0.07135700223764106   0.03128801080290965
-0.8459506947186666   -0.07135700223764106   0.03128801080290965
-0.8177323547327798   -0.05717750015884934   -0.01842163399285407
-0.8177323547327798   -0.05717750015884934   -0.01842163399285407
-0.8177323547327798   -0.05717750015884934   -0.01842163399285407
-0.8177323547327798   -0.05717750015884934   -0.01842163399285407
-0.5279489865089965   0.015412126439891496   0.028927561264750008
-0.5279489865089965   0.015412126439891496   0.028927561264750008
-0.5279489865089965   0.015412126439891496   0.028927561264750008
-0.5279489865089965   0.015412126439891496   0.028927561264750008
-0.6572759429473215   -0.022205183827264677   0.0035310482721468382
-0.6572759429473215   -0.022205183827264677   0.0035310482721468382
-0.6572759429473215   -0.022205183827264677   0.0035310482721468382
-0.6572759429473215   -0.022205183827264677   0.0035310482721468382
-0.540040465444932   -0.0009819474147631096   -0.01513575956026644
-0.540040465444932   -0.0009819474147631096   -0.01513575956026644
-0.540040465444932   -0.0009819474147631096   -0.01513575956026644
-0.540040465444932   -0.0009819474147631096   -0.01513575956026644
-0.8036935630654292   -0.03883611357278044   0.033430937757822986
-0.8036935630654292   -0.03883611357278044   0.033430937757822986
-0.8036935630654292   -0.03883611357278044   0.033430937757822986
-0.8036935630654292   -0.03883611357278044   0.033430937757822986
-0.7874134862526443   -0.048217823104461766   -0.021938393895811113
-0.7874134862526443   -0.048217823104461766   -0.021938393895811113
-0.7874134862526443   -0.048217823104461766   -0.021938393895811113
-0.7874134862526443   -0.048217823104461766   -0.021938393895811113
-0.5092376210844417   0.024288931276819317   0.027873712376184932
-0.5092376210844417   0.024288931276819317   0.027873712376184932
-0.5092376210844417   0.024288931276819317   0.027873712376184932
-0.5092376210844417   0.024288931276819317   0.027873712376184932
-0.6397210262907443   -0.008952186080732338   0.013197794069314754
-0.6397210262907443   -0.008952186080732338   0.013197794069314754
-0.6397210262907443   -0.008952186080732338   0.013197794069314754
-0.6397210262907443   -0.008952186080732338   0.013197794069314754
-0.5217394411213203   0.006029477828905991   -0.01637593436029018
-0.5217394411213203   0.006029477828905991   -0.01637593436029018
-0.5217394411213203   0.006029477828905991   -0.01637593436029018
-0.5217394411213203   0.006029477828905991   -0.01637593436029018
-0.7744946853867073   -0.029541388827489218   0.023979176156907936
-0.7744946853867073   -0.029541388827489218   0.023979176156907936
-0.7744946853867073   -0.029541388827489218   0.023979176156907936
-0.7744946853867073   -0.029541388827489218   0.023979176156907936
-0.7560213630301771   -0.039870771650000525   -0.026536565548170597
-0.7560213630301771   -0.039870771650000525   -0.026536565548170597
-0.7560213630301771   -0.039870771650000525   -0.026536565548170597
-0.7560213630301771   -0.039870771650000525   -0.026536565548170597
-0.49550180709706915   0.03472578519856129   0.021487164651033272
-0.49550180709706915   0.03472578519856129   0.021487164651033272
-0.49550180709706915   0.03472578519856129   0.021487164651033272
-0.49550180709706915   0.03472578519856129   0.021487164651033272
-0.6057746511556052   0.002334327061877556   0.022994937217173064
-0.6057746511556052   0.002334327061877556   0.022994937217173064
-0.6057746511556052   0.002334327061877556   0.022994937217173064
-0.6057746511556052   0.002334327061877556   0.022994937217173064
0.7386547409271743   0.04456901197634683   0.02639963009145061
0.7386547409271743   0.04456901197634683   0.02639963009145061
0.7386547409271743   0.04456901197634683   0.02639963009145061
0.7386547409271743   0.04456901197634683   0.02639963009145061
0.3513872991599424   -0.06536535233838559   0.005521960885471883
0.3513872991599424   -0.06536535233838559   0.005521960885471883
0.3513872991599424   -0.06536535233838559   0.005521960885471883
0.3513872991599424   -0.06536535233838559   0.005521960885471883
0.3704367570814204   -0.02784349643081445   0.020190502621931797
0.3704367570814204   -0.02784349643081445   0.020190502621931797
0.3704367570814204   -0.02784349643081445   0.020190502621931797
0.3704367570814204   -0.02784349643081445   0.020190502621931797
0.7423398972492798   0.007057398511059271   -0.006198875135396721
0.7423398972492798   0.007057398511059271   -0.006198875135396721
0.7423398972492798   0.007057398511059271   -0.006198875135396721
0.7423398972492798   0.007057398511059271   -0.006198875135396721
0.5188929692679339   -0.013823508438042642   -0.03422542593680758
0.5188929692679339   -0.013823508438042642   -0.03422542593680758
0.5188929692679339   -0.013823508438042642   -0.03422542593680758
0.5188929692679339   -0.013823508438042642   -0.03422542593680758
0.7562294981612318   0.04944854737320571   0.020857980562215852
0.7562294981612318   0.04944854737320571   0.020857980562215852
0.7562294981612318   0.04944854737320571   0.020857980562215852
0.7562294981612318   0.04944854737320571   0.020857980562215852
0.3598542877130367   -0.06692751374939188   0.006362173098590669
0.3598542877130367   -0.06692751374939188   0.006362173098590669
0.3598542877130367   -0.06692751374939188   0.006362173098590669
0.3598542877130367   -0.06692751374939188   0.006362173098590669
0.3775692006644559   -0.023688951708227254   0.01533576521354844
0.3775692006644559   -0.023688951708227254   0.01533576521354844
0.3775692006644559   -0.023688951708227254   0.01533576521354844
0.3775692006644559   -0.023688951708227254   0.01533576521354844
0.7550814590412309   0.011727041622678763   -0.0022015505685807
0.7550814590412309   0.011727041622678763   -0.0022015505685807
0.7550814590412309   0.011727041622678763   -0.0022015505685807
0.7550814590412309   0.011727041622678763   -0.0022015505685807
0.5400293898656835   -0.010876759656718124   -0.02345595528257078
0.5400293898656835   -0.010876759656718124   -0.02345595528257078
0.5400293898656835   -0.010876759656718124   -0.02345595528257078
0.5400293898656835   -0.010876759656718124   -0.02345595528257078
0.7668587357093213   0.053986814280787415   0.014425060113762093
0.7668587357093213   0.053986814280787415   0.014425060113762093
0.7668587357093213   0.053986814280787415   0.014425060113762093
0.7668587357093213   0.053986814280787415   0.014425060113762093
0.36809169891713966   -0.06364894944556275   0.007908254214303002
0.36809169891713966   -0.06364894944556275   0.007908254214303002
0.36809169891713966   -0.06364894944556275   0.007908254214303002
0.36809169891713966   -0.06364894944556275   0.007908254214303002
0.38810501074072495   -0.007489668664036331   0.014021031501364804
0.38810501074072495   -0.007489668664036331   0.014021031501364804
0.38810501074072495   -0.007489668664036331   0.014021031501364804
0.38810501074072495   -0.007489668664036331   0.014021031501364804
0.7683930642153901   0.022566111987667753   -0.0006948539449234611
0.7683930642153901   0.022566111987667753   -0.0006948539449234611
0.7683930642153901   0.022566111987667753   -0.0006948539449234611
0.7683930642153901   0.022566111987667753   -0.0006948539449234611
0.5424129255345943   -0.004858049773334441   -0.017635911314717964
0.5424129255345943   -0.004858049773334441   -0.017635911314717964
0.5424129255345943   -0.004858049773334441   -0.017635911314717964
0.5424129255345943   -0.004858049773334441   -0.017635911314717964
0.3710073149708405   0.010319478429664991   0.027937209171911778
0.3710073149708405   0.010319478429664991   0.027937209171911778
0.3710073149708405   0.010319478429664991   0.027937209171911778
0.3710073149708405   0.010319478429664991   0.027937209171911778
0.017719061534409754   -0.12913667551270866   0.012896149757571342
0.017719061534409754   -0.12913667551270866   0.012896149757571342
0.017719061534409754   -0.12913667551270866   0.012896149757571342
0.017719061534409754   -0.12913667551270866   0.012896149757571342
0.042396704633723005   -0.055111414033669245   0.012203632449401078
0.042396704633723005   -0.055111414033669245   0.012203632449401078
0.042396704633723005   -0.055111414033669245   0.012203632449401078
0.042396704633723005   -0.055111414033669245   0.012203632449401078
0.3615903712139858   -0.06043380742501327   0.00854888427895481
0.3615903712139858   -0.06043380742501327   0.00854888427895481
0.3615903712139858   -0.06043380742501327   0.00854888427895481
0.3615903712139858   -0.06043380742501327   0.00854888427895481
0.19178417815415116   -0.057331150728252865   -0.021617515765241374
0.19178417815415116   -0.057331150728252865   -0.021617515765241374
0.19178417815415116   -0.057331150728252865   -0.021617515765241374
0.19178417815415116   -0.057331150728252865   -0.021617515765241374
0.3795549048179988   0.01455587374009075   0.02338187113392069
0.3795549048179988   0.01455587374009075   0.02338187113392069
0.3795549048179988   0.01455587374009075   0.02338187113392069
0.3795549048179988   0.01455587374009075   0.02338187113392069
0.02917878341129035   -0.12535448281719133   0.01635709512075989
0.02917878341129035   -0.12535448281719133   0.01635709512075989
0.02917878341129035   -0.12535448281719133   0.01635709512075989
0.02917878341129035   -0.12535448281719133   0.01635709512075989
0.05226603650635803   -0.04750464621982213   0.008776200379860568
0.05226603650635803   -0.04750464621982213   0.008776200379860568
0.05226603650635803   -0.04750464621982213   0.008776200379860568
0.05226603650635803   -0.04750464621982213   0.008776200379860568
0.3700610443235954   -0.056402496141301925   0.010508527942320517
0.3700610443235954   -0.056402496141301925   0.010508527942320517
0.3700610443235954   -0.056402496141301925   0.010508527942320517
0.3700610443235954   -0.056402496141301925   0.010508527942320517
0.200128904048438   -0.054382212519844236   -0.01081488065785628
0.200128904048438   -0.054382212519844236   -0.01081488065785628
0.200128904048438   -0.054382212519844236   -0.01081488065785628
0.200128904048438   -0.054382212519844236   -0.01081488065785628
0.38754006148403464   0.021745951850317607   0.019755165752897506
0.38754006148403464   0.021745951850317607   0.019755165752897506
0.38754006148403464   0.021745951850317607   0.019755165752897506
0.38754006148403464   0.021745951850317607   0.019755165752897506
0.03934892234067079   -0.1210911912166919   0.017777174548295166
0.03934892234067079   -0.1210911912166919   0.017777174548295166
0.03934892234067079   -0.1210911912166919   0.017777174548295166
0.03934892234067079   -0.1210911912166919   0.017777174548295166
0.06744938011658326   -0.036077694297181405   0.005747454861290828
0.06744938011658326   -0.036077694297181405   0.005747454861290828
0.06744938011658326   -0.036077694297181405   0.005747454861290828
0.06744938011658326   -0.036077694297181405   0.005747454861290828
0.3793037692569683   -0.050296085627365886   0.012821241045908073
0.3793037692569683   -0.050296085627365886   0.012821241045908073
0.3793037692569683   -0.050296085627365886   0.012821241045908073
0.3793037692569683   -0.050296085627365886   0.012821241045908073
0.21495817654677052   -0.04730128230316601   0.0017785852757015858
0.21495817654677052   -0.04730128230316601   0.0017785852757015858
0.21495817654677052   -0.04730128230316601   0.0017785852757015858
0.21495817654677052   -0.04730128230316601   0.0017785852757015858
0.03982952638708555   -0.023667234248804757   0.01797903275704641
0.03982952638708555   -0.023667234248804757   0.01797903275704641
0.03982952638708555   -0.023667234248804757   0.01797903275704641
0.03982952638708555   -0.023667234248804757   0.01797903275704641
-0.31841255413380287   -0.22102028779448157   0.018951205081610877
-0.31841255413380287   -0.22102028779448157   0.018951205081610877
-0.31841255413380287   -0.22102028779448157   0.018951205081610877
-0.31841255413380287   -0.22102028779448157   0.018951205081610877
-0.2795414151154806   -0.08684296599868171   0.0010418650750803615
-0.2795414151154806   -0.08684296599868171   0.0010418650750803615
-0.2795414151154806   -0.08684296599868171   0.0010418650750803615
-0.2795414151154806   -0.08684296599868171   0.0010418650750803615
0.0207112116839371   -0.15888096768601362   0.0075457213528159275
0.0207112116839371   -0.15888096768601362   0.0075457213528159275
0.0207112116839371   -0.15888096768601362   0.0075457213528159275
0.0207112116839371   -0.15888096768601362   0.0075457213528159275
-0.13839516397014603   -0.12346345076506023   -0.025924420950982477
-0.13839516397014603   -0.12346345076506023   -0.025924420950982477
-0.13839516397014603   -0.12346345076506023   -0.025924420950982477
-0.13839516397014603   -0.12346345076506023   -0.025924420950982477
0.0501649750372936   -0.018269455747022604   0.014203026180607427
0.0501649750372936   -0.018269455747022604   0.014203026180607427
0.0501649750372936   -0.018269455747022604   0.014203026180607427
0.0501649750372936   -0.018269455747022604   0.014203026180607427
-0.30208197836771367   -0.22054127783654998   0.02203736065178493
-0.30208197836771367   -0.22054127783654998   0.02203736065178493
-0.30208197836771367   -0.22054127783654998   0.02203736065178493
-0.30208197836771367   -0.22054127783654998   0.02203736065178493
-0.2645390606907884   -0.07787604443956464   -0.000337120271830197
-0.2645390606907884   -0.07787604443956464   -0.000337120271830197
-0.2645390606907884   -0.07787604443956464   -0.000337120271830197
-0.2645390606907884   -0.07787604443956464   -0.000337120271830197
0.031130107461436164   -0.1551886229656645   0.010780531901094355
0.031130107461436164   -0.1551886229656645   0.010780531901094355
0.031130107461436164   -0.1551886229656645   0.010780531901094355
0.031130107461436164   -0.1551886229656645   0.010780531901094355
-0.12316215210898834   -0.11905755064849204   -0.009552878373414005
-0.12316215210898834   -0.11905755064849204   -0.009552878373414005
-0.12316215210898834   -0.11905755064849204   -0.009552878373414005
-0.12316215210898834   -0.11905755064849204   -0.009552878373414005
0.05961644781882508   -0.011143997115667388   0.009167607838042047
0.05961644781882508   -0.011143997115667388   0.009167607838042047
0.05961644781882508   -0.011143997115667388   0.009167607838042047
0.05961644781882508   -0.011143997115667388   0.009167607838042047
-0.2868255603595837   -0.2157208296009673   0.02607516654560014
-0.2868255603595837   -0.2157208296009673   0.02607516654560014
-0.2868255603595837   -0.2157208296009673   0.02607516654560014
-0.2868255603595837   -0.2157208296009673   0.02607516654560014
-0.23977187184182608   -0.06756447306731958   -0.0032274529038164414
-0.23977187184182608   -0.06756447306731958   -0.0032274529038164414
-0.23977187184182608   -0.06756447306731958   -0.0032274529038164414
-0.23977187184182608   -0.06756447306731958   -0.0032274529038164414
0.04738250244768989   -0.14522229716116325   0.01455766938080473
0.04738250244768989   -0.14522229716116325   0.01455766938080473
0.04738250244768989   -0.14522229716116325   0.01455766938080473
0.04738250244768989   -0.14522229716116325   0.01455766938080473
-0.10343678735928012   -0.10948139843094438   0.007467138259507046
-0.10343678735928012   -0.10948139843094438   0.007467138259507046
-0.10343678735928012   -0.10948139843094438   0.007467138259507046
-0.10343678735928012   -0.10948139843094438   0.007467138259507046
-0.2850152423867479   -0.04366518066513417   0.008582656687536432
-0.2850152423867479   -0.04366518066513417   0.008582656687536432
-0.2850152423867479   -0.04366518066513417   0.008582656687536432
-0.2850152423867479   -0.04366518066513417   0.008582656687536432
-0.704682546037401   -0.3429065555739039   -0.015311512313534358
-0.704682546037401   -0.3429065555739039   -0.015311512313534358
-0.704682546037401   -0.3429065555739039   -0.015311512313534358
-0.704682546037401   -0.3429065555739039   -0.015311512313534358
-0.6406875531418105   -0.11298710455307215   -0.019299998260405418
-0.6406875531418105   -0.11298710455307215   -0.019299998260405418
-0.6406875531418105   -0.11298710455307215   -0.019299998260405418
-0.6406875531418105   -0.11298710455307215   -0.019299998260405418
-0.3182226890607065   -0.28533392192071433   0.006126451270983248
-0.3182226890607065   -0.28533392192071433   0.006126451270983248
-0.3182226890607065   -0.28533392192071433   0.006126451270983248
-0.3182226890607065   -0.28533392192071433   0.006126451270983248
-0.4866337269927635   -0.20290135286746075   -0.027319708656822945
-0.4866337269927635   -0.20290135286746075   -0.027319708656822945
-0.4866337269927635   -0.20290135286746075   -0.027319708656822945
-0.4866337269927635   -0.20290135286746075   -0.027319708656822945
-0.2673245759003969   -0.03283157535195355   0.00811467050377043
-0.2673245759003969   -0.03283157535195355   0.00811467050377043
-0.2673245759003969   -0.03283157535195355   0.00811467050377043
-0.2673245759003969   -0.03283157535195355   0.00811467050377043
-0.6898170075124633   -0.3637207923321747   -0.014213582334561714
-0.6898170075124633   -0.3637207923321747   -0.014213582334561714
-0.6898170075124633   -0.3637207923321747   -0.014213582334561714
-0.6898170075124633   -0.3637207923321747   -0.014213582334561714
-0.6206145350041211   -0.10227044602361715   -0.01971354586783831
-0.6206145350041211   -0.10227044602361715   -0.01971354586783831
-0.6206145350041211   -0.10227044602361715   -0.01971354586783831
-0.6206145350041211   -0.10227044602361715   -0.01971354586783831
-0.3036077543529759   -0.2828309117036434   0.009274278681313461
-0.3036077543529759   -0.2828309117036434   0.009274278681313461
-0.3036077543529759   -0.2828309117036434   0.009274278681313461
-0.3036077543529759   -0.2828309117036434   0.009274278681313461
-0.4654118152285224   -0.1971036726357308   -0.01873220443624481
-0.4654118152285224   -0.1971036726357308   -0.01873220443624481
-0.4654118152285224   -0.1971036726357308   -0.01873220443624481
-0.4654118152285224   -0.1971036726357308   -0.01873220443624481
-0.25320853465701426   -0.024298869740943172   0.002738335198421215
-0.25320853465701426   -0.024298869740943172   0.002738335198421215
-0.25320853465701426   -0.024298869740943172   0.002738335198421215
-0.25320853465701426   -0.024298869740943172   0.002738335198421215
-0.6708272370038707   -0.3606159702900988   -0.012431531600099528
-0.6708272370038707   -0.3606159702900988   -0.012431531600099528
-0.6708272370038707   -0.3606159702900988   -0.012431531600099528
-0.6708272370038707   -0.3606159702900988   -0.012431531600099528
-0.5892078402964553   -0.09081687024165097   -0.022362573076886737
-0.5892078402964553   -0.09081687024165097   -0.022362573076886737
-0.5892078402964553   -0.09081687024165097   -0.022362573076886737
-0.5892078402964553   -0.09081687024165097   -0.022362573076886737
-0.2719733467159794   -0.253324229613677   0.021524929271778896
-0.2719733467159794   -0.253324229613677   0.021524929271778896
-0.2719733467159794   -0.253324229613677   0.021524929271778896
-0.2719733467159794   -0.253324229613677   0.021524929271778896
-0.4418736278164873   -0.1780914820810831   -0.009886396989728142
-0.4418736278164873   -0.1780914820810831   -0.009886396989728142
-0.4418736278164873   -0.1780914820810831   -0.009886396989728142
-0.4418736278164873   -0.1780914820810831   -0.009886396989728142
-0.6414292394487704   -0.03758385027758557   -0.00436768466669981
-0.6414292394487704   -0.03758385027758557   -0.00436768466669981
-0.6414292394487704   -0.03758385027758557   -0.00436768466669981
-0.6414292394487704   -0.03758385027758557   -0.00436768466669981
-1.1278046813446883   -0.223247028089384   0.01156954089776834
-1.1278046813446883   -0.223247028089384   0.01156954089776834
-1.1278046813446883   -0.223247028089384   0.01156954089776834
-1.1278046813446883   -0.223247028089384   0.01156954089776834
-1.084001967538424   -0.1062439069600486   -0.02329962470552295
-1.084001967538424   -0.1062439069600486   -0.02329962470552295
-1.084001967538424   -0.1062439069600486   -0.02329962470552295
-1.084001967538424   -0.1062439069600486   -0.02329962470552295
-0.6285317284188148   -0.11667328460288565   0.04516530540438657
-0.6285317284188148   -0.11667328460288565   0.04516530540438657
-0.6285317284188148   -0.11667328460288565   0.04516530540438657
-0.6285317284188148   -0.11667328460288565   0.04516530540438657
-0.8352765171244151   -0.1291464562481891   0.011415382766538987
-0.8352765171244151   -0.1291464562481891   0.011415382766538987
-0.8352765171244151   -0.1291464562481891   0.011415382766538987
-0.8352765171244151   -0.1291464562481891   0.011415382766538987
-0.6157890745805591   -0.00791695452401292   0.00012224451679520437
-0.6157890745805591   -0.00791695452401292   0.00012224451679520437
-0.6157890745805591   -0.00791695452401292   0.00012224451679520437
-0.6157890745805591   -0.00791695452401292   0.00012224451679520437
-1.1007949610150844   -0.21905057667732786   0.005542077628445126
-1.1007949610150844   -0.21905057667732786   0.005542077628445126
-1.1007949610150844   -0.21905057667732786   0.005542077628445126
-1.1007949610150844   -0.21905057667732786   0.005542077628445126
-1.0602410089399272   -0.09740495261459972   -0.029592319225440082
-1.0602410089399272   -0.09740495261459972   -0.029592319225440082
-1.0602410089399272   -0.09740495261459972   -0.029592319225440082
-1.0602410089399272   -0.09740495261459972   -0.029592319225440082
-0.6078824913524882   -0.11103437749762912   0.05271060386434261
-0.6078824913524882   -0.11103437749762912   0.05271060386434261
-0.6078824913524882   -0.11103437749762912   0.05271060386434261
-0.6078824913524882   -0.11103437749762912   0.05271060386434261
-0.8230433764392848   -0.10649525831192758   0.011101639141686884
-0.8230433764392848   -0.10649525831192758   0.011101639141686884
-0.8230433764392848   -0.10649525831192758   0.011101639141686884
-0.8230433764392848   -0.10649525831192758   0.011101639141686884
-0.5974074623483661   -9.125431144724194e-05   -0.005857374301228013
-0.5974074623483661   -9.125431144724194e-05   -0.005857374301228013
-0.5974074623483661   -9.125431144724194e-05   -0.005857374301228013
-0.5974074623483661   -9.125431144724194e-05   -0.005857374301228013
-1.0720952837935105   -0.2097273216502459   0.023458675542280937
-1.0720952837935105   -0.2097273216502459   0.023458675542280937
-1.0720952837935105   -0.2097273216502459   0.023458675542280937
-1.0720952837935105   -0.2097273216502459   0.023458675542280937
-1.0108621251005212   -0.07929262305875437   -0.03324455863210832
-1.0108621251005212   -0.07929262305875437   -0.03324455863210832
-1.0108621251005212   -0.07929262305875437   -0.03324455863210832
-1.0108621251005212   -0.07929262305875437   -0.03324455863210832
-0.575675193520083   -0.10353190049279272   0.058015691056119395
-0.575675193520083   -0.10353190049279272   0.058015691056119395
-0.575675193520083   -0.10353190049279272   0.058015691056119395
-0.575675193520083   -0.10353190049279272   0.058015691056119395
-0.7747088838784519   -0.0815103187090714   0.023282883045392565
-0.7747088838784519   -0.0815103187090714   0.023282883045392565
-0.7747088838784519   -0.0815103187090714   0.023282883045392565
-0.7747088838784519   -0.0815103187090714   0.023282883045392565
0.8091397668883108   0.027323617550242207   0.011214342600246063
0.8091397668883108   0.027323617550242207   0.011214342600246063
0.8091397668883108   0.027323617550242207   0.011214342600246063
0.8091397668883108   0.027323617550242207   0.011214342600246063
0.41192395115112623   -0.022201553853023637   0.007922931584735584
0.41192395115112623   -0.022201553853023637   0.007922931584735584
0.41192395115112623   -0.022201553853023637   0.007922931584735584
0.41192395115112623   -0.022201553853023637   0.007922931584735584
0.3962130966008412   -0.05772515460758686   0.016015159919811277
0.3962130966008412   -0.05772515460758686   0.016015159919811277
0.3962130966008412   -0.05772515460758686   0.016015159919811277
0.3962130966008412   -0.05772515460758686   0.016015159919811277
0.8033154319439424   0.04520372019713795   0.005613825437495008
0.8033154319439424   0.04520372019713795   0.005613825437495008
0.8033154319439424   0.04520372019713795   0.005613825437495008
0.8033154319439424   0.04520372019713795   0.005613825437495008
0.572903912134654   -0.00792468653527402   -0.021227284435817437
0.572903912134654   -0.00792468653527402   -0.021227284435817437
0.572903912134654   -0.00792468653527402   -0.021227284435817437
0.572903912134654   -0.00792468653527402   -0.021227284435817437
0.7991315651819404   0.02136262457466495   0.00853558724995844
0.7991315651819404   0.02136262457466495   0.00853558724995844
0.7991315651819404   0.02136262457466495   0.00853558724995844
0.7991315651819404   0.02136262457466495   0.00853558724995844
0.39913303069457534   -0.03514799165337952   0.008037667434274608
0.39913303069457534   -0.03514799165337952   0.008037667434274608
0.39913303069457534   -0.03514799165337952   0.008037667434274608
0.39913303069457534   -0.03514799165337952   0.008037667434274608
0.3861310457501984   -0.05898138065690765   0.013206751324519768
0.3861310457501984   -0.05898138065690765   0.013206751324519768
0.3861310457501984   -0.05898138065690765   0.013206751324519768
0.3861310457501984   -0.05898138065690765   0.013206751324519768
0.7941529624027607   0.04333676941990727   0.009929192110936673
0.7941529624027607   0.04333676941990727   0.009929192110936673
0.7941529624027607   0.04333676941990727   0.009929192110936673
0.7941529624027607   0.04333676941990727   0.009929192110936673
0.571482697949528   -0.010916625126336399   -0.024384993793938423
0.571482697949528   -0.010916625126336399   -0.024384993793938423
0.571482697949528   -0.010916625126336399   -0.024384993793938423
0.571482697949528   -0.010916625126336399   -0.024384993793938423
0.7878509586469427   0.01922703350657637   0.002528909245168777
0.7878509586469427   0.01922703350657637   0.002528909245168777
0.7878509586469427   0.01922703350657637   0.002528909245168777
0.7878509586469427   0.01922703350657637   0.002528909245168777
0.3901358928272794   -0.03716880142231076   0.011418407475327845
0.3901358928272794   -0.03716880142231076   0.011418407475327845
0.3901358928272794   -0.03716880142231076   0.011418407475327845
0.3901358928272794   -0.03716880142231076   0.011418407475327845
0.37553142397066264   -0.05358546609319691   0.011408895895480671
0.37553142397066264   -0.05358546609319691   0.011408895895480671
0.37553142397066264   -0.05358546609319691   0.011408895895480671
0.37553142397066264   -0.05358546609319691   0.011408895895480671
0.7800761554982143   0.04408259837639186   0.014450242925195235
0.7800761554982143   0.04408259837639186   0.014450242925195235
0.7800761554982143   0.04408259837639186   0.014450242925195235
0.7800761554982143   0.04408259837639186   0.014450242925195235
0.5502844088771025   -0.010899983010031714   -0.03275620520689527
0.5502844088771025   -0.010899983010031714   -0.03275620520689527
0.5502844088771025   -0.010899983010031714   -0.03275620520689527
0.5502844088771025   -0.010899983010031714   -0.03275620520689527
0.40893793226922   -0.049428228877353125   0.02021951219953387
0.40893793226922   -0.049428228877353125   0.02021951219953387
0.40893793226922   -0.049428228877353125   0.02021951219953387
0.40893793226922   -0.049428228877353125   0.02021951219953387
0.07650001791374852   -0.0486408636701752   0.003968434310994768
0.07650001791374852   -0.0486408636701752   0.003968434310994768
0.07650001791374852   -0.0486408636701752   0.003968434310994768
0.07650001791374852   -0.0486408636701752   0.003968434310994768
0.04937433580079474   -0.12039154522996295   0.020976230667397455
0.04937433580079474   -0.12039154522996295   0.020976230667397455
0.04937433580079474   -0.12039154522996295   0.020976230667397455
0.04937433580079474   -0.12039154522996295   0.020976230667397455
0.4110006797266204   0.016707777392233933   0.015520143548886
0.4110006797266204   0.016707777392233933   0.015520143548886
0.4110006797266204   0.016707777392233933   0.015520143548886
0.4110006797266204   0.016707777392233933   0.015520143548886
0.2328051079852542   -0.05064687850112301   -0.0009535183105000566
0.2328051079852542   -0.05064687850112301   -0.0009535183105000566
0.2328051079852542   -0.05064687850112301   -0.0009535183105000566
0.2328051079852542   -0.05064687850112301   -0.0009535183105000566
0.3976487616488458   -0.05153186673615154   0.017000197288400687
0.3976487616488458   -0.05153186673615154   0.017000197288400687
0.3976487616488458   -0.05153186673615154   0.017000197288400687
0.3976487616488458   -0.05153186673615154   0.017000197288400687
0.0593472240414591   -0.05553093093868705   0.00598005757944238
0.0593472240414591   -0.05553093093868705   0.00598005757944238
0.0593472240414591   -0.05553093093868705   0.00598005757944238
0.0593472240414591   -0.05553093093868705   0.00598005757944238
0.03717571799331314   -0.12132894924552287   0.01876158875149799
0.03717571799331314   -0.12132894924552287   0.01876158875149799
0.03717571799331314   -0.12132894924552287   0.01876158875149799
0.03717571799331314   -0.12132894924552287   0.01876158875149799
0.40170881118739854   0.013776479991747664   0.01833771786186474
0.40170881118739854   0.013776479991747664   0.01833771786186474
0.40170881118739854   0.013776479991747664   0.01833771786186474
0.40170881118739854   0.013776479991747664   0.01833771786186474
0.21619177050057514   -0.05393263657863957   -0.011015591129737488
0.21619177050057514   -0.05393263657863957   -0.011015591129737488
0.21619177050057514   -0.05393263657863957   -0.011015591129737488
0.21619177050057514   -0.05393263657863957   -0.011015591129737488
0.3876797722756125   -0.052155546233692895   0.014124549528371506
0.3876797722756125   -0.052155546233692895   0.014124549528371506
0.3876797722756125   -0.052155546233692895   0.014124549528371506
0.3876797722756125   -0.052155546233692895   0.014124549528371506
0.04752672058569202   -0.0590749593394939   0.008262611807363405
0.04752672058569202   -0.0590749593394939   0.008262611807363405
0.04752672058569202   -0.0590749593394939   0.008262611807363405
0.04752672058569202   -0.0590749593394939   0.008262611807363405
0.023538944082997684   -0.12109022442012693   0.014615372256073483
0.023538944082997684   -0.12109022442012693   0.014615372256073483
0.023538944082997684   -0.12109022442012693   0.014615372256073483
0.023538944082997684   -0.12109022442012693   0.014615372256073483
0.3911629441005326   0.014102877030992722   0.02187815342063912
0.3911629441005326   0.014102877030992722   0.02187815342063912
0.3911629441005326   0.014102877030992722   0.02187815342063912
0.3911629441005326   0.014102877030992722   0.02187815342063912
0.2061366446073436   -0.05336946505766626   -0.01953444737912137
0.2061366446073436   -0.05336946505766626   -0.01953444737912137
0.2061366446073436   -0.05336946505766626   -0.01953444737912137
0.2061366446073436   -0.05336946505766626   -0.01953444737912137
0.059941574919868935   -0.14552719322148694   0.018062548892907627
0.059941574919868935   -0.14552719322148694   0.018062548892907627
0.059941574919868935   -0.14552719322148694   0.018062548892907627
0.059941574919868935   -0.14552719322148694   0.018062548892907627
-0.24616986546440328   -0.075052614629078   -3.7309543308579676e-05
-0.24616986546440328   -0.075052614629078   -3.7309543308579676e-05
-0.24616986546440328   -0.075052614629078   -3.7309543308579676e-05
-0.24616986546440328   -0.075052614629078   -3.7309543308579676e-05
-0.2952408459830341   -0.2187735444123321   0.02403489538819454
-0.2952408459830341   -0.2187735444123321   0.02403489538819454
-0.2952408459830341   -0.2187735444123321   0.02403489538819454
-0.2952408459830341   -0.2187735444123321   0.02403489538819454
0.06894883143535681   -0.011441005115922633   0.009898168726167
0.06894883143535681   -0.011441005115922633   0.009898168726167
0.06894883143535681   -0.011441005115922633   0.009898168726167
0.06894883143535681   -0.011441005115922633   0.009898168726167
-0.10180791925607546   -0.11110095607267642   0.004244647306910501
-0.10180791925607546   -0.11110095607267642   0.004244647306910501
-0.10180791925607546   -0.11110095607267642   0.004244647306910501
-0.10180791925607546   -0.11110095607267642   0.004244647306910501
0.04113596543383594   -0.1536888287383889   0.013081662341029428
0.04113596543383594   -0.1536888287383889   0.013081662341029428
0.04113596543383594   -0.1536888287383889   0.013081662341029428
0.04113596543383594   -0.1536888287383889   0.013081662341029428
-0.27218429909116015   -0.08128203989951133   0.0018261253347404667
-0.27218429909116015   -0.08128203989951133   0.0018261253347404667
-0.27218429909116015   -0.08128203989951133   0.0018261253347404667
-0.27218429909116015   -0.08128203989951133   0.0018261253347404667
-0.31218348844509414   -0.2220649850900684   0.019712317185605212
-0.31218348844509414   -0.2220649850900684   0.019712317185605212
-0.31218348844509414   -0.2220649850900684   0.019712317185605212
-0.31218348844509414   -0.2220649850900684   0.019712317185605212
0.0575076540118151   -0.01468834180230498   0.013780661400789969
0.0575076540118151   -0.01468834180230498   0.013780661400789969
0.0575076540118151   -0.01468834180230498   0.013780661400789969
0.0575076540118151   -0.01468834180230498   0.013780661400789969
-0.12300501226259156   -0.11772796506374181   -0.009881547489972185
-0.12300501226259156   -0.11772796506374181   -0.009881547489972185
-0.12300501226259156   -0.11772796506374181   -0.009881547489972185
-0.12300501226259156   -0.11772796506374181   -0.009881547489972185
0.028142121626056442   -0.1562411624825149   0.008505820152207515
0.028142121626056442   -0.1562411624825149   0.008505820152207515
0.028142121626056442   -0.1562411624825149   0.008505820152207515
0.028142121626056442   -0.1562411624825149   0.008505820152207515
-0.2885167913638173   -0.08621099971433804   0.002191817216257058
-0.2885167913638173   -0.08621099971433804   0.002191817216257058
-0.2885167913638173   -0.08621099971433804   0.002191817216257058
-0.2885167913638173   -0.08621099971433804   0.002191817216257058
-0.33060210525590816   -0.22045619570910213   0.01637278434470834
-0.33060210525590816   -0.22045619570910213   0.01637278434470834
-0.33060210525590816   -0.22045619570910213   0.01637278434470834
-0.33060210525590816   -0.22045619570910213   0.01637278434470834
0.04479123812793185   -0.016453240935911117   0.016239858996528057
0.04479123812793185   -0.016453240935911117   0.016239858996528057
0.04479123812793185   -0.016453240935911117   0.016239858996528057
0.04479123812793185   -0.016453240935911117   0.016239858996528057
-0.14024642125412254   -0.12019350579720388   -0.024080840983039715
-0.14024642125412254   -0.12019350579720388   -0.024080840983039715
-0.14024642125412254   -0.12019350579720388   -0.024080840983039715
-0.14024642125412254   -0.12019350579720388   -0.024080840983039715
-0.2768548591544883   -0.24998474521598243   0.02146985259317346
-0.2768548591544883   -0.24998474521598243   0.02146985259317346
-0.2768548591544883   -0.24998474521598243   0.02146985259317346
-0.2768548591544883   -0.24998474521598243   0.02146985259317346
-0.61152687090254   -0.09330919941343624   -0.013945515698032622
-0.61152687090254   -0.09330919941343624   -0.013945515698032622
-0.61152687090254   -0.09330919941343624   -0.013945515698032622
-0.61152687090254   -0.09330919941343624   -0.013945515698032622
-0.6974040371233299   -0.3660941475735662   -0.018493328930652544
-0.6974040371233299   -0.3660941475735662   -0.018493328930652544
-0.6974040371233299   -0.3660941475735662   -0.018493328930652544
-0.6974040371233299   -0.3660941475735662   -0.018493328930652544
-0.258531037512837   -0.019742154704979274   0.008552548031824373
-0.258531037512837   -0.019742154704979274   0.008552548031824373
-0.258531037512837   -0.019742154704979274   0.008552548031824373
-0.258531037512837   -0.019742154704979274   0.008552548031824373
-0.4565851257012372   -0.1749559364177926   -0.014476380994509073
-0.4565851257012372   -0.1749559364177926   -0.014476380994509073
-0.4565851257012372   -0.1749559364177926   -0.014476380994509073
-0.4565851257012372   -0.1749559364177926   -0.014476380994509073
-0.3115347575508208   -0.28371938937128927   0.007511182508215308
-0.3115347575508208   -0.28371938937128927   0.007511182508215308
-0.3115347575508208   -0.28371938937128927   0.007511182508215308
-0.3115347575508208   -0.28371938937128927   0.007511182508215308
-0.6431530271265843   -0.10086962294849391   -0.012462803572001581
-0.6431530271265843   -0.10086962294849391   -0.012462803572001581
-0.6431530271265843   -0.10086962294849391   -0.012462803572001581
-0.6431530271265843   -0.10086962294849391   -0.012462803572001581
-0.7176112708916371   -0.37176263130877546   -0.021380802805716588
-0.7176112708916371   -0.37176263130877546   -0.021380802805716588
-0.7176112708916371   -0.37176263130877546   -0.021380802805716588
-0.7176112708916371   -0.37176263130877546   -0.021380802805716588
-0.27421010309267435   -0.025135928047255254   0.012650186904888831
-0.27421010309267435   -0.025135928047255254   0.012650186904888831
-0.27421010309267435   -0.025135928047255254   0.012650186904888831
-0.27421010309267435   -0.025135928047255254   0.012650186904888831
-0.48134146401287276   -0.194099943123268   -0.02101132807216278
-0.48134146401287276   -0.194099943123268   -0.02101132807216278
-0.48134146401287276   -0.194099943123268   -0.02101132807216278
-0.48134146401287276   -0.194099943123268   -0.02101132807216278
-0.32895321985788994   -0.2891626046121468   0.002961279643702644
-0.32895321985788994   -0.2891626046121468   0.002961279643702644
-0.32895321985788994   -0.2891626046121468   0.002961279643702644
-0.32895321985788994   -0.2891626046121468   0.002961279643702644
-0.663136122615436   -0.1080039232329032   -0.01276376950058936
-0.663136122615436   -0.1080039232329032   -0.01276376950058936
-0.663136122615436   -0.1080039232329032   -0.01276376950058936
-0.663136122615436   -0.1080039232329032   -0.01276376950058936
-0.7347791662431155   -0.35501054588692266   -0.024100832567313282
-0.7347791662431155   -0.35501054588692266   -0.024100832567313282
-0.7347791662431155   -0.35501054588692266   -0.024100832567313282
-0.7347791662431155   -0.35501054588692266   -0.024100832567313282
-0.2939849011159267   -0.03278148822765768   0.01178409756317143
-0.2939849011159267   -0.03278148822765768   0.01178409756317143
-0.2939849011159267   -0.03278148822765768   0.01178409756317143
-0.2939849011159267   -0.03278148822765768   0.01178409756317143
-0.5042770831687958   -0.2005314949298646   -0.02736710554489274
-0.5042770831687958   -0.2005314949298646   -0.02736710554489274
-0.5042770831687958   -0.2005314949298646   -0.02736710554489274
-0.5042770831687958   -0.2005314949298646   -0.02736710554489274
-0.6016937231978475   -0.1099637832976446   0.051874806709627845
-0.6016937231978475   -0.1099637832976446   0.051874806709627845
-0.6016937231978475   -0.1099637832976446   0.051874806709627845
-0.6016937231978475   -0.1099637832976446   0.051874806709627845
-1.0538003292793823   -0.0781878737160962   -0.01809235331959933
-1.0538003292793823   -0.0781878737160962   -0.01809235331959933
-1.0538003292793823   -0.0781878737160962   -0.01809235331959933
-1.0538003292793823   -0.0781878737160962   -0.01809235331959933
-1.1174041092202975   -0.22064688505828634   0.014169683928865912
-1.1174041092202975   -0.22064688505828634   0.014169683928865912
-1.1174041092202975   -0.22064688505828634   0.014169683928865912
-1.1174041092202975   -0.22064688505828634   0.014169683928865912
-0.6175084094723197   0.00947553773344123   0.005415124017386572
-0.6175084094723197   0.00947553773344123   0.005415124017386572
-0.6175084094723197   0.00947553773344123   0.005415124017386572
-0.6175084094723197   0.00947553773344123   0.005415124017386572
-0.8072481788413229   -0.07746392618774202   0.016087745094500814
-0.8072481788413229   -0.07746392618774202   0.016087745094500814
-0.8072481788413229   -0.07746392618774202   0.016087745094500814
-0.8072481788413229   -0.07746392618774202   0.016087745094500814
-0.6348478304598808   -0.11777571227447575   0.04596926908749438
-0.6348478304598808   -0.11777571227447575   0.04596926908749438
-0.6348478304598808   -0.11777571227447575   0.04596926908749438
-0.6348478304598808   -0.11777571227447575   0.04596926908749438
-1.0973921766550627   -0.09072312347269287   -0.01569441483054089
-1.0973921766550627   -0.09072312347269287   -0.01569441483054089
-1.0973921766550627   -0.09072312347269287   -0.01569441483054089
-1.0973921766550627   -0.09072312347269287   -0.01569441483054089
-1.1440199195628866   -0.22985681631427837   -0.00526416200850531
-1.1440199195628866   -0.22985681631427837   -0.00526416200850531
-1.1440199195628866   -0.22985681631427837   -0.00526416200850531
-1.1440199195628866   -0.22985681631427837   -0.00526416200850531
-0.6363639772034435   0.00335341943678652   0.009739614889682658
-0.6363639772034435   0.00335341943678652   0.009739614889682658
-0.6363639772034435   0.00335341943678652   0.009739614889682658
-0.6363639772034435   0.00335341943678652   0.009739614889682658
-0.8546653781465613   -0.10206922441104134   0.006493766428608633
-0.8546653781465613   -0.10206922441104134   0.006493766428608633
-0.8546653781465613   -0.10206922441104134   0.006493766428608633
-0.8546653781465613   -0.10206922441104134   0.006493766428608633
-0.6561314517822928   -0.12364596505834365   0.03790162649056686
-0.6561314517822928   -0.12364596505834365   0.03790162649056686
-0.6561314517822928   -0.12364596505834365   0.03790162649056686
-0.6561314517822928   -0.12364596505834365   0.03790162649056686
-1.1187656993080395   -0.09737068614314737   -0.011479190905390728
-1.1187656993080395   -0.09737068614314737   -0.011479190905390728
-1.1187656993080395   -0.09737068614314737   -0.011479190905390728
-1.1187656993080395   -0.09737068614314737   -0.011479190905390728
-1.1668026871488175   -0.23340417248907266   -0.0002181752965458212
-1.1668026871488175   -0.23340417248907266   -0.0002181752965458212
-1.1668026871488175   -0.23340417248907266   -0.0002181752965458212
-1.1668026871488175   -0.23340417248907266   -0.0002181752965458212
-0.6629176462757479   -0.02390374085944194   0.004099962242040692
-0.6629176462757479   -0.02390374085944194   0.004099962242040692
-0.6629176462757479   -0.02390374085944194   0.004099962242040692
-0.6629176462757479   -0.02390374085944194   0.004099962242040692
-0.864465239578801   -0.12309563063931164   0.010204655113306035
-0.864465239578801   -0.12309563063931164   0.010204655113306035
-0.864465239578801   -0.12309563063931164   0.010204655113306035
-0.864465239578801   -0.12309563063931164   0.010204655113306035
0.7120108095227736   0.033222565507424265   -0.01504332998468166
0.7120108095227736   0.033222565507424265   -0.01504332998468166
0.7120108095227736   0.033222565507424265   -0.01504332998468166
0.7120108095227736   0.033222565507424265   -0.01504332998468166
0.3574291723405097   -0.0077967357171830065   0.007228598135243659
0.3574291723405097   -0.0077967357171830065   0.007228598135243659
0.3574291723405097   -0.0077967357171830065   0.007228598135243659
0.3574291723405097   -0.0077967357171830065   0.007228598135243659
0.33517675062480423   -0.052233354900174334   -0.01343286872995892
0.33517675062480423   -0.052233354900174334   -0.01343286872995892
0.33517675062480423   -0.052233354900174334   -0.01343286872995892
0.33517675062480423   -0.052233354900174334   -0.01343286872995892
0.7039013683134601   0.05115056322747916   0.00845727355280819
0.7039013683134601   0.05115056322747916   0.00845727355280819
0.7039013683134601   0.05115056322747916   0.00845727355280819
0.7039013683134601   0.05115056322747916   0.00845727355280819
0.49950249386727874   0.0012371312479949603   -0.019279591924106654
0.49950249386727874   0.0012371312479949603   -0.019279591924106654
0.49950249386727874   0.0012371312479949603   -0.019279591924106654
0.49950249386727874   0.0012371312479949603   -0.019279591924106654
0.6927134217491288   0.018911811552006802   -0.015243707593369807
0.6927134217491288   0.018911811552006802   -0.015243707593369807
0.6927134217491288   0.018911811552006802   -0.015243707593369807
0.6927134217491288   0.018911811552006802   -0.015243707593369807
0.34575741763926715   -0.020601882774571242   0.007838994216749065
0.34575741763926715   -0.020601882774571242   0.007838994216749065
0.34575741763926715   -0.020601882774571242   0.007838994216749065
0.34575741763926715   -0.020601882774571242   0.007838994216749065
0.32317463550058906   -0.055072517747385294   -0.011138916823323776
0.32317463550058906   -0.055072517747385294   -0.011138916823323776
0.32317463550058906   -0.055072517747385294   -0.011138916823323776
0.32317463550058906   -0.055072517747385294   -0.011138916823323776
0.6872701760946719   0.04709483622164837   0.012472093460302945
0.6872701760946719   0.04709483622164837   0.012472093460302945
0.6872701760946719   0.04709483622164837   0.012472093460302945
0.6872701760946719   0.04709483622164837   0.012472093460302945
0.49317469846209827   -0.004842150213149349   -0.02285411048713267
0.49317469846209827   -0.004842150213149349   -0.02285411048713267
0.49317469846209827   -0.004842150213149349   -0.02285411048713267
0.49317469846209827   -0.004842150213149349   -0.02285411048713267
0.6759905531390463   0.01529351010478347   -0.01212469520096024
0.6759905531390463   0.01529351010478347   -0.01212469520096024
0.6759905531390463   0.01529351010478347   -0.01212469520096024
0.6759905531390463   0.01529351010478347   -0.01212469520096024
0.3335951691650064   -0.024130280921724798   0.010021514673102576
0.3335951691650064   -0.024130280921724798   0.010021514673102576
0.3335951691650064   -0.024130280921724798   0.010021514673102576
0.3335951691650064   -0.024130280921724798   0.010021514673102576
0.3115824419743699   -0.054039476453723326   -0.007666417701536362
0.3115824419743699   -0.054039476453723326   -0.007666417701536362
0.3115824419743699   -0.054039476453723326   -0.007666417701536362
0.3115824419743699   -0.054039476453723326   -0.007666417701536362
0.6667075455473311   0.044528435895187624   0.01633139575398697
0.6667075455473311   0.044528435895187624   0.01633139575398697
0.6667075455473311   0.044528435895187624   0.01633139575398697
0.6667075455473311   0.044528435895187624   0.01633139575398697
0.46916406871102123   -0.00840487683438769   -0.029915142485773042
0.46916406871102123   -0.00840487683438769   -0.029915142485773042
0.46916406871102123   -0.00840487683438769   -0.029915142485773042
0.46916406871102123   -0.00840487683438769   -0.029915142485773042
0.35983752706599603   0.00793973208931513   0.003533903956177368
0.35983752706599603   0.00793973208931513   0.003533903956177368
0.35983752706599603   0.00793973208931513   0.003533903956177368
0.35983752706599603   0.00793973208931513   0.003533903956177368
0.03286729987144111   -0.02188504212786986   -0.0010111278648599056
0.03286729987144111   -0.02188504212786986   -0.0010111278648599056
0.03286729987144111   -0.02188504212786986   -0.0010111278648599056
0.03286729987144111   -0.02188504212786986   -0.0010111278648599056
0.011893642221020208   -0.06881520045559006   -0.012987708184633802
0.011893642221020208   -0.06881520045559006   -0.012987708184633802
0.011893642221020208   -0.06881520045559006   -0.012987708184633802
0.011893642221020208   -0.06881520045559006   -0.012987708184633802
0.36017627419319653   0.041661690468839226   0.017669703742985515
0.36017627419319653   0.041661690468839226   0.017669703742985515
0.36017627419319653   0.041661690468839226   0.017669703742985515
0.36017627419319653   0.041661690468839226   0.017669703742985515
0.1876884973189893   -0.009396642514535015   -0.007305368833364819
0.1876884973189893   -0.009396642514535015   -0.007305368833364819
0.1876884973189893   -0.009396642514535015   -0.007305368833364819
0.1876884973189893   -0.009396642514535015   -0.007305368833364819
0.34996784826847016   0.0025458627570541653   0.0057434018311403635
0.34996784826847016   0.0025458627570541653   0.0057434018311403635
0.34996784826847016   0.0025458627570541653   0.0057434018311403635
0.34996784826847016   0.0025458627570541653   0.0057434018311403635
0.02250133152059209   -0.02930010936895972   0.0005356472265952497
0.02250133152059209   -0.02930010936895972   0.0005356472265952497
0.02250133152059209   -0.02930010936895972   0.0005356472265952497
0.02250133152059209   -0.02930010936895972   0.0005356472265952497
0.0003200926198101729   -0.07199233728913848   -0.009117649974977689
0.0003200926198101729   -0.07199233728913848   -0.009117649974977689
0.0003200926198101729   -0.07199233728913848   -0.009117649974977689
0.0003200926198101729   -0.07199233728913848   -0.009117649974977689
0.3474774722130771   0.035832806087755235   0.01946994290397642
0.3474774722130771   0.035832806087755235   0.01946994290397642
0.3474774722130771   0.035832806087755235   0.01946994290397642
0.3474774722130771   0.035832806087755235   0.01946994290397642
0.1743099005675928   -0.01478856625081433   -0.0103407988561771
0.1743099005675928   -0.01478856625081433   -0.0103407988561771
0.1743099005675928   -0.01478856625081433   -0.0103407988561771
0.1743099005675928   -0.01478856625081433   -0.0103407988561771
0.33784995917643124   -0.0010248310175968028   0.008190014826101325
0.33784995917643124   -0.0010248310175968028   0.008190014826101325
0.33784995917643124   -0.0010248310175968028   0.008190014826101325
0.33784995917643124   -0.0010248310175968028   0.008190014826101325
0.009899901871731962   -0.03518240396850878   0.0019714629640015524
0.009899901871731962   -0.03518240396850878   0.0019714629640015524
0.009899901871731962   -0.03518240396850878   0.0019714629640015524
0.009899901871731962   -0.03518240396850878   0.0019714629640015524
-0.012085452259892122   -0.07217854073332396   -0.006280539040519508
-0.012085452259892122   -0.07217854073332396   -0.006280539040519508
-0.012085452259892122   -0.07217854073332396   -0.006280539040519508
-0.012085452259892122   -0.07217854073332396   -0.006280539040519508
0.3346626116494423   0.03219491238814112   0.02150004183196307
0.3346626116494423   0.03219491238814112   0.02150004183196307
0.3346626116494423   0.03219491238814112   0.02150004183196307
0.3346626116494423   0.03219491238814112   0.02150004183196307
0.16395048811599772   -0.01684354583573882   -0.012909544075984485
0.16395048811599772   -0.01684354583573882   -0.012909544075984485
0.16395048811599772   -0.01684354583573882   -0.012909544075984485
0.16395048811599772   -0.01684354583573882   -0.012909544075984485
0.0339920998096358   -0.018722661438303784   0.0014504911365465691
0.0339920998096358   -0.018722661438303784   0.0014504911365465691
0.0339920998096358   -0.018722661438303784   0.0014504911365465691
0.0339920998096358   -0.018722661438303784   0.0014504911365465691
-0.28106108226280857   -0.03236599154168508   -0.008809813399534308
-0.28106108226280857   -0.03236599154168508   -0.008809813399534308
-0.28106108226280857   -0.03236599154168508   -0.008809813399534308
-0.28106108226280857   -0.03236599154168508   -0.008809813399534308
-0.3043802850175755   -0.09106274610142501   -0.014881419748412537
-0.3043802850175755   -0.09106274610142501   -0.014881419748412537
-0.3043802850175755   -0.09106274610142501   -0.014881419748412537
-0.3043802850175755   -0.09106274610142501   -0.014881419748412537
0.03643532704482707   0.030688357902849694   0.010217157575961217
0.03643532704482707   0.030688357902849694   0.010217157575961217
0.03643532704482707   0.030688357902849694   0.010217157575961217
0.03643532704482707   0.030688357902849694   0.010217157575961217
-0.1291113378410266   -0.026537771263220686   -0.0072095402747942485
-0.1291113378410266   -0.026537771263220686   -0.0072095402747942485
-0.1291113378410266   -0.026537771263220686   -0.0072095402747942485
-0.1291113378410266   -0.026537771263220686   -0.0072095402747942485
0.025284247113033866   -0.02093627713470858   0.006086392954553001
0.025284247113033866   -0.02093627713470858   0.006086392954553001
0.025284247113033866   -0.02093627713470858   0.006086392954553001
0.025284247113033866   -0.02093627713470858   0.006086392954553001
-0.2923647809007811   -0.03857368687886438   -0.0072929583870009855
-0.2923647809007811   -0.03857368687886438   -0.0072929583870009855
-0.2923647809007811   -0.03857368687886438   -0.0072929583870009855
-0.2923647809007811   -0.03857368687886438   -0.0072929583870009855
-0.31793835625485745   -0.0945284705827259   -0.00997397223464202
-0.31793835625485745   -0.0945284705827259   -0.00997397223464202
-0.31793835625485745   -0.0945284705827259   -0.00997397223464202
-0.31793835625485745   -0.0945284705827259   -0.00997397223464202
0.023740463300127235   0.024456975567646054   0.011534890569823467
0.023740463300127235   0.024456975567646054   0.011534890569823467
0.023740463300127235   0.024456975567646054   0.011534890569823467
0.023740463300127235   0.024456975567646054   0.011534890569823467
-0.14034225015081553   -0.03021183575262463   -0.008634572101631637
-0.14034225015081553   -0.03021183575262463   -0.008634572101631637
-0.14034225015081553   -0.03021183575262463   -0.008634572101631637
-0.14034225015081553   -0.03021183575262463   -0.008634572101631637
0.013276281934397302   -0.02463046386348643   0.008301423172305896
0.013276281934397302   -0.02463046386348643   0.008301423172305896
0.013276281934397302   -0.02463046386348643   0.008301423172305896
0.013276281934397302   -0.02463046386348643   0.008301423172305896
-0.30728491577688855   -0.04525177203935536   -0.005983468388167858
-0.30728491577688855   -0.04525177203935536   -0.005983468388167858
-0.30728491577688855   -0.04525177203935536   -0.005983468388167858
-0.30728491577688855   -0.04525177203935536   -0.005983468388167858
-0.3329660830103245   -0.09702483874677431   -0.008860808919531638
-0.3329660830103245   -0.09702483874677431   -0.008860808919531638
-0.3329660830103245   -0.09702483874677431   -0.008860808919531638
-0.3329660830103245   -0.09702483874677431   -0.008860808919531638
0.010006806639250857   0.01914407500888722   0.012858139712984534
0.010006806639250857   0.01914407500888722   0.012858139712984534
0.010006806639250857   0.01914407500888722   0.012858139712984534
0.010006806639250857   0.01914407500888722   0.012858139712984534
-0.1549147574266018   -0.03460869166526178   -0.012087778337285632
-0.1549147574266018   -0.03460869166526178   -0.012087778337285632
-0.1549147574266018   -0.03460869166526178   -0.012087778337285632
-0.1549147574266018   -0.03460869166526178   -0.012087778337285632
-0.27647533908782923   -0.0226326731034577   0.004385584037130063
-0.27647533908782923   -0.0226326731034577   0.004385584037130063
-0.27647533908782923   -0.0226326731034577   0.004385584037130063
-0.27647533908782923   -0.0226326731034577   0.004385584037130063
-0.5880330018933013   -0.03791100015412903   -0.015405229256245993
-0.5880330018933013   -0.03791100015412903   -0.015405229256245993
-0.5880330018933013   -0.03791100015412903   -0.015405229256245993
-0.5880330018933013   -0.03791100015412903   -0.015405229256245993
-0.6144899622961303   -0.09564552925709949   -0.015005399945483415
-0.6144899622961303   -0.09564552925709949   -0.015005399945483415
-0.6144899622961303   -0.09564552925709949   -0.015005399945483415
-0.6144899622961303   -0.09564552925709949   -0.015005399945483415
-0.2778702364372778   0.02358710248144992   0.0030189745701988333
-0.2778702364372778   0.02358710248144992   0.0030189745701988333
-0.2778702364372778   0.02358710248144992   0.0030189745701988333
-0.2778702364372778   0.02358710248144992   0.0030189745701988333
-0.43562583779557   -0.031620988983837015   -0.005973254720817538
-0.43562583779557   -0.031620988983837015   -0.005973254720817538
-0.43562583779557   -0.031620988983837015   -0.005973254720817538
-0.43562583779557   -0.031620988983837015   -0.005973254720817538
-0.2861091308517588   -0.024904968319397536   0.010316573298643482
-0.2861091308517588   -0.024904968319397536   0.010316573298643482
-0.2861091308517588   -0.024904968319397536   0.010316573298643482
-0.2861091308517588   -0.024904968319397536   0.010316573298643482
-0.6045757863549279   -0.04547817692952694   -0.015601872567050562
-0.6045757863549279   -0.04547817692952694   -0.015601872567050562
-0.6045757863549279   -0.04547817692952694   -0.015601872567050562
-0.6045757863549279   -0.04547817692952694   -0.015601872567050562
-0.6332081074925738   -0.1015891097076177   -0.010617716997024042
-0.6332081074925738   -0.1015891097076177   -0.010617716997024042
-0.6332081074925738   -0.1015891097076177   -0.010617716997024042
-0.6332081074925738   -0.1015891097076177   -0.010617716997024042
-0.29295553418923825   0.016756699316373302   0.003654968194355273
-0.29295553418923825   0.016756699316373302   0.003654968194355273
-0.29295553418923825   0.016756699316373302   0.003654968194355273
-0.29295553418923825   0.016756699316373302   0.003654968194355273
-0.4473582882869168   -0.03484884084167235   -0.0059498084425597016
-0.4473582882869168   -0.03484884084167235   -0.0059498084425597016
-0.4473582882869168   -0.03484884084167235   -0.0059498084425597016
-0.4473582882869168   -0.03484884084167235   -0.0059498084425597016
-0.3010661222620409   -0.03088785319397067   0.0107465803406858
-0.3010661222620409   -0.03088785319397067   0.0107465803406858
-0.3010661222620409   -0.03088785319397067   0.0107465803406858
-0.3010661222620409   -0.03088785319397067   0.0107465803406858
-0.6239708927972188   -0.052817930574723754   -0.013202822653149357
-0.6239708927972188   -0.052817930574723754   -0.013202822653149357
-0.6239708927972188   -0.052817930574723754   -0.013202822653149357
-0.6239708927972188   -0.052817930574723754   -0.013202822653149357
-0.6543565944020234   -0.1094729814997672   -0.011301675511279424
-0.6543565944020234   -0.1094729814997672   -0.011301675511279424
-0.6543565944020234   -0.1094729814997672   -0.011301675511279424
-0.6543565944020234   -0.1094729814997672   -0.011301675511279424
-0.30926560526153957   0.00828832746236681   0.004328413615246432
-0.30926560526153957   0.00828832746236681   0.004328413615246432
-0.30926560526153957   0.00828832746236681   0.004328413615246432
-0.30926560526153957   0.00828832746236681   0.004328413615246432
-0.46849068069678834   -0.04300765681711223   -0.009780122199029864
-0.46849068069678834   -0.04300765681711223   -0.009780122199029864
-0.46849068069678834   -0.04300765681711223   -0.009780122199029864
-0.46849068069678834   -0.04300765681711223   -0.009780122199029864
-0.5684074063544575   0.026226275991311082   0.018585472292532962
-0.5684074063544575   0.026226275991311082   0.018585472292532962
-0.5684074063544575   0.026226275991311082   0.018585472292532962
-0.5684074063544575   0.026226275991311082   0.018585472292532962
-0.8808141678379742   -0.04383674808915303   -0.011486838612917868
-0.8808141678379742   -0.04383674808915303   -0.011486838612917868
-0.8808141678379742   -0.04383674808915303   -0.011486838612917868
-0.8808141678379742   -0.04383674808915303   -0.011486838612917868
-0.9018552196130598   -0.044677083777930615   0.018998826601298275
-0.9018552196130598   -0.044677083777930615   0.018998826601298275
-0.9018552196130598   -0.044677083777930615   0.018998826601298275
-0.9018552196130598   -0.044677083777930615   0.018998826601298275
-0.5895155152571695   0.018617364908673634   -0.004396058916458889
-0.5895155152571695   0.018617364908673634   -0.004396058916458889
-0.5895155152571695   0.018617364908673634   -0.004396058916458889
-0.5895155152571695   0.018617364908673634   -0.004396058916458889
-0.7008525204935687   0.00038172786416379445   0.01786662901694586
-0.7008525204935687   0.00038172786416379445   0.01786662901694586
-0.7008525204935687   0.00038172786416379445   0.01786662901694586
-0.7008525204935687   0.00038172786416379445   0.01786662901694586
-0.5836675512652795   0.019877424801420268   0.02358370115024221
-0.5836675512652795   0.019877424801420268   0.02358370115024221
-0.5836675512652795   0.019877424801420268   0.02358370115024221
-0.5836675512652795   0.019877424801420268   0.02358370115024221
-0.9072998430744841   -0.045533803140206774   -0.0073675713435465
-0.9072998430744841   -0.045533803140206774   -0.0073675713435465
-0.9072998430744841   -0.045533803140206774   -0.0073675713435465
-0.9072998430744841   -0.045533803140206774   -0.0073675713435465
-0.9283463729342638   -0.051811571422579694   0.02589705632364126
-0.9283463729342638   -0.051811571422579694   0.02589705632364126
-0.9283463729342638   -0.051811571422579694   0.02589705632364126
-0.9283463729342638   -0.051811571422579694   0.02589705632364126
-0.6089401817013527   0.01375993208490675   -0.0046271298334485955
-0.6089401817013527   0.01375993208490675   -0.0046271298334485955
-0.6089401817013527   0.01375993208490675   -0.0046271298334485955
-0.6089401817013527   0.01375993208490675   -0.0046271298334485955
-0.735346795618536   -0.007933336207433278   0.010030774132467401
-0.735346795618536   -0.007933336207433278   0.010030774132467401
-0.735346795618536   -0.007933336207433278   0.010030774132467401
-0.735346795618536   -0.007933336207433278   0.010030774132467401
-0.6035901213994327   0.012614073643221174   0.023269030117836355
-0.6035901213994327   0.012614073643221174   0.023269030117836355
-0.6035901213994327   0.012614073643221174   0.023269030117836355
-0.6035901213994327   0.012614073643221174   0.023269030117836355
-0.9347046813464941   -0.05167396109120698   -0.006032096068875767
-0.9347046813464941   -0.05167396109120698   -0.006032096068875767
-0.9347046813464941   -0.05167396109120698   -0.006032096068875767
-0.9347046813464941   -0.05167396109120698   -0.006032096068875767
-0.9660897268473777   -0.08088762631156449   0.022352615553057804
-0.9660897268473777   -0.08088762631156449   0.022352615553057804
-0.9660897268473777   -0.08088762631156449   0.022352615553057804
-0.9660897268473777   -0.08088762631156449   0.022352615553057804
-0.6313403082778118   -0.0013167556297234428   -0.004376470760267537
-0.6313403082778118   -0.0013167556297234428   -0.004376470760267537
-0.6313403082778118   -0.0013167556297234428   -0.004376470760267537
-0.6313403082778118   -0.0013167556297234428   -0.004376470760267537
-0.7495302004130815   -0.018491302101739243   0.0032676533961431137
-0.7495302004130815   -0.018491302101739243   0.0032676533961431137
-0.7495302004130815   -0.018491302101739243   0.0032676533961431137
-0.7495302004130815   -0.018491302101739243   0.0032676533961431137
0.5805624582682914   0.03135008085518867   -0.020170604930683827
0.5805624582682914   0.03135008085518867   -0.020170604930683827
0.5805624582682914   0.03135008085518867   -0.020170604930683827
0.5805624582682914   0.03135008085518867   -0.020170604930683827
0.28699554237557784   -0.0008628775974976466   0.007160473595455158
0.28699554237557784   -0.0008628775974976466   0.007160473595455158
0.28699554237557784   -0.0008628775974976466   0.007160473595455158
0.28699554237557784   -0.0008628775974976466   0.007160473595455158
0.2628720510327711   -0.04247026118311849   -0.01861753121949105
0.2628720510327711   -0.04247026118311849   -0.01861753121949105
0.2628720510327711   -0.04247026118311849   -0.01861753121949105
0.2628720510327711   -0.04247026118311849   -0.01861753121949105
0.5699100516778758   0.046677194598077495   0.008999143021344167
0.5699100516778758   0.046677194598077495   0.008999143021344167
0.5699100516778758   0.046677194598077495   0.008999143021344167
0.5699100516778758   0.046677194598077495   0.008999143021344167
0.40310836276699014   0.0035343997606868405   -0.01328144539419715
0.40310836276699014   0.0035343997606868405   -0.01328144539419715
0.40310836276699014   0.0035343997606868405   -0.01328144539419715
0.40310836276699014   0.0035343997606868405   -0.01328144539419715
0.5581602951297854   0.016413670713314885   -0.019486115834340855
0.5581602951297854   0.016413670713314885   -0.019486115834340855
0.5581602951297854   0.016413670713314885   -0.019486115834340855
0.5581602951297854   0.016413670713314885   -0.019486115834340855
0.2741292496762219   -0.012699295202995162   0.007897496017634904
0.2741292496762219   -0.012699295202995162   0.007897496017634904
0.2741292496762219   -0.012699295202995162   0.007897496017634904
0.2741292496762219   -0.012699295202995162   0.007897496017634904
0.2508121024579795   -0.045934516302780753   -0.016216595525150264
0.2508121024579795   -0.045934516302780753   -0.016216595525150264
0.2508121024579795   -0.045934516302780753   -0.016216595525150264
0.2508121024579795   -0.045934516302780753   -0.016216595525150264
0.551889002156872   0.04188816104744705   0.012385020026283416
0.551889002156872   0.04188816104744705   0.012385020026283416
0.551889002156872   0.04188816104744705   0.012385020026283416
0.551889002156872   0.04188816104744705   0.012385020026283416
0.3938802127150186   -0.0027699487680930973   -0.01727454933869902
0.3938802127150186   -0.0027699487680930973   -0.01727454933869902
0.3938802127150186   -0.0027699487680930973   -0.01727454933869902
0.3938802127150186   -0.0027699487680930973   -0.01727454933869902
0.5403800126512867   0.012140026291726752   -0.015411792745913906
0.5403800126512867   0.012140026291726752   -0.015411792745913906
0.5403800126512867   0.012140026291726752   -0.015411792745913906
0.5403800126512867   0.012140026291726752   -0.015411792745913906
0.2618693585942848   -0.016638114916340353   0.009773283769933541
0.2618693585942848   -0.016638114916340353   0.009773283769933541
0.2618693585942848   -0.016638114916340353   0.009773283769933541
0.2618693585942848   -0.016638114916340353   0.009773283769933541
0.23982660493576494   -0.04676589559958341   -0.013259321108317332
0.23982660493576494   -0.04676589559958341   -0.013259321108317332
0.23982660493576494   -0.04676589559958341   -0.013259321108317332
0.23982660493576494   -0.04676589559958341   -0.013259321108317332
0.5315738381966896   0.037838765994761464   0.015489229563084194
0.5315738381966896   0.037838765994761464   0.015489229563084194
0.5315738381966896   0.037838765994761464   0.015489229563084194
0.5315738381966896   0.037838765994761464   0.015489229563084194
0.37169931948211593   -0.007048073863692925   -0.02337947306910041
0.37169931948211593   -0.007048073863692925   -0.02337947306910041
0.37169931948211593   -0.007048073863692925   -0.02337947306910041
0.37169931948211593   -0.007048073863692925   -0.02337947306910041
0.2922194241625944   0.030559174408285664   0.0018578305247543732
0.2922194241625944   0.030559174408285664   0.0018578305247543732
0.2922194241625944   0.030559174408285664   0.0018578305247543732
0.2922194241625944   0.030559174408285664   0.0018578305247543732
0.00880061971465348   -0.009983813557996503   -0.0013444531227932068
0.00880061971465348   -0.009983813557996503   -0.0013444531227932068
0.00880061971465348   -0.009983813557996503   -0.0013444531227932068
0.00880061971465348   -0.009983813557996503   -0.0013444531227932068
-0.009389775149889677   -0.0383360073302974   -0.012752735909611387
-0.009389775149889677   -0.0383360073302974   -0.012752735909611387
-0.009389775149889677   -0.0383360073302974   -0.012752735909611387
-0.009389775149889677   -0.0383360073302974   -0.012752735909611387
0.28671692005889604   0.042382690063660494   0.015753862664350422
0.28671692005889604   0.042382690063660494   0.015753862664350422
0.28671692005889604   0.042382690063660494   0.015753862664350422
0.28671692005889604   0.042382690063660494   0.015753862664350422
0.14232845945894368   0.006045238154427757   -0.0015661074357057108
0.14232845945894368   0.006045238154427757   -0.0015661074357057108
0.14232845945894368   0.006045238154427757   -0.0015661074357057108
0.14232845945894368   0.006045238154427757   -0.0015661074357057108
0.2803496722718296   0.02285207674542035   0.0034482370472599354
0.2803496722718296   0.02285207674542035   0.0034482370472599354
0.2803496722718296   0.02285207674542035   0.0034482370472599354
0.2803496722718296   0.02285207674542035   0.0034482370472599354
-0.0029052937753977505   -0.018688160424631974   2.1824057181852284e-05
-0.0029052937753977505   -0.018688160424631974   2.1824057181852284e-05
-0.0029052937753977505   -0.018688160424631974   2.1824057181852284e-05
-0.0029052937753977505   -0.018688160424631974   2.1824057181852284e-05
-0.020811937440714932   -0.04392964725226388   -0.011052914142327055
-0.020811937440714932   -0.04392964725226388   -0.011052914142327055
-0.020811937440714932   -0.04392964725226388   -0.011052914142327055
-0.020811937440714932   -0.04392964725226388   -0.011052914142327055
0.27377377929228636   0.03524250946846168   0.01741476287513921
0.27377377929228636   0.03524250946846168   0.01741476287513921
0.27377377929228636   0.03524250946846168   0.01741476287513921
0.27377377929228636   0.03524250946846168   0.01741476287513921
0.12832112260023382   -0.0010127066100598173   -0.005568143302979007
0.12832112260023382   -0.0010127066100598173   -0.005568143302979007
0.12832112260023382   -0.0010127066100598173   -0.005568143302979007
0.12832112260023382   -0.0010127066100598173   -0.005568143302979007
0.2676503220508485   0.01698448725149654   0.005055498884915195
0.2676503220508485   0.01698448725149654   0.005055498884915195
0.2676503220508485   0.01698448725149654   0.005055498884915195
0.2676503220508485   0.01698448725149654   0.005055498884915195
-0.014678973327270231   -0.02566211816328991   0.001344377335922486
-0.014678973327270231   -0.02566211816328991   0.001344377335922486
-0.014678973327270231   -0.02566211816328991   0.001344377335922486
-0.014678973327270231   -0.02566211816328991   0.001344377335922486
-0.032109856587520656   -0.04722749084632656   -0.008839506103412414
-0.032109856587520656   -0.04722749084632656   -0.008839506103412414
-0.032109856587520656   -0.04722749084632656   -0.008839506103412414
-0.032109856587520656   -0.04722749084632656   -0.008839506103412414
0.26146148586445456   0.029274879773590477   0.01887430816195364
0.26146148586445456   0.029274879773590477   0.01887430816195364
0.26146148586445456   0.029274879773590477   0.01887430816195364
0.26146148586445456   0.029274879773590477   0.01887430816195364
0.11805236125138927   -0.005451561852902541   -0.00849255425170521
0.11805236125138927   -0.005451561852902541   -0.00849255425170521
0.11805236125138927   -0.005451561852902541   -0.00849255425170521
0.11805236125138927   -0.005451561852902541   -0.00849255425170521
0.018518250105680995   0.0306365122223215   0.006623373052026364
0.018518250105680995   0.0306365122223215   0.006623373052026364
0.018518250105680995   0.0306365122223215   0.006623373052026364
0.018518250105680995   0.0306365122223215   0.006623373052026364
-0.2609288782537346   -0.017174362618470405   -0.008939716218568374
-0.2609288782537346   -0.017174362618470405   -0.008939716218568374
-0.2609288782537346   -0.017174362618470405   -0.008939716218568374
-0.2609288782537346   -0.017174362618470405   -0.008939716218568374
-0.275117467439646   -0.03530751139015319   -0.008209394404595446
-0.275117467439646   -0.03530751139015319   -0.008209394404595446
-0.275117467439646   -0.03530751139015319   -0.008209394404595446
-0.275117467439646   -0.03530751139015319   -0.008209394404595446
0.009315093825978192   0.03473366435696542   0.007701937282464187
0.009315093825978192   0.03473366435696542   0.007701937282464187
0.009315093825978192   0.03473366435696542   0.007701937282464187
0.009315093825978192   0.03473366435696542   0.007701937282464187
-0.12688996056862015   0.003779372844552018   0.0005204917404293104
-0.12688996056862015   0.003779372844552018   0.0005204917404293104
-0.12688996056862015   0.003779372844552018   0.0005204917404293104
-0.12688996056862015   0.003779372844552018   0.0005204917404293104
0.007379210490925415   0.024487450058093975   0.008268734906072687
0.007379210490925415   0.024487450058093975   0.008268734906072687
0.007379210490925415   0.024487450058093975   0.008268734906072687
0.007379210490925415   0.024487450058093975   0.008268734906072687
-0.2728673687071015   -0.02474708169379048   -0.0075193304382356226
-0.2728673687071015   -0.02474708169379048   -0.0075193304382356226
-0.2728673687071015   -0.02474708169379048   -0.0075193304382356226
-0.2728673687071015   -0.02474708169379048   -0.0075193304382356226
-0.2873702185760364   -0.041445833990424126   -0.0068684753443638055
-0.2873702185760364   -0.041445833990424126   -0.0068684753443638055
-0.2873702185760364   -0.041445833990424126   -0.0068684753443638055
-0.2873702185760364   -0.041445833990424126   -0.0068684753443638055
-0.0024719471212817316   0.027392720608036464   0.00932466959453883
-0.0024719471212817316   0.027392720608036464   0.00932466959453883
-0.0024719471212817316   0.027392720608036464   0.00932466959453883
-0.0024719471212817316   0.027392720608036464   0.00932466959453883
-0.13863414789063996   -0.002260175321624435   -0.0024706676417240777
-0.13863414789063996   -0.002260175321624435   -0.0024706676417240777
-0.13863414789063996   -0.002260175321624435   -0.0024706676417240777
-0.13863414789063996   -0.002260175321624435   -0.0024706676417240777
-0.004119953463936895   0.01856115483227477   0.009916203657024496
-0.004119953463936895   0.01856115483227477   0.009916203657024496
-0.004119953463936895   0.01856115483227477   0.009916203657024496
-0.004119953463936895   0.01856115483227477   0.009916203657024496
-0.2854564296205952   -0.03234848560187787   -0.006396878955704049
-0.2854564296205952   -0.03234848560187787   -0.006396878955704049
-0.2854564296205952   -0.03234848560187787   -0.006396878955704049
-0.2854564296205952   -0.03234848560187787   -0.006396878955704049
-0.29953252350569665   -0.04626244382074045   -0.004635124290206366
-0.29953252350569665   -0.04626244382074045   -0.004635124290206366
-0.29953252350569665   -0.04626244382074045   -0.004635124290206366
-0.29953252350569665   -0.04626244382074045   -0.004635124290206366
-0.014686816051921611   0.02047747775383839   0.010570727974417762
-0.014686816051921611   0.02047747775383839   0.010570727974417762
-0.014686816051921611   0.02047747775383839   0.010570727974417762
-0.014686816051921611   0.02047747775383839   0.010570727974417762
-0.15127359017582742   -0.00840016149605189   -0.0057481446306313615
-0.15127359017582742   -0.00840016149605189   -0.0057481446306313615
-0.15127359017582742   -0.00840016149605189   -0.0057481446306313615
-0.15127359017582742   -0.00840016149605189   -0.0057481446306313615
-0.24615888958560123   0.03591003421615641   0.011825830287475452
-0.24615888958560123   0.03591003421615641   0.011825830287475452
-0.24615888958560123   0.03591003421615641   0.011825830287475452
-0.24615888958560123   0.03591003421615641   0.011825830287475452
-0.5222420008736486   -0.023527953538657317   -0.014583049988019632
-0.5222420008736486   -0.023527953538657317   -0.014583049988019632
-0.5222420008736486   -0.023527953538657317   -0.014583049988019632
-0.5222420008736486   -0.023527953538657317   -0.014583049988019632
-0.5332876882710031   -0.02861976677033745   -0.0025979198550278235
-0.5332876882710031   -0.02861976677033745   -0.0025979198550278235
-0.5332876882710031   -0.02861976677033745   -0.0025979198550278235
-0.5332876882710031   -0.02861976677033745   -0.0025979198550278235
-0.261198218328934   0.026365042890606476   -0.0002857031317924953
-0.261198218328934   0.026365042890606476   -0.0002857031317924953
-0.261198218328934   0.026365042890606476   -0.0002857031317924953
-0.261198218328934   0.026365042890606476   -0.0002857031317924953
-0.38789276132148565   0.003686727389735023   0.0028569252095849325
-0.38789276132148565   0.003686727389735023   0.0028569252095849325
-0.38789276132148565   0.003686727389735023   0.0028569252095849325
-0.38789276132148565   0.003686727389735023   0.0028569252095849325
-0.2578345153052751   0.02964168564102866   0.013256169236078964
-0.2578345153052751   0.02964168564102866   0.013256169236078964
-0.2578345153052751   0.02964168564102866   0.013256169236078964
-0.2578345153052751   0.02964168564102866   0.013256169236078964
-0.5362364124241426   -0.031481430650241546   -0.01447987674082404
-0.5362364124241426   -0.031481430650241546   -0.01447987674082404
-0.5362364124241426   -0.031481430650241546   -0.01447987674082404
-0.5362364124241426   -0.031481430650241546   -0.01447987674082404
-0.5483683700675674   -0.035531054461352254   -0.0023709648159433647
-0.5483683700675674   -0.035531054461352254   -0.0023709648159433647
-0.5483683700675674   -0.035531054461352254   -0.0023709648159433647
-0.5483683700675674   -0.035531054461352254   -0.0023709648159433647
-0.27360437410272054   0.01936019017532839   0.0011547228564644553
-0.27360437410272054   0.01936019017532839   0.0011547228564644553
-0.27360437410272054   0.01936019017532839   0.0011547228564644553
-0.27360437410272054   0.01936019017532839   0.0011547228564644553
-0.3983776423580339   -0.0017949702221351088   0.0004105714468352964
-0.3983776423580339   -0.0017949702221351088   0.0004105714468352964
-0.3983776423580339   -0.0017949702221351088   0.0004105714468352964
-0.3983776423580339   -0.0017949702221351088   0.0004105714468352964
-0.26991354031830167   0.023689934035388972   0.015279147918498447
-0.26991354031830167   0.023689934035388972   0.015279147918498447
-0.26991354031830167   0.023689934035388972   0.015279147918498447
-0.26991354031830167   0.023689934035388972   0.015279147918498447
-0.5511998093165336   -0.0390014037859604   -0.01305781173616644
-0.5511998093165336   -0.0390014037859604   -0.01305781173616644
-0.5511998093165336   -0.0390014037859604   -0.01305781173616644
-0.5511998093165336   -0.0390014037859604   -0.01305781173616644
-0.562236705996245   -0.042947974211693246   0.0011180059796515873
-0.562236705996245   -0.042947974211693246   0.0011180059796515873
-0.562236705996245   -0.042947974211693246   0.0011180059796515873
-0.562236705996245   -0.042947974211693246   0.0011180059796515873
-0.28675305170464505   0.010988580955377691   0.0020112099389370426
-0.28675305170464505   0.010988580955377691   0.0020112099389370426
-0.28675305170464505   0.010988580955377691   0.0020112099389370426
-0.28675305170464505   0.010988580955377691   0.0020112099389370426
-0.41494466857130874   -0.009587379354705161   -0.002914405458518732
-0.41494466857130874   -0.009587379354705161   -0.002914405458518732
-0.41494466857130874   -0.009587379354705161   -0.002914405458518732
-0.41494466857130874   -0.009587379354705161   -0.002914405458518732
-0.5039089378663841   0.03712710660806465   0.016427204901576384
-0.5039089378663841   0.03712710660806465   0.016427204901576384
-0.5039089378663841   0.03712710660806465   0.016427204901576384
-0.5039089378663841   0.03712710660806465   0.016427204901576384
-0.771398477590793   -0.03575715624228232   -0.013230246844968978
-0.771398477590793   -0.03575715624228232   -0.013230246844968978
-0.771398477590793   -0.03575715624228232   -0.013230246844968978
-0.771398477590793   -0.03575715624228232   -0.013230246844968978
-0.781630132600859   -0.01614883663157135   0.013887550726021158
-0.781630132600859   -0.01614883663157135   0.013887550726021158
-0.781630132600859   -0.01614883663157135   0.013887550726021158
-0.781630132600859   -0.01614883663157135   0.013887550726021158
-0.5252785660585374   0.01609391396185879   -0.007265989524894156
-0.5252785660585374   0.01609391396185879   -0.007265989524894156
-0.5252785660585374   0.01609391396185879   -0.007265989524894156
-0.5252785660585374   0.01609391396185879   -0.007265989524894156
-0.6169668760824856   0.007579994079901314   0.014317706443845259
-0.6169668760824856   0.007579994079901314   0.014317706443845259
-0.6169668760824856   0.007579994079901314   0.014317706443845259
-0.6169668760824856   0.007579994079901314   0.014317706443845259
-0.5156577788751324   0.038045413365974334   0.01888644698800859
-0.5156577788751324   0.038045413365974334   0.01888644698800859
-0.5156577788751324   0.038045413365974334   0.01888644698800859
-0.5156577788751324   0.038045413365974334   0.01888644698800859
-0.7906847116645546   -0.037534127915974796   -0.010000053308044952
-0.7906847116645546   -0.037534127915974796   -0.010000053308044952
-0.7906847116645546   -0.037534127915974796   -0.010000053308044952
-0.7906847116645546   -0.037534127915974796   -0.010000053308044952
-0.8003737965246775   -0.019767172077271244   0.019170964179001753
-0.8003737965246775   -0.019767172077271244   0.019170964179001753
-0.8003737965246775   -0.019767172077271244   0.019170964179001753
-0.8003737965246775   -0.019767172077271244   0.019170964179001753
-0.5396647094560608   0.012071278164497212   -0.006454994384259574
-0.5396647094560608   0.012071278164497212   -0.006454994384259574
-0.5396647094560608   0.012071278164497212   -0.006454994384259574
-0.5396647094560608   0.012071278164497212   -0.006454994384259574
-0.6430469702856779   0.0037689084087938196   0.009358645084461329
-0.6430469702856779   0.0037689084087938196   0.009358645084461329
-0.6430469702856779   0.0037689084087938196   0.009358645084461329
-0.6430469702856779   0.0037689084087938196   0.009358645084461329
-0.5290343134542579   0.03535015371572048   0.023418110073531662
-0.5290343134542579   0.03535015371572048   0.023418110073531662
-0.5290343134542579   0.03535015371572048   0.023418110073531662
-0.5290343134542579   0.03535015371572048   0.023418110073531662
-0.8104504379043376   -0.0424922930063476   -0.008487121790206817
-0.8104504379043376   -0.0424922930063476   -0.008487121790206817
-0.8104504379043376   -0.0424922930063476   -0.008487121790206817
-0.8104504379043376   -0.0424922930063476   -0.008487121790206817
-0.8258076423426138   -0.03554011197979387   0.01897408155418231
-0.8258076423426138   -0.03554011197979387   0.01897408155418231
-0.8258076423426138   -0.03554011197979387   0.01897408155418231
-0.8258076423426138   -0.03554011197979387   0.01897408155418231
-0.5551255116607777   -0.000192770922403801   -0.006081225632303809
-0.5551255116607777   -0.000192770922403801   -0.006081225632303809
-0.5551255116607777   -0.000192770922403801   -0.006081225632303809
-0.5551255116607777   -0.000192770922403801   -0.006081225632303809
-0.650245257836547   -0.001806438455870002   0.0078006765212168434
-0.650245257836547   -0.001806438455870002   0.0078006765212168434
-0.650245257836547   -0.001806438455870002   0.0078006765212168434
-0.650245257836547   -0.001806438455870002   0.0078006765212168434
0.44348457003575337   0.024873494552195646   -0.020646693316256605
0.44348457003575337   0.024873494552195646   -0.020646693316256605
0.44348457003575337   0.024873494552195646   -0.020646693316256605
0.44348457003575337   0.024873494552195646   -0.020646693316256605
0.21035699042233202   0.0037270858014131283   0.007754579899753563
0.21035699042233202   0.0037270858014131283   0.007754579899753563
0.21035699042233202   0.0037270858014131283   0.007754579899753563
0.21035699042233202   0.0037270858014131283   0.007754579899753563
0.18747647240746038   -0.0355453154541752   -0.019679827969503842
0.18747647240746038   -0.0355453154541752   -0.019679827969503842
0.18747647240746038   -0.0355453154541752   -0.019679827969503842
0.18747647240746038   -0.0355453154541752   -0.019679827969503842
0.4341787844483366   0.04049739267952705   0.009606357215906393
0.4341787844483366   0.04049739267952705   0.009606357215906393
0.4341787844483366   0.04049739267952705   0.009606357215906393
0.4341787844483366   0.04049739267952705   0.009606357215906393
0.3024055449525862   0.004069775925503526   -0.008955669507997789
0.3024055449525862   0.004069775925503526   -0.008955669507997789
0.3024055449525862   0.004069775925503526   -0.008955669507997789
0.3024055449525862   0.004069775925503526   -0.008955669507997789
0.42254363358906966   0.011491401246557259   -0.019563405647454624
0.42254363358906966   0.011491401246557259   -0.019563405647454624
0.42254363358906966   0.011491401246557259   -0.019563405647454624
0.42254363358906966   0.011491401246557259   -0.019563405647454624
0.19888623946290096   -0.0067647078250306775   0.008588399678553318
0.19888623946290096   -0.0067647078250306775   0.008588399678553318
0.19888623946290096   -0.0067647078250306775   0.008588399678553318
0.19888623946290096   -0.0067647078250306775   0.008588399678553318
0.1768107767188049   -0.038968495783412486   -0.01682003868993197
0.1768107767188049   -0.038968495783412486   -0.01682003868993197
0.1768107767188049   -0.038968495783412486   -0.01682003868993197
0.1768107767188049   -0.038968495783412486   -0.01682003868993197
0.41758833266077566   0.03558781514911323   0.012700721263719121
0.41758833266077566   0.03558781514911323   0.012700721263719121
0.41758833266077566   0.03558781514911323   0.012700721263719121
0.41758833266077566   0.03558781514911323   0.012700721263719121
0.2930215995773231   -0.0019098464570777435   -0.01243407390645341
0.2930215995773231   -0.0019098464570777435   -0.01243407390645341
0.2930215995773231   -0.0019098464570777435   -0.01243407390645341
0.2930215995773231   -0.0019098464570777435   -0.01243407390645341
0.40621182412456697   0.007130766818404258   -0.01572477308661157
0.40621182412456697   0.007130766818404258   -0.01572477308661157
0.40621182412456697   0.007130766818404258   -0.01572477308661157
0.40621182412456697   0.007130766818404258   -0.01572477308661157
0.18789294428351813   -0.0108057884241985   0.010428091774417999
0.18789294428351813   -0.0108057884241985   0.010428091774417999
0.18789294428351813   -0.0108057884241985   0.010428091774417999
0.18789294428351813   -0.0108057884241985   0.010428091774417999
0.16722098923974058   -0.0409327115966495   -0.014015309437037028
0.16722098923974058   -0.0409327115966495   -0.014015309437037028
0.16722098923974058   -0.0409327115966495   -0.014015309437037028
0.16722098923974058   -0.0409327115966495   -0.014015309437037028
0.39885931731848023   0.030377151514876945   0.015144022146498513
0.39885931731848023   0.030377151514876945   0.015144022146498513
0.39885931731848023   0.030377151514876945   0.015144022146498513
0.39885931731848023   0.030377151514876945   0.015144022146498513
0.2739711427461476   -0.0063775484772282676   -0.017667519425409894
0.2739711427461476   -0.0063775484772282676   -0.017667519425409894
0.2739711427461476   -0.0063775484772282676   -0.017667519425409894
0.2739711427461476   -0.0063775484772282676   -0.017667519425409894
0.21408375635885069   0.0311373362267948   -0.0010218408430314025
0.21408375635885069   0.0311373362267948   -0.0010218408430314025
0.21408375635885069   0.0311373362267948   -0.0010218408430314025
0.21408375635885069   0.0311373362267948   -0.0010218408430314025
-0.014517344868832813   -0.003391808716468409   -0.0002498972174933873
-0.014517344868832813   -0.003391808716468409   -0.0002498972174933873
-0.014517344868832813   -0.003391808716468409   -0.0002498972174933873
-0.014517344868832813   -0.003391808716468409   -0.0002498972174933873
-0.030639383480584516   -0.026756751444952064   -0.012587041339231832
-0.030639383480584516   -0.026756751444952064   -0.012587041339231832
-0.030639383480584516   -0.026756751444952064   -0.012587041339231832
-0.030639383480584516   -0.026756751444952064   -0.012587041339231832
0.20870894491001532   0.036881387876739107   0.014055831212355395
0.20870894491001532   0.036881387876739107   0.014055831212355395
0.20870894491001532   0.036881387876739107   0.014055831212355395
0.20870894491001532   0.036881387876739107   0.014055831212355395
0.09294682878671731   0.00903576363221364   0.0006998392397620013
0.09294682878671731   0.00903576363221364   0.0006998392397620013
0.09294682878671731   0.00903576363221364   0.0006998392397620013
0.09294682878671731   0.00903576363221364   0.0006998392397620013
0.2032183452807728   0.022690872303118167   0.000793348639767797
0.2032183452807728   0.022690872303118167   0.000793348639767797
0.2032183452807728   0.022690872303118167   0.000793348639767797
0.2032183452807728   0.022690872303118167   0.000793348639767797
-0.025057408735159097   -0.012474860755148514   0.00104094169809172
-0.025057408735159097   -0.012474860755148514   0.00104094169809172
-0.025057408735159097   -0.012474860755148514   0.00104094169809172
-0.025057408735159097   -0.012474860755148514   0.00104094169809172
-0.040680582897822615   -0.03321920404277108   -0.010439442490930977
-0.040680582897822615   -0.03321920404277108   -0.010439442490930977
-0.040680582897822615   -0.03321920404277108   -0.010439442490930977
-0.040680582897822615   -0.03321920404277108   -0.010439442490930977
0.19686257752421593   0.029111550581571687   0.015358918972136768
0.19686257752421593   0.029111550581571687   0.015358918972136768
0.19686257752421593   0.029111550581571687   0.015358918972136768
0.19686257752421593   0.029111550581571687   0.015358918972136768
0.08052370694056851   0.0013363845723106428   -0.0031601857323169218
0.08052370694056851   0.0013363845723106428   -0.0031601857323169218
0.08052370694056851   0.0013363845723106428   -0.0031601857323169218
0.08052370694056851   0.0013363845723106428   -0.0031601857323169218
0.19155715847867194   0.015754089663259474   0.002189284662731104
0.19155715847867194   0.015754089663259474   0.002189284662731104
0.19155715847867194   0.015754089663259474   0.002189284662731104
0.19155715847867194   0.015754089663259474   0.002189284662731104
-0.03545784521619374   -0.01994442448837428   0.002399466362816626
-0.03545784521619374   -0.01994442448837428   0.002399466362816626
-0.03545784521619374   -0.01994442448837428   0.002399466362816626
-0.03545784521619374   -0.01994442448837428   0.002399466362816626
-0.05058352462311164   -0.03859354772336569   -0.008422818835260963
-0.05058352462311164   -0.03859354772336569   -0.008422818835260963
-0.05058352462311164   -0.03859354772336569   -0.008422818835260963
-0.05058352462311164   -0.03859354772336569   -0.008422818835260963
0.18592423197219834   0.021977238026340013   0.016590954602261718
0.18592423197219834   0.021977238026340013   0.016590954602261718
0.18592423197219834   0.021977238026340013   0.016590954602261718
0.18592423197219834   0.021977238026340013   0.016590954602261718
0.0710696875279735   -0.004433678919740818   -0.006353828768292152
0.0710696875279735   -0.004433678919740818   -0.006353828768292152
0.0710696875279735   -0.004433678919740818   -0.006353828768292152
0.0710696875279735   -0.004433678919740818   -0.006353828768292152
-0.005406798001748699   0.036750168629945   0.005160859771514724
-0.005406798001748699   0.036750168629945   0.005160859771514724
-0.005406798001748699   0.036750168629945   0.005160859771514724
-0.005406798001748699   0.036750168629945   0.005160859771514724
-0.23463738410738053   -0.010515051928835513   -0.007778304167240218
-0.23463738410738053   -0.010515051928835513   -0.007778304167240218
-0.23463738410738053   -0.010515051928835513   -0.007778304167240218
-0.23463738410738053   -0.010515051928835513   -0.007778304167240218
-0.2450216477571837   -0.018894532224242276   -0.006102304040412348
-0.2450216477571837   -0.018894532224242276   -0.006102304040412348
-0.2450216477571837   -0.018894532224242276   -0.006102304040412348
-0.2450216477571837   -0.018894532224242276   -0.006102304040412348
-0.01558138020727378   0.02977547177021487   0.006170751812155119
-0.01558138020727378   0.02977547177021487   0.006170751812155119
-0.01558138020727378   0.02977547177021487   0.006170751812155119
-0.01558138020727378   0.02977547177021487   0.006170751812155119
-0.12486291433335801   0.009325711803536713   0.00244237195290083
-0.12486291433335801   0.009325711803536713   0.00244237195290083
-0.12486291433335801   0.009325711803536713   0.00244237195290083
-0.12486291433335801   0.009325711803536713   0.00244237195290083
-0.015392146295146463   0.029691922920706486   0.007200470222299888
-0.015392146295146463   0.029691922920706486   0.007200470222299888
-0.015392146295146463   0.029691922920706486   0.007200470222299888
-0.015392146295146463   0.029691922920706486   0.007200470222299888
-0.24501989843962707   -0.018620000145050893   -0.006368089531820392
-0.24501989843962707   -0.018620000145050893   -0.006368089531820392
-0.24501989843962707   -0.018620000145050893   -0.006368089531820392
-0.24501989843962707   -0.018620000145050893   -0.006368089531820392
-0.2553087280256667   -0.02588667362957238   -0.0042355206891051215
-0.2553087280256667   -0.02588667362957238   -0.0042355206891051215
-0.2553087280256667   -0.02588667362957238   -0.0042355206891051215
-0.2553087280256667   -0.02588667362957238   -0.0042355206891051215
-0.02605517859797609   0.021776679240810608   0.007691695724720004
-0.02605517859797609   0.021776679240810608   0.007691695724720004
-0.02605517859797609   0.021776679240810608   0.007691695724720004
-0.02605517859797609   0.021776679240810608   0.007691695724720004
-0.13525618326209796   0.002400117639541864   -0.0006776308522144503
-0.13525618326209796   0.002400117639541864   -0.0006776308522144503
-0.13525618326209796   0.002400117639541864   -0.0006776308522144503
-0.13525618326209796   0.002400117639541864   -0.0006776308522144503
-0.025655734060252768   0.022653457360136117   0.008812140294011077
-0.025655734060252768   0.022653457360136117   0.008812140294011077
-0.025655734060252768   0.022653457360136117   0.008812140294011077
-0.025655734060252768   0.022653457360136117   0.008812140294011077
-0.25565720190353614   -0.026712481089041326   -0.005152082618979653
-0.25565720190353614   -0.026712481089041326   -0.005152082618979653
-0.25565720190353614   -0.026712481089041326   -0.005152082618979653
-0.25565720190353614   -0.026712481089041326   -0.005152082618979653
-0.2654662796722837   -0.03226915722317793   -0.002382983290301754
-0.2654662796722837   -0.03226915722317793   -0.002382983290301754
-0.2654662796722837   -0.03226915722317793   -0.002382983290301754
-0.2654662796722837   -0.03226915722317793   -0.002382983290301754
-0.03657758371885989   0.014040778668894983   0.008972559293737283
-0.03657758371885989   0.014040778668894983   0.008972559293737283
-0.03657758371885989   0.014040778668894983   0.008972559293737283
-0.03657758371885989   0.014040778668894983   0.008972559293737283
-0.1461318127259157   -0.00458013138077374   -0.0041570593613040226
-0.1461318127259157   -0.00458013138077374   -0.0041570593613040226
-0.1461318127259157   -0.00458013138077374   -0.0041570593613040226
-0.1461318127259157   -0.00458013138077374   -0.0041570593613040226
-0.22038801748975295   0.041958457111781665   0.010995019880278557
-0.22038801748975295   0.041958457111781665   0.010995019880278557
-0.22038801748975295   0.041958457111781665   0.010995019880278557
-0.22038801748975295   0.041958457111781665   0.010995019880278557
-0.450109075028225   -0.017818805059486062   -0.01394550172151859
-0.450109075028225   -0.017818805059486062   -0.01394550172151859
-0.450109075028225   -0.017818805059486062   -0.01394550172151859
-0.450109075028225   -0.017818805059486062   -0.01394550172151859
-0.4557673336833471   -0.012300150752461714   0.0009574440072797098
-0.4557673336833471   -0.012300150752461714   0.0009574440072797098
-0.4557673336833471   -0.012300150752461714   0.0009574440072797098
-0.4557673336833471   -0.012300150752461714   0.0009574440072797098
-0.23606925045379235   0.021439014419216862   -0.001673864166912089
-0.23606925045379235   0.021439014419216862   -0.001673864166912089
-0.23606925045379235   0.021439014419216862   -0.001673864166912089
-0.23606925045379235   0.021439014419216862   -0.001673864166912089
-0.3383511987840224   0.008729048353934205   0.004131463866366144
-0.3383511987840224   0.008729048353934205   0.004131463866366144
-0.3383511987840224   0.008729048353934205   0.004131463866366144
-0.3383511987840224   0.008729048353934205   0.004131463866366144
-0.23039548199786564   0.03517460774130517   0.0129593847906306
-0.23039548199786564   0.03517460774130517   0.0129593847906306
-0.23039548199786564   0.03517460774130517   0.0129593847906306
-0.23039548199786564   0.03517460774130517   0.0129593847906306
-0.46139834292875276   -0.02599298486402997   -0.013504768108185822
-0.46139834292875276   -0.02599298486402997   -0.013504768108185822
-0.46139834292875276   -0.02599298486402997   -0.013504768108185822
-0.46139834292875276   -0.02599298486402997   -0.013504768108185822
-0.4677522116902048   -0.019372575006516568   0.0016387345347085545
-0.4677522116902048   -0.019372575006516568   0.0016387345347085545
-0.4677522116902048   -0.019372575006516568   0.0016387345347085545
-0.4677522116902048   -0.019372575006516568   0.0016387345347085545
-0.24650577367203724   0.014028201665638632   -0.00013562421616445872
-0.24650577367203724   0.014028201665638632   -0.00013562421616445872
-0.24650577367203724   0.014028201665638632   -0.00013562421616445872
-0.24650577367203724   0.014028201665638632   -0.00013562421616445872
-0.3470740207990669   0.002588494800621899   0.0012357553316293332
-0.3470740207990669   0.002588494800621899   0.0012357553316293332
-0.3470740207990669   0.002588494800621899   0.0012357553316293332
-0.3470740207990669   0.002588494800621899   0.0012357553316293332
-0.2405897033706546   0.028688971284772442   0.01478395767161408
-0.2405897033706546   0.028688971284772442   0.01478395767161408
-0.2405897033706546   0.028688971284772442   0.01478395767161408
-0.2405897033706546   0.028688971284772442   0.01478395767161408
-0.4733678134456588   -0.03373287607972371   -0.012078973169354516
-0.4733678134456588   -0.03373287607972371   -0.012078973169354516
-0.4733678134456588   -0.03373287607972371   -0.012078973169354516
-0.4733678134456588   -0.03373287607972371   -0.012078973169354516
-0.4786038636506486   -0.027011970615385336   0.0038592640311254714
-0.4786038636506486   -0.027011970615385336   0.0038592640311254714
-0.4786038636506486   -0.027011970615385336   0.0038592640311254714
-0.4786038636506486   -0.027011970615385336   0.0038592640311254714
-0.2572378084608735   0.005513269380177613   0.0009769461633965804
-0.2572378084608735   0.005513269380177613   0.0009769461633965804
-0.2572378084608735   0.005513269380177613   0.0009769461633965804
-0.2572378084608735   0.005513269380177613   0.0009769461633965804
-0.36053511798458115   -0.005190936413651398   -0.0024715069656559147
-0.36053511798458115   -0.005190936413651398   -0.0024715069656559147
-0.36053511798458115   -0.005190936413651398   -0.0024715069656559147
-0.36053511798458115   -0.005190936413651398   -0.0024715069656559147
-0.43313481254132935   0.03763585605608172   0.015471149597391834
-0.43313481254132935   0.03763585605608172   0.015471149597391834
-0.43313481254132935   0.03763585605608172   0.015471149597391834
-0.43313481254132935   0.03763585605608172   0.015471149597391834
-0.6557968765433958   -0.030360148377975224   -0.015150474137428
-0.6557968765433958   -0.030360148377975224   -0.015150474137428
-0.6557968765433958   -0.030360148377975224   -0.015150474137428
-0.6557968765433958   -0.030360148377975224   -0.015150474137428
-0.6628294111144161   -0.007120893338109946   0.014210819031140857
-0.6628294111144161   -0.007120893338109946   0.014210819031140857
-0.6628294111144161   -0.007120893338109946   0.014210819031140857
-0.6628294111144161   -0.007120893338109946   0.014210819031140857
-0.45302900191631773   0.011095565147670045   -0.008746613057705608
-0.45302900191631773   0.011095565147670045   -0.008746613057705608
-0.45302900191631773   0.011095565147670045   -0.008746613057705608
-0.45302900191631773   0.011095565147670045   -0.008746613057705608
-0.5267616161358741   0.00830614401800131   0.013014011253242912
-0.5267616161358741   0.00830614401800131   0.013014011253242912
-0.5267616161358741   0.00830614401800131   0.013014011253242912
-0.5267616161358741   0.00830614401800131   0.013014011253242912
-0.44231351455128953   0.037771166626089286   0.018155222289012906
-0.44231351455128953   0.037771166626089286   0.018155222289012906
-0.44231351455128953   0.037771166626089286   0.018155222289012906
-0.44231351455128953   0.037771166626089286   0.018155222289012906
-0.6733738366946527   -0.033625433031737414   -0.012006769176407823
-0.6733738366946527   -0.033625433031737414   -0.012006769176407823
-0.6733738366946527   -0.033625433031737414   -0.012006769176407823
-0.6733738366946527   -0.033625433031737414   -0.012006769176407823
-0.6785422804988006   -0.010860609859936143   0.017763136536313482
-0.6785422804988006   -0.010860609859936143   0.017763136536313482
-0.6785422804988006   -0.010860609859936143   0.017763136536313482
-0.6785422804988006   -0.010860609859936143   0.017763136536313482
-0.46429416531854895   0.007034772499845354   -0.0074783811133700695
-0.46429416531854895   0.007034772499845354   -0.0074783811133700695
-0.46429416531854895   0.007034772499845354   -0.0074783811133700695
-0.46429416531854895   0.007034772499845354   -0.0074783811133700695
-0.5489597382440007   0.004151654835268789   0.008051400207697738
-0.5489597382440007   0.004151654835268789   0.008051400207697738
-0.5489597382440007   0.004151654835268789   0.008051400207697738
-0.5489597382440007   0.004151654835268789   0.008051400207697738
-0.45292892349068903   0.0349882952829805   0.021394305242790415
-0.45292892349068903   0.0349882952829805   0.021394305242790415
-0.45292892349068903   0.0349882952829805   0.021394305242790415
-0.45292892349068903   0.0349882952829805   0.021394305242790415
-0.689614549761912   -0.03852116007832365   -0.00993765956085204
-0.689614549761912   -0.03852116007832365   -0.00993765956085204
-0.689614549761912   -0.03852116007832365   -0.00993765956085204
-0.689614549761912   -0.03852116007832365   -0.00993765956085204
-0.699287079853817   -0.024333372656577618   0.017377333889851028
-0.699287079853817   -0.024333372656577618   0.017377333889851028
-0.699287079853817   -0.024333372656577618   0.017377333889851028
-0.699287079853817   -0.024333372656577618   0.017377333889851028
-0.47621341957830826   -0.004415805868850403   -0.00678468035370949
-0.47621341957830826   -0.004415805868850403   -0.00678468035370949
-0.47621341957830826   -0.004415805868850403   -0.00678468035370949
-0.47621341957830826   -0.004415805868850403   -0.00678468035370949
-0.5543569336860645   -0.0010775007894790606   0.0064534806108833345
-0.5543569336860645   -0.0010775007894790606   0.0064534806108833345
-0.5543569336860645   -0.0010775007894790606   0.0064534806108833345
-0.5543569336860645   -0.0010775007894790606   0.0064534806108833345
0.3078654752244158   0.01763198973846375   -0.020229385217090126
0.3078654752244158   0.01763198973846375   -0.020229385217090126
0.3078654752244158   0.01763198973846375   -0.020229385217090126
0.3078654752244158   0.01763198973846375   -0.020229385217090126
0.13147380352433743   0.007909282338791228   0.008581751298668255
0.13147380352433743   0.007909282338791228   0.008581751298668255
0.13147380352433743   0.007909282338791228   0.008581751298668255
0.13147380352433743   0.007909282338791228   0.008581751298668255
0.11069955754932707   -0.029900196781752222   -0.018902363191480503
0.11069955754932707   -0.029900196781752222   -0.018902363191480503
0.11069955754932707   -0.029900196781752222   -0.018902363191480503
0.11069955754932707   -0.029900196781752222   -0.018902363191480503
0.3009205787479048   0.03463482711833722   0.0104386704381929
0.3009205787479048   0.03463482711833722   0.0104386704381929
0.3009205787479048   0.03463482711833722   0.0104386704381929
0.3009205787479048   0.03463482711833722   0.0104386704381929
0.20148481043960317   0.004440239768152748   -0.005495636197478106
0.20148481043960317   0.004440239768152748   -0.005495636197478106
0.20148481043960317   0.004440239768152748   -0.005495636197478106
0.20148481043960317   0.004440239768152748   -0.005495636197478106
0.289285936943004   0.0058146745347343876   -0.018914386002710986
0.289285936943004   0.0058146745347343876   -0.018914386002710986
0.289285936943004   0.0058146745347343876   -0.018914386002710986
0.289285936943004   0.0058146745347343876   -0.018914386002710986
0.12211478379519476   -0.0012994597571848489   0.009573031013292651
0.12211478379519476   -0.0012994597571848489   0.009573031013292651
0.12211478379519476   -0.0012994597571848489   0.009573031013292651
0.12211478379519476   -0.0012994597571848489   0.009573031013292651
0.10187839989270979   -0.03331912603264534   -0.016124051877007866
0.10187839989270979   -0.03331912603264534   -0.016124051877007866
0.10187839989270979   -0.03331912603264534   -0.016124051877007866
0.10187839989270979   -0.03331912603264534   -0.016124051877007866
0.2863895586680773   0.029777840984394774   0.013511727011094106
0.2863895586680773   0.029777840984394774   0.013511727011094106
0.2863895586680773   0.029777840984394774   0.013511727011094106
0.2863895586680773   0.029777840984394774   0.013511727011094106
0.1924898893112919   -0.0012306882606213237   -0.008823754035153734
0.1924898893112919   -0.0012306882606213237   -0.008823754035153734
0.1924898893112919   -0.0012306882606213237   -0.008823754035153734
0.1924898893112919   -0.0012306882606213237   -0.008823754035153734
0.27493147583887834   0.0014301085849075731   -0.015430954735415642
0.27493147583887834   0.0014301085849075731   -0.015430954735415642
0.27493147583887834   0.0014301085849075731   -0.015430954735415642
0.27493147583887834   0.0014301085849075731   -0.015430954735415642
0.11300656223525152   -0.005301314119814951   0.01149894792287125
0.11300656223525152   -0.005301314119814951   0.01149894792287125
0.11300656223525152   -0.005301314119814951   0.01149894792287125
0.11300656223525152   -0.005301314119814951   0.01149894792287125
0.09401093274974252   -0.036311208747572696   -0.013449394597012002
0.09401093274974252   -0.036311208747572696   -0.013449394597012002
0.09401093274974252   -0.036311208747572696   -0.013449394597012002
0.09401093274974252   -0.036311208747572696   -0.013449394597012002
0.26939517893028436   0.023470896134445127   0.015468259782903315
0.26939517893028436   0.023470896134445127   0.015468259782903315
0.26939517893028436   0.023470896134445127   0.015468259782903315
0.26939517893028436   0.023470896134445127   0.015468259782903315
0.17690669276097093   -0.005839196649454877   -0.01345595189896857
0.17690669276097093   -0.005839196649454877   -0.01345595189896857
0.17690669276097093   -0.005839196649454877   -0.01345595189896857
0.17690669276097093   -0.005839196649454877   -0.01345595189896857
0.13255605320644076   0.02537775562640054   -0.0034754735784271393
0.13255605320644076   0.02537775562640054   -0.0034754735784271393
0.13255605320644076   0.02537775562640054   -0.0034754735784271393
0.13255605320644076   0.02537775562640054   -0.0034754735784271393
-0.040088049124891535   0.001883232656759621   0.0010598833098575994
-0.040088049124891535   0.001883232656759621   0.0010598833098575994
-0.040088049124891535   0.001883232656759621   0.0010598833098575994
-0.040088049124891535   0.001883232656759621   0.0010598833098575994
-0.05429225965402569   -0.020870128088320672   -0.011700544048902467
-0.05429225965402569   -0.020870128088320672   -0.011700544048902467
-0.05429225965402569   -0.020870128088320672   -0.011700544048902467
-0.05429225965402569   -0.020870128088320672   -0.011700544048902467
0.12907127027020127   0.030447179542548015   0.01260882408859236
0.12907127027020127   0.030447179542548015   0.01260882408859236
0.12907127027020127   0.030447179542548015   0.01260882408859236
0.12907127027020127   0.030447179542548015   0.01260882408859236
0.04090028496403237   0.00875640325796101   0.0015840451003170612
0.04090028496403237   0.00875640325796101   0.0015840451003170612
0.04090028496403237   0.00875640325796101   0.0015840451003170612
0.04090028496403237   0.00875640325796101   0.0015840451003170612
0.12342577893864991   0.0166494148622275   -0.0018208678888452729
0.12342577893864991   0.0166494148622275   -0.0018208678888452729
0.12342577893864991   0.0166494148622275   -0.0018208678888452729
0.12342577893864991   0.0166494148622275   -0.0018208678888452729
-0.048735518361139346   -0.007161113446663892   0.0023741477738734424
-0.048735518361139346   -0.007161113446663892   0.0023741477738734424
-0.048735518361139346   -0.007161113446663892   0.0023741477738734424
-0.048735518361139346   -0.007161113446663892   0.0023741477738734424
-0.062490368793077594   -0.027730164696673783   -0.00949671110179705
-0.062490368793077594   -0.027730164696673783   -0.00949671110179705
-0.062490368793077594   -0.027730164696673783   -0.00949671110179705
-0.062490368793077594   -0.027730164696673783   -0.00949671110179705
0.1190074251687935   0.022492081026097406   0.013709867444668887
0.1190074251687935   0.022492081026097406   0.013709867444668887
0.1190074251687935   0.022492081026097406   0.013709867444668887
0.1190074251687935   0.022492081026097406   0.013709867444668887
0.030752606099345492   0.0009451441462749411   -0.002167492564555518
0.030752606099345492   0.0009451441462749411   -0.002167492564555518
0.030752606099345492   0.0009451441462749411   -0.002167492564555518
0.030752606099345492   0.0009451441462749411   -0.002167492564555518
0.11354057049539341   0.009290750335109274   -0.00042307523134542087
0.11354057049539341   0.009290750335109274   -0.00042307523134542087
0.11354057049539341   0.009290750335109274   -0.00042307523134542087
0.11354057049539341   0.009290750335109274   -0.00042307523134542087
-0.057241866931102975   -0.014747186817115236   0.0037628203285175006
-0.057241866931102975   -0.014747186817115236   0.0037628203285175006
-0.057241866931102975   -0.014747186817115236   0.0037628203285175006
-0.057241866931102975   -0.014747186817115236   0.0037628203285175006
-0.07057439389109182   -0.034132989335073985   -0.00746155634150278
-0.07057439389109182   -0.034132989335073985   -0.00746155634150278
-0.07057439389109182   -0.034132989335073985   -0.00746155634150278
-0.07057439389109182   -0.034132989335073985   -0.00746155634150278
0.10992614105289772   0.014893593050691675   0.01492184512050177
0.10992614105289772   0.014893593050691675   0.01492184512050177
0.10992614105289772   0.014893593050691675   0.01492184512050177
0.10992614105289772   0.014893593050691675   0.01492184512050177
0.02266320702974671   -0.005480834224618672   -0.0054636031132183445
0.02266320702974671   -0.005480834224618672   -0.0054636031132183445
0.02266320702974671   -0.005480834224618672   -0.0054636031132183445
0.02266320702974671   -0.005480834224618672   -0.0054636031132183445
-0.03372407501311182   0.03181322335714187   0.0029497631683729096
-0.03372407501311182   0.03181322335714187   0.0029497631683729096
-0.03372407501311182   0.03181322335714187   0.0029497631683729096
-0.03372407501311182   0.03181322335714187   0.0029497631683729096
-0.20904843644738647   -0.0055942340199075236   -0.006390417257026125
-0.20904843644738647   -0.0055942340199075236   -0.006390417257026125
-0.20904843644738647   -0.0055942340199075236   -0.006390417257026125
-0.20904843644738647   -0.0055942340199075236   -0.006390417257026125
-0.2171595885292029   -0.01271902832267656   -0.004723540330372901
-0.2171595885292029   -0.01271902832267656   -0.004723540330372901
-0.2171595885292029   -0.01271902832267656   -0.004723540330372901
-0.2171595885292029   -0.01271902832267656   -0.004723540330372901
-0.0421559875804241   0.023200865952821136   0.0049098222779634165
-0.0421559875804241   0.023200865952821136   0.0049098222779634165
-0.0421559875804241   0.023200865952821136   0.0049098222779634165
-0.0421559875804241   0.023200865952821136   0.0049098222779634165
-0.12521149964171252   0.009018263788177536   0.0025029166887258654
-0.12521149964171252   0.009018263788177536   0.0025029166887258654
-0.12521149964171252   0.009018263788177536   0.0025029166887258654
-0.12521149964171252   0.009018263788177536   0.0025029166887258654
-0.041918752183592964   0.024277683379588348   0.005019181835352178
-0.041918752183592964   0.024277683379588348   0.005019181835352178
-0.041918752183592964   0.024277683379588348   0.005019181835352178
-0.041918752183592964   0.024277683379588348   0.005019181835352178
-0.21742632493259775   -0.013825346756005955   -0.004950903914013765
-0.21742632493259775   -0.013825346756005955   -0.004950903914013765
-0.21742632493259775   -0.013825346756005955   -0.004950903914013765
-0.21742632493259775   -0.013825346756005955   -0.004950903914013765
-0.22544638208454398   -0.02019351859146424   -0.002768089950086358
-0.22544638208454398   -0.02019351859146424   -0.002768089950086358
-0.22544638208454398   -0.02019351859146424   -0.002768089950086358
-0.22544638208454398   -0.02019351859146424   -0.002768089950086358
-0.050761110494769474   0.01501513638049112   0.006404279312578414
-0.050761110494769474   0.01501513638049112   0.006404279312578414
-0.050761110494769474   0.01501513638049112   0.006404279312578414
-0.050761110494769474   0.01501513638049112   0.006404279312578414
-0.13372927720825944   0.001722532682710342   -0.0007128868574903229
-0.13372927720825944   0.001722532682710342   -0.0007128868574903229
-0.13372927720825944   0.001722532682710342   -0.0007128868574903229
-0.13372927720825944   0.001722532682710342   -0.0007128868574903229
-0.05034741067065062   0.01673123053671991   0.006756684276944124
-0.05034741067065062   0.01673123053671991   0.006756684276944124
-0.05034741067065062   0.01673123053671991   0.006756684276944124
-0.05034741067065062   0.01673123053671991   0.006756684276944124
-0.2260015335899712   -0.022051064429001527   -0.0036863016396831436
-0.2260015335899712   -0.022051064429001527   -0.0036863016396831436
-0.2260015335899712   -0.022051064429001527   -0.0036863016396831436
-0.2260015335899712   -0.022051064429001527   -0.0036863016396831436
-0.23358568539429064   -0.02732751056750003   -0.0008607852128223606
-0.23358568539429064   -0.02732751056750003   -0.0008607852128223606
-0.23358568539429064   -0.02732751056750003   -0.0008607852128223606
-0.23358568539429064   -0.02732751056750003   -0.0008607852128223606
-0.059300063115166446   0.00706374145660087   0.007713366746447955
-0.059300063115166446   0.00706374145660087   0.007713366746447955
-0.059300063115166446   0.00706374145660087   0.007713366746447955
-0.059300063115166446   0.00706374145660087   0.007713366746447955
-0.14260487400771138   -0.0055784773958772425   -0.004202821259452135
-0.14260487400771138   -0.0055784773958772425   -0.004202821259452135
-0.14260487400771138   -0.0055784773958772425   -0.004202821259452135
-0.14260487400771138   -0.0055784773958772425   -0.004202821259452135
-0.19732270317709216   0.037380310558294445   0.009263704516243467
-0.19732270317709216   0.037380310558294445   0.009263704516243467
-0.19732270317709216   0.037380310558294445   0.009263704516243467
-0.19732270317709216   0.037380310558294445   0.009263704516243467
-0.37531394046201083   -0.013069546935614684   -0.012911284722954976
-0.37531394046201083   -0.013069546935614684   -0.012911284722954976
-0.37531394046201083   -0.013069546935614684   -0.012911284722954976
-0.37531394046201083   -0.013069546935614684   -0.012911284722954976
-0.3783405173720261   -0.006131324965337248   0.0027457058285511454
-0.3783405173720261   -0.006131324965337248   0.0027457058285511454
-0.3783405173720261   -0.006131324965337248   0.0027457058285511454
-0.3783405173720261   -0.006131324965337248   0.0027457058285511454
-0.21117401304868186   0.015151662102381808   -0.0026663533528274684
-0.21117401304868186   0.015151662102381808   -0.0026663533528274684
-0.21117401304868186   0.015151662102381808   -0.0026663533528274684
-0.21117401304868186   0.015151662102381808   -0.0026663533528274684
-0.288787499989452   0.008405700125980853   0.00361431996815015
-0.288787499989452   0.008405700125980853   0.00361431996815015
-0.288787499989452   0.008405700125980853   0.00361431996815015
-0.288787499989452   0.008405700125980853   0.00361431996815015
-0.20537132546275047   0.03017760132220948   0.011321145357007059
-0.20537132546275047   0.03017760132220948   0.011321145357007059
-0.20537132546275047   0.03017760132220948   0.011321145357007059
-0.20537132546275047   0.03017760132220948   0.011321145357007059
-0.38440668805262496   -0.02142074727983405   -0.012295725259948324
-0.38440668805262496   -0.02142074727983405   -0.012295725259948324
-0.38440668805262496   -0.02142074727983405   -0.012295725259948324
-0.38440668805262496   -0.02142074727983405   -0.012295725259948324
-0.38812035626276115   -0.013539275801780798   0.0036415710374623055
-0.38812035626276115   -0.013539275801780798   0.0036415710374623055
-0.38812035626276115   -0.013539275801780798   0.0036415710374623055
-0.38812035626276115   -0.013539275801780798   0.0036415710374623055
-0.219551930851239   0.007601336142927323   -0.0010906885179554036
-0.219551930851239   0.007601336142927323   -0.0010906885179554036
-0.219551930851239   0.007601336142927323   -0.0010906885179554036
-0.219551930851239   0.007601336142927323   -0.0010906885179554036
-0.29591019816516306   0.0018175117458158058   0.000397873086576149
-0.29591019816516306   0.0018175117458158058   0.000397873086576149
-0.29591019816516306   0.0018175117458158058   0.000397873086576149
-0.29591019816516306   0.0018175117458158058   0.000397873086576149
-0.2135383073005897   0.02330381071567067   0.013274954662551956
-0.2135383073005897   0.02330381071567067   0.013274954662551956
-0.2135383073005897   0.02330381071567067   0.013274954662551956
-0.2135383073005897   0.02330381071567067   0.013274954662551956
-0.39416226529291115   -0.02927003585402537   -0.010837214061046747
-0.39416226529291115   -0.02927003585402537   -0.010837214061046747
-0.39416226529291115   -0.02927003585402537   -0.010837214061046747
-0.39416226529291115   -0.02927003585402537   -0.010837214061046747
-0.3968089175877362   -0.021458818160665888   0.00568761758604174
-0.3968089175877362   -0.021458818160665888   0.00568761758604174
-0.3968089175877362   -0.021458818160665888   0.00568761758604174
-0.3968089175877362   -0.021458818160665888   0.00568761758604174
-0.2280801093075001   -0.0008071762074861114   0.0001467608611139433
-0.2280801093075001   -0.0008071762074861114   0.0001467608611139433
-0.2280801093075001   -0.0008071762074861114   0.0001467608611139433
-0.2280801093075001   -0.0008071762074861114   0.0001467608611139433
-0.30673694448891525   -0.005892564001254791   -0.0033604051906890933
-0.30673694448891525   -0.005892564001254791   -0.0033604051906890933
-0.30673694448891525   -0.005892564001254791   -0.0033604051906890933
-0.30673694448891525   -0.005892564001254791   -0.0033604051906890933
-0.3602782501297149   0.03467766311069129   0.014519956892218817
-0.3602782501297149   0.03467766311069129   0.014519956892218817
-0.3602782501297149   0.03467766311069129   0.014519956892218817
-0.3602782501297149   0.03467766311069129   0.014519956892218817
-0.5324623342569474   -0.024641896493738533   -0.016552259811047614
-0.5324623342569474   -0.024641896493738533   -0.016552259811047614
-0.5324623342569474   -0.024641896493738533   -0.016552259811047614
-0.5324623342569474   -0.024641896493738533   -0.016552259811047614
-0.5374194331016785   -0.0011601975339155107   0.014365004719727471
-0.5374194331016785   -0.0011601975339155107   0.014365004719727471
-0.5374194331016785   -0.0011601975339155107   0.014365004719727471
-0.5374194331016785   -0.0011601975339155107   0.014365004719727471
-0.3785507195304263   0.00542341768393674   -0.009860047612727841
-0.3785507195304263   0.00542341768393674   -0.009860047612727841
-0.3785507195304263   0.00542341768393674   -0.009860047612727841
-0.3785507195304263   0.00542341768393674   -0.009860047612727841
-0.43223118256215365   0.007888962588375625   0.01104492128775036
-0.43223118256215365   0.007888962588375625   0.01104492128775036
-0.43223118256215365   0.007888962588375625   0.01104492128775036
-0.43223118256215365   0.007888962588375625   0.01104492128775036
-0.3675637190516189   0.033364682354336   0.017133690110914063
-0.3675637190516189   0.033364682354336   0.017133690110914063
-0.3675637190516189   0.033364682354336   0.017133690110914063
-0.3675637190516189   0.033364682354336   0.017133690110914063
-0.5486346191459521   -0.02932964776977698   -0.013541475265786047
-0.5486346191459521   -0.02932964776977698   -0.013541475265786047
-0.5486346191459521   -0.02932964776977698   -0.013541475265786047
-0.5486346191459521   -0.02932964776977698   -0.013541475265786047
-0.5512691667858401   -0.005246563842289997   0.018089938643244353
-0.5512691667858401   -0.005246563842289997   0.018089938643244353
-0.5512691667858401   -0.005246563842289997   0.018089938643244353
-0.5512691667858401   -0.005246563842289997   0.018089938643244353
-0.3875608310598997   0.001285271379516506   -0.008385350129533248
-0.3875608310598997   0.001285271379516506   -0.008385350129533248
-0.3875608310598997   0.001285271379516506   -0.008385350129533248
-0.3875608310598997   0.001285271379516506   -0.008385350129533248
-0.45109752508357864   0.003209986001424539   0.005925123448232147
-0.45109752508357864   0.003209986001424539   0.005925123448232147
-0.45109752508357864   0.003209986001424539   0.005925123448232147
-0.45109752508357864   0.003209986001424539   0.005925123448232147
-0.3760646707548985   0.030210410158540424   0.020170312616450442
-0.3760646707548985   0.030210410158540424   0.020170312616450442
-0.3760646707548985   0.030210410158540424   0.020170312616450442
-0.3760646707548985   0.030210410158540424   0.020170312616450442
-0.5629286739415598   -0.034335049472032544   -0.011119111505618503
-0.5629286739415598   -0.034335049472032544   -0.011119111505618503
-0.5629286739415598   -0.034335049472032544   -0.011119111505618503
-0.5629286739415598   -0.034335049472032544   -0.011119111505618503
-0.5697960769845151   -0.01815557070551191   0.018099152869189717
-0.5697960769845151   -0.01815557070551191   0.018099152869189717
-0.5697960769845151   -0.01815557070551191   0.018099152869189717
-0.5697960769845151   -0.01815557070551191   0.018099152869189717
-0.39700462179916846   -0.009331702866919311   -0.007418018764877122
-0.39700462179916846   -0.009331702866919311   -0.007418018764877122
-0.39700462179916846   -0.009331702866919311   -0.007418018764877122
-0.39700462179916846   -0.009331702866919311   -0.007418018764877122
-0.4561746122955725   -0.002176955251834478   0.0035382934238856988
-0.4561746122955725   -0.002176955251834478   0.0035382934238856988
-0.4561746122955725   -0.002176955251834478   0.0035382934238856988
-0.4561746122955725   -0.002176955251834478   0.0035382934238856988
0.17302358048712177   0.010509738066758617   -0.019965747024279425
0.17302358048712177   0.010509738066758617   -0.019965747024279425
0.17302358048712177   0.010509738066758617   -0.019965747024279425
0.17302358048712177   0.010509738066758617   -0.019965747024279425
0.05141266229840672   0.011823157835063094   0.009459860208109638
0.05141266229840672   0.011823157835063094   0.009459860208109638
0.05141266229840672   0.011823157835063094   0.009459860208109638
0.05141266229840672   0.011823157835063094   0.009459860208109638
0.03288166711058814   -0.024587912278263197   -0.01763611490749249
0.03288166711058814   -0.024587912278263197   -0.01763611490749249
0.03288166711058814   -0.024587912278263197   -0.01763611490749249
0.03288166711058814   -0.024587912278263197   -0.01763611490749249
0.1685064834529418   0.028838175306733705   0.011377814508150352
0.1685064834529418   0.028838175306733705   0.011377814508150352
0.1685064834529418   0.028838175306733705   0.011377814508150352
0.1685064834529418   0.028838175306733705   0.011377814508150352
0.10028533724230078   0.00483290401871788   -0.0022851134168561243
0.10028533724230078   0.00483290401871788   -0.0022851134168561243
0.10028533724230078   0.00483290401871788   -0.0022851134168561243
0.10028533724230078   0.00483290401871788   -0.0022851134168561243
0.15680399064488273   5.373380417632648e-05   -0.01835020802958859
0.15680399064488273   5.373380417632648e-05   -0.01835020802958859
0.15680399064488273   5.373380417632648e-05   -0.01835020802958859
0.15680399064488273   5.373380417632648e-05   -0.01835020802958859
0.0442195856977805   0.0038319550034272443   0.010633610746779334
0.0442195856977805   0.0038319550034272443   0.010633610746779334
0.0442195856977805   0.0038319550034272443   0.010633610746779334
0.0442195856977805   0.0038319550034272443   0.010633610746779334
0.02589885170410297   -0.02802572760553819   -0.015015408974596415
0.02589885170410297   -0.02802572760553819   -0.015015408974596415
0.02589885170410297   -0.02802572760553819   -0.015015408974596415
0.02589885170410297   -0.02802572760553819   -0.015015408974596415
0.15595153765883685   0.024099357059397017   0.014668198110933327
0.15595153765883685   0.024099357059397017   0.014668198110933327
0.15595153765883685   0.024099357059397017   0.014668198110933327
0.15595153765883685   0.024099357059397017   0.014668198110933327
0.09162821847514664   -0.0005583913731373978   -0.005751029846218145
0.09162821847514664   -0.0005583913731373978   -0.005751029846218145
0.09162821847514664   -0.0005583913731373978   -0.005751029846218145
0.09162821847514664   -0.0005583913731373978   -0.005751029846218145
0.1443013153104455   -0.004365720336394856   -0.015117836235232562
0.1443013153104455   -0.004365720336394856   -0.015117836235232562
0.1443013153104455   -0.004365720336394856   -0.015117836235232562
0.1443013153104455   -0.004365720336394856   -0.015117836235232562
0.03705656561144676   -5.315865079221285e-05   0.012800591607377284
0.03705656561144676   -5.315865079221285e-05   0.012800591607377284
0.03705656561144676   -5.315865079221285e-05   0.012800591607377284
0.03705656561144676   -5.315865079221285e-05   0.012800591607377284
0.019666009595117776   -0.032073301713962804   -0.012523560123985079
0.019666009595117776   -0.032073301713962804   -0.012523560123985079
0.019666009595117776   -0.032073301713962804   -0.012523560123985079
0.019666009595117776   -0.032073301713962804   -0.012523560123985079
0.1403760203631043   0.016585715171346146   0.01632778138659935
0.1403760203631043   0.016585715171346146   0.01632778138659935
0.1403760203631043   0.016585715171346146   0.01632778138659935
0.1403760203631043   0.016585715171346146   0.01632778138659935
0.07939977617541041   -0.005317283054881876   -0.010035011836400987
0.07939977617541041   -0.005317283054881876   -0.010035011836400987
0.07939977617541041   -0.005317283054881876   -0.010035011836400987
0.07939977617541041   -0.005317283054881876   -0.010035011836400987
0.04972728741802701   0.018504626693021324   -0.005648483051747829
0.04972728741802701   0.018504626693021324   -0.005648483051747829
0.04972728741802701   0.018504626693021324   -0.005648483051747829
0.04972728741802701   0.018504626693021324   -0.005648483051747829
-0.06741887043532946   0.005675739967002965   0.0022231286615355425
-0.06741887043532946   0.005675739967002965   0.0022231286615355425
-0.06741887043532946   0.005675739967002965   0.0022231286615355425
-0.06741887043532946   0.005675739967002965   0.0022231286615355425
-0.07936743789426133   -0.015830057399100667   -0.010338652455188436
-0.07936743789426133   -0.015830057399100667   -0.010338652455188436
-0.07936743789426133   -0.015830057399100667   -0.010338652455188436
-0.07936743789426133   -0.015830057399100667   -0.010338652455188436
0.04811602038537144   0.02292653244139279   0.011021206746768543
0.04811602038537144   0.02292653244139279   0.011021206746768543
0.04811602038537144   0.02292653244139279   0.011021206746768543
0.04811602038537144   0.02292653244139279   0.011021206746768543
-0.012657714621074068   0.007483403962988814   0.0019696326182314624
-0.012657714621074068   0.007483403962988814   0.0019696326182314624
-0.012657714621074068   0.007483403962988814   0.0019696326182314624
-0.012657714621074068   0.007483403962988814   0.0019696326182314624
0.04245194918539889   0.009772522621273285   -0.004145139432974953
0.04245194918539889   0.009772522621273285   -0.004145139432974953
0.04245194918539889   0.009772522621273285   -0.004145139432974953
0.04245194918539889   0.009772522621273285   -0.004145139432974953
-0.07401893732329183   -0.0029916182079849137   0.00356541120854331
-0.07401893732329183   -0.0029916182079849137   0.00356541120854331
-0.07401893732329183   -0.0029916182079849137   0.00356541120854331
-0.07401893732329183   -0.0029916182079849137   0.00356541120854331
-0.08561001248843998   -0.022799047569517616   -0.008128337876157393
-0.08561001248843998   -0.022799047569517616   -0.008128337876157393
-0.08561001248843998   -0.022799047569517616   -0.008128337876157393
-0.08561001248843998   -0.022799047569517616   -0.008128337876157393
0.03992675312293694   0.015074764402425658   0.012023606111610324
0.03992675312293694   0.015074764402425658   0.012023606111610324
0.03992675312293694   0.015074764402425658   0.012023606111610324
0.03992675312293694   0.015074764402425658   0.012023606111610324
-0.02039292436580748   -7.537561622065082e-05   -0.0016571923787622508
-0.02039292436580748   -7.537561622065082e-05   -0.0016571923787622508
-0.02039292436580748   -7.537561622065082e-05   -0.0016571923787622508
-0.02039292436580748   -7.537561622065082e-05   -0.0016571923787622508
0.034426343578807535   0.0022942964815357075   -0.0026979736881474568
0.034426343578807535   0.0022942964815357075   -0.0026979736881474568
0.034426343578807535   0.0022942964815357075   -0.0026979736881474568
0.034426343578807535   0.0022942964815357075   -0.0026979736881474568
-0.08051873691031677   -0.010427713614632135   0.004956706059575083
-0.08051873691031677   -0.010427713614632135   0.004956706059575083
-0.08051873691031677   -0.010427713614632135   0.004956706059575083
-0.08051873691031677   -0.010427713614632135   0.004956706059575083
-0.09180216758511683   -0.029662914779986577   -0.006132385394859592
-0.09180216758511683   -0.029662914779986577   -0.006132385394859592
-0.09180216758511683   -0.029662914779986577   -0.006132385394859592
-0.09180216758511683   -0.029662914779986577   -0.006132385394859592
0.03275556635977433   0.007416582081778468   0.013434339903556957
0.03275556635977433   0.007416582081778468   0.013434339903556957
0.03275556635977433   0.007416582081778468   0.013434339903556957
0.03275556635977433   0.007416582081778468   0.013434339903556957
-0.02704533487987536   -0.006785738000474727   -0.005066188097238239
-0.02704533487987536   -0.006785738000474727   -0.005066188097238239
-0.02704533487987536   -0.006785738000474727   -0.005066188097238239
-0.02704533487987536   -0.006785738000474727   -0.005066188097238239
-0.063833387033247   0.02491009703509685   0.0009161886038539808
-0.063833387033247   0.02491009703509685   0.0009161886038539808
-0.063833387033247   0.02491009703509685   0.0009161886038539808
-0.063833387033247   0.02491009703509685   0.0009161886038539808
-0.18454925668874878   -0.0024660023770180783   -0.005137716768039759
-0.18454925668874878   -0.0024660023770180783   -0.005137716768039759
-0.18454925668874878   -0.0024660023770180783   -0.005137716768039759
-0.18454925668874878   -0.0024660023770180783   -0.005137716768039759
-0.1901898711491412   -0.008008173640827163   -0.003101492121560974
-0.1901898711491412   -0.008008173640827163   -0.003101492121560974
-0.1901898711491412   -0.008008173640827163   -0.003101492121560974
-0.1901898711491412   -0.008008173640827163   -0.003101492121560974
-0.07040889743591926   0.015111680974502505   0.0035123114629174905
-0.07040889743591926   0.015111680974502505   0.0035123114629174905
-0.07040889743591926   0.015111680974502505   0.0035123114629174905
-0.07040889743591926   0.015111680974502505   0.0035123114629174905
-0.12693628150847044   0.007217447174007678   0.0020222008169051035
-0.12693628150847044   0.007217447174007678   0.0020222008169051035
-0.12693628150847044   0.007217447174007678   0.0020222008169051035
-0.12693628150847044   0.007217447174007678   0.0020222008169051035
-0.0700920029291293   0.017227826184802397   0.002980638786568705
-0.0700920029291293   0.017227826184802397   0.002980638786568705
-0.0700920029291293   0.017227826184802397   0.002980638786568705
-0.0700920029291293   0.017227826184802397   0.002980638786568705
-0.1907849097102217   -0.010402462905418866   -0.003682395662371581
-0.1907849097102217   -0.010402462905418866   -0.003682395662371581
-0.1907849097102217   -0.010402462905418866   -0.003682395662371581
-0.1907849097102217   -0.010402462905418866   -0.003682395662371581
-0.19640893306820714   -0.015616411702811441   -0.0011056385304967402
-0.19640893306820714   -0.015616411702811441   -0.0011056385304967402
-0.19640893306820714   -0.015616411702811441   -0.0011056385304967402
-0.19640893306820714   -0.015616411702811441   -0.0011056385304967402
-0.07699529724975725   0.007148106569075954   0.00499808417866242
-0.07699529724975725   0.007148106569075954   0.00499808417866242
-0.07699529724975725   0.007148106569075954   0.00499808417866242
-0.07699529724975725   0.007148106569075954   0.00499808417866242
-0.1334206114059082   -1.9029154573118462e-05   -0.0012226197260200473
-0.1334206114059082   -1.9029154573118462e-05   -0.0012226197260200473
-0.1334206114059082   -1.9029154573118462e-05   -0.0012226197260200473
-0.1334206114059082   -1.9029154573118462e-05   -0.0012226197260200473
-0.07656972441725872   0.009522807262936545   0.004751247647296734
-0.07656972441725872   0.009522807262936545   0.004751247647296734
-0.07656972441725872   0.009522807262936545   0.004751247647296734
-0.07656972441725872   0.009522807262936545   0.004751247647296734
-0.19722917438622767   -0.018385780882193982   -0.002437475941216854
-0.19722917438622767   -0.018385780882193982   -0.002437475941216854
-0.19722917438622767   -0.018385780882193982   -0.002437475941216854
-0.19722917438622767   -0.018385780882193982   -0.002437475941216854
-0.202502131550581   -0.02295269505101313   0.0008332526437924764
-0.202502131550581   -0.02295269505101313   0.0008332526437924764
-0.202502131550581   -0.02295269505101313   0.0008332526437924764
-0.202502131550581   -0.02295269505101313   0.0008332526437924764
-0.08347688461257638   -0.0005162537951618196   0.00634736848301721
-0.08347688461257638   -0.0005162537951618196   0.00634736848301721
-0.08347688461257638   -0.0005162537951618196   0.00634736848301721
-0.08347688461257638   -0.0005162537951618196   0.00634736848301721
-0.14024881117619   -0.007269203361285812   -0.00474869779535743
-0.14024881117619   -0.007269203361285812   -0.00474869779535743
-0.14024881117619   -0.007269203361285812   -0.00474869779535743
-0.14024881117619   -0.007269203361285812   -0.00474869779535743
-0.17527789902809376   0.031058776772836104   0.007694292385381107
-0.17527789902809376   0.031058776772836104   0.007694292385381107
-0.17527789902809376   0.031058776772836104   0.007694292385381107
-0.17527789902809376   0.031058776772836104   0.007694292385381107
-0.2993740791420948   -0.009227586384670375   -0.011620092573563726
-0.2993740791420948   -0.009227586384670375   -0.011620092573563726
-0.2993740791420948   -0.009227586384670375   -0.011620092573563726
-0.2993740791420948   -0.009227586384670375   -0.011620092573563726
-0.29992307471364604   -0.001154916663833716   0.0045498144810744035
-0.29992307471364604   -0.001154916663833716   0.0045498144810744035
-0.29992307471364604   -0.001154916663833716   0.0045498144810744035
-0.29992307471364604   -0.001154916663833716   0.0045498144810744035
-0.18712671514894982   0.007805101852702466   -0.003598987614136002
-0.18712671514894982   0.007805101852702466   -0.003598987614136002
-0.18712671514894982   0.007805101852702466   -0.003598987614136002
-0.18712671514894982   0.007805101852702466   -0.003598987614136002
-0.23916827991246697   0.007094012599276077   0.0026264033996306023
-0.23916827991246697   0.007094012599276077   0.0026264033996306023
-0.23916827991246697   0.007094012599276077   0.0026264033996306023
-0.23916827991246697   0.007094012599276077   0.0026264033996306023
-0.18129238505007336   0.023614009432715667   0.009763755300235391
-0.18129238505007336   0.023614009432715667   0.009763755300235391
-0.18129238505007336   0.023614009432715667   0.009763755300235391
-0.18129238505007336   0.023614009432715667   0.009763755300235391
-0.3062881442818883   -0.017494563713208136   -0.01093588631076593
-0.3062881442818883   -0.017494563713208136   -0.01093588631076593
-0.3062881442818883   -0.017494563713208136   -0.01093588631076593
-0.3062881442818883   -0.017494563713208136   -0.01093588631076593
-0.3075866453675818   -0.008663523448067416   0.005619728043413666
-0.3075866453675818   -0.008663523448067416   0.005619728043413666
-0.3075866453675818   -0.008663523448067416   0.005619728043413666
-0.3075866453675818   -0.008663523448067416   0.005619728043413666
-0.19337845255599953   0.00045913664847512664   -0.0020287843207483346
-0.19337845255599953   0.00045913664847512664   -0.0020287843207483346
-0.19337845255599953   0.00045913664847512664   -0.0020287843207483346
-0.19337845255599953   0.00045913664847512664   -0.0020287843207483346
-0.24464802473664773   0.00036738084243233965   -0.0007702029614360586
-0.24464802473664773   0.00036738084243233965   -0.0007702029614360586
-0.24464802473664773   0.00036738084243233965   -0.0007702029614360586
-0.24464802473664773   0.00036738084243233965   -0.0007702029614360586
-0.18739000391814004   0.016605315280453378   0.011767280236573953
-0.18739000391814004   0.016605315280453378   0.011767280236573953
-0.18739000391814004   0.016605315280453378   0.011767280236573953
-0.18739000391814004   0.016605315280453378   0.011767280236573953
-0.31390700684895095   -0.025141614923557716   -0.009503987887945745
-0.31390700684895095   -0.025141614923557716   -0.009503987887945745
-0.31390700684895095   -0.025141614923557716   -0.009503987887945745
-0.31390700684895095   -0.025141614923557716   -0.009503987887945745
-0.31419037378570636   -0.0165170281178232   0.007707765787634766
-0.31419037378570636   -0.0165170281178232   0.007707765787634766
-0.31419037378570636   -0.0165170281178232   0.007707765787634766
-0.31419037378570636   -0.0165170281178232   0.007707765787634766
-0.1997123664479653   -0.007428048930849668   -0.0007425679632954742
-0.1997123664479653   -0.007428048930849668   -0.0007425679632954742
-0.1997123664479653   -0.007428048930849668   -0.0007425679632954742
-0.1997123664479653   -0.007428048930849668   -0.0007425679632954742
-0.2528897063969184   -0.007014010974115574   -0.004492260775116186
-0.2528897063969184   -0.007014010974115574   -0.004492260775116186
-0.2528897063969184   -0.007014010974115574   -0.004492260775116186
-0.2528897063969184   -0.007014010974115574   -0.004492260775116186
-0.28635881620148923   0.030612488523767606   0.013616147221025932
-0.28635881620148923   0.030612488523767606   0.013616147221025932
-0.28635881620148923   0.030612488523767606   0.013616147221025932
-0.28635881620148923   0.030612488523767606   0.013616147221025932
-0.40445096204139663   -0.018769700231368508   -0.01741686340454913
-0.40445096204139663   -0.018769700231368508   -0.01741686340454913
-0.40445096204139663   -0.018769700231368508   -0.01741686340454913
-0.40445096204139663   -0.018769700231368508   -0.01741686340454913
-0.4073263250257603   0.004501010806464659   0.014303523495230449
-0.4073263250257603   0.004501010806464659   0.014303523495230449
-0.4073263250257603   0.004501010806464659   0.014303523495230449
-0.4073263250257603   0.004501010806464659   0.014303523495230449
-0.3028499224113332   -0.0006413306006021469   -0.010598010070597793
-0.3028499224113332   -0.0006413306006021469   -0.010598010070597793
-0.3028499224113332   -0.0006413306006021469   -0.010598010070597793
-0.3028499224113332   -0.0006413306006021469   -0.010598010070597793
-0.33513673480937317   0.0071815435443093045   0.008236775835438841
-0.33513673480937317   0.0071815435443093045   0.008236775835438841
-0.33513673480937317   0.0071815435443093045   0.008236775835438841
-0.33513673480937317   0.0071815435443093045   0.008236775835438841
-0.29178691227479453   0.02796944221659166   0.016106267794902908
-0.29178691227479453   0.02796944221659166   0.016106267794902908
-0.29178691227479453   0.02796944221659166   0.016106267794902908
-0.29178691227479453   0.02796944221659166   0.016106267794902908
-0.4189569449479331   -0.024677371796366143   -0.014671193512802473
-0.4189569449479331   -0.024677371796366143   -0.014671193512802473
-0.4189569449479331   -0.024677371796366143   -0.014671193512802473
-0.4189569449479331   -0.024677371796366143   -0.014671193512802473
-0.4192925660269107   0.0002651743691838293   0.018245899785814344
-0.4192925660269107   0.0002651743691838293   0.018245899785814344
-0.4192925660269107   0.0002651743691838293   0.018245899785814344
-0.4192925660269107   0.0002651743691838293   0.018245899785814344
-0.3097409186414318   -0.004739694444896608   -0.009075467329012404
-0.3097409186414318   -0.004739694444896608   -0.009075467329012404
-0.3097409186414318   -0.004739694444896608   -0.009075467329012404
-0.3097409186414318   -0.004739694444896608   -0.009075467329012404
-0.3505577138584377   0.0021905459070052924   0.003132682884026048
-0.3505577138584377   0.0021905459070052924   0.003132682884026048
-0.3505577138584377   0.0021905459070052924   0.003132682884026048
-0.3505577138584377   0.0021905459070052924   0.003132682884026048
-0.2982188309335711   0.024658163986474302   0.019137112778921255
-0.2982188309335711   0.024658163986474302   0.019137112778921255
-0.2982188309335711   0.024658163986474302   0.019137112778921255
-0.2982188309335711   0.024658163986474302   0.019137112778921255
-0.43134648061162406   -0.02966451093903473   -0.01209398782952614
-0.43134648061162406   -0.02966451093903473   -0.01209398782952614
-0.43134648061162406   -0.02966451093903473   -0.01209398782952614
-0.43134648061162406   -0.02966451093903473   -0.01209398782952614
-0.43581450132295907   -0.011849925454378574   0.01880074782163256
-0.43581450132295907   -0.011849925454378574   0.01880074782163256
-0.43581450132295907   -0.011849925454378574   0.01880074782163256
-0.43581450132295907   -0.011849925454378574   0.01880074782163256
-0.31686091566296476   -0.014246270875374334   -0.00791570084111188
-0.31686091566296476   -0.014246270875374334   -0.00791570084111188
-0.31686091566296476   -0.014246270875374334   -0.00791570084111188
-0.31686091566296476   -0.014246270875374334   -0.00791570084111188
-0.35539573156208093   -0.0031573814862512622   0.0001382054863125412
-0.35539573156208093   -0.0031573814862512622   0.0001382054863125412
-0.35539573156208093   -0.0031573814862512622   0.0001382054863125412
-0.35539573156208093   -0.0031573814862512622   0.0001382054863125412
0.03697616805458466   0.003025739810524102   -0.02009073567076302
0.03697616805458466   0.003025739810524102   -0.02009073567076302
0.03697616805458466   0.003025739810524102   -0.02009073567076302
0.03697616805458466   0.003025739810524102   -0.02009073567076302
-0.02929220044126905   0.014923773091291379   0.01018980774602032
-0.02929220044126905   0.014923773091291379   0.01018980774602032
-0.02929220044126905   0.014923773091291379   0.01018980774602032
-0.02929220044126905   0.014923773091291379   0.01018980774602032
-0.04567412543324599   -0.019518682451229827   -0.016225865395479523
-0.04567412543324599   -0.019518682451229827   -0.016225865395479523
-0.04567412543324599   -0.019518682451229827   -0.016225865395479523
-0.04567412543324599   -0.019518682451229827   -0.016225865395479523
0.03449512485769279   0.021798813224627372   0.012464161071985322
0.03449512485769279   0.021798813224627372   0.012464161071985322
0.03449512485769279   0.021798813224627372   0.012464161071985322
0.03449512485769279   0.021798813224627372   0.012464161071985322
-0.0018009643962619288   0.004792739128199171   0.0017120253233722854
-0.0018009643962619288   0.004792739128199171   0.0017120253233722854
-0.0018009643962619288   0.004792739128199171   0.0017120253233722854
-0.0018009643962619288   0.004792739128199171   0.0017120253233722854
0.02280262635424547   -0.006181718882299312   -0.018017799338324217
0.02280262635424547   -0.006181718882299312   -0.018017799338324217
0.02280262635424547   -0.006181718882299312   -0.018017799338324217
0.02280262635424547   -0.006181718882299312   -0.018017799338324217
-0.03466061979458972   0.007782856790906844   0.011540123555665176
-0.03466061979458972   0.007782856790906844   0.011540123555665176
-0.03466061979458972   0.007782856790906844   0.011540123555665176
-0.03466061979458972   0.007782856790906844   0.011540123555665176
-0.05110032659531114   -0.023004174954295974   -0.013797597703383617
-0.05110032659531114   -0.023004174954295974   -0.013797597703383617
-0.05110032659531114   -0.023004174954295974   -0.013797597703383617
-0.05110032659531114   -0.023004174954295974   -0.013797597703383617
0.023392466723654602   0.0170841592011073   0.01714858884476318
0.023392466723654602   0.0170841592011073   0.01714858884476318
0.023392466723654602   0.0170841592011073   0.01714858884476318
0.023392466723654602   0.0170841592011073   0.01714858884476318
-0.01046595240457803   -0.0004364293855299078   -0.0022889931376610675
-0.01046595240457803   -0.0004364293855299078   -0.0022889931376610675
-0.01046595240457803   -0.0004364293855299078   -0.0022889931376610675
-0.01046595240457803   -0.0004364293855299078   -0.0022889931376610675
0.011415142400853385   -0.010726946940012857   -0.014926926628122682
0.011415142400853385   -0.010726946940012857   -0.014926926628122682
0.011415142400853385   -0.010726946940012857   -0.014926926628122682
0.011415142400853385   -0.010726946940012857   -0.014926926628122682
-0.040070825014904755   0.003859108444427645   0.014486626799924263
-0.040070825014904755   0.003859108444427645   0.014486626799924263
-0.040070825014904755   0.003859108444427645   0.014486626799924263
-0.040070825014904755   0.003859108444427645   0.014486626799924263
-0.05606689138102449   -0.02826158027811582   -0.01146578411658168
-0.05606689138102449   -0.02826158027811582   -0.01146578411658168
-0.05606689138102449   -0.02826158027811582   -0.01146578411658168
-0.05606689138102449   -0.02826158027811582   -0.01146578411658168
0.007970223684526483   0.007268783744021525   0.019601016955116925
0.007970223684526483   0.007268783744021525   0.019601016955116925
0.007970223684526483   0.007268783744021525   0.019601016955116925
0.007970223684526483   0.007268783744021525   0.019601016955116925
-0.019988319603246485   -0.005658965416536884   -0.006944054719905999
-0.019988319603246485   -0.005658965416536884   -0.006944054719905999
-0.019988319603246485   -0.005658965416536884   -0.006944054719905999
-0.019988319603246485   -0.005658965416536884   -0.006944054719905999
-0.03381446720326345   0.010377036905480615   -0.007874789878140914
-0.03381446720326345   0.010377036905480615   -0.007874789878140914
-0.03381446720326345   0.010377036905480615   -0.007874789878140914
-0.03381446720326345   0.010377036905480615   -0.007874789878140914
-0.09540022470696494   0.004034309256071178   0.0026120738446829103
-0.09540022470696494   0.004034309256071178   0.0026120738446829103
-0.09540022470696494   0.004034309256071178   0.0026120738446829103
-0.09540022470696494   0.004034309256071178   0.0026120738446829103
-0.10390638253280132   -0.011379264418611815   -0.00848537463508171
-0.10390638253280132   -0.011379264418611815   -0.00848537463508171
-0.10390638253280132   -0.011379264418611815   -0.00848537463508171
-0.10390638253280132   -0.011379264418611815   -0.00848537463508171
-0.03485876928971462   0.010200411260728745   0.008131821610218689
-0.03485876928971462   0.010200411260728745   0.008131821610218689
-0.03485876928971462   0.010200411260728745   0.008131821610218689
-0.03485876928971462   0.010200411260728745   0.008131821610218689
-0.06687860218907067   0.0031001558322722514   0.0016889422027055695
-0.06687860218907067   0.0031001558322722514   0.0016889422027055695
-0.06687860218907067   0.0031001558322722514   0.0016889422027055695
-0.06687860218907067   0.0031001558322722514   0.0016889422027055695
-0.0394384649539206   0.0019151207784693265   -0.00648136622855245
-0.0394384649539206   0.0019151207784693265   -0.00648136622855245
-0.0394384649539206   0.0019151207784693265   -0.00648136622855245
-0.0394384649539206   0.0019151207784693265   -0.00648136622855245
-0.09989259582774608   -0.0036598828955039485   0.0038641773670866682
-0.09989259582774608   -0.0036598828955039485   0.0038641773670866682
-0.09989259582774608   -0.0036598828955039485   0.0038641773670866682
-0.09989259582774608   -0.0036598828955039485   0.0038641773670866682
-0.1081435764536305   -0.01820443888582532   -0.006302080753092448
-0.1081435764536305   -0.01820443888582532   -0.006302080753092448
-0.1081435764536305   -0.01820443888582532   -0.006302080753092448
-0.1081435764536305   -0.01820443888582532   -0.006302080753092448
-0.041375296741444606   0.002652299836283195   0.009171076775369474
-0.041375296741444606   0.002652299836283195   0.009171076775369474
-0.041375296741444606   0.002652299836283195   0.009171076775369474
-0.041375296741444606   0.002652299836283195   0.009171076775369474
-0.07222830514431153   -0.0037813562417011743   -0.001775936929608438
-0.07222830514431153   -0.0037813562417011743   -0.001775936929608438
-0.07222830514431153   -0.0037813562417011743   -0.001775936929608438
-0.07222830514431153   -0.0037813562417011743   -0.001775936929608438
-0.045798690412315775   -0.005444803229572056   -0.004848788513131169
-0.045798690412315775   -0.005444803229572056   -0.004848788513131169
-0.045798690412315775   -0.005444803229572056   -0.004848788513131169
-0.045798690412315775   -0.005444803229572056   -0.004848788513131169
-0.10432950469313224   -0.0107166577303446   0.00528049689391814
-0.10432950469313224   -0.0107166577303446   0.00528049689391814
-0.10432950469313224   -0.0107166577303446   0.00528049689391814
-0.10432950469313224   -0.0107166577303446   0.00528049689391814
-0.11240862804869023   -0.025177365280899526   -0.004371202501353128
-0.11240862804869023   -0.025177365280899526   -0.004371202501353128
-0.11240862804869023   -0.025177365280899526   -0.004371202501353128
-0.11240862804869023   -0.025177365280899526   -0.004371202501353128
-0.04683318837763365   -0.004934318180197288   0.011375468802453506
-0.04683318837763365   -0.004934318180197288   0.011375468802453506
-0.04683318837763365   -0.004934318180197288   0.011375468802453506
-0.04683318837763365   -0.004934318180197288   0.011375468802453506
-0.07753667550899551   -0.010525981043245952   -0.00528331540152447
-0.07753667550899551   -0.010525981043245952   -0.00528331540152447
-0.07753667550899551   -0.010525981043245952   -0.00528331540152447
-0.07753667550899551   -0.010525981043245952   -0.00528331540152447
-0.09357634951081167   0.016591061857068302   -0.0008253027755478308
-0.09357634951081167   0.016591061857068302   -0.0008253027755478308
-0.09357634951081167   0.016591061857068302   -0.0008253027755478308
-0.09357634951081167   0.016591061857068302   -0.0008253027755478308
-0.16069071393277487   -0.0056280226726354195   -0.004615347976348788
-0.16069071393277487   -0.0056280226726354195   -0.004615347976348788
-0.16069071393277487   -0.0056280226726354195   -0.004615347976348788
-0.16069071393277487   -0.0056280226726354195   -0.004615347976348788
-0.16242620411732242   -0.004206483135449787   -0.0010612024054408274
-0.16242620411732242   -0.004206483135449787   -0.0010612024054408274
-0.16242620411732242   -0.004206483135449787   -0.0010612024054408274
-0.16242620411732242   -0.004206483135449787   -0.0010612024054408274
-0.09941781261387098   0.0013137634407252817   0.0012644471002325464
-0.09941781261387098   0.0013137634407252817   0.0012644471002325464
-0.09941781261387098   0.0013137634407252817   0.0012644471002325464
-0.09941781261387098   0.0013137634407252817   0.0012644471002325464
-0.12874993515118008   0.0018789647820760987   0.0006423138780875023
-0.12874993515118008   0.0018789647820760987   0.0006423138780875023
-0.12874993515118008   0.0018789647820760987   0.0006423138780875023
-0.12874993515118008   0.0018789647820760987   0.0006423138780875023
-0.09785424955676357   0.009166127852541103   0.0012298979739541862
-0.09785424955676357   0.009166127852541103   0.0012298979739541862
-0.09785424955676357   0.009166127852541103   0.0012298979739541862
-0.09785424955676357   0.009166127852541103   0.0012298979739541862
-0.16453713701142086   -0.012606217384256498   -0.0032161326271264376
-0.16453713701142086   -0.012606217384256498   -0.0032161326271264376
-0.16453713701142086   -0.012606217384256498   -0.0032161326271264376
-0.16453713701142086   -0.012606217384256498   -0.0032161326271264376
-0.16640634183210462   -0.011540580296102984   0.000965694435115131
-0.16640634183210462   -0.011540580296102984   0.000965694435115131
-0.16640634183210462   -0.011540580296102984   0.000965694435115131
-0.16640634183210462   -0.011540580296102984   0.000965694435115131
-0.10390015072139853   -0.005903361621011929   0.0026139706432545314
-0.10390015072139853   -0.005903361621011929   0.0026139706432545314
-0.10390015072139853   -0.005903361621011929   0.0026139706432545314
-0.10390015072139853   -0.005903361621011929   0.0026139706432545314
-0.13305441512971317   -0.0047918014616637195   -0.002538001072950857
-0.13305441512971317   -0.0047918014616637195   -0.002538001072950857
-0.13305441512971317   -0.0047918014616637195   -0.002538001072950857
-0.13305441512971317   -0.0047918014616637195   -0.002538001072950857
-0.10229876243209064   0.0016927556588623785   0.003024794809919198
-0.10229876243209064   0.0016927556588623785   0.003024794809919198
-0.10229876243209064   0.0016927556588623785   0.003024794809919198
-0.10229876243209064   0.0016927556588623785   0.003024794809919198
-0.16866866799319666   -0.019797635447760052   -0.002088881218687959
-0.16866866799319666   -0.019797635447760052   -0.002088881218687959
-0.16866866799319666   -0.019797635447760052   -0.002088881218687959
-0.16866866799319666   -0.019797635447760052   -0.002088881218687959
-0.1702794016248554   -0.01856281660075184   0.0029170714673461134
-0.1702794016248554   -0.01856281660075184   0.0029170714673461134
-0.1702794016248554   -0.01856281660075184   0.0029170714673461134
-0.1702794016248554   -0.01856281660075184   0.0029170714673461134
-0.10821653019317279   -0.01269541820386973   0.004107339699204994
-0.10821653019317279   -0.01269541820386973   0.004107339699204994
-0.10821653019317279   -0.01269541820386973   0.004107339699204994
-0.10821653019317279   -0.01269541820386973   0.004107339699204994
-0.13768611929425795   -0.011497112986186293   -0.005995092379976835
-0.13768611929425795   -0.011497112986186293   -0.005995092379976835
-0.13768611929425795   -0.011497112986186293   -0.005995092379976835
-0.13768611929425795   -0.011497112986186293   -0.005995092379976835
-0.15259210450231614   0.02375230196554922   0.006497374537760177
-0.15259210450231614   0.02375230196554922   0.006497374537760177
-0.15259210450231614   0.02375230196554922   0.006497374537760177
-0.15259210450231614   0.02375230196554922   0.006497374537760177
-0.22362827979895783   -0.009478553522189175   -0.010305030562932653
-0.22362827979895783   -0.009478553522189175   -0.010305030562932653
-0.22362827979895783   -0.009478553522189175   -0.010305030562932653
-0.22362827979895783   -0.009478553522189175   -0.010305030562932653
-0.22073974952954825   0.003117448567277012   0.006575780339335149
-0.22073974952954825   0.003117448567277012   0.006575780339335149
-0.22073974952954825   0.003117448567277012   0.006575780339335149
-0.22073974952954825   0.003117448567277012   0.006575780339335149
-0.16287663900375232   -0.0029941095975195148   -0.00452575037552108
-0.16287663900375232   -0.0029941095975195148   -0.00452575037552108
-0.16287663900375232   -0.0029941095975195148   -0.00452575037552108
-0.16287663900375232   -0.0029941095975195148   -0.00452575037552108
-0.18926587255733288   0.003612080118971135   0.0009902570724508123
-0.18926587255733288   0.003612080118971135   0.0009902570724508123
-0.18926587255733288   0.003612080118971135   0.0009902570724508123
-0.18926587255733288   0.003612080118971135   0.0009902570724508123
-0.15638481854736067   0.016384272631361413   0.008554969677556794
-0.15638481854736067   0.016384272631361413   0.008554969677556794
-0.15638481854736067   0.016384272631361413   0.008554969677556794
-0.15638481854736067   0.016384272631361413   0.008554969677556794
-0.22803194159959506   -0.017061305275257517   -0.009706426168368355
-0.22803194159959506   -0.017061305275257517   -0.009706426168368355
-0.22803194159959506   -0.017061305275257517   -0.009706426168368355
-0.22803194159959506   -0.017061305275257517   -0.009706426168368355
-0.2260604552450212   -0.004114368934718449   0.0077856904523054705
-0.2260604552450212   -0.004114368934718449   0.0077856904523054705
-0.2260604552450212   -0.004114368934718449   0.0077856904523054705
-0.2260604552450212   -0.004114368934718449   0.0077856904523054705
-0.1668210617261244   -0.009580676031558728   -0.003067809299527594
-0.1668210617261244   -0.009580676031558728   -0.003067809299527594
-0.1668210617261244   -0.009580676031558728   -0.003067809299527594
-0.1668210617261244   -0.009580676031558728   -0.003067809299527594
-0.19287132053027586   -0.002811133740850423   -0.002456144198684021
-0.19287132053027586   -0.002811133740850423   -0.002456144198684021
-0.19287132053027586   -0.002811133740850423   -0.002456144198684021
-0.19287132053027586   -0.002811133740850423   -0.002456144198684021
-0.16026093319537202   0.009599024041068327   0.01055313328160688
-0.16026093319537202   0.009599024041068327   0.01055313328160688
-0.16026093319537202   0.009599024041068327   0.01055313328160688
-0.16026093319537202   0.009599024041068327   0.01055313328160688
-0.2332526509629304   -0.023926136194505798   -0.008363520877456919
-0.2332526509629304   -0.023926136194505798   -0.008363520877456919
-0.2332526509629304   -0.023926136194505798   -0.008363520877456919
-0.2332526509629304   -0.023926136194505798   -0.008363520877456919
-0.23038158649554544   -0.011424474493976239   0.009944524268651793
-0.23038158649554544   -0.011424474493976239   0.009944524268651793
-0.23038158649554544   -0.011424474493976239   0.009944524268651793
-0.23038158649554544   -0.011424474493976239   0.009944524268651793
-0.1707845886381558   -0.01634928495148501   -0.0018223952484248268
-0.1707845886381558   -0.01634928495148501   -0.0018223952484248268
-0.1707845886381558   -0.01634928495148501   -0.0018223952484248268
-0.1707845886381558   -0.01634928495148501   -0.0018223952484248268
-0.19833031406056248   -0.009403161322915424   -0.006004069358036436
-0.19833031406056248   -0.009403161322915424   -0.006004069358036436
-0.19833031406056248   -0.009403161322915424   -0.006004069358036436
-0.19833031406056248   -0.009403161322915424   -0.006004069358036436
-0.2119394851494788   0.02579003805031653   0.012870351111956817
-0.2119394851494788   0.02579003805031653   0.012870351111956817
-0.2119394851494788   0.02579003805031653   0.012870351111956817
-0.2119394851494788   0.02579003805031653   0.012870351111956817
-0.2747812901128999   -0.013901528017664512   -0.01703732271758235
-0.2747812901128999   -0.013901528017664512   -0.01703732271758235
-0.2747812901128999   -0.013901528017664512   -0.01703732271758235
-0.2747812901128999   -0.013901528017664512   -0.01703732271758235
-0.27506047885506096   0.009874161229757365   0.0141900055249429
-0.27506047885506096   0.009874161229757365   0.0141900055249429
-0.27506047885506096   0.009874161229757365   0.0141900055249429
-0.27506047885506096   0.009874161229757365   0.0141900055249429
-0.22624129144164484   -0.007402132055699541   -0.010412348598172097
-0.22624129144164484   -0.007402132055699541   -0.010412348598172097
-0.22624129144164484   -0.007402132055699541   -0.010412348598172097
-0.22624129144164484   -0.007402132055699541   -0.010412348598172097
-0.23694550963621014   0.00596219255285034   0.004735181684288114
-0.23694550963621014   0.00596219255285034   0.004735181684288114
-0.23694550963621014   0.00596219255285034   0.004735181684288114
-0.23694550963621014   0.00596219255285034   0.004735181684288114
-0.21523463057206815   0.022037578766807474   0.015181244927201236
-0.21523463057206815   0.022037578766807474   0.015181244927201236
-0.21523463057206815   0.022037578766807474   0.015181244927201236
-0.21523463057206815   0.022037578766807474   0.015181244927201236
-0.286904411312869   -0.02040282118098033   -0.014752674353351855
-0.286904411312869   -0.02040282118098033   -0.014752674353351855
-0.286904411312869   -0.02040282118098033   -0.014752674353351855
-0.286904411312869   -0.02040282118098033   -0.014752674353351855
-0.2847313701692125   0.005728320703950698   0.018255059943004887
-0.2847313701692125   0.005728320703950698   0.018255059943004887
-0.2847313701692125   0.005728320703950698   0.018255059943004887
-0.2847313701692125   0.005728320703950698   0.018255059943004887
-0.2308528050428592   -0.011193408058027342   -0.009097019413575182
-0.2308528050428592   -0.011193408058027342   -0.009097019413575182
-0.2308528050428592   -0.011193408058027342   -0.009097019413575182
-0.2308528050428592   -0.011193408058027342   -0.009097019413575182
-0.2485233443554155   0.0009402479390750451   -9.186304112253352e-05
-0.2485233443554155   0.0009402479390750451   -9.186304112253352e-05
-0.2485233443554155   0.0009402479390750451   -9.186304112253352e-05
-0.2485233443554155   0.0009402479390750451   -9.186304112253352e-05
-0.2194026552717789   0.018779263309665305   0.018181058074133227
-0.2194026552717789   0.018779263309665305   0.018181058074133227
-0.2194026552717789   0.018779263309665305   0.018181058074133227
-0.2194026552717789   0.018779263309665305   0.018181058074133227
-0.2970270681296932   -0.02508989885313863   -0.012405210302305302
-0.2970270681296932   -0.02508989885313863   -0.012405210302305302
-0.2970270681296932   -0.02508989885313863   -0.012405210302305302
-0.2970270681296932   -0.02508989885313863   -0.012405210302305302
-0.2989470943092957   -0.005225633450696751   0.01927366492860702
-0.2989470943092957   -0.005225633450696751   0.01927366492860702
-0.2989470943092957   -0.005225633450696751   0.01927366492860702
-0.2989470943092957   -0.005225633450696751   0.01927366492860702
-0.23548800358218816   -0.019155559580110504   -0.007856476078429405
-0.23548800358218816   -0.019155559580110504   -0.007856476078429405
-0.23548800358218816   -0.019155559580110504   -0.007856476078429405
-0.23548800358218816   -0.019155559580110504   -0.007856476078429405
-0.2528663597360838   -0.004067932903640992   -0.003484089026720691
-0.2528663597360838   -0.004067932903640992   -0.003484089026720691
-0.2528663597360838   -0.004067932903640992   -0.003484089026720691
-0.2528663597360838   -0.004067932903640992   -0.003484089026720691
-0.10658993232646034   -0.006871101496776305   -0.02148683330912604
-0.10658993232646034   -0.006871101496776305   -0.02148683330912604
-0.10658993232646034   -0.006871101496776305   -0.02148683330912604
-0.10658993232646034   -0.006871101496776305   -0.02148683330912604
-0.10914374777057252   0.016214419003077515   0.009606897349927656
-0.10914374777057252   0.016214419003077515   0.009606897349927656
-0.10914374777057252   0.016214419003077515   0.009606897349927656
-0.10914374777057252   0.016214419003077515   0.009606897349927656
-0.12342063200194334   -0.015209684373511959   -0.014662570059075203
-0.12342063200194334   -0.015209684373511959   -0.014662570059075203
-0.12342063200194334   -0.015209684373511959   -0.014662570059075203
-0.12342063200194334   -0.015209684373511959   -0.014662570059075203
-0.10905550663267313   0.00912145565963712   0.014274818848088969
-0.10905550663267313   0.00912145565963712   0.014274818848088969
-0.10905550663267313   0.00912145565963712   0.014274818848088969
-0.10905550663267313   0.00912145565963712   0.014274818848088969
-0.10640977427521592   0.0028860430359737566   0.009805021696689085
-0.10640977427521592   0.0028860430359737566   0.009805021696689085
-0.10640977427521592   0.0028860430359737566   0.009805021696689085
-0.10640977427521592   0.0028860430359737566   0.009805021696689085
-0.12041078512176977   -0.01529268714434458   -0.018087430793412053
-0.12041078512176977   -0.01529268714434458   -0.018087430793412053
-0.12041078512176977   -0.01529268714434458   -0.018087430793412053
-0.12041078512176977   -0.01529268714434458   -0.018087430793412053
-0.11343644101404023   0.007833370929276325   0.0122153295776521
-0.11343644101404023   0.007833370929276325   0.0122153295776521
-0.11343644101404023   0.007833370929276325   0.0122153295776521
-0.11343644101404023   0.007833370929276325   0.0122153295776521
-0.12782076063454448   -0.019081145034986015   -0.012464704977504333
-0.12782076063454448   -0.019081145034986015   -0.012464704977504333
-0.12782076063454448   -0.019081145034986015   -0.012464704977504333
-0.12782076063454448   -0.019081145034986015   -0.012464704977504333
-0.12012455484709533   0.0038912241202986135   0.026714623258095222
-0.12012455484709533   0.0038912241202986135   0.026714623258095222
-0.12012455484709533   0.0038912241202986135   0.026714623258095222
-0.12012455484709533   0.0038912241202986135   0.026714623258095222
-0.11650598040688086   -0.0037487861280118932   0.003990857135410848
-0.11650598040688086   -0.0037487861280118932   0.003990857135410848
-0.11650598040688086   -0.0037487861280118932   0.003990857135410848
-0.11650598040688086   -0.0037487861280118932   0.003990857135410848
-0.13318159270396265   -0.020496865695464536   -0.014182476210478115
-0.13318159270396265   -0.020496865695464536   -0.014182476210478115
-0.13318159270396265   -0.020496865695464536   -0.014182476210478115
-0.13318159270396265   -0.020496865695464536   -0.014182476210478115
-0.1180658487506782   0.002004818807775987   0.015223890599064968
-0.1180658487506782   0.002004818807775987   0.015223890599064968
-0.1180658487506782   0.002004818807775987   0.015223890599064968
-0.1180658487506782   0.002004818807775987   0.015223890599064968
-0.1314446404516632   -0.026506650072398316   -0.009861287990792568
-0.1314446404516632   -0.026506650072398316   -0.009861287990792568
-0.1314446404516632   -0.026506650072398316   -0.009861287990792568
-0.1314446404516632   -0.026506650072398316   -0.009861287990792568
-0.13728043620763095   -0.01339595318884983   0.024970849709878697
-0.13728043620763095   -0.01339595318884983   0.024970849709878697
-0.13728043620763095   -0.01339595318884983   0.024970849709878697
-0.13728043620763095   -0.01339595318884983   0.024970849709878697
-0.12548086126043786   -0.011570723545411127   -0.00531233327018225
-0.12548086126043786   -0.011570723545411127   -0.00531233327018225
-0.12548086126043786   -0.011570723545411127   -0.00531233327018225
-0.12548086126043786   -0.011570723545411127   -0.00531233327018225
-0.117104614311153   -0.003021322253068781   -0.010961694096828494
-0.117104614311153   -0.003021322253068781   -0.010961694096828494
-0.117104614311153   -0.003021322253068781   -0.010961694096828494
-0.117104614311153   -0.003021322253068781   -0.010961694096828494
-0.12141697190397986   -0.015028107839393245   -0.0006551815906786721
-0.12141697190397986   -0.015028107839393245   -0.0006551815906786721
-0.12141697190397986   -0.015028107839393245   -0.0006551815906786721
-0.12141697190397986   -0.015028107839393245   -0.0006551815906786721
-0.12249911635362284   -0.01008014139715543   -0.00563059461529396
-0.12249911635362284   -0.01008014139715543   -0.00563059461529396
-0.12249911635362284   -0.01008014139715543   -0.00563059461529396
-0.12249911635362284   -0.01008014139715543   -0.00563059461529396
-0.12144508871543355   -0.019915236133648425   -7.930186638973702e-05
-0.12144508871543355   -0.019915236133648425   -7.930186638973702e-05
-0.12144508871543355   -0.019915236133648425   -7.930186638973702e-05
-0.12144508871543355   -0.019915236133648425   -7.930186638973702e-05
-0.11960083309001059   -0.012538362264124536   -0.00025803670237931065
-0.11960083309001059   -0.012538362264124536   -0.00025803670237931065
-0.11960083309001059   -0.012538362264124536   -0.00025803670237931065
-0.11960083309001059   -0.012538362264124536   -0.00025803670237931065
-0.12147867986352072   -0.010652028270142642   -0.009510465470330891
-0.12147867986352072   -0.010652028270142642   -0.009510465470330891
-0.12147867986352072   -0.010652028270142642   -0.009510465470330891
-0.12147867986352072   -0.010652028270142642   -0.009510465470330891
-0.12324588053370898   -0.02012370458883464   0.0006791476759546145
-0.12324588053370898   -0.02012370458883464   0.0006791476759546145
-0.12324588053370898   -0.02012370458883464   0.0006791476759546145
-0.12324588053370898   -0.02012370458883464   0.0006791476759546145
-0.12472583693906227   -0.016589710847424846   -0.003688436445560739
-0.12472583693906227   -0.016589710847424846   -0.003688436445560739
-0.12472583693906227   -0.016589710847424846   -0.003688436445560739
-0.12472583693906227   -0.016589710847424846   -0.003688436445560739
-0.12611504998643022   -0.02594185864103175   0.0029245618691124842
-0.12611504998643022   -0.02594185864103175   0.0029245618691124842
-0.12611504998643022   -0.02594185864103175   0.0029245618691124842
-0.12611504998643022   -0.02594185864103175   0.0029245618691124842
-0.12256657197742979   -0.017827559328348286   -0.0033136634834195797
-0.12256657197742979   -0.017827559328348286   -0.0033136634834195797
-0.12256657197742979   -0.017827559328348286   -0.0033136634834195797
-0.12256657197742979   -0.017827559328348286   -0.0033136634834195797
-0.12645118016240742   -0.017613901444452712   -0.007084046207352332
-0.12645118016240742   -0.017613901444452712   -0.007084046207352332
-0.12645118016240742   -0.017613901444452712   -0.007084046207352332
-0.12645118016240742   -0.017613901444452712   -0.007084046207352332
-0.1253851265361477   -0.025913087817067075   0.002338492538653318
-0.1253851265361477   -0.025913087817067075   0.002338492538653318
-0.1253851265361477   -0.025913087817067075   0.002338492538653318
-0.1253851265361477   -0.025913087817067075   0.002338492538653318
-0.1267492445856122   -0.023546507385401545   -0.0017694210155892167
-0.1267492445856122   -0.023546507385401545   -0.0017694210155892167
-0.1267492445856122   -0.023546507385401545   -0.0017694210155892167
-0.1267492445856122   -0.023546507385401545   -0.0017694210155892167
-0.1297143294838405   -0.03350801159579682   0.005791628371717949
-0.1297143294838405   -0.03350801159579682   0.005791628371717949
-0.1297143294838405   -0.03350801159579682   0.005791628371717949
-0.1297143294838405   -0.03350801159579682   0.005791628371717949
-0.1265513600420335   -0.024134131678295874   -0.007163691157842597
-0.1265513600420335   -0.024134131678295874   -0.007163691157842597
-0.1265513600420335   -0.024134131678295874   -0.007163691157842597
-0.1265513600420335   -0.024134131678295874   -0.007163691157842597
-0.11800078039661457   0.0034271393760139414   -0.002029471269258393
-0.11800078039661457   0.0034271393760139414   -0.002029471269258393
-0.11800078039661457   0.0034271393760139414   -0.002029471269258393
-0.11800078039661457   0.0034271393760139414   -0.002029471269258393
-0.13580141688640585   -0.025810665274390493   -0.006569894012117138
-0.13580141688640585   -0.025810665274390493   -0.006569894012117138
-0.13580141688640585   -0.025810665274390493   -0.006569894012117138
-0.13580141688640585   -0.025810665274390493   -0.006569894012117138
-0.1304377575513865   -0.0048239014582636755   0.0015960675428032941
-0.1304377575513865   -0.0048239014582636755   0.0015960675428032941
-0.1304377575513865   -0.0048239014582636755   0.0015960675428032941
-0.1304377575513865   -0.0048239014582636755   0.0015960675428032941
-0.1256358001885724   -0.027417357922898743   -0.003976797264298257
-0.1256358001885724   -0.027417357922898743   -0.003976797264298257
-0.1256358001885724   -0.027417357922898743   -0.003976797264298257
-0.1256358001885724   -0.027417357922898743   -0.003976797264298257
-0.1273782915113745   -0.01409560691260493   -0.0027823705751554764
-0.1273782915113745   -0.01409560691260493   -0.0027823705751554764
-0.1273782915113745   -0.01409560691260493   -0.0027823705751554764
-0.1273782915113745   -0.01409560691260493   -0.0027823705751554764
-0.11997465748592825   -0.0030568194071061983   -3.1622266870219747e-05
-0.11997465748592825   -0.0030568194071061983   -3.1622266870219747e-05
-0.11997465748592825   -0.0030568194071061983   -3.1622266870219747e-05
-0.11997465748592825   -0.0030568194071061983   -3.1622266870219747e-05
-0.1368112148430863   -0.029896754563113054   -0.00519836581084827
-0.1368112148430863   -0.029896754563113054   -0.00519836581084827
-0.1368112148430863   -0.029896754563113054   -0.00519836581084827
-0.1368112148430863   -0.029896754563113054   -0.00519836581084827
-0.1320867226030056   -0.011358782687190282   0.0035234371939698566
-0.1320867226030056   -0.011358782687190282   0.0035234371939698566
-0.1320867226030056   -0.011358782687190282   0.0035234371939698566
-0.1320867226030056   -0.011358782687190282   0.0035234371939698566
-0.12772152653021754   -0.03255446220265204   -0.0027021330461106164
-0.12772152653021754   -0.03255446220265204   -0.0027021330461106164
-0.12772152653021754   -0.03255446220265204   -0.0027021330461106164
-0.12772152653021754   -0.03255446220265204   -0.0027021330461106164
-0.12911180386030055   -0.01905868371964298   -0.005403854666648761
-0.12911180386030055   -0.01905868371964298   -0.005403854666648761
-0.12911180386030055   -0.01905868371964298   -0.005403854666648761
-0.12911180386030055   -0.01905868371964298   -0.005403854666648761
-0.1222325628190641   -0.009712494589830444   0.0019007178968346332
-0.1222325628190641   -0.009712494589830444   0.0019007178968346332
-0.1222325628190641   -0.009712494589830444   0.0019007178968346332
-0.1222325628190641   -0.009712494589830444   0.0019007178968346332
-0.13837162075091436   -0.03499668473676841   -0.004263151495995694
-0.13837162075091436   -0.03499668473676841   -0.004263151495995694
-0.13837162075091436   -0.03499668473676841   -0.004263151495995694
-0.13837162075091436   -0.03499668473676841   -0.004263151495995694
-0.1334589507575945   -0.017482137909373086   0.005416161736109938
-0.1334589507575945   -0.017482137909373086   0.005416161736109938
-0.1334589507575945   -0.017482137909373086   0.005416161736109938
-0.1334589507575945   -0.017482137909373086   0.005416161736109938
-0.12932564469937688   -0.03744244619936235   -0.0007554827704515988
-0.12932564469937688   -0.03744244619936235   -0.0007554827704515988
-0.12932564469937688   -0.03744244619936235   -0.0007554827704515988
-0.12932564469937688   -0.03744244619936235   -0.0007554827704515988
-0.13115515185438464   -0.024241407525793693   -0.008281751012854754
-0.13115515185438464   -0.024241407525793693   -0.008281751012854754
-0.13115515185438464   -0.024241407525793693   -0.008281751012854754
-0.13115515185438464   -0.024241407525793693   -0.008281751012854754
-0.1253735311726375   0.01348764681010698   0.006271222472227185
-0.1253735311726375   0.01348764681010698   0.006271222472227185
-0.1253735311726375   0.01348764681010698   0.006271222472227185
-0.1253735311726375   0.01348764681010698   0.006271222472227185
-0.15018435279646072   -0.01952779421995026   -0.009244801040098337
-0.15018435279646072   -0.01952779421995026   -0.009244801040098337
-0.15018435279646072   -0.01952779421995026   -0.009244801040098337
-0.15018435279646072   -0.01952779421995026   -0.009244801040098337
-0.1423601599499468   0.003732496990215932   0.008590803509350615
-0.1423601599499468   0.003732496990215932   0.008590803509350615
-0.1423601599499468   0.003732496990215932   0.008590803509350615
-0.1423601599499468   0.003732496990215932   0.008590803509350615
-0.1351550306288872   -0.021279762997691135   -0.005534436305273595
-0.1351550306288872   -0.021279762997691135   -0.005534436305273595
-0.1351550306288872   -0.021279762997691135   -0.005534436305273595
-0.1351550306288872   -0.021279762997691135   -0.005534436305273595
-0.13822329994578017   -0.005760870121162026   -0.001659191909938647
-0.13822329994578017   -0.005760870121162026   -0.001659191909938647
-0.13822329994578017   -0.005760870121162026   -0.001659191909938647
-0.13822329994578017   -0.005760870121162026   -0.001659191909938647
-0.1267971823730091   0.006768283499182834   0.008206758477243776
-0.1267971823730091   0.006768283499182834   0.008206758477243776
-0.1267971823730091   0.006768283499182834   0.008206758477243776
-0.1267971823730091   0.006768283499182834   0.008206758477243776
-0.15166890638930128   -0.025266447690133673   -0.00895398400707219
-0.15166890638930128   -0.025266447690133673   -0.00895398400707219
-0.15166890638930128   -0.025266447690133673   -0.00895398400707219
-0.15166890638930128   -0.025266447690133673   -0.00895398400707219
-0.14510654116912106   -0.00267294486010098   0.009756326000757801
-0.14510654116912106   -0.00267294486010098   0.009756326000757801
-0.14510654116912106   -0.00267294486010098   0.009756326000757801
-0.14510654116912106   -0.00267294486010098   0.009756326000757801
-0.13661071579288536   -0.026063663628694403   -0.004391647813924391
-0.13661071579288536   -0.026063663628694403   -0.004391647813924391
-0.13661071579288536   -0.026063663628694403   -0.004391647813924391
-0.13661071579288536   -0.026063663628694403   -0.004391647813924391
-0.13966950335992173   -0.011155163585039946   -0.004738908015800029
-0.13966950335992173   -0.011155163585039946   -0.004738908015800029
-0.13966950335992173   -0.011155163585039946   -0.004738908015800029
-0.13966950335992173   -0.011155163585039946   -0.004738908015800029
-0.12835476010399186   0.0007425329609528526   0.010081934040895534
-0.12835476010399186   0.0007425329609528526   0.010081934040895534
-0.12835476010399186   0.0007425329609528526   0.010081934040895534
-0.12835476010399186   0.0007425329609528526   0.010081934040895534
-0.1541854471224019   -0.030302091714136517   -0.008009056911610787
-0.1541854471224019   -0.030302091714136517   -0.008009056911610787
-0.1541854471224019   -0.030302091714136517   -0.008009056911610787
-0.1541854471224019   -0.030302091714136517   -0.008009056911610787
-0.14696421918977653   -0.00883838903011212   0.011911714910052678
-0.14696421918977653   -0.00883838903011212   0.011911714910052678
-0.14696421918977653   -0.00883838903011212   0.011911714910052678
-0.14696421918977653   -0.00883838903011212   0.011911714910052678
-0.1378896852774745   -0.030876851098925275   -0.0033427976737391424
-0.1378896852774745   -0.030876851098925275   -0.0033427976737391424
-0.1378896852774745   -0.030876851098925275   -0.0033427976737391424
-0.1378896852774745   -0.030876851098925275   -0.0033427976737391424
-0.1421269133807471   -0.016271370995406424   -0.007734941977935162
-0.1421269133807471   -0.016271370995406424   -0.007734941977935162
-0.1421269133807471   -0.016271370995406424   -0.007734941977935162
-0.1421269133807471   -0.016271370995406424   -0.007734941977935162
-0.13803911231335414   0.01937091126404866   0.01258269589143568
-0.13803911231335414   0.01937091126404866   0.01258269589143568
-0.13803911231335414   0.01937091126404866   0.01258269589143568
-0.13803911231335414   0.01937091126404866   0.01258269589143568
-0.1499422547406775   -0.012019253006747832   -0.013319215453710348
-0.1499422547406775   -0.012019253006747832   -0.013319215453710348
-0.1499422547406775   -0.012019253006747832   -0.013319215453710348
-0.1499422547406775   -0.012019253006747832   -0.013319215453710348
-0.14686489039862047   0.013355073373228648   0.013997277503452133
-0.14686489039862047   0.013355073373228648   0.013997277503452133
-0.14686489039862047   0.013355073373228648   0.013997277503452133
-0.14686489039862047   0.013355073373228648   0.013997277503452133
-0.14941511439584879   -0.014805064344967322   -0.008146407384979359
-0.14941511439584879   -0.014805064344967322   -0.008146407384979359
-0.14941511439584879   -0.014805064344967322   -0.008146407384979359
-0.14941511439584879   -0.014805064344967322   -0.008146407384979359
-0.14101974521748728   0.0033217273837044814   0.0007376665512633246
-0.14101974521748728   0.0033217273837044814   0.0007376665512633246
-0.14101974521748728   0.0033217273837044814   0.0007376665512633246
-0.14101974521748728   0.0033217273837044814   0.0007376665512633246
-0.13890512806682562   0.01505605193494302   0.01454240798022566
-0.13890512806682562   0.01505605193494302   0.01454240798022566
-0.13890512806682562   0.01505605193494302   0.01454240798022566
-0.13890512806682562   0.01505605193494302   0.01454240798022566
-0.15816131311405346   -0.017292479293091665   -0.011837283407396423
-0.15816131311405346   -0.017292479293091665   -0.011837283407396423
-0.15816131311405346   -0.017292479293091665   -0.011837283407396423
-0.15816131311405346   -0.017292479293091665   -0.011837283407396423
-0.1533258678042661   0.009729273947207576   0.017989453374006273
-0.1533258678042661   0.009729273947207576   0.017989453374006273
-0.1533258678042661   0.009729273947207576   0.017989453374006273
-0.1533258678042661   0.009729273947207576   0.017989453374006273
-0.15153085880011868   -0.01763760171926896   -0.007400605295062786
-0.15153085880011868   -0.01763760171926896   -0.007400605295062786
-0.15153085880011868   -0.01763760171926896   -0.007400605295062786
-0.15153085880011868   -0.01763760171926896   -0.007400605295062786
-0.14800712664178864   -0.0010539849320532757   -0.002950537692288334
-0.14800712664178864   -0.0010539849320532757   -0.002950537692288334
-0.14800712664178864   -0.0010539849320532757   -0.002950537692288334
-0.14800712664178864   -0.0010539849320532757   -0.002950537692288334
-0.14061779894492185   0.012148679580505608   0.01737841268114718
-0.14061779894492185   0.012148679580505608   0.01737841268114718
-0.14061779894492185   0.012148679580505608   0.01737841268114718
-0.14061779894492185   0.012148679580505608   0.01737841268114718
-0.16524944579997555   -0.021067525493078068   -0.01083163716425148
-0.16524944579997555   -0.021067525493078068   -0.01083163716425148
-0.16524944579997555   -0.021067525493078068   -0.01083163716425148
-0.16524944579997555   -0.021067525493078068   -0.01083163716425148
-0.16452062490198907   0.00045002395248729815   0.019204062904360535
-0.16452062490198907   0.00045002395248729815   0.019204062904360535
-0.16452062490198907   0.00045002395248729815   0.019204062904360535
-0.16452062490198907   0.00045002395248729815   0.019204062904360535
-0.15347838198405808   -0.0230752187919652   -0.0064222692995078235
-0.15347838198405808   -0.0230752187919652   -0.0064222692995078235
-0.15347838198405808   -0.0230752187919652   -0.0064222692995078235
-0.15347838198405808   -0.0230752187919652   -0.0064222692995078235
-0.15130717486318282   -0.005112393549131452   -0.006241161712904422
-0.15130717486318282   -0.005112393549131452   -0.006241161712904422
-0.15130717486318282   -0.005112393549131452   -0.006241161712904422
-0.15130717486318282   -0.005112393549131452   -0.006241161712904422
-0.2831499964273624   -0.026022796090440004   -0.027572929460864332
-0.2831499964273624   -0.026022796090440004   -0.027572929460864332
-0.2831499964273624   -0.026022796090440004   -0.027572929460864332
-0.2831499964273624   -0.026022796090440004   -0.027572929460864332
-0.18147831182679183   0.014788765530063086   0.0064416596379657815
-0.18147831182679183   0.014788765530063086   0.0064416596379657815
-0.18147831182679183   0.014788765530063086   0.0064416596379657815
-0.18147831182679183   0.014788765530063086   0.0064416596379657815
-0.1907700361890902   -0.012571523800148289   -0.012475548894421016
-0.1907700361890902   -0.012571523800148289   -0.012475548894421016
-0.1907700361890902   -0.012571523800148289   -0.012475548894421016
-0.1907700361890902   -0.012571523800148289   -0.012475548894421016
-0.3019970298475048   -0.035021551394919595   0.030480182261790275
-0.3019970298475048   -0.035021551394919595   0.030480182261790275
-0.3019970298475048   -0.035021551394919595   0.030480182261790275
-0.3019970298475048   -0.035021551394919595   0.030480182261790275
-0.21980785736108283   -0.008704620368048893   0.029777020651093174
-0.21980785736108283   -0.008704620368048893   0.029777020651093174
-0.21980785736108283   -0.008704620368048893   0.029777020651093174
-0.21980785736108283   -0.008704620368048893   0.029777020651093174
-0.31286559485097515   -0.03856030381978147   -0.02032389033069671
-0.31286559485097515   -0.03856030381978147   -0.02032389033069671
-0.31286559485097515   -0.03856030381978147   -0.02032389033069671
-0.31286559485097515   -0.03856030381978147   -0.02032389033069671
-0.18757232425609638   -0.016703624445763652   0.0076451114161614825
-0.18757232425609638   -0.016703624445763652   0.0076451114161614825
-0.18757232425609638   -0.016703624445763652   0.0076451114161614825
-0.18757232425609638   -0.016703624445763652   0.0076451114161614825
-0.1940384582174529   -0.018050865432467793   -0.009081921135379232
-0.1940384582174529   -0.018050865432467793   -0.009081921135379232
-0.1940384582174529   -0.018050865432467793   -0.009081921135379232
-0.1940384582174529   -0.018050865432467793   -0.009081921135379232
-0.3120992729990368   -0.048802534539630876   0.0004867160605469827
-0.3120992729990368   -0.048802534539630876   0.0004867160605469827
-0.3120992729990368   -0.048802534539630876   0.0004867160605469827
-0.3120992729990368   -0.048802534539630876   0.0004867160605469827
-0.244051378165711   -0.02943728675605525   0.006974247685709364
-0.244051378165711   -0.02943728675605525   0.006974247685709364
-0.244051378165711   -0.02943728675605525   0.006974247685709364
-0.244051378165711   -0.02943728675605525   0.006974247685709364
-0.3144625275515579   -0.043621427767125534   -0.016510663474561815
-0.3144625275515579   -0.043621427767125534   -0.016510663474561815
-0.3144625275515579   -0.043621427767125534   -0.016510663474561815
-0.3144625275515579   -0.043621427767125534   -0.016510663474561815
-0.19396516955674797   -0.025521938096789373   -0.0012444051675343315
-0.19396516955674797   -0.025521938096789373   -0.0012444051675343315
-0.19396516955674797   -0.025521938096789373   -0.0012444051675343315
-0.19396516955674797   -0.025521938096789373   -0.0012444051675343315
-0.19448396739195511   -0.0311697591102495   -0.0066946487127954755
-0.19448396739195511   -0.0311697591102495   -0.0066946487127954755
-0.19448396739195511   -0.0311697591102495   -0.0066946487127954755
-0.19448396739195511   -0.0311697591102495   -0.0066946487127954755
-0.3201685425460521   -0.07430553176604815   0.0044902108319369
-0.3201685425460521   -0.07430553176604815   0.0044902108319369
-0.3201685425460521   -0.07430553176604815   0.0044902108319369
-0.3201685425460521   -0.07430553176604815   0.0044902108319369
-0.24417361235316945   -0.04038471617225195   0.0006383763597095895
-0.24417361235316945   -0.04038471617225195   0.0006383763597095895
-0.24417361235316945   -0.04038471617225195   0.0006383763597095895
-0.24417361235316945   -0.04038471617225195   0.0006383763597095895
-0.19592180596628495   -0.033329539533004014   -0.017657505996431084
-0.19592180596628495   -0.033329539533004014   -0.017657505996431084
-0.19592180596628495   -0.033329539533004014   -0.017657505996431084
-0.19592180596628495   -0.033329539533004014   -0.017657505996431084
-0.1361030331173618   -0.0896620426331366   -0.016728660888361512
-0.1361030331173618   -0.0896620426331366   -0.016728660888361512
-0.1361030331173618   -0.0896620426331366   -0.016728660888361512
-0.1361030331173618   -0.0896620426331366   -0.016728660888361512
-0.11945023861931085   -0.01974130043158247   -0.0012044734521826678
-0.11945023861931085   -0.01974130043158247   -0.0012044734521826678
-0.11945023861931085   -0.01974130043158247   -0.0012044734521826678
-0.11945023861931085   -0.01974130043158247   -0.0012044734521826678
-0.20887315579971147   -0.09463967373753898   -0.020922997010138562
-0.20887315579971147   -0.09463967373753898   -0.020922997010138562
-0.20887315579971147   -0.09463967373753898   -0.020922997010138562
-0.20887315579971147   -0.09463967373753898   -0.020922997010138562
-0.16320839676778345   -0.06288448984675495   -0.004802263584704529
-0.16320839676778345   -0.06288448984675495   -0.004802263584704529
-0.16320839676778345   -0.06288448984675495   -0.004802263584704529
-0.16320839676778345   -0.06288448984675495   -0.004802263584704529
-0.19592136139538394   -0.03746280836797262   -0.013340890358066364
-0.19592136139538394   -0.03746280836797262   -0.013340890358066364
-0.19592136139538394   -0.03746280836797262   -0.013340890358066364
-0.19592136139538394   -0.03746280836797262   -0.013340890358066364
-0.1331882595301575   -0.07770439230766696   -0.011931486130332422
-0.1331882595301575   -0.07770439230766696   -0.011931486130332422
-0.1331882595301575   -0.07770439230766696   -0.011931486130332422
-0.1331882595301575   -0.07770439230766696   -0.011931486130332422
-0.12110190582802673   -0.02551833903771196   2.9015727315595953e-05
-0.12110190582802673   -0.02551833903771196   2.9015727315595953e-05
-0.12110190582802673   -0.02551833903771196   2.9015727315595953e-05
-0.12110190582802673   -0.02551833903771196   2.9015727315595953e-05
-0.20989832797243457   -0.09412730908733612   -0.012304826255420655
-0.20989832797243457   -0.09412730908733612   -0.012304826255420655
-0.20989832797243457   -0.09412730908733612   -0.012304826255420655
-0.20989832797243457   -0.09412730908733612   -0.012304826255420655
-0.1615950841026288   -0.05893801255112172   -0.005105513304282034
-0.1615950841026288   -0.05893801255112172   -0.005105513304282034
-0.1615950841026288   -0.05893801255112172   -0.005105513304282034
-0.1615950841026288   -0.05893801255112172   -0.005105513304282034
-0.19925424112373824   -0.0431641245518096   -0.010047576547464092
-0.19925424112373824   -0.0431641245518096   -0.010047576547464092
-0.19925424112373824   -0.0431641245518096   -0.010047576547464092
-0.19925424112373824   -0.0431641245518096   -0.010047576547464092
-0.1334019069806778   -0.07813743787719296   -0.008851891196461681
-0.1334019069806778   -0.07813743787719296   -0.008851891196461681
-0.1334019069806778   -0.07813743787719296   -0.008851891196461681
-0.1334019069806778   -0.07813743787719296   -0.008851891196461681
-0.12139022558877947   -0.032643227534187635   0.0017914447847028466
-0.12139022558877947   -0.032643227534187635   0.0017914447847028466
-0.12139022558877947   -0.032643227534187635   0.0017914447847028466
-0.12139022558877947   -0.032643227534187635   0.0017914447847028466
-0.20968216655757035   -0.09547665558565205   -0.01837874806547135
-0.20968216655757035   -0.09547665558565205   -0.01837874806547135
-0.20968216655757035   -0.09547665558565205   -0.01837874806547135
-0.20968216655757035   -0.09547665558565205   -0.01837874806547135
-0.1643562492107438   -0.06332933754891559   -0.00951665707258327
-0.1643562492107438   -0.06332933754891559   -0.00951665707258327
-0.1643562492107438   -0.06332933754891559   -0.00951665707258327
-0.1643562492107438   -0.06332933754891559   -0.00951665707258327
-0.11944503844137144   -0.02153796400938998   -0.0015627661321562592
-0.11944503844137144   -0.02153796400938998   -0.0015627661321562592
-0.11944503844137144   -0.02153796400938998   -0.0015627661321562592
-0.11944503844137144   -0.02153796400938998   -0.0015627661321562592
-0.10169395717770056   -0.06891461893126   -0.011892686288240887
-0.10169395717770056   -0.06891461893126   -0.011892686288240887
-0.10169395717770056   -0.06891461893126   -0.011892686288240887
-0.10169395717770056   -0.06891461893126   -0.011892686288240887
-0.08770902303657144   -0.01811927028864049   0.004586863754999683
-0.08770902303657144   -0.01811927028864049   0.004586863754999683
-0.08770902303657144   -0.01811927028864049   0.004586863754999683
-0.08770902303657144   -0.01811927028864049   0.004586863754999683
-0.13277568442274426   -0.07453518356510172   -0.013037819335831105
-0.13277568442274426   -0.07453518356510172   -0.013037819335831105
-0.13277568442274426   -0.07453518356510172   -0.013037819335831105
-0.13277568442274426   -0.07453518356510172   -0.013037819335831105
-0.1099398834710594   -0.04636362831314181   -0.0054594090663727685
-0.1099398834710594   -0.04636362831314181   -0.0054594090663727685
-0.1099398834710594   -0.04636362831314181   -0.0054594090663727685
-0.1099398834710594   -0.04636362831314181   -0.0054594090663727685
-0.12032947475058127   -0.025524270242054458   0.00018231570193616577
-0.12032947475058127   -0.025524270242054458   0.00018231570193616577
-0.12032947475058127   -0.025524270242054458   0.00018231570193616577
-0.12032947475058127   -0.025524270242054458   0.00018231570193616577
-0.10086329923295646   -0.06783825013590927   -0.011465537379656698
-0.10086329923295646   -0.06783825013590927   -0.011465537379656698
-0.10086329923295646   -0.06783825013590927   -0.011465537379656698
-0.10086329923295646   -0.06783825013590927   -0.011465537379656698
-0.08800947790234309   -0.022878499343615032   0.005965632621199956
-0.08800947790234309   -0.022878499343615032   0.005965632621199956
-0.08800947790234309   -0.022878499343615032   0.005965632621199956
-0.08800947790234309   -0.022878499343615032   0.005965632621199956
-0.1334640478073313   -0.07571188990223983   -0.011588143304681787
-0.1334640478073313   -0.07571188990223983   -0.011588143304681787
-0.1334640478073313   -0.07571188990223983   -0.011588143304681787
-0.1334640478073313   -0.07571188990223983   -0.011588143304681787
-0.10997375764385292   -0.04811696161916993   -0.007091370305737309
-0.10997375764385292   -0.04811696161916993   -0.007091370305737309
-0.10997375764385292   -0.04811696161916993   -0.007091370305737309
-0.10997375764385292   -0.04811696161916993   -0.007091370305737309
-0.12163548876163253   -0.03035689636283169   0.002199658384403398
-0.12163548876163253   -0.03035689636283169   0.002199658384403398
-0.12163548876163253   -0.03035689636283169   0.002199658384403398
-0.12163548876163253   -0.03035689636283169   0.002199658384403398
-0.10023153289179085   -0.06862698882677178   -0.009396152842881996
-0.10023153289179085   -0.06862698882677178   -0.009396152842881996
-0.10023153289179085   -0.06862698882677178   -0.009396152842881996
-0.10023153289179085   -0.06862698882677178   -0.009396152842881996
-0.08727820788098303   -0.0273863423713812   0.007477599551067976
-0.08727820788098303   -0.0273863423713812   0.007477599551067976
-0.08727820788098303   -0.0273863423713812   0.007477599551067976
-0.08727820788098303   -0.0273863423713812   0.007477599551067976
-0.13219870820200647   -0.07659202662527523   -0.008302169190343892
-0.13219870820200647   -0.07659202662527523   -0.008302169190343892
-0.13219870820200647   -0.07659202662527523   -0.008302169190343892
-0.13219870820200647   -0.07659202662527523   -0.008302169190343892
-0.10994545780179539   -0.050472589483942114   -0.00826512860902889
-0.10994545780179539   -0.050472589483942114   -0.00826512860902889
-0.10994545780179539   -0.050472589483942114   -0.00826512860902889
-0.10994545780179539   -0.050472589483942114   -0.00826512860902889
-0.0844498404354996   -0.0028743965345318957   0.00828767502603582
-0.0844498404354996   -0.0028743965345318957   0.00828767502603582
-0.0844498404354996   -0.0028743965345318957   0.00828767502603582
-0.0844498404354996   -0.0028743965345318957   0.00828767502603582
-0.08136361243261456   -0.03678728610878638   -0.0072582784195449526
-0.08136361243261456   -0.03678728610878638   -0.0072582784195449526
-0.08136361243261456   -0.03678728610878638   -0.0072582784195449526
-0.08136361243261456   -0.03678728610878638   -0.0072582784195449526
-0.070418712629552   -0.005315453093036126   0.009550795218666249
-0.070418712629552   -0.005315453093036126   0.009550795218666249
-0.070418712629552   -0.005315453093036126   0.009550795218666249
-0.070418712629552   -0.005315453093036126   0.009550795218666249
-0.09444341898773499   -0.04212060952121967   -0.005083776768239763
-0.09444341898773499   -0.04212060952121967   -0.005083776768239763
-0.09444341898773499   -0.04212060952121967   -0.005083776768239763
-0.09444341898773499   -0.04212060952121967   -0.005083776768239763
-0.08293264908027573   -0.021548364500577146   -0.002977811513667882
-0.08293264908027573   -0.021548364500577146   -0.002977811513667882
-0.08293264908027573   -0.021548364500577146   -0.002977811513667882
-0.08293264908027573   -0.021548364500577146   -0.002977811513667882
-0.08472466901662241   -0.008174108917469013   0.009563472483573303
-0.08472466901662241   -0.008174108917469013   0.009563472483573303
-0.08472466901662241   -0.008174108917469013   0.009563472483573303
-0.08472466901662241   -0.008174108917469013   0.009563472483573303
-0.080906905142207   -0.040031396238329235   -0.008174224199311738
-0.080906905142207   -0.040031396238329235   -0.008174224199311738
-0.080906905142207   -0.040031396238329235   -0.008174224199311738
-0.080906905142207   -0.040031396238329235   -0.008174224199311738
-0.07077705008324885   -0.009961526630780437   0.010285371466008922
-0.07077705008324885   -0.009961526630780437   0.010285371466008922
-0.07077705008324885   -0.009961526630780437   0.010285371466008922
-0.07077705008324885   -0.009961526630780437   0.010285371466008922
-0.09468910614079946   -0.04470663265054409   -0.005604375264152278
-0.09468910614079946   -0.04470663265054409   -0.005604375264152278
-0.09468910614079946   -0.04470663265054409   -0.005604375264152278
-0.09468910614079946   -0.04470663265054409   -0.005604375264152278
-0.08280746345894203   -0.025255046639242135   -0.005079107391908127
-0.08280746345894203   -0.025255046639242135   -0.005079107391908127
-0.08280746345894203   -0.025255046639242135   -0.005079107391908127
-0.08280746345894203   -0.025255046639242135   -0.005079107391908127
-0.08498897209367609   -0.012685877384903088   0.010875539705825027
-0.08498897209367609   -0.012685877384903088   0.010875539705825027
-0.08498897209367609   -0.012685877384903088   0.010875539705825027
-0.08498897209367609   -0.012685877384903088   0.010875539705825027
-0.08094437855237109   -0.04244947631842106   -0.008063321191961662
-0.08094437855237109   -0.04244947631842106   -0.008063321191961662
-0.08094437855237109   -0.04244947631842106   -0.008063321191961662
-0.08094437855237109   -0.04244947631842106   -0.008063321191961662
-0.07045089699902284   -0.01433424960136159   0.011931421535619935
-0.07045089699902284   -0.01433424960136159   0.011931421535619935
-0.07045089699902284   -0.01433424960136159   0.011931421535619935
-0.07045089699902284   -0.01433424960136159   0.011931421535619935
-0.09350660883370332   -0.04727081443167025   -0.003779933152244213
-0.09350660883370332   -0.04727081443167025   -0.003779933152244213
-0.09350660883370332   -0.04727081443167025   -0.003779933152244213
-0.09350660883370332   -0.04727081443167025   -0.003779933152244213
-0.08285324138981424   -0.028490909874994197   -0.00657638558482981
-0.08285324138981424   -0.028490909874994197   -0.00657638558482981
-0.08285324138981424   -0.028490909874994197   -0.00657638558482981
-0.08285324138981424   -0.028490909874994197   -0.00657638558482981
-0.0680242579756879   0.009632025823543161   0.013019181932754918
-0.0680242579756879   0.009632025823543161   0.013019181932754918
-0.0680242579756879   0.009632025823543161   0.013019181932754918
-0.0680242579756879   0.009632025823543161   0.013019181932754918
-0.0472618993645678   -0.012326214453221192   -0.0045656751348172
-0.0472618993645678   -0.012326214453221192   -0.0045656751348172
-0.0472618993645678   -0.012326214453221192   -0.0045656751348172
-0.0472618993645678   -0.012326214453221192   -0.0045656751348172
-0.04182524767087971   0.010920622697231375   0.012892161101045012
-0.04182524767087971   0.010920622697231375   0.012892161101045012
-0.04182524767087971   0.010920622697231375   0.012892161101045012
-0.04182524767087971   0.010920622697231375   0.012892161101045012
-0.07541587197596966   -0.01836598458333303   -0.002384470023125325
-0.07541587197596966   -0.01836598458333303   -0.002384470023125325
-0.07541587197596966   -0.01836598458333303   -0.002384470023125325
-0.07541587197596966   -0.01836598458333303   -0.002384470023125325
-0.05724911298313359   -0.0012468094405292968   -0.0022333283051398467
-0.05724911298313359   -0.0012468094405292968   -0.0022333283051398467
-0.05724911298313359   -0.0012468094405292968   -0.0022333283051398467
-0.05724911298313359   -0.0012468094405292968   -0.0022333283051398467
-0.06720077705519474   0.00611007383303705   0.014214946164383253
-0.06720077705519474   0.00611007383303705   0.014214946164383253
-0.06720077705519474   0.00611007383303705   0.014214946164383253
-0.06720077705519474   0.00611007383303705   0.014214946164383253
-0.05013853539395325   -0.013653628521435153   -0.004100026295652346
-0.05013853539395325   -0.013653628521435153   -0.004100026295652346
-0.05013853539395325   -0.013653628521435153   -0.004100026295652346
-0.05013853539395325   -0.013653628521435153   -0.004100026295652346
-0.043879709004130685   0.00861276661831508   0.016200086596869417
-0.043879709004130685   0.00861276661831508   0.016200086596869417
-0.043879709004130685   0.00861276661831508   0.016200086596869417
-0.043879709004130685   0.00861276661831508   0.016200086596869417
-0.0753555471350219   -0.019592472561190535   -0.0029761678624470322
-0.0753555471350219   -0.019592472561190535   -0.0029761678624470322
-0.0753555471350219   -0.019592472561190535   -0.0029761678624470322
-0.0753555471350219   -0.019592472561190535   -0.0029761678624470322
-0.059245205944205084   -0.0037594002137079398   -0.0033118120961247847
-0.059245205944205084   -0.0037594002137079398   -0.0033118120961247847
-0.059245205944205084   -0.0037594002137079398   -0.0033118120961247847
-0.059245205944205084   -0.0037594002137079398   -0.0033118120961247847
-0.06675837062380943   0.004067054501242224   0.016350187631183392
-0.06675837062380943   0.004067054501242224   0.016350187631183392
-0.06675837062380943   0.004067054501242224   0.016350187631183392
-0.06675837062380943   0.004067054501242224   0.016350187631183392
-0.0530657980425994   -0.01563567297137434   -0.005481919005788557
-0.0530657980425994   -0.01563567297137434   -0.005481919005788557
-0.0530657980425994   -0.01563567297137434   -0.005481919005788557
-0.0530657980425994   -0.01563567297137434   -0.005481919005788557
-0.05010396094890525   0.0022565752665443277   0.016862279957886965
-0.05010396094890525   0.0022565752665443277   0.016862279957886965
-0.05010396094890525   0.0022565752665443277   0.016862279957886965
-0.05010396094890525   0.0022565752665443277   0.016862279957886965
-0.07462020912614312   -0.020783997215258747   -0.0024653914860836438
-0.07462020912614312   -0.020783997215258747   -0.0024653914860836438
-0.07462020912614312   -0.020783997215258747   -0.0024653914860836438
-0.07462020912614312   -0.020783997215258747   -0.0024653914860836438
-0.06031495208716761   -0.005629903355325615   -0.00495990450210335
-0.06031495208716761   -0.005629903355325615   -0.00495990450210335
-0.06031495208716761   -0.005629903355325615   -0.00495990450210335
-0.06031495208716761   -0.005629903355325615   -0.00495990450210335
-0.6791836071308689   -0.0975324896265886   -0.05745932084121601
-0.6791836071308689   -0.0975324896265886   -0.05745932084121601
-0.6791836071308689   -0.0975324896265886   -0.05745932084121601
-0.6791836071308689   -0.0975324896265886   -0.05745932084121601
-0.23747617036927188   -0.38749997743163145   -0.044704693757338806
-0.23747617036927188   -0.38749997743163145   -0.044704693757338806
-0.23747617036927188   -0.38749997743163145   -0.044704693757338806
-0.23747617036927188   -0.38749997743163145   -0.044704693757338806
-0.18159162453573496   -0.017025268736343736   5.619024289582695e-05
-0.18159162453573496   -0.017025268736343736   5.619024289582695e-05
-0.18159162453573496   -0.017025268736343736   5.619024289582695e-05
-0.18159162453573496   -0.017025268736343736   5.619024289582695e-05
-0.7289376289679969   -0.45252914308757164   -0.2362933544111137
-0.7289376289679969   -0.45252914308757164   -0.2362933544111137
-0.7289376289679969   -0.45252914308757164   -0.2362933544111137
-0.7289376289679969   -0.45252914308757164   -0.2362933544111137
-0.4453083174636258   -0.22470841872789177   -0.03279672901909173
-0.4453083174636258   -0.22470841872789177   -0.03279672901909173
-0.4453083174636258   -0.22470841872789177   -0.03279672901909173
-0.4453083174636258   -0.22470841872789177   -0.03279672901909173
-0.6313176728284806   -0.12260521650307812   -0.07811750029803113
-0.6313176728284806   -0.12260521650307812   -0.07811750029803113
-0.6313176728284806   -0.12260521650307812   -0.07811750029803113
-0.6313176728284806   -0.12260521650307812   -0.07811750029803113
-0.2570190827838589   -0.32475669742944546   -0.0693496723046208
-0.2570190827838589   -0.32475669742944546   -0.0693496723046208
-0.2570190827838589   -0.32475669742944546   -0.0693496723046208
-0.2570190827838589   -0.32475669742944546   -0.0693496723046208
-0.1857583423636104   -0.0222520469665549   0.006898223290500464
-0.1857583423636104   -0.0222520469665549   0.006898223290500464
-0.1857583423636104   -0.0222520469665549   0.006898223290500464
-0.1857583423636104   -0.0222520469665549   0.006898223290500464
-0.6824552189244011   -0.40528044742746977   -0.21754713327037417
-0.6824552189244011   -0.40528044742746977   -0.21754713327037417
-0.6824552189244011   -0.40528044742746977   -0.21754713327037417
-0.6824552189244011   -0.40528044742746977   -0.21754713327037417
-0.41970455615084695   -0.20315099319284874   0.016582004554977145
-0.41970455615084695   -0.20315099319284874   0.016582004554977145
-0.41970455615084695   -0.20315099319284874   0.016582004554977145
-0.41970455615084695   -0.20315099319284874   0.016582004554977145
-0.5929593912769171   -0.11678465824950184   -0.058563784210926645
-0.5929593912769171   -0.11678465824950184   -0.058563784210926645
-0.5929593912769171   -0.11678465824950184   -0.058563784210926645
-0.5929593912769171   -0.11678465824950184   -0.058563784210926645
-0.25054161623505905   -0.2860352823684881   -0.05323491066480768
-0.25054161623505905   -0.2860352823684881   -0.05323491066480768
-0.25054161623505905   -0.2860352823684881   -0.05323491066480768
-0.25054161623505905   -0.2860352823684881   -0.05323491066480768
-0.21464727998722818   -0.05641105140367291   -0.011558649915006986
-0.21464727998722818   -0.05641105140367291   -0.011558649915006986
-0.21464727998722818   -0.05641105140367291   -0.011558649915006986
-0.21464727998722818   -0.05641105140367291   -0.011558649915006986
-0.6222111346306372   -0.342712722893949   -0.19298477150491722
-0.6222111346306372   -0.342712722893949   -0.19298477150491722
-0.6222111346306372   -0.342712722893949   -0.19298477150491722
-0.6222111346306372   -0.342712722893949   -0.19298477150491722
-0.3890883583133885   -0.17651995921542968   0.07251404771481527
-0.3890883583133885   -0.17651995921542968   0.07251404771481527
-0.3890883583133885   -0.17651995921542968   0.07251404771481527
-0.3890883583133885   -0.17651995921542968   0.07251404771481527
-0.17318252207238632   -0.09656624515614828   -0.014170184548395354
-0.17318252207238632   -0.09656624515614828   -0.014170184548395354
-0.17318252207238632   -0.09656624515614828   -0.014170184548395354
-0.17318252207238632   -0.09656624515614828   -0.014170184548395354
-0.08166249951619697   -0.12696968111398543   -0.020252830998435778
-0.08166249951619697   -0.12696968111398543   -0.020252830998435778
-0.08166249951619697   -0.12696968111398543   -0.020252830998435778
-0.08166249951619697   -0.12696968111398543   -0.020252830998435778
-0.07104261106022233   -0.06254770726841115   0.0017062905960114182
-0.07104261106022233   -0.06254770726841115   0.0017062905960114182
-0.07104261106022233   -0.06254770726841115   0.0017062905960114182
-0.07104261106022233   -0.06254770726841115   0.0017062905960114182
-0.2144895576090136   -0.18237614011739875   0.0009173962575593914
-0.2144895576090136   -0.18237614011739875   0.0009173962575593914
-0.2144895576090136   -0.18237614011739875   0.0009173962575593914
-0.2144895576090136   -0.18237614011739875   0.0009173962575593914
-0.11448861496351581   -0.0880236575054936   0.03724593758032583
-0.11448861496351581   -0.0880236575054936   0.03724593758032583
-0.11448861496351581   -0.0880236575054936   0.03724593758032583
-0.11448861496351581   -0.0880236575054936   0.03724593758032583
-0.19804760482422684   -0.09011646677299662   -0.009132513162911172
-0.19804760482422684   -0.09011646677299662   -0.009132513162911172
-0.19804760482422684   -0.09011646677299662   -0.009132513162911172
-0.19804760482422684   -0.09011646677299662   -0.009132513162911172
-0.09371401344077628   -0.16103683020858087   -0.013161598366588558
-0.09371401344077628   -0.16103683020858087   -0.013161598366588558
-0.09371401344077628   -0.16103683020858087   -0.013161598366588558
-0.09371401344077628   -0.16103683020858087   -0.013161598366588558
-0.07719848178933426   -0.06475510939974874   0.0018563259994159188
-0.07719848178933426   -0.06475510939974874   0.0018563259994159188
-0.07719848178933426   -0.06475510939974874   0.0018563259994159188
-0.07719848178933426   -0.06475510939974874   0.0018563259994159188
-0.22566455091698795   -0.18063119999798555   -0.034253666444954624
-0.22566455091698795   -0.18063119999798555   -0.034253666444954624
-0.22566455091698795   -0.18063119999798555   -0.034253666444954624
-0.22566455091698795   -0.18063119999798555   -0.034253666444954624
-0.13741839701850178   -0.11237743402761255   0.016576216592523143
-0.13741839701850178   -0.11237743402761255   0.016576216592523143
-0.13741839701850178   -0.11237743402761255   0.016576216592523143
-0.13741839701850178   -0.11237743402761255   0.016576216592523143
-0.20493999233116425   -0.09410590950896847   -0.017156164004853317
-0.20493999233116425   -0.09410590950896847   -0.017156164004853317
-0.20493999233116425   -0.09410590950896847   -0.017156164004853317
-0.20493999233116425   -0.09410590950896847   -0.017156164004853317
-0.0973660383038233   -0.15072339781743108   -0.01301316815534688
-0.0973660383038233   -0.15072339781743108   -0.01301316815534688
-0.0973660383038233   -0.15072339781743108   -0.01301316815534688
-0.0973660383038233   -0.15072339781743108   -0.01301316815534688
-0.08683963626118368   -0.06668207271740134   0.0027516359793955288
-0.08683963626118368   -0.06668207271740134   0.0027516359793955288
-0.08683963626118368   -0.06668207271740134   0.0027516359793955288
-0.08683963626118368   -0.06668207271740134   0.0027516359793955288
-0.24214893281437655   -0.1759405399562075   -0.029537425498215062
-0.24214893281437655   -0.1759405399562075   -0.029537425498215062
-0.24214893281437655   -0.1759405399562075   -0.029537425498215062
-0.24214893281437655   -0.1759405399562075   -0.029537425498215062
-0.1444131563529381   -0.10601740560025798   0.017451874139509133
-0.1444131563529381   -0.10601740560025798   0.017451874139509133
-0.1444131563529381   -0.10601740560025798   0.017451874139509133
-0.1444131563529381   -0.10601740560025798   0.017451874139509133
-0.06295692343088465   -0.05793966771785066   0.004245036031991108
-0.06295692343088465   -0.05793966771785066   0.004245036031991108
-0.06295692343088465   -0.05793966771785066   0.004245036031991108
-0.06295692343088465   -0.05793966771785066   0.004245036031991108
-0.03977319790425818   -0.04197232547247691   -0.0100067381923775
-0.03977319790425818   -0.04197232547247691   -0.0100067381923775
-0.03977319790425818   -0.04197232547247691   -0.0100067381923775
-0.03977319790425818   -0.04197232547247691   -0.0100067381923775
-0.038116612516415176   -0.05216110836522504   0.004173484757223194
-0.038116612516415176   -0.05216110836522504   0.004173484757223194
-0.038116612516415176   -0.05216110836522504   0.004173484757223194
-0.038116612516415176   -0.05216110836522504   0.004173484757223194
-0.07088800015673472   -0.05613697270934687   -0.003931389445615558
-0.07088800015673472   -0.05613697270934687   -0.003931389445615558
-0.07088800015673472   -0.05613697270934687   -0.003931389445615558
-0.07088800015673472   -0.05613697270934687   -0.003931389445615558
-0.044546598975402724   -0.04377972980688178   0.018781877186073884
-0.044546598975402724   -0.04377972980688178   0.018781877186073884
-0.044546598975402724   -0.04377972980688178   0.018781877186073884
-0.044546598975402724   -0.04377972980688178   0.018781877186073884
-0.06961743041086776   -0.05836589298390486   0.004650379558277941
-0.06961743041086776   -0.05836589298390486   0.004650379558277941
-0.06961743041086776   -0.05836589298390486   0.004650379558277941
-0.06961743041086776   -0.05836589298390486   0.004650379558277941
-0.04009580909664671   -0.05064081492503132   -0.007242791584126282
-0.04009580909664671   -0.05064081492503132   -0.007242791584126282
-0.04009580909664671   -0.05064081492503132   -0.007242791584126282
-0.04009580909664671   -0.05064081492503132   -0.007242791584126282
-0.038851470223946194   -0.05371963545287604   0.0037605513587520567
-0.038851470223946194   -0.05371963545287604   0.0037605513587520567
-0.038851470223946194   -0.05371963545287604   0.0037605513587520567
-0.038851470223946194   -0.05371963545287604   0.0037605513587520567
-0.07574316399578088   -0.0652184433305769   0.009596248898011344
-0.07574316399578088   -0.0652184433305769   0.009596248898011344
-0.07574316399578088   -0.0652184433305769   0.009596248898011344
-0.07574316399578088   -0.0652184433305769   0.009596248898011344
-0.04895197870142817   -0.048885133771242435   0.01560419214614162
-0.04895197870142817   -0.048885133771242435   0.01560419214614162
-0.04895197870142817   -0.048885133771242435   0.01560419214614162
-0.04895197870142817   -0.048885133771242435   0.01560419214614162
-0.07547788176160991   -0.060546820570417936   0.00625103730870696
-0.07547788176160991   -0.060546820570417936   0.00625103730870696
-0.07547788176160991   -0.060546820570417936   0.00625103730870696
-0.07547788176160991   -0.060546820570417936   0.00625103730870696
-0.042499106425204033   -0.061773612180122034   -0.006423652920291175
-0.042499106425204033   -0.061773612180122034   -0.006423652920291175
-0.042499106425204033   -0.061773612180122034   -0.006423652920291175
-0.042499106425204033   -0.061773612180122034   -0.006423652920291175
-0.03983945490130743   -0.05539396877390919   0.005328866765787244
-0.03983945490130743   -0.05539396877390919   0.005328866765787244
-0.03983945490130743   -0.05539396877390919   0.005328866765787244
-0.03983945490130743   -0.05539396877390919   0.005328866765787244
-0.0893982219112778   -0.07954036639593687   0.0028170014074610956
-0.0893982219112778   -0.07954036639593687   0.0028170014074610956
-0.0893982219112778   -0.07954036639593687   0.0028170014074610956
-0.0893982219112778   -0.07954036639593687   0.0028170014074610956
-0.05520471466918248   -0.05548372663789295   0.0069456892385042785
-0.05520471466918248   -0.05548372663789295   0.0069456892385042785
-0.05520471466918248   -0.05548372663789295   0.0069456892385042785
-0.05520471466918248   -0.05548372663789295   0.0069456892385042785
-0.031762061024986805   -0.023166663330876185   0.01124328406237864
-0.031762061024986805   -0.023166663330876185   0.01124328406237864
-0.031762061024986805   -0.023166663330876185   0.01124328406237864
-0.031762061024986805   -0.023166663330876185   0.01124328406237864
-0.02326512606790557   -0.0021613252309627975   -0.0023103546181630005
-0.02326512606790557   -0.0021613252309627975   -0.0023103546181630005
-0.02326512606790557   -0.0021613252309627975   -0.0023103546181630005
-0.02326512606790557   -0.0021613252309627975   -0.0023103546181630005
-0.02200797120128377   -0.02523198250061099   0.0069239105483562685
-0.02200797120128377   -0.02523198250061099   0.0069239105483562685
-0.02200797120128377   -0.02523198250061099   0.0069239105483562685
-0.02200797120128377   -0.02523198250061099   0.0069239105483562685
-0.030072689302933952   -0.0067465301358145945   -0.0010214774047801914
-0.030072689302933952   -0.0067465301358145945   -0.0010214774047801914
-0.030072689302933952   -0.0067465301358145945   -0.0010214774047801914
-0.030072689302933952   -0.0067465301358145945   -0.0010214774047801914
-0.02470739900605816   -0.013554826541032756   0.005571652711199512
-0.02470739900605816   -0.013554826541032756   0.005571652711199512
-0.02470739900605816   -0.013554826541032756   0.005571652711199512
-0.02470739900605816   -0.013554826541032756   0.005571652711199512
-0.031671319181991106   -0.026418054661333124   0.010656897725451647
-0.031671319181991106   -0.026418054661333124   0.010656897725451647
-0.031671319181991106   -0.026418054661333124   0.010656897725451647
-0.031671319181991106   -0.026418054661333124   0.010656897725451647
-0.019902807753501665   -0.005053924406366813   -0.0027283303069735665
-0.019902807753501665   -0.005053924406366813   -0.0027283303069735665
-0.019902807753501665   -0.005053924406366813   -0.0027283303069735665
-0.019902807753501665   -0.005053924406366813   -0.0027283303069735665
-0.0204467095985346   -0.027450478601920535   0.00643399843670448
-0.0204467095985346   -0.027450478601920535   0.00643399843670448
-0.0204467095985346   -0.027450478601920535   0.00643399843670448
-0.0204467095985346   -0.027450478601920535   0.00643399843670448
-0.03065165375249933   -0.011445170172165356   0.002485168435276407
-0.03065165375249933   -0.011445170172165356   0.002485168435276407
-0.03065165375249933   -0.011445170172165356   0.002485168435276407
-0.03065165375249933   -0.011445170172165356   0.002485168435276407
-0.023016146896461396   -0.01561305059529974   0.006410018745971399
-0.023016146896461396   -0.01561305059529974   0.006410018745971399
-0.023016146896461396   -0.01561305059529974   0.006410018745971399
-0.023016146896461396   -0.01561305059529974   0.006410018745971399
-0.03214194402478029   -0.028632179828474137   0.012220726730179678
-0.03214194402478029   -0.028632179828474137   0.012220726730179678
-0.03214194402478029   -0.028632179828474137   0.012220726730179678
-0.03214194402478029   -0.028632179828474137   0.012220726730179678
-0.019203838905882873   -0.01051088852524069   -0.004291238176716726
-0.019203838905882873   -0.01051088852524069   -0.004291238176716726
-0.019203838905882873   -0.01051088852524069   -0.004291238176716726
-0.019203838905882873   -0.01051088852524069   -0.004291238176716726
-0.017591626975799177   -0.029908756825242907   0.007115373021988363
-0.017591626975799177   -0.029908756825242907   0.007115373021988363
-0.017591626975799177   -0.029908756825242907   0.007115373021988363
-0.017591626975799177   -0.029908756825242907   0.007115373021988363
-0.03367936056811348   -0.022466374191085655   0.003201743848934212
-0.03367936056811348   -0.022466374191085655   0.003201743848934212
-0.03367936056811348   -0.022466374191085655   0.003201743848934212
-0.03367936056811348   -0.022466374191085655   0.003201743848934212
-0.022577260035489367   -0.019563855457879423   0.005262279902316727
-0.022577260035489367   -0.019563855457879423   0.005262279902316727
-0.022577260035489367   -0.019563855457879423   0.005262279902316727
-0.022577260035489367   -0.019563855457879423   0.005262279902316727
-0.020853321849147267   -0.0038449130618667237   0.011432254306532438
-0.020853321849147267   -0.0038449130618667237   0.011432254306532438
-0.020853321849147267   -0.0038449130618667237   0.011432254306532438
-0.020853321849147267   -0.0038449130618667237   0.011432254306532438
-0.0043855641686766375   0.0020438319759571826   -0.00023151095569625877
-0.0043855641686766375   0.0020438319759571826   -0.00023151095569625877
-0.0043855641686766375   0.0020438319759571826   -0.00023151095569625877
-0.0043855641686766375   0.0020438319759571826   -0.00023151095569625877
0.0003541798938989369   -0.0013026286283647623   0.007162257881847413
0.0003541798938989369   -0.0013026286283647623   0.007162257881847413
0.0003541798938989369   -0.0013026286283647623   0.007162257881847413
0.0003541798938989369   -0.0013026286283647623   0.007162257881847413
-0.01821397198798228   0.0012748190585360128   -0.0006128949442785673
-0.01821397198798228   0.0012748190585360128   -0.0006128949442785673
-0.01821397198798228   0.0012748190585360128   -0.0006128949442785673
-0.01821397198798228   0.0012748190585360128   -0.0006128949442785673
-0.010914283926015724   -0.0009013913374594782   -0.0008065172395231861
-0.010914283926015724   -0.0009013913374594782   -0.0008065172395231861
-0.010914283926015724   -0.0009013913374594782   -0.0008065172395231861
-0.010914283926015724   -0.0009013913374594782   -0.0008065172395231861
-0.016716085375013772   -0.0037657181855812348   0.011917075364676502
-0.016716085375013772   -0.0037657181855812348   0.011917075364676502
-0.016716085375013772   -0.0037657181855812348   0.011917075364676502
-0.016716085375013772   -0.0037657181855812348   0.011917075364676502
-0.0005386670589047884   0.004342948275917332   -0.002947553786449472
-0.0005386670589047884   0.004342948275917332   -0.002947553786449472
-0.0005386670589047884   0.004342948275917332   -0.002947553786449472
-0.0005386670589047884   0.004342948275917332   -0.002947553786449472
0.002570799981500115   -0.0016431836131788088   0.008843929761089575
0.002570799981500115   -0.0016431836131788088   0.008843929761089575
0.002570799981500115   -0.0016431836131788088   0.008843929761089575
0.002570799981500115   -0.0016431836131788088   0.008843929761089575
-0.016292906074496346   0.0006234187873962807   -0.0008708813324199093
-0.016292906074496346   0.0006234187873962807   -0.0008708813324199093
-0.016292906074496346   0.0006234187873962807   -0.0008708813324199093
-0.016292906074496346   0.0006234187873962807   -0.0008708813324199093
-0.007591446728975896   -0.00038717470345481144   0.001049964914981829
-0.007591446728975896   -0.00038717470345481144   0.001049964914981829
-0.007591446728975896   -0.00038717470345481144   0.001049964914981829
-0.007591446728975896   -0.00038717470345481144   0.001049964914981829
-0.014523426122629406   -0.004259022786134143   0.012858960000444066
-0.014523426122629406   -0.004259022786134143   0.012858960000444066
-0.014523426122629406   -0.004259022786134143   0.012858960000444066
-0.014523426122629406   -0.004259022786134143   0.012858960000444066
0.0013136390360399396   0.0037515769667579146   -0.002836635546148023
0.0013136390360399396   0.0037515769667579146   -0.002836635546148023
0.0013136390360399396   0.0037515769667579146   -0.002836635546148023
0.0013136390360399396   0.0037515769667579146   -0.002836635546148023
0.004672556071113725   -0.0027018631211925635   0.008652513786990433
0.004672556071113725   -0.0027018631211925635   0.008652513786990433
0.004672556071113725   -0.0027018631211925635   0.008652513786990433
0.004672556071113725   -0.0027018631211925635   0.008652513786990433
-0.013193848775020181   0.00015214137177917055   -0.0009566341711402175
-0.013193848775020181   0.00015214137177917055   -0.0009566341711402175
-0.013193848775020181   0.00015214137177917055   -0.0009566341711402175
-0.013193848775020181   0.00015214137177917055   -0.0009566341711402175
-0.004688046527418233   -0.00017882723329968464   0.0025944886608562758
-0.004688046527418233   -0.00017882723329968464   0.0025944886608562758
-0.004688046527418233   -0.00017882723329968464   0.0025944886608562758
-0.004688046527418233   -0.00017882723329968464   0.0025944886608562758
              </DataArray>   
             <DataArray type="Float64" NumberOfComponents="3" Name="Displacements" format="ascii">   
0.0   0.0   0.0
-0.0019022974232712274   -0.0012563070229924197   -0.000637761146656542
0.0   0.0   0.0
0.0   0.0   0.0
-0.0019022974232712274   -0.0012563070229924197   -0.000637761146656542
-0.0012096945796597413   -0.0011304872240839512   -0.00046866224993274443
0.0   0.0   0.0
-0.0011852386401800272   -0.0011867366777908485   -0.0003928105159480292
0.0   0.0   0.0
0.0   0.0   0.0
-0.0011852386401800272   -0.0011867366777908485   -0.0003928105159480292
0.0   0.0   0.0
0.0   0.0   0.0
-0.0011852386401800272   -0.0011867366777908485   -0.0003928105159480292
-0.001990186290830232   -0.0013380241105900173   -0.0005122917070121467
-0.0019022974232712274   -0.0012563070229924197   -0.000637761146656542
0.0   0.0   0.0
-0.0011852386401800272   -0.0011867366777908485   -0.0003928105159480292
-0.0019022974232712274   -0.0012563070229924197   -0.000637761146656542
0.0   0.0   0.0
0.0   0.0   0.0
-0.001990186290830232   -0.0013380241105900173   -0.0005122917070121467
0.0   0.0   0.0
0.0   0.0   0.0
-0.001990186290830232   -0.0013380241105900173   -0.0005122917070121467
-0.0011852386401800272   -0.0011867366777908485   -0.0003928105159480292
0.0   0.0   0.0
-0.0011880058530794192   -0.0012156289544590106   -0.0003171336431130907
0.0   0.0   0.0
0.0   0.0   0.0
-0.0011880058530794192   -0.0012156289544590106   -0.0003171336431130907
0.0   0.0   0.0
0.0   0.0   0.0
-0.0011880058530794192   -0.0012156289544590106   -0.0003171336431130907
-0.0020516456405147536   -0.001377791600892372   -0.00039219698028863226
-0.001990186290830232   -0.0013380241105900173   -0.0005122917070121467
0.0   0.0   0.0
-0.0011880058530794192   -0.0012156289544590106   -0.0003171336431130907
-0.001990186290830232   -0.0013380241105900173   -0.0005122917070121467
0.0   0.0   0.0
0.0   0.0   0.0
-0.0020516456405147536   -0.001377791600892372   -0.00039219698028863226
0.0   0.0   0.0
0.0   0.0   0.0
-0.0020516456405147536   -0.001377791600892372   -0.00039219698028863226
-0.0011880058530794192   -0.0012156289544590106   -0.0003171336431130907
0.0   0.0   0.0
-0.0011867328085002308   -0.0012231438470450698   -0.00023896455260218283
0.0   0.0   0.0
0.0   0.0   0.0
-0.0011867328085002308   -0.0012231438470450698   -0.00023896455260218283
0.0   0.0   0.0
0.0   0.0   0.0
-0.0011867328085002308   -0.0012231438470450698   -0.00023896455260218283
-0.0021846170030031782   -0.0014081331631704056   -0.00025295101868021526
-0.0020516456405147536   -0.001377791600892372   -0.00039219698028863226
0.0   0.0   0.0
-0.0011867328085002308   -0.0012231438470450698   -0.00023896455260218283
-0.0020516456405147536   -0.001377791600892372   -0.00039219698028863226
0.0   0.0   0.0
0.0   0.0   0.0
-0.0012096945796597413   -0.0011304872240839512   -0.00046866224993274443
0.0   0.0   0.0
0.0   0.0   0.0
-0.0012096945796597413   -0.0011304872240839512   -0.00046866224993274443
-0.0005515668263308857   -0.00108446168176862   -0.000356720957881482
0.0   0.0   0.0
-0.0005299283929432322   -0.0011210053147438894   -0.00032084280729411784
0.0   0.0   0.0
0.0   0.0   0.0
-0.0005299283929432322   -0.0011210053147438894   -0.00032084280729411784
0.0   0.0   0.0
0.0   0.0   0.0
-0.0005299283929432322   -0.0011210053147438894   -0.00032084280729411784
-0.0011852386401800272   -0.0011867366777908485   -0.0003928105159480292
-0.0012096945796597413   -0.0011304872240839512   -0.00046866224993274443
0.0   0.0   0.0
-0.0005299283929432322   -0.0011210053147438894   -0.00032084280729411784
-0.0012096945796597413   -0.0011304872240839512   -0.00046866224993274443
0.0   0.0   0.0
0.0   0.0   0.0
-0.0011852386401800272   -0.0011867366777908485   -0.0003928105159480292
0.0   0.0   0.0
0.0   0.0   0.0
-0.0011852386401800272   -0.0011867366777908485   -0.0003928105159480292
-0.0005299283929432322   -0.0011210053147438894   -0.00032084280729411784
0.0   0.0   0.0
-0.0005175403858094423   -0.0011349579683848495   -0.0002859662159387963
0.0   0.0   0.0
0.0   0.0   0.0
-0.0005175403858094423   -0.0011349579683848495   -0.0002859662159387963
0.0   0.0   0.0
0.0   0.0   0.0
-0.0005175403858094423   -0.0011349579683848495   -0.0002859662159387963
-0.0011880058530794192   -0.0012156289544590106   -0.0003171336431130907
-0.0011852386401800272   -0.0011867366777908485   -0.0003928105159480292
0.0   0.0   0.0
-0.0005175403858094423   -0.0011349579683848495   -0.0002859662159387963
-0.0011852386401800272   -0.0011867366777908485   -0.0003928105159480292
0.0   0.0   0.0
0.0   0.0   0.0
-0.0011880058530794192   -0.0012156289544590106   -0.0003171336431130907
0.0   0.0   0.0
0.0   0.0   0.0
-0.0011880058530794192   -0.0012156289544590106   -0.0003171336431130907
-0.0005175403858094423   -0.0011349579683848495   -0.0002859662159387963
0.0   0.0   0.0
-0.0005061650871284771   -0.0011291918533922341   -0.0002499775478899509
0.0   0.0   0.0
0.0   0.0   0.0
-0.0005061650871284771   -0.0011291918533922341   -0.0002499775478899509
0.0   0.0   0.0
0.0   0.0   0.0
-0.0005061650871284771   -0.0011291918533922341   -0.0002499775478899509
-0.0011867328085002308   -0.0012231438470450698   -0.00023896455260218283
-0.0011880058530794192   -0.0012156289544590106   -0.0003171336431130907
0.0   0.0   0.0
-0.0005061650871284771   -0.0011291918533922341   -0.0002499775478899509
-0.0011880058530794192   -0.0012156289544590106   -0.0003171336431130907
0.0   0.0   0.0
0.0   0.0   0.0
-0.0005515668263308857   -0.00108446168176862   -0.000356720957881482
0.0   0.0   0.0
0.0   0.0   0.0
-0.0005515668263308857   -0.00108446168176862   -0.000356720957881482
6.97485373895349e-05   -0.0010904487079500238   -0.00028555879801296717
0.0   0.0   0.0
8.382702981739777e-05   -0.001109312366659734   -0.000290357254827551
0.0   0.0   0.0
0.0   0.0   0.0
8.382702981739777e-05   -0.001109312366659734   -0.000290357254827551
0.0   0.0   0.0
0.0   0.0   0.0
8.382702981739777e-05   -0.001109312366659734   -0.000290357254827551
-0.0005299283929432322   -0.0011210053147438894   -0.00032084280729411784
-0.0005515668263308857   -0.00108446168176862   -0.000356720957881482
0.0   0.0   0.0
8.382702981739777e-05   -0.001109312366659734   -0.000290357254827551
-0.0005515668263308857   -0.00108446168176862   -0.000356720957881482
0.0   0.0   0.0
0.0   0.0   0.0
-0.0005299283929432322   -0.0011210053147438894   -0.00032084280729411784
0.0   0.0   0.0
0.0   0.0   0.0
-0.0005299283929432322   -0.0011210053147438894   -0.00032084280729411784
8.382702981739777e-05   -0.001109312366659734   -0.000290357254827551
0.0   0.0   0.0
9.501471758190494e-05   -0.001107681143449131   -0.0002947473903049771
0.0   0.0   0.0
0.0   0.0   0.0
9.501471758190494e-05   -0.001107681143449131   -0.0002947473903049771
0.0   0.0   0.0
0.0   0.0   0.0
9.501471758190494e-05   -0.001107681143449131   -0.0002947473903049771
-0.0005175403858094423   -0.0011349579683848495   -0.0002859662159387963
-0.0005299283929432322   -0.0011210053147438894   -0.00032084280729411784
0.0   0.0   0.0
9.501471758190494e-05   -0.001107681143449131   -0.0002947473903049771
-0.0005299283929432322   -0.0011210053147438894   -0.00032084280729411784
0.0   0.0   0.0
0.0   0.0   0.0
-0.0005175403858094423   -0.0011349579683848495   -0.0002859662159387963
0.0   0.0   0.0
0.0   0.0   0.0
-0.0005175403858094423   -0.0011349579683848495   -0.0002859662159387963
9.501471758190494e-05   -0.001107681143449131   -0.0002947473903049771
0.0   0.0   0.0
0.00010987680740291768   -0.0010838854530025154   -0.00029932683361057
0.0   0.0   0.0
0.0   0.0   0.0
0.00010987680740291768   -0.0010838854530025154   -0.00029932683361057
0.0   0.0   0.0
0.0   0.0   0.0
0.00010987680740291768   -0.0010838854530025154   -0.00029932683361057
-0.0005061650871284771   -0.0011291918533922341   -0.0002499775478899509
-0.0005175403858094423   -0.0011349579683848495   -0.0002859662159387963
0.0   0.0   0.0
0.00010987680740291768   -0.0010838854530025154   -0.00029932683361057
-0.0005175403858094423   -0.0011349579683848495   -0.0002859662159387963
0.0   0.0   0.0
0.0   0.0   0.0
6.97485373895349e-05   -0.0010904487079500238   -0.00028555879801296717
0.0   0.0   0.0
0.0   0.0   0.0
6.97485373895349e-05   -0.0010904487079500238   -0.00028555879801296717
0.0007446664740960374   -0.0011428555897184515   -0.0002505898161960544
0.0   0.0   0.0
0.0007467020103061721   -0.0011487229123625083   -0.00029819441021521976
0.0   0.0   0.0
0.0   0.0   0.0
0.0007467020103061721   -0.0011487229123625083   -0.00029819441021521976
0.0   0.0   0.0
0.0   0.0   0.0
0.0007467020103061721   -0.0011487229123625083   -0.00029819441021521976
8.382702981739777e-05   -0.001109312366659734   -0.000290357254827551
6.97485373895349e-05   -0.0010904487079500238   -0.00028555879801296717
0.0   0.0   0.0
0.0007467020103061721   -0.0011487229123625083   -0.00029819441021521976
6.97485373895349e-05   -0.0010904487079500238   -0.00028555879801296717
0.0   0.0   0.0
0.0   0.0   0.0
8.382702981739777e-05   -0.001109312366659734   -0.000290357254827551
0.0   0.0   0.0
0.0   0.0   0.0
8.382702981739777e-05   -0.001109312366659734   -0.000290357254827551
0.0007467020103061721   -0.0011487229123625083   -0.00029819441021521976
0.0   0.0   0.0
0.0007441170596651336   -0.0011323246794175455   -0.000343944050377109
0.0   0.0   0.0
0.0   0.0   0.0
0.0007441170596651336   -0.0011323246794175455   -0.000343944050377109
0.0   0.0   0.0
0.0   0.0   0.0
0.0007441170596651336   -0.0011323246794175455   -0.000343944050377109
9.501471758190494e-05   -0.001107681143449131   -0.0002947473903049771
8.382702981739777e-05   -0.001109312366659734   -0.000290357254827551
0.0   0.0   0.0
0.0007441170596651336   -0.0011323246794175455   -0.000343944050377109
8.382702981739777e-05   -0.001109312366659734   -0.000290357254827551
0.0   0.0   0.0
0.0   0.0   0.0
9.501471758190494e-05   -0.001107681143449131   -0.0002947473903049771
0.0   0.0   0.0
0.0   0.0   0.0
9.501471758190494e-05   -0.001107681143449131   -0.0002947473903049771
0.0007441170596651336   -0.0011323246794175455   -0.000343944050377109
0.0   0.0   0.0
0.000759117442837599   -0.0010887078406398463   -0.0003888871772044312
0.0   0.0   0.0
0.0   0.0   0.0
0.000759117442837599   -0.0010887078406398463   -0.0003888871772044312
0.0   0.0   0.0
0.0   0.0   0.0
0.000759117442837599   -0.0010887078406398463   -0.0003888871772044312
0.00010987680740291768   -0.0010838854530025154   -0.00029932683361057
9.501471758190494e-05   -0.001107681143449131   -0.0002947473903049771
0.0   0.0   0.0
0.000759117442837599   -0.0010887078406398463   -0.0003888871772044312
9.501471758190494e-05   -0.001107681143449131   -0.0002947473903049771
0.0   0.0   0.0
0.0   0.0   0.0
0.0007446664740960374   -0.0011428555897184515   -0.0002505898161960544
0.0   0.0   0.0
0.0   0.0   0.0
0.0007446664740960374   -0.0011428555897184515   -0.0002505898161960544
0.0016849523177903745   -0.00127599394228637   -0.00023701167533667615
0.0   0.0   0.0
0.0015833661906233102   -0.001261777020652751   -0.0003451707385540804
0.0   0.0   0.0
0.0   0.0   0.0
0.0015833661906233102   -0.001261777020652751   -0.0003451707385540804
0.0   0.0   0.0
0.0   0.0   0.0
0.0015833661906233102   -0.001261777020652751   -0.0003451707385540804
0.0007467020103061721   -0.0011487229123625083   -0.00029819441021521976
0.0007446664740960374   -0.0011428555897184515   -0.0002505898161960544
0.0   0.0   0.0
0.0015833661906233102   -0.001261777020652751   -0.0003451707385540804
0.0007446664740960374   -0.0011428555897184515   -0.0002505898161960544
0.0   0.0   0.0
0.0   0.0   0.0
0.0007467020103061721   -0.0011487229123625083   -0.00029819441021521976
0.0   0.0   0.0
0.0   0.0   0.0
0.0007467020103061721   -0.0011487229123625083   -0.00029819441021521976
0.0015833661906233102   -0.001261777020652751   -0.0003451707385540804
0.0   0.0   0.0
0.001536797681127559   -0.0012355507063029803   -0.00043669773148281464
0.0   0.0   0.0
0.0   0.0   0.0
0.001536797681127559   -0.0012355507063029803   -0.00043669773148281464
0.0   0.0   0.0
0.0   0.0   0.0
0.001536797681127559   -0.0012355507063029803   -0.00043669773148281464
0.0007441170596651336   -0.0011323246794175455   -0.000343944050377109
0.0007467020103061721   -0.0011487229123625083   -0.00029819441021521976
0.0   0.0   0.0
0.001536797681127559   -0.0012355507063029803   -0.00043669773148281464
0.0007467020103061721   -0.0011487229123625083   -0.00029819441021521976
0.0   0.0   0.0
0.0   0.0   0.0
0.0007441170596651336   -0.0011323246794175455   -0.000343944050377109
0.0   0.0   0.0
0.0   0.0   0.0
0.0007441170596651336   -0.0011323246794175455   -0.000343944050377109
0.001536797681127559   -0.0012355507063029803   -0.00043669773148281464
0.0   0.0   0.0
0.0014670417709341757   -0.0011686726098594116   -0.0005336960225102677
0.0   0.0   0.0
0.0   0.0   0.0
0.0014670417709341757   -0.0011686726098594116   -0.0005336960225102677
0.0   0.0   0.0
0.0   0.0   0.0
0.0014670417709341757   -0.0011686726098594116   -0.0005336960225102677
0.000759117442837599   -0.0010887078406398463   -0.0003888871772044312
0.0007441170596651336   -0.0011323246794175455   -0.000343944050377109
0.0   0.0   0.0
0.0014670417709341757   -0.0011686726098594116   -0.0005336960225102677
0.0007441170596651336   -0.0011323246794175455   -0.000343944050377109
0.0   0.0   0.0
-0.0019022974232712274   -0.0012563070229924197   -0.000637761146656542
-0.0035470172693593117   -0.0034949983156659253   -0.0008595277100725826
-0.0012096945796597413   -0.0011304872240839512   -0.00046866224993274443
-0.001990186290830232   -0.0013380241105900173   -0.0005122917070121467
-0.0035470172693593117   -0.0034949983156659253   -0.0008595277100725826
-0.0022636451661450577   -0.003382061188267043   -0.0007081153572858714
-0.0012096945796597413   -0.0011304872240839512   -0.00046866224993274443
-0.002265400018230299   -0.0034394925879963944   -0.0006381212682906118
-0.001990186290830232   -0.0013380241105900173   -0.0005122917070121467
-0.0011852386401800272   -0.0011867366777908485   -0.0003928105159480292
-0.002265400018230299   -0.0034394925879963944   -0.0006381212682906118
-0.0012096945796597413   -0.0011304872240839512   -0.00046866224993274443
-0.001990186290830232   -0.0013380241105900173   -0.0005122917070121467
-0.002265400018230299   -0.0034394925879963944   -0.0006381212682906118
-0.003652067347244616   -0.0035752343185310254   -0.0007460068835439303
-0.0035470172693593117   -0.0034949983156659253   -0.0008595277100725826
-0.001990186290830232   -0.0013380241105900173   -0.0005122917070121467
-0.002265400018230299   -0.0034394925879963944   -0.0006381212682906118
-0.0035470172693593117   -0.0034949983156659253   -0.0008595277100725826
-0.0012096945796597413   -0.0011304872240839512   -0.00046866224993274443
-0.001990186290830232   -0.0013380241105900173   -0.0005122917070121467
-0.003652067347244616   -0.0035752343185310254   -0.0007460068835439303
-0.0011852386401800272   -0.0011867366777908485   -0.0003928105159480292
-0.0020516456405147536   -0.001377791600892372   -0.00039219698028863226
-0.003652067347244616   -0.0035752343185310254   -0.0007460068835439303
-0.002265400018230299   -0.0034394925879963944   -0.0006381212682906118
-0.0011852386401800272   -0.0011867366777908485   -0.0003928105159480292
-0.002273333929100452   -0.0034745877414852863   -0.000570919739583675
-0.0020516456405147536   -0.001377791600892372   -0.00039219698028863226
-0.0011880058530794192   -0.0012156289544590106   -0.0003171336431130907
-0.002273333929100452   -0.0034745877414852863   -0.000570919739583675
-0.0011852386401800272   -0.0011867366777908485   -0.0003928105159480292
-0.0020516456405147536   -0.001377791600892372   -0.00039219698028863226
-0.002273333929100452   -0.0034745877414852863   -0.000570919739583675
-0.0037246673383935125   -0.0036206292234491387   -0.000634933371910443
-0.003652067347244616   -0.0035752343185310254   -0.0007460068835439303
-0.0020516456405147536   -0.001377791600892372   -0.00039219698028863226
-0.002273333929100452   -0.0034745877414852863   -0.000570919739583675
-0.003652067347244616   -0.0035752343185310254   -0.0007460068835439303
-0.0011852386401800272   -0.0011867366777908485   -0.0003928105159480292
-0.0020516456405147536   -0.001377791600892372   -0.00039219698028863226
-0.0037246673383935125   -0.0036206292234491387   -0.000634933371910443
-0.0011880058530794192   -0.0012156289544590106   -0.0003171336431130907
-0.0021846170030031782   -0.0014081331631704056   -0.00025295101868021526
-0.0037246673383935125   -0.0036206292234491387   -0.000634933371910443
-0.002273333929100452   -0.0034745877414852863   -0.000570919739583675
-0.0011880058530794192   -0.0012156289544590106   -0.0003171336431130907
-0.0022655360042628998   -0.0034929402023561123   -0.0005080766639199178
-0.0021846170030031782   -0.0014081331631704056   -0.00025295101868021526
-0.0011867328085002308   -0.0012231438470450698   -0.00023896455260218283
-0.0022655360042628998   -0.0034929402023561123   -0.0005080766639199178
-0.0011880058530794192   -0.0012156289544590106   -0.0003171336431130907
-0.0021846170030031782   -0.0014081331631704056   -0.00025295101868021526
-0.0022655360042628998   -0.0034929402023561123   -0.0005080766639199178
-0.003810435507465628   -0.0036472745204431316   -0.0005340100416481382
-0.0037246673383935125   -0.0036206292234491387   -0.000634933371910443
-0.0021846170030031782   -0.0014081331631704056   -0.00025295101868021526
-0.0022655360042628998   -0.0034929402023561123   -0.0005080766639199178
-0.0037246673383935125   -0.0036206292234491387   -0.000634933371910443
-0.0011880058530794192   -0.0012156289544590106   -0.0003171336431130907
-0.0012096945796597413   -0.0011304872240839512   -0.00046866224993274443
-0.0022636451661450577   -0.003382061188267043   -0.0007081153572858714
-0.0005515668263308857   -0.00108446168176862   -0.000356720957881482
-0.0011852386401800272   -0.0011867366777908485   -0.0003928105159480292
-0.0022636451661450577   -0.003382061188267043   -0.0007081153572858714
-0.0010519180390804238   -0.0033295031987401933   -0.0006048439628685082
-0.0005515668263308857   -0.00108446168176862   -0.000356720957881482
-0.0010419068757628015   -0.0033659687898689576   -0.0005688892446651778
-0.0011852386401800272   -0.0011867366777908485   -0.0003928105159480292
-0.0005299283929432322   -0.0011210053147438894   -0.00032084280729411784
-0.0010419068757628015   -0.0033659687898689576   -0.0005688892446651778
-0.0005515668263308857   -0.00108446168176862   -0.000356720957881482
-0.0011852386401800272   -0.0011867366777908485   -0.0003928105159480292
-0.0010419068757628015   -0.0033659687898689576   -0.0005688892446651778
-0.002265400018230299   -0.0034394925879963944   -0.0006381212682906118
-0.0022636451661450577   -0.003382061188267043   -0.0007081153572858714
-0.0011852386401800272   -0.0011867366777908485   -0.0003928105159480292
-0.0010419068757628015   -0.0033659687898689576   -0.0005688892446651778
-0.0022636451661450577   -0.003382061188267043   -0.0007081153572858714
-0.0005515668263308857   -0.00108446168176862   -0.000356720957881482
-0.0011852386401800272   -0.0011867366777908485   -0.0003928105159480292
-0.002265400018230299   -0.0034394925879963944   -0.0006381212682906118
-0.0005299283929432322   -0.0011210053147438894   -0.00032084280729411784
-0.0011880058530794192   -0.0012156289544590106   -0.0003171336431130907
-0.002265400018230299   -0.0034394925879963944   -0.0006381212682906118
-0.0010419068757628015   -0.0033659687898689576   -0.0005688892446651778
-0.0005299283929432322   -0.0011210053147438894   -0.00032084280729411784
-0.0010329299477663842   -0.0033836865518073926   -0.0005363357140880386
-0.0011880058530794192   -0.0012156289544590106   -0.0003171336431130907
-0.0005175403858094423   -0.0011349579683848495   -0.0002859662159387963
-0.0010329299477663842   -0.0033836865518073926   -0.0005363357140880386
-0.0005299283929432322   -0.0011210053147438894   -0.00032084280729411784
-0.0011880058530794192   -0.0012156289544590106   -0.0003171336431130907
-0.0010329299477663842   -0.0033836865518073926   -0.0005363357140880386
-0.002273333929100452   -0.0034745877414852863   -0.000570919739583675
-0.002265400018230299   -0.0034394925879963944   -0.0006381212682906118
-0.0011880058530794192   -0.0012156289544590106   -0.0003171336431130907
-0.0010329299477663842   -0.0033836865518073926   -0.0005363357140880386
-0.002265400018230299   -0.0034394925879963944   -0.0006381212682906118
-0.0005299283929432322   -0.0011210053147438894   -0.00032084280729411784
-0.0011880058530794192   -0.0012156289544590106   -0.0003171336431130907
-0.002273333929100452   -0.0034745877414852863   -0.000570919739583675
-0.0005175403858094423   -0.0011349579683848495   -0.0002859662159387963
-0.0011867328085002308   -0.0012231438470450698   -0.00023896455260218283
-0.002273333929100452   -0.0034745877414852863   -0.000570919739583675
-0.0010329299477663842   -0.0033836865518073926   -0.0005363357140880386
-0.0005175403858094423   -0.0011349579683848495   -0.0002859662159387963
-0.0010199703062338807   -0.003383321971206936   -0.0005080415876752276
-0.0011867328085002308   -0.0012231438470450698   -0.00023896455260218283
-0.0005061650871284771   -0.0011291918533922341   -0.0002499775478899509
-0.0010199703062338807   -0.003383321971206936   -0.0005080415876752276
-0.0005175403858094423   -0.0011349579683848495   -0.0002859662159387963
-0.0011867328085002308   -0.0012231438470450698   -0.00023896455260218283
-0.0010199703062338807   -0.003383321971206936   -0.0005080415876752276
-0.0022655360042628998   -0.0034929402023561123   -0.0005080766639199178
-0.002273333929100452   -0.0034745877414852863   -0.000570919739583675
-0.0011867328085002308   -0.0012231438470450698   -0.00023896455260218283
-0.0010199703062338807   -0.003383321971206936   -0.0005080415876752276
-0.002273333929100452   -0.0034745877414852863   -0.000570919739583675
-0.0005175403858094423   -0.0011349579683848495   -0.0002859662159387963
-0.0005515668263308857   -0.00108446168176862   -0.000356720957881482
-0.0010519180390804238   -0.0033295031987401933   -0.0006048439628685082
6.97485373895349e-05   -0.0010904487079500238   -0.00028555879801296717
-0.0005299283929432322   -0.0011210053147438894   -0.00032084280729411784
-0.0010519180390804238   -0.0033295031987401933   -0.0006048439628685082
0.00011595739628399528   -0.0033311241961178897   -0.0005397664552404315
6.97485373895349e-05   -0.0010904487079500238   -0.00028555879801296717
0.00012809975523967753   -0.0033482621307380543   -0.0005372125998745004
-0.0005299283929432322   -0.0011210053147438894   -0.00032084280729411784
8.382702981739777e-05   -0.001109312366659734   -0.000290357254827551
0.00012809975523967753   -0.0033482621307380543   -0.0005372125998745004
6.97485373895349e-05   -0.0010904487079500238   -0.00028555879801296717
-0.0005299283929432322   -0.0011210053147438894   -0.00032084280729411784
0.00012809975523967753   -0.0033482621307380543   -0.0005372125998745004
-0.0010419068757628015   -0.0033659687898689576   -0.0005688892446651778
-0.0010519180390804238   -0.0033295031987401933   -0.0006048439628685082
-0.0005299283929432322   -0.0011210053147438894   -0.00032084280729411784
0.00012809975523967753   -0.0033482621307380543   -0.0005372125998745004
-0.0010519180390804238   -0.0033295031987401933   -0.0006048439628685082
6.97485373895349e-05   -0.0010904487079500238   -0.00028555879801296717
-0.0005299283929432322   -0.0011210053147438894   -0.00032084280729411784
-0.0010419068757628015   -0.0033659687898689576   -0.0005688892446651778
8.382702981739777e-05   -0.001109312366659734   -0.000290357254827551
-0.0005175403858094423   -0.0011349579683848495   -0.0002859662159387963
-0.0010419068757628015   -0.0033659687898689576   -0.0005688892446651778
0.00012809975523967753   -0.0033482621307380543   -0.0005372125998745004
8.382702981739777e-05   -0.001109312366659734   -0.000290357254827551
0.0001365669509415908   -0.0033470884655004474   -0.0005385154738850707
-0.0005175403858094423   -0.0011349579683848495   -0.0002859662159387963
9.501471758190494e-05   -0.001107681143449131   -0.0002947473903049771
0.0001365669509415908   -0.0033470884655004474   -0.0005385154738850707
8.382702981739777e-05   -0.001109312366659734   -0.000290357254827551
-0.0005175403858094423   -0.0011349579683848495   -0.0002859662159387963
0.0001365669509415908   -0.0033470884655004474   -0.0005385154738850707
-0.0010329299477663842   -0.0033836865518073926   -0.0005363357140880386
-0.0010419068757628015   -0.0033659687898689576   -0.0005688892446651778
-0.0005175403858094423   -0.0011349579683848495   -0.0002859662159387963
0.0001365669509415908   -0.0033470884655004474   -0.0005385154738850707
-0.0010419068757628015   -0.0033659687898689576   -0.0005688892446651778
8.382702981739777e-05   -0.001109312366659734   -0.000290357254827551
-0.0005175403858094423   -0.0011349579683848495   -0.0002859662159387963
-0.0010329299477663842   -0.0033836865518073926   -0.0005363357140880386
9.501471758190494e-05   -0.001107681143449131   -0.0002947473903049771
-0.0005061650871284771   -0.0011291918533922341   -0.0002499775478899509
-0.0010329299477663842   -0.0033836865518073926   -0.0005363357140880386
0.0001365669509415908   -0.0033470884655004474   -0.0005385154738850707
9.501471758190494e-05   -0.001107681143449131   -0.0002947473903049771
0.00014558124670126447   -0.003327048983161932   -0.0005437348811604304
-0.0005061650871284771   -0.0011291918533922341   -0.0002499775478899509
0.00010987680740291768   -0.0010838854530025154   -0.00029932683361057
0.00014558124670126447   -0.003327048983161932   -0.0005437348811604304
9.501471758190494e-05   -0.001107681143449131   -0.0002947473903049771
-0.0005061650871284771   -0.0011291918533922341   -0.0002499775478899509
0.00014558124670126447   -0.003327048983161932   -0.0005437348811604304
-0.0010199703062338807   -0.003383321971206936   -0.0005080415876752276
-0.0010329299477663842   -0.0033836865518073926   -0.0005363357140880386
-0.0005061650871284771   -0.0011291918533922341   -0.0002499775478899509
0.00014558124670126447   -0.003327048983161932   -0.0005437348811604304
-0.0010329299477663842   -0.0033836865518073926   -0.0005363357140880386
9.501471758190494e-05   -0.001107681143449131   -0.0002947473903049771
6.97485373895349e-05   -0.0010904487079500238   -0.00028555879801296717
0.00011595739628399528   -0.0033311241961178897   -0.0005397664552404315
0.0007446664740960374   -0.0011428555897184515   -0.0002505898161960544
8.382702981739777e-05   -0.001109312366659734   -0.000290357254827551
0.00011595739628399528   -0.0033311241961178897   -0.0005397664552404315
0.0013540982101964264   -0.003384986825568819   -0.0005097493982578538
0.0007446664740960374   -0.0011428555897184515   -0.0002505898161960544
0.0013615070290641518   -0.0033845247921407444   -0.0005416730265176442
8.382702981739777e-05   -0.001109312366659734   -0.000290357254827551
0.0007467020103061721   -0.0011487229123625083   -0.00029819441021521976
0.0013615070290641518   -0.0033845247921407444   -0.0005416730265176442
0.0007446664740960374   -0.0011428555897184515   -0.0002505898161960544
8.382702981739777e-05   -0.001109312366659734   -0.000290357254827551
0.0013615070290641518   -0.0033845247921407444   -0.0005416730265176442
0.00012809975523967753   -0.0033482621307380543   -0.0005372125998745004
0.00011595739628399528   -0.0033311241961178897   -0.0005397664552404315
8.382702981739777e-05   -0.001109312366659734   -0.000290357254827551
0.0013615070290641518   -0.0033845247921407444   -0.0005416730265176442
0.00011595739628399528   -0.0033311241961178897   -0.0005397664552404315
0.0007446664740960374   -0.0011428555897184515   -0.0002505898161960544
8.382702981739777e-05   -0.001109312366659734   -0.000290357254827551
0.00012809975523967753   -0.0033482621307380543   -0.0005372125998745004
0.0007467020103061721   -0.0011487229123625083   -0.00029819441021521976
9.501471758190494e-05   -0.001107681143449131   -0.0002947473903049771
0.00012809975523967753   -0.0033482621307380543   -0.0005372125998745004
0.0013615070290641518   -0.0033845247921407444   -0.0005416730265176442
0.0007467020103061721   -0.0011487229123625083   -0.00029819441021521976
0.0013562795448304698   -0.003366135396791014   -0.0005779593264361189
9.501471758190494e-05   -0.001107681143449131   -0.0002947473903049771
0.0007441170596651336   -0.0011323246794175455   -0.000343944050377109
0.0013562795448304698   -0.003366135396791014   -0.0005779593264361189
0.0007467020103061721   -0.0011487229123625083   -0.00029819441021521976
9.501471758190494e-05   -0.001107681143449131   -0.0002947473903049771
0.0013562795448304698   -0.003366135396791014   -0.0005779593264361189
0.0001365669509415908   -0.0033470884655004474   -0.0005385154738850707
0.00012809975523967753   -0.0033482621307380543   -0.0005372125998745004
9.501471758190494e-05   -0.001107681143449131   -0.0002947473903049771
0.0013562795448304698   -0.003366135396791014   -0.0005779593264361189
0.00012809975523967753   -0.0033482621307380543   -0.0005372125998745004
0.0007467020103061721   -0.0011487229123625083   -0.00029819441021521976
9.501471758190494e-05   -0.001107681143449131   -0.0002947473903049771
0.0001365669509415908   -0.0033470884655004474   -0.0005385154738850707
0.0007441170596651336   -0.0011323246794175455   -0.000343944050377109
0.00010987680740291768   -0.0010838854530025154   -0.00029932683361057
0.0001365669509415908   -0.0033470884655004474   -0.0005385154738850707
0.0013562795448304698   -0.003366135396791014   -0.0005779593264361189
0.0007441170596651336   -0.0011323246794175455   -0.000343944050377109
0.0013536698079906866   -0.0033248325287609038   -0.0006172621234720821
0.00010987680740291768   -0.0010838854530025154   -0.00029932683361057
0.000759117442837599   -0.0010887078406398463   -0.0003888871772044312
0.0013536698079906866   -0.0033248325287609038   -0.0006172621234720821
0.0007441170596651336   -0.0011323246794175455   -0.000343944050377109
0.00010987680740291768   -0.0010838854530025154   -0.00029932683361057
0.0013536698079906866   -0.0033248325287609038   -0.0006172621234720821
0.00014558124670126447   -0.003327048983161932   -0.0005437348811604304
0.0001365669509415908   -0.0033470884655004474   -0.0005385154738850707
0.00010987680740291768   -0.0010838854530025154   -0.00029932683361057
0.0013536698079906866   -0.0033248325287609038   -0.0006172621234720821
0.0001365669509415908   -0.0033470884655004474   -0.0005385154738850707
0.0007441170596651336   -0.0011323246794175455   -0.000343944050377109
0.0007446664740960374   -0.0011428555897184515   -0.0002505898161960544
0.0013540982101964264   -0.003384986825568819   -0.0005097493982578538
0.0016849523177903745   -0.00127599394228637   -0.00023701167533667615
0.0007467020103061721   -0.0011487229123625083   -0.00029819441021521976
0.0013540982101964264   -0.003384986825568819   -0.0005097493982578538
0.002849561842650247   -0.0034849157983681137   -0.0005023608792256932
0.0016849523177903745   -0.00127599394228637   -0.00023701167533667615
0.0027931643881366945   -0.003474997943911426   -0.0005743244906927321
0.0007467020103061721   -0.0011487229123625083   -0.00029819441021521976
0.0015833661906233102   -0.001261777020652751   -0.0003451707385540804
0.0027931643881366945   -0.003474997943911426   -0.0005743244906927321
0.0016849523177903745   -0.00127599394228637   -0.00023701167533667615
0.0007467020103061721   -0.0011487229123625083   -0.00029819441021521976
0.0027931643881366945   -0.003474997943911426   -0.0005743244906927321
0.0013615070290641518   -0.0033845247921407444   -0.0005416730265176442
0.0013540982101964264   -0.003384986825568819   -0.0005097493982578538
0.0007467020103061721   -0.0011487229123625083   -0.00029819441021521976
0.0027931643881366945   -0.003474997943911426   -0.0005743244906927321
0.0013540982101964264   -0.003384986825568819   -0.0005097493982578538
0.0016849523177903745   -0.00127599394228637   -0.00023701167533667615
0.0007467020103061721   -0.0011487229123625083   -0.00029819441021521976
0.0013615070290641518   -0.0033845247921407444   -0.0005416730265176442
0.0015833661906233102   -0.001261777020652751   -0.0003451707385540804
0.0007441170596651336   -0.0011323246794175455   -0.000343944050377109
0.0013615070290641518   -0.0033845247921407444   -0.0005416730265176442
0.0027931643881366945   -0.003474997943911426   -0.0005743244906927321
0.0015833661906233102   -0.001261777020652751   -0.0003451707385540804
0.0027426284918668307   -0.003446706333969168   -0.0006554547873105675
0.0007441170596651336   -0.0011323246794175455   -0.000343944050377109
0.001536797681127559   -0.0012355507063029803   -0.00043669773148281464
0.0027426284918668307   -0.003446706333969168   -0.0006554547873105675
0.0015833661906233102   -0.001261777020652751   -0.0003451707385540804
0.0007441170596651336   -0.0011323246794175455   -0.000343944050377109
0.0027426284918668307   -0.003446706333969168   -0.0006554547873105675
0.0013562795448304698   -0.003366135396791014   -0.0005779593264361189
0.0013615070290641518   -0.0033845247921407444   -0.0005416730265176442
0.0007441170596651336   -0.0011323246794175455   -0.000343944050377109
0.0027426284918668307   -0.003446706333969168   -0.0006554547873105675
0.0013615070290641518   -0.0033845247921407444   -0.0005416730265176442
0.0015833661906233102   -0.001261777020652751   -0.0003451707385540804
0.0007441170596651336   -0.0011323246794175455   -0.000343944050377109
0.0013562795448304698   -0.003366135396791014   -0.0005779593264361189
0.001536797681127559   -0.0012355507063029803   -0.00043669773148281464
0.000759117442837599   -0.0010887078406398463   -0.0003888871772044312
0.0013562795448304698   -0.003366135396791014   -0.0005779593264361189
0.0027426284918668307   -0.003446706333969168   -0.0006554547873105675
0.001536797681127559   -0.0012355507063029803   -0.00043669773148281464
0.0026662318575204165   -0.0033841108710956575   -0.0007400135647269537
0.000759117442837599   -0.0010887078406398463   -0.0003888871772044312
0.0014670417709341757   -0.0011686726098594116   -0.0005336960225102677
0.0026662318575204165   -0.0033841108710956575   -0.0007400135647269537
0.001536797681127559   -0.0012355507063029803   -0.00043669773148281464
0.000759117442837599   -0.0010887078406398463   -0.0003888871772044312
0.0026662318575204165   -0.0033841108710956575   -0.0007400135647269537
0.0013536698079906866   -0.0033248325287609038   -0.0006172621234720821
0.0013562795448304698   -0.003366135396791014   -0.0005779593264361189
0.000759117442837599   -0.0010887078406398463   -0.0003888871772044312
0.0026662318575204165   -0.0033841108710956575   -0.0007400135647269537
0.0013562795448304698   -0.003366135396791014   -0.0005779593264361189
0.001536797681127559   -0.0012355507063029803   -0.00043669773148281464
-0.0035470172693593117   -0.0034949983156659253   -0.0008595277100725826
-0.004852419979829003   -0.006538555260790867   -0.0009798935083494501
-0.0022636451661450577   -0.003382061188267043   -0.0007081153572858714
-0.003652067347244616   -0.0035752343185310254   -0.0007460068835439303
-0.004852419979829003   -0.006538555260790867   -0.0009798935083494501
-0.0031206068341662063   -0.006452508046149417   -0.0008575579044458484
-0.0022636451661450577   -0.003382061188267043   -0.0007081153572858714
-0.0031263236902562175   -0.00650191304698296   -0.0008034094096469627
-0.003652067347244616   -0.0035752343185310254   -0.0007460068835439303
-0.002265400018230299   -0.0034394925879963944   -0.0006381212682906118
-0.0031263236902562175   -0.00650191304698296   -0.0008034094096469627
-0.0022636451661450577   -0.003382061188267043   -0.0007081153572858714
-0.003652067347244616   -0.0035752343185310254   -0.0007460068835439303
-0.0031263236902562175   -0.00650191304698296   -0.0008034094096469627
-0.0049371603552353415   -0.006606139909924003   -0.0008955869684420478
-0.004852419979829003   -0.006538555260790867   -0.0009798935083494501
-0.003652067347244616   -0.0035752343185310254   -0.0007460068835439303
-0.0031263236902562175   -0.00650191304698296   -0.0008034094096469627
-0.004852419979829003   -0.006538555260790867   -0.0009798935083494501
-0.0022636451661450577   -0.003382061188267043   -0.0007081153572858714
-0.003652067347244616   -0.0035752343185310254   -0.0007460068835439303
-0.0049371603552353415   -0.006606139909924003   -0.0008955869684420478
-0.002265400018230299   -0.0034394925879963944   -0.0006381212682906118
-0.0037246673383935125   -0.0036206292234491387   -0.000634933371910443
-0.0049371603552353415   -0.006606139909924003   -0.0008955869684420478
-0.0031263236902562175   -0.00650191304698296   -0.0008034094096469627
-0.002265400018230299   -0.0034394925879963944   -0.0006381212682906118
-0.0031331929788678725   -0.006536387591315959   -0.0007532205824547137
-0.0037246673383935125   -0.0036206292234491387   -0.000634933371910443
-0.002273333929100452   -0.0034745877414852863   -0.000570919739583675
-0.0031331929788678725   -0.006536387591315959   -0.0007532205824547137
-0.002265400018230299   -0.0034394925879963944   -0.0006381212682906118
-0.0037246673383935125   -0.0036206292234491387   -0.000634933371910443
-0.0031331929788678725   -0.006536387591315959   -0.0007532205824547137
-0.004990065417828248   -0.006648625281028361   -0.0008170807576935321
-0.0049371603552353415   -0.006606139909924003   -0.0008955869684420478
-0.0037246673383935125   -0.0036206292234491387   -0.000634933371910443
-0.0031331929788678725   -0.006536387591315959   -0.0007532205824547137
-0.0049371603552353415   -0.006606139909924003   -0.0008955869684420478
-0.002265400018230299   -0.0034394925879963944   -0.0006381212682906118
-0.0037246673383935125   -0.0036206292234491387   -0.000634933371910443
-0.004990065417828248   -0.006648625281028361   -0.0008170807576935321
-0.002273333929100452   -0.0034745877414852863   -0.000570919739583675
-0.003810435507465628   -0.0036472745204431316   -0.0005340100416481382
-0.004990065417828248   -0.006648625281028361   -0.0008170807576935321
-0.0031331929788678725   -0.006536387591315959   -0.0007532205824547137
-0.002273333929100452   -0.0034745877414852863   -0.000570919739583675
-0.003126129368950318   -0.006559211215597348   -0.000706145054615311
-0.003810435507465628   -0.0036472745204431316   -0.0005340100416481382
-0.0022655360042628998   -0.0034929402023561123   -0.0005080766639199178
-0.003126129368950318   -0.006559211215597348   -0.000706145054615311
-0.002273333929100452   -0.0034745877414852863   -0.000570919739583675
-0.003810435507465628   -0.0036472745204431316   -0.0005340100416481382
-0.003126129368950318   -0.006559211215597348   -0.000706145054615311
-0.005050259760908164   -0.006679411081708505   -0.0007449183221927278
-0.004990065417828248   -0.006648625281028361   -0.0008170807576935321
-0.003810435507465628   -0.0036472745204431316   -0.0005340100416481382
-0.003126129368950318   -0.006559211215597348   -0.000706145054615311
-0.004990065417828248   -0.006648625281028361   -0.0008170807576935321
-0.002273333929100452   -0.0034745877414852863   -0.000570919739583675
-0.0022636451661450577   -0.003382061188267043   -0.0007081153572858714
-0.0031206068341662063   -0.006452508046149417   -0.0008575579044458484
-0.0010519180390804238   -0.0033295031987401933   -0.0006048439628685082
-0.002265400018230299   -0.0034394925879963944   -0.0006381212682906118
-0.0031206068341662063   -0.006452508046149417   -0.0008575579044458484
-0.001489331696471357   -0.006409508420496645   -0.0007726147056179171
-0.0010519180390804238   -0.0033295031987401933   -0.0006048439628685082
-0.00148448504303147   -0.006441013888092198   -0.000741902750774418
-0.002265400018230299   -0.0034394925879963944   -0.0006381212682906118
-0.0010419068757628015   -0.0033659687898689576   -0.0005688892446651778
-0.00148448504303147   -0.006441013888092198   -0.000741902750774418
-0.0010519180390804238   -0.0033295031987401933   -0.0006048439628685082
-0.002265400018230299   -0.0034394925879963944   -0.0006381212682906118
-0.00148448504303147   -0.006441013888092198   -0.000741902750774418
-0.0031263236902562175   -0.00650191304698296   -0.0008034094096469627
-0.0031206068341662063   -0.006452508046149417   -0.0008575579044458484
-0.002265400018230299   -0.0034394925879963944   -0.0006381212682906118
-0.00148448504303147   -0.006441013888092198   -0.000741902750774418
-0.0031206068341662063   -0.006452508046149417   -0.0008575579044458484
-0.0010519180390804238   -0.0033295031987401933   -0.0006048439628685082
-0.002265400018230299   -0.0034394925879963944   -0.0006381212682906118
-0.0031263236902562175   -0.00650191304698296   -0.0008034094096469627
-0.0010419068757628015   -0.0033659687898689576   -0.0005688892446651778
-0.002273333929100452   -0.0034745877414852863   -0.000570919739583675
-0.0031263236902562175   -0.00650191304698296   -0.0008034094096469627
-0.00148448504303147   -0.006441013888092198   -0.000741902750774418
-0.0010419068757628015   -0.0033659687898689576   -0.0005688892446651778
-0.0014788060845680685   -0.006459556450213181   -0.0007149543267897939
-0.002273333929100452   -0.0034745877414852863   -0.000570919739583675
-0.0010329299477663842   -0.0033836865518073926   -0.0005363357140880386
-0.0014788060845680685   -0.006459556450213181   -0.0007149543267897939
-0.0010419068757628015   -0.0033659687898689576   -0.0005688892446651778
-0.002273333929100452   -0.0034745877414852863   -0.000570919739583675
-0.0014788060845680685   -0.006459556450213181   -0.0007149543267897939
-0.0031331929788678725   -0.006536387591315959   -0.0007532205824547137
-0.0031263236902562175   -0.00650191304698296   -0.0008034094096469627
-0.002273333929100452   -0.0034745877414852863   -0.000570919739583675
-0.0014788060845680685   -0.006459556450213181   -0.0007149543267897939
-0.0031263236902562175   -0.00650191304698296   -0.0008034094096469627
-0.0010419068757628015   -0.0033659687898689576   -0.0005688892446651778
-0.002273333929100452   -0.0034745877414852863   -0.000570919739583675
-0.0031331929788678725   -0.006536387591315959   -0.0007532205824547137
-0.0010329299477663842   -0.0033836865518073926   -0.0005363357140880386
-0.0022655360042628998   -0.0034929402023561123   -0.0005080766639199178
-0.0031331929788678725   -0.006536387591315959   -0.0007532205824547137
-0.0014788060845680685   -0.006459556450213181   -0.0007149543267897939
-0.0010329299477663842   -0.0033836865518073926   -0.0005363357140880386
-0.0014701689596034468   -0.006465400950127784   -0.0006917614768345705
-0.0022655360042628998   -0.0034929402023561123   -0.0005080766639199178
-0.0010199703062338807   -0.003383321971206936   -0.0005080415876752276
-0.0014701689596034468   -0.006465400950127784   -0.0006917614768345705
-0.0010329299477663842   -0.0033836865518073926   -0.0005363357140880386
-0.0022655360042628998   -0.0034929402023561123   -0.0005080766639199178
-0.0014701689596034468   -0.006465400950127784   -0.0006917614768345705
-0.003126129368950318   -0.006559211215597348   -0.000706145054615311
-0.0031331929788678725   -0.006536387591315959   -0.0007532205824547137
-0.0022655360042628998   -0.0034929402023561123   -0.0005080766639199178
-0.0014701689596034468   -0.006465400950127784   -0.0006917614768345705
-0.0031331929788678725   -0.006536387591315959   -0.0007532205824547137
-0.0010329299477663842   -0.0033836865518073926   -0.0005363357140880386
-0.0010519180390804238   -0.0033295031987401933   -0.0006048439628685082
-0.001489331696471357   -0.006409508420496645   -0.0007726147056179171
0.00011595739628399528   -0.0033311241961178897   -0.0005397664552404315
-0.0010419068757628015   -0.0033659687898689576   -0.0005688892446651778
-0.001489331696471357   -0.006409508420496645   -0.0007726147056179171
9.355720315866486e-05   -0.0064072007103352984   -0.0007201771884881306
0.00011595739628399528   -0.0033311241961178897   -0.0005397664552404315
0.0001015744599043769   -0.006421059417251921   -0.0007127834302098133
-0.0010419068757628015   -0.0033659687898689576   -0.0005688892446651778
0.00012809975523967753   -0.0033482621307380543   -0.0005372125998745004
0.0001015744599043769   -0.006421059417251921   -0.0007127834302098133
0.00011595739628399528   -0.0033311241961178897   -0.0005397664552404315
-0.0010419068757628015   -0.0033659687898689576   -0.0005688892446651778
0.0001015744599043769   -0.006421059417251921   -0.0007127834302098133
-0.00148448504303147   -0.006441013888092198   -0.000741902750774418
-0.001489331696471357   -0.006409508420496645   -0.0007726147056179171
-0.0010419068757628015   -0.0033659687898689576   -0.0005688892446651778
0.0001015744599043769   -0.006421059417251921   -0.0007127834302098133
-0.001489331696471357   -0.006409508420496645   -0.0007726147056179171
0.00011595739628399528   -0.0033311241961178897   -0.0005397664552404315
-0.0010419068757628015   -0.0033659687898689576   -0.0005688892446651778
-0.00148448504303147   -0.006441013888092198   -0.000741902750774418
0.00012809975523967753   -0.0033482621307380543   -0.0005372125998745004
-0.0010329299477663842   -0.0033836865518073926   -0.0005363357140880386
-0.00148448504303147   -0.006441013888092198   -0.000741902750774418
0.0001015744599043769   -0.006421059417251921   -0.0007127834302098133
0.00012809975523967753   -0.0033482621307380543   -0.0005372125998745004
0.00010711248819845466   -0.006422005013696035   -0.0007090586976881855
-0.0010329299477663842   -0.0033836865518073926   -0.0005363357140880386
0.0001365669509415908   -0.0033470884655004474   -0.0005385154738850707
0.00010711248819845466   -0.006422005013696035   -0.0007090586976881855
0.00012809975523967753   -0.0033482621307380543   -0.0005372125998745004
-0.0010329299477663842   -0.0033836865518073926   -0.0005363357140880386
0.00010711248819845466   -0.006422005013696035   -0.0007090586976881855
-0.0014788060845680685   -0.006459556450213181   -0.0007149543267897939
-0.00148448504303147   -0.006441013888092198   -0.000741902750774418
-0.0010329299477663842   -0.0033836865518073926   -0.0005363357140880386
0.00010711248819845466   -0.006422005013696035   -0.0007090586976881855
-0.00148448504303147   -0.006441013888092198   -0.000741902750774418
0.00012809975523967753   -0.0033482621307380543   -0.0005372125998745004
-0.0010329299477663842   -0.0033836865518073926   -0.0005363357140880386
-0.0014788060845680685   -0.006459556450213181   -0.0007149543267897939
0.0001365669509415908   -0.0033470884655004474   -0.0005385154738850707
-0.0010199703062338807   -0.003383321971206936   -0.0005080415876752276
-0.0014788060845680685   -0.006459556450213181   -0.0007149543267897939
0.00010711248819845466   -0.006422005013696035   -0.0007090586976881855
0.0001365669509415908   -0.0033470884655004474   -0.0005385154738850707
0.00011144000801781137   -0.006409846496068485   -0.0007092217012285187
-0.0010199703062338807   -0.003383321971206936   -0.0005080415876752276
0.00014558124670126447   -0.003327048983161932   -0.0005437348811604304
0.00011144000801781137   -0.006409846496068485   -0.0007092217012285187
0.0001365669509415908   -0.0033470884655004474   -0.0005385154738850707
-0.0010199703062338807   -0.003383321971206936   -0.0005080415876752276
0.00011144000801781137   -0.006409846496068485   -0.0007092217012285187
-0.0014701689596034468   -0.006465400950127784   -0.0006917614768345705
-0.0014788060845680685   -0.006459556450213181   -0.0007149543267897939
-0.0010199703062338807   -0.003383321971206936   -0.0005080415876752276
0.00011144000801781137   -0.006409846496068485   -0.0007092217012285187
-0.0014788060845680685   -0.006459556450213181   -0.0007149543267897939
0.0001365669509415908   -0.0033470884655004474   -0.0005385154738850707
0.00011595739628399528   -0.0033311241961178897   -0.0005397664552404315
9.355720315866486e-05   -0.0064072007103352984   -0.0007201771884881306
0.0013540982101964264   -0.003384986825568819   -0.0005097493982578538
0.00012809975523967753   -0.0033482621307380543   -0.0005372125998745004
9.355720315866486e-05   -0.0064072007103352984   -0.0007201771884881306
0.0017443212626116313   -0.006443156026562607   -0.0006993822402818206
0.0013540982101964264   -0.003384986825568819   -0.0005097493982578538
0.00175157804893685   -0.006440800418442419   -0.0007157818451761895
0.00012809975523967753   -0.0033482621307380543   -0.0005372125998745004
0.0013615070290641518   -0.0033845247921407444   -0.0005416730265176442
0.00175157804893685   -0.006440800418442419   -0.0007157818451761895
0.0013540982101964264   -0.003384986825568819   -0.0005097493982578538
0.00012809975523967753   -0.0033482621307380543   -0.0005372125998745004
0.00175157804893685   -0.006440800418442419   -0.0007157818451761895
0.0001015744599043769   -0.006421059417251921   -0.0007127834302098133
9.355720315866486e-05   -0.0064072007103352984   -0.0007201771884881306
0.00012809975523967753   -0.0033482621307380543   -0.0005372125998745004
0.00175157804893685   -0.006440800418442419   -0.0007157818451761895
9.355720315866486e-05   -0.0064072007103352984   -0.0007201771884881306
0.0013540982101964264   -0.003384986825568819   -0.0005097493982578538
0.00012809975523967753   -0.0033482621307380543   -0.0005372125998745004
0.0001015744599043769   -0.006421059417251921   -0.0007127834302098133
0.0013615070290641518   -0.0033845247921407444   -0.0005416730265176442
0.0001365669509415908   -0.0033470884655004474   -0.0005385154738850707
0.0001015744599043769   -0.006421059417251921   -0.0007127834302098133
0.00175157804893685   -0.006440800418442419   -0.0007157818451761895
0.0013615070290641518   -0.0033845247921407444   -0.0005416730265176442
0.0017484157734017995   -0.006425846571834346   -0.0007355808941784597
0.0001365669509415908   -0.0033470884655004474   -0.0005385154738850707
0.0013562795448304698   -0.003366135396791014   -0.0005779593264361189
0.0017484157734017995   -0.006425846571834346   -0.0007355808941784597
0.0013615070290641518   -0.0033845247921407444   -0.0005416730265176442
0.0001365669509415908   -0.0033470884655004474   -0.0005385154738850707
0.0017484157734017995   -0.006425846571834346   -0.0007355808941784597
0.00010711248819845466   -0.006422005013696035   -0.0007090586976881855
0.0001015744599043769   -0.006421059417251921   -0.0007127834302098133
0.0001365669509415908   -0.0033470884655004474   -0.0005385154738850707
0.0017484157734017995   -0.006425846571834346   -0.0007355808941784597
0.0001015744599043769   -0.006421059417251921   -0.0007127834302098133
0.0013615070290641518   -0.0033845247921407444   -0.0005416730265176442
0.0001365669509415908   -0.0033470884655004474   -0.0005385154738850707
0.00010711248819845466   -0.006422005013696035   -0.0007090586976881855
0.0013562795448304698   -0.003366135396791014   -0.0005779593264361189
0.00014558124670126447   -0.003327048983161932   -0.0005437348811604304
0.00010711248819845466   -0.006422005013696035   -0.0007090586976881855
0.0017484157734017995   -0.006425846571834346   -0.0007355808941784597
0.0013562795448304698   -0.003366135396791014   -0.0005779593264361189
0.0017429641294941312   -0.006395132787823298   -0.0007591855719754531
0.00014558124670126447   -0.003327048983161932   -0.0005437348811604304
0.0013536698079906866   -0.0033248325287609038   -0.0006172621234720821
0.0017429641294941312   -0.006395132787823298   -0.0007591855719754531
0.0013562795448304698   -0.003366135396791014   -0.0005779593264361189
0.00014558124670126447   -0.003327048983161932   -0.0005437348811604304
0.0017429641294941312   -0.006395132787823298   -0.0007591855719754531
0.00011144000801781137   -0.006409846496068485   -0.0007092217012285187
0.00010711248819845466   -0.006422005013696035   -0.0007090586976881855
0.00014558124670126447   -0.003327048983161932   -0.0005437348811604304
0.0017429641294941312   -0.006395132787823298   -0.0007591855719754531
0.00010711248819845466   -0.006422005013696035   -0.0007090586976881855
0.0013562795448304698   -0.003366135396791014   -0.0005779593264361189
0.0013540982101964264   -0.003384986825568819   -0.0005097493982578538
0.0017443212626116313   -0.006443156026562607   -0.0006993822402818206
0.002849561842650247   -0.0034849157983681137   -0.0005023608792256932
0.0013615070290641518   -0.0033845247921407444   -0.0005416730265176442
0.0017443212626116313   -0.006443156026562607   -0.0006993822402818206
0.003624955315205231   -0.006508119132769328   -0.0007007138963413275
0.002849561842650247   -0.0034849157983681137   -0.0005023608792256932
0.0035952907727886604   -0.0064963586414866865   -0.000743845523298748
0.0013615070290641518   -0.0033845247921407444   -0.0005416730265176442
0.0027931643881366945   -0.003474997943911426   -0.0005743244906927321
0.0035952907727886604   -0.0064963586414866865   -0.000743845523298748
0.002849561842650247   -0.0034849157983681137   -0.0005023608792256932
0.0013615070290641518   -0.0033845247921407444   -0.0005416730265176442
0.0035952907727886604   -0.0064963586414866865   -0.000743845523298748
0.00175157804893685   -0.006440800418442419   -0.0007157818451761895
0.0017443212626116313   -0.006443156026562607   -0.0006993822402818206
0.0013615070290641518   -0.0033845247921407444   -0.0005416730265176442
0.0035952907727886604   -0.0064963586414866865   -0.000743845523298748
0.0017443212626116313   -0.006443156026562607   -0.0006993822402818206
0.002849561842650247   -0.0034849157983681137   -0.0005023608792256932
0.0013615070290641518   -0.0033845247921407444   -0.0005416730265176442
0.00175157804893685   -0.006440800418442419   -0.0007157818451761895
0.0027931643881366945   -0.003474997943911426   -0.0005743244906927321
0.0013562795448304698   -0.003366135396791014   -0.0005779593264361189
0.00175157804893685   -0.006440800418442419   -0.0007157818451761895
0.0035952907727886604   -0.0064963586414866865   -0.000743845523298748
0.0027931643881366945   -0.003474997943911426   -0.0005743244906927321
0.00356541647951756   -0.006473409226008942   -0.0007931081783707443
0.0013562795448304698   -0.003366135396791014   -0.0005779593264361189
0.0027426284918668307   -0.003446706333969168   -0.0006554547873105675
0.00356541647951756   -0.006473409226008942   -0.0007931081783707443
0.0027931643881366945   -0.003474997943911426   -0.0005743244906927321
0.0013562795448304698   -0.003366135396791014   -0.0005779593264361189
0.00356541647951756   -0.006473409226008942   -0.0007931081783707443
0.0017484157734017995   -0.006425846571834346   -0.0007355808941784597
0.00175157804893685   -0.006440800418442419   -0.0007157818451761895
0.0013562795448304698   -0.003366135396791014   -0.0005779593264361189
0.00356541647951756   -0.006473409226008942   -0.0007931081783707443
0.00175157804893685   -0.006440800418442419   -0.0007157818451761895
0.0027931643881366945   -0.003474997943911426   -0.0005743244906927321
0.0013562795448304698   -0.003366135396791014   -0.0005779593264361189
0.0017484157734017995   -0.006425846571834346   -0.0007355808941784597
0.0027426284918668307   -0.003446706333969168   -0.0006554547873105675
0.0013536698079906866   -0.0033248325287609038   -0.0006172621234720821
0.0017484157734017995   -0.006425846571834346   -0.0007355808941784597
0.00356541647951756   -0.006473409226008942   -0.0007931081783707443
0.0027426284918668307   -0.003446706333969168   -0.0006554547873105675
0.003511135006274078   -0.006425672621765209   -0.000848508836279442
0.0013536698079906866   -0.0033248325287609038   -0.0006172621234720821
0.0026662318575204165   -0.0033841108710956575   -0.0007400135647269537
0.003511135006274078   -0.006425672621765209   -0.000848508836279442
0.0027426284918668307   -0.003446706333969168   -0.0006554547873105675
0.0013536698079906866   -0.0033248325287609038   -0.0006172621234720821
0.003511135006274078   -0.006425672621765209   -0.000848508836279442
0.0017429641294941312   -0.006395132787823298   -0.0007591855719754531
0.0017484157734017995   -0.006425846571834346   -0.0007355808941784597
0.0013536698079906866   -0.0033248325287609038   -0.0006172621234720821
0.003511135006274078   -0.006425672621765209   -0.000848508836279442
0.0017484157734017995   -0.006425846571834346   -0.0007355808941784597
0.0027426284918668307   -0.003446706333969168   -0.0006554547873105675
-0.004852419979829003   -0.006538555260790867   -0.0009798935083494501
-0.005786416945033309   -0.010138143930755196   -0.0010462643969592887
-0.0031206068341662063   -0.006452508046149417   -0.0008575579044458484
-0.0049371603552353415   -0.006606139909924003   -0.0008955869684420478
-0.005786416945033309   -0.010138143930755196   -0.0010462643969592887
-0.0037581561927005256   -0.010083640551733872   -0.0009469407446281994
-0.0031206068341662063   -0.006452508046149417   -0.0008575579044458484
-0.0037615209620516636   -0.010125972254762642   -0.0009083056514089789
-0.0049371603552353415   -0.006606139909924003   -0.0008955869684420478
-0.0031263236902562175   -0.00650191304698296   -0.0008034094096469627
-0.0037615209620516636   -0.010125972254762642   -0.0009083056514089789
-0.0031206068341662063   -0.006452508046149417   -0.0008575579044458484
-0.0049371603552353415   -0.006606139909924003   -0.0008955869684420478
-0.0037615209620516636   -0.010125972254762642   -0.0009083056514089789
-0.005842841243625325   -0.010195470387866093   -0.0009905791738078222
-0.005786416945033309   -0.010138143930755196   -0.0010462643969592887
-0.0049371603552353415   -0.006606139909924003   -0.0008955869684420478
-0.0037615209620516636   -0.010125972254762642   -0.0009083056514089789
-0.005786416945033309   -0.010138143930755196   -0.0010462643969592887
-0.0031206068341662063   -0.006452508046149417   -0.0008575579044458484
-0.0049371603552353415   -0.006606139909924003   -0.0008955869684420478
-0.005842841243625325   -0.010195470387866093   -0.0009905791738078222
-0.0031263236902562175   -0.00650191304698296   -0.0008034094096469627
-0.004990065417828248   -0.006648625281028361   -0.0008170807576935321
-0.005842841243625325   -0.010195470387866093   -0.0009905791738078222
-0.0037615209620516636   -0.010125972254762642   -0.0009083056514089789
-0.0031263236902562175   -0.00650191304698296   -0.0008034094096469627
-0.0037635518700570927   -0.010159631386559339   -0.0008735408754809786
-0.004990065417828248   -0.006648625281028361   -0.0008170807576935321
-0.0031331929788678725   -0.006536387591315959   -0.0007532205824547137
-0.0037635518700570927   -0.010159631386559339   -0.0008735408754809786
-0.0031263236902562175   -0.00650191304698296   -0.0008034094096469627
-0.004990065417828248   -0.006648625281028361   -0.0008170807576935321
-0.0037635518700570927   -0.010159631386559339   -0.0008735408754809786
-0.005874646434653426   -0.010236149150690868   -0.0009402867484993602
-0.005842841243625325   -0.010195470387866093   -0.0009905791738078222
-0.004990065417828248   -0.006648625281028361   -0.0008170807576935321
-0.0037635518700570927   -0.010159631386559339   -0.0008735408754809786
-0.005842841243625325   -0.010195470387866093   -0.0009905791738078222
-0.0031263236902562175   -0.00650191304698296   -0.0008034094096469627
-0.004990065417828248   -0.006648625281028361   -0.0008170807576935321
-0.005874646434653426   -0.010236149150690868   -0.0009402867484993602
-0.0031331929788678725   -0.006536387591315959   -0.0007532205824547137
-0.005050259760908164   -0.006679411081708505   -0.0007449183221927278
-0.005874646434653426   -0.010236149150690868   -0.0009402867484993602
-0.0037635518700570927   -0.010159631386559339   -0.0008735408754809786
-0.0031331929788678725   -0.006536387591315959   -0.0007532205824547137
-0.003754595297165753   -0.010187420107308706   -0.0008421246313314333
-0.005050259760908164   -0.006679411081708505   -0.0007449183221927278
-0.003126129368950318   -0.006559211215597348   -0.000706145054615311
-0.003754595297165753   -0.010187420107308706   -0.0008421246313314333
-0.0031331929788678725   -0.006536387591315959   -0.0007532205824547137
-0.005050259760908164   -0.006679411081708505   -0.0007449183221927278
-0.003754595297165753   -0.010187420107308706   -0.0008421246313314333
-0.005907311409189339   -0.010272815939600093   -0.0008960348508702846
-0.005874646434653426   -0.010236149150690868   -0.0009402867484993602
-0.005050259760908164   -0.006679411081708505   -0.0007449183221927278
-0.003754595297165753   -0.010187420107308706   -0.0008421246313314333
-0.005874646434653426   -0.010236149150690868   -0.0009402867484993602
-0.0031331929788678725   -0.006536387591315959   -0.0007532205824547137
-0.0031206068341662063   -0.006452508046149417   -0.0008575579044458484
-0.0037581561927005256   -0.010083640551733872   -0.0009469407446281994
-0.001489331696471357   -0.006409508420496645   -0.0007726147056179171
-0.0031263236902562175   -0.00650191304698296   -0.0008034094096469627
-0.0037581561927005256   -0.010083640551733872   -0.0009469407446281994
-0.0018576828941851105   -0.010055304994086177   -0.0008782013477405385
-0.001489331696471357   -0.006409508420496645   -0.0007726147056179171
-0.0018530305555643646   -0.010081783517876329   -0.0008525606229828917
-0.0031263236902562175   -0.00650191304698296   -0.0008034094096469627
-0.00148448504303147   -0.006441013888092198   -0.000741902750774418
-0.0018530305555643646   -0.010081783517876329   -0.0008525606229828917
-0.001489331696471357   -0.006409508420496645   -0.0007726147056179171
-0.0031263236902562175   -0.00650191304698296   -0.0008034094096469627
-0.0018530305555643646   -0.010081783517876329   -0.0008525606229828917
-0.0037615209620516636   -0.010125972254762642   -0.0009083056514089789
-0.0037581561927005256   -0.010083640551733872   -0.0009469407446281994
-0.0031263236902562175   -0.00650191304698296   -0.0008034094096469627
-0.0018530305555643646   -0.010081783517876329   -0.0008525606229828917
-0.0037581561927005256   -0.010083640551733872   -0.0009469407446281994
-0.001489331696471357   -0.006409508420496645   -0.0007726147056179171
-0.0031263236902562175   -0.00650191304698296   -0.0008034094096469627
-0.0037615209620516636   -0.010125972254762642   -0.0009083056514089789
-0.00148448504303147   -0.006441013888092198   -0.000741902750774418
-0.0031331929788678725   -0.006536387591315959   -0.0007532205824547137
-0.0037615209620516636   -0.010125972254762642   -0.0009083056514089789
-0.0018530305555643646   -0.010081783517876329   -0.0008525606229828917
-0.00148448504303147   -0.006441013888092198   -0.000741902750774418
-0.0018471015644024027   -0.010100984154354956   -0.0008307262031555988
-0.0031331929788678725   -0.006536387591315959   -0.0007532205824547137
-0.0014788060845680685   -0.006459556450213181   -0.0007149543267897939
-0.0018471015644024027   -0.010100984154354956   -0.0008307262031555988
-0.00148448504303147   -0.006441013888092198   -0.000741902750774418
-0.0031331929788678725   -0.006536387591315959   -0.0007532205824547137
-0.0018471015644024027   -0.010100984154354956   -0.0008307262031555988
-0.0037635518700570927   -0.010159631386559339   -0.0008735408754809786
-0.0037615209620516636   -0.010125972254762642   -0.0009083056514089789
-0.0031331929788678725   -0.006536387591315959   -0.0007532205824547137
-0.0018471015644024027   -0.010100984154354956   -0.0008307262031555988
-0.0037615209620516636   -0.010125972254762642   -0.0009083056514089789
-0.00148448504303147   -0.006441013888092198   -0.000741902750774418
-0.0031331929788678725   -0.006536387591315959   -0.0007532205824547137
-0.0037635518700570927   -0.010159631386559339   -0.0008735408754809786
-0.0014788060845680685   -0.006459556450213181   -0.0007149543267897939
-0.003126129368950318   -0.006559211215597348   -0.000706145054615311
-0.0037635518700570927   -0.010159631386559339   -0.0008735408754809786
-0.0018471015644024027   -0.010100984154354956   -0.0008307262031555988
-0.0014788060845680685   -0.006459556450213181   -0.0007149543267897939
-0.0018387923350652708   -0.010113033990688754   -0.0008127653986964792
-0.003126129368950318   -0.006559211215597348   -0.000706145054615311
-0.0014701689596034468   -0.006465400950127784   -0.0006917614768345705
-0.0018387923350652708   -0.010113033990688754   -0.0008127653986964792
-0.0014788060845680685   -0.006459556450213181   -0.0007149543267897939
-0.003126129368950318   -0.006559211215597348   -0.000706145054615311
-0.0018387923350652708   -0.010113033990688754   -0.0008127653986964792
-0.003754595297165753   -0.010187420107308706   -0.0008421246313314333
-0.0037635518700570927   -0.010159631386559339   -0.0008735408754809786
-0.003126129368950318   -0.006559211215597348   -0.000706145054615311
-0.0018387923350652708   -0.010113033990688754   -0.0008127653986964792
-0.0037635518700570927   -0.010159631386559339   -0.0008735408754809786
-0.0014788060845680685   -0.006459556450213181   -0.0007149543267897939
-0.001489331696471357   -0.006409508420496645   -0.0007726147056179171
-0.0018576828941851105   -0.010055304994086177   -0.0008782013477405385
9.355720315866486e-05   -0.0064072007103352984   -0.0007201771884881306
-0.00148448504303147   -0.006441013888092198   -0.000741902750774418
-0.0018576828941851105   -0.010055304994086177   -0.0008782013477405385
-9.095454878076634e-06   -0.010050328676857819   -0.0008384099303053384
9.355720315866486e-05   -0.0064072007103352984   -0.0007201771884881306
-1.2990575322189484e-06   -0.010060833324922335   -0.0008258783841551325
-0.00148448504303147   -0.006441013888092198   -0.000741902750774418
0.0001015744599043769   -0.006421059417251921   -0.0007127834302098133
-1.2990575322189484e-06   -0.010060833324922335   -0.0008258783841551325
9.355720315866486e-05   -0.0064072007103352984   -0.0007201771884881306
-0.00148448504303147   -0.006441013888092198   -0.000741902750774418
-1.2990575322189484e-06   -0.010060833324922335   -0.0008258783841551325
-0.0018530305555643646   -0.010081783517876329   -0.0008525606229828917
-0.0018576828941851105   -0.010055304994086177   -0.0008782013477405385
-0.00148448504303147   -0.006441013888092198   -0.000741902750774418
-1.2990575322189484e-06   -0.010060833324922335   -0.0008258783841551325
-0.0018576828941851105   -0.010055304994086177   -0.0008782013477405385
9.355720315866486e-05   -0.0064072007103352984   -0.0007201771884881306
-0.00148448504303147   -0.006441013888092198   -0.000741902750774418
-0.0018530305555643646   -0.010081783517876329   -0.0008525606229828917
0.0001015744599043769   -0.006421059417251921   -0.0007127834302098133
-0.0014788060845680685   -0.006459556450213181   -0.0007149543267897939
-0.0018530305555643646   -0.010081783517876329   -0.0008525606229828917
-1.2990575322189484e-06   -0.010060833324922335   -0.0008258783841551325
0.0001015744599043769   -0.006421059417251921   -0.0007127834302098133
4.572354848613449e-06   -0.010064008473451501   -0.0008171089645291934
-0.0014788060845680685   -0.006459556450213181   -0.0007149543267897939
0.00010711248819845466   -0.006422005013696035   -0.0007090586976881855
4.572354848613449e-06   -0.010064008473451501   -0.0008171089645291934
0.0001015744599043769   -0.006421059417251921   -0.0007127834302098133
-0.0014788060845680685   -0.006459556450213181   -0.0007149543267897939
4.572354848613449e-06   -0.010064008473451501   -0.0008171089645291934
-0.0018471015644024027   -0.010100984154354956   -0.0008307262031555988
-0.0018530305555643646   -0.010081783517876329   -0.0008525606229828917
-0.0014788060845680685   -0.006459556450213181   -0.0007149543267897939
4.572354848613449e-06   -0.010064008473451501   -0.0008171089645291934
-0.0018530305555643646   -0.010081783517876329   -0.0008525606229828917
0.0001015744599043769   -0.006421059417251921   -0.0007127834302098133
-0.0014788060845680685   -0.006459556450213181   -0.0007149543267897939
-0.0018471015644024027   -0.010100984154354956   -0.0008307262031555988
0.00010711248819845466   -0.006422005013696035   -0.0007090586976881855
-0.0014701689596034468   -0.006465400950127784   -0.0006917614768345705
-0.0018471015644024027   -0.010100984154354956   -0.0008307262031555988
4.572354848613449e-06   -0.010064008473451501   -0.0008171089645291934
0.00010711248819845466   -0.006422005013696035   -0.0007090586976881855
8.730051932954557e-06   -0.010059752651837933   -0.0008122647217699181
-0.0014701689596034468   -0.006465400950127784   -0.0006917614768345705
0.00011144000801781137   -0.006409846496068485   -0.0007092217012285187
8.730051932954557e-06   -0.010059752651837933   -0.0008122647217699181
0.00010711248819845466   -0.006422005013696035   -0.0007090586976881855
-0.0014701689596034468   -0.006465400950127784   -0.0006917614768345705
8.730051932954557e-06   -0.010059752651837933   -0.0008122647217699181
-0.0018387923350652708   -0.010113033990688754   -0.0008127653986964792
-0.0018471015644024027   -0.010100984154354956   -0.0008307262031555988
-0.0014701689596034468   -0.006465400950127784   -0.0006917614768345705
8.730051932954557e-06   -0.010059752651837933   -0.0008122647217699181
-0.0018471015644024027   -0.010100984154354956   -0.0008307262031555988
0.00010711248819845466   -0.006422005013696035   -0.0007090586976881855
9.355720315866486e-05   -0.0064072007103352984   -0.0007201771884881306
-9.095454878076634e-06   -0.010050328676857819   -0.0008384099303053384
0.0017443212626116313   -0.006443156026562607   -0.0006993822402818206
0.0001015744599043769   -0.006421059417251921   -0.0007127834302098133
-9.095454878076634e-06   -0.010050328676857819   -0.0008384099303053384
0.001903127056909796   -0.010066687960046942   -0.0008274483358856391
0.0017443212626116313   -0.006443156026562607   -0.0006993822402818206
0.0019125052334567154   -0.010062111785091163   -0.0008282932814808938
0.0001015744599043769   -0.006421059417251921   -0.0007127834302098133
0.00175157804893685   -0.006440800418442419   -0.0007157818451761895
0.0019125052334567154   -0.010062111785091163   -0.0008282932814808938
0.0017443212626116313   -0.006443156026562607   -0.0006993822402818206
0.0001015744599043769   -0.006421059417251921   -0.0007127834302098133
0.0019125052334567154   -0.010062111785091163   -0.0008282932814808938
-1.2990575322189484e-06   -0.010060833324922335   -0.0008258783841551325
-9.095454878076634e-06   -0.010050328676857819   -0.0008384099303053384
0.0001015744599043769   -0.006421059417251921   -0.0007127834302098133
0.0019125052334567154   -0.010062111785091163   -0.0008282932814808938
-9.095454878076634e-06   -0.010050328676857819   -0.0008384099303053384
0.0017443212626116313   -0.006443156026562607   -0.0006993822402818206
0.0001015744599043769   -0.006421059417251921   -0.0007127834302098133
-1.2990575322189484e-06   -0.010060833324922335   -0.0008258783841551325
0.00175157804893685   -0.006440800418442419   -0.0007157818451761895
0.00010711248819845466   -0.006422005013696035   -0.0007090586976881855
-1.2990575322189484e-06   -0.010060833324922335   -0.0008258783841551325
0.0019125052334567154   -0.010062111785091163   -0.0008282932814808938
0.00175157804893685   -0.006440800418442419   -0.0007157818451761895
0.0019144367392764099   -0.010050811066663301   -0.0008326947934035614
0.00010711248819845466   -0.006422005013696035   -0.0007090586976881855
0.0017484157734017995   -0.006425846571834346   -0.0007355808941784597
0.0019144367392764099   -0.010050811066663301   -0.0008326947934035614
0.00175157804893685   -0.006440800418442419   -0.0007157818451761895
0.00010711248819845466   -0.006422005013696035   -0.0007090586976881855
0.0019144367392764099   -0.010050811066663301   -0.0008326947934035614
4.572354848613449e-06   -0.010064008473451501   -0.0008171089645291934
-1.2990575322189484e-06   -0.010060833324922335   -0.0008258783841551325
0.00010711248819845466   -0.006422005013696035   -0.0007090586976881855
0.0019144367392764099   -0.010050811066663301   -0.0008326947934035614
-1.2990575322189484e-06   -0.010060833324922335   -0.0008258783841551325
0.00175157804893685   -0.006440800418442419   -0.0007157818451761895
0.00010711248819845466   -0.006422005013696035   -0.0007090586976881855
4.572354848613449e-06   -0.010064008473451501   -0.0008171089645291934
0.0017484157734017995   -0.006425846571834346   -0.0007355808941784597
0.00011144000801781137   -0.006409846496068485   -0.0007092217012285187
4.572354848613449e-06   -0.010064008473451501   -0.0008171089645291934
0.0019144367392764099   -0.010050811066663301   -0.0008326947934035614
0.0017484157734017995   -0.006425846571834346   -0.0007355808941784597
0.0019115020006724558   -0.010030000142496488   -0.0008407923314286255
0.00011144000801781137   -0.006409846496068485   -0.0007092217012285187
0.0017429641294941312   -0.006395132787823298   -0.0007591855719754531
0.0019115020006724558   -0.010030000142496488   -0.0008407923314286255
0.0017484157734017995   -0.006425846571834346   -0.0007355808941784597
0.00011144000801781137   -0.006409846496068485   -0.0007092217012285187
0.0019115020006724558   -0.010030000142496488   -0.0008407923314286255
8.730051932954557e-06   -0.010059752651837933   -0.0008122647217699181
4.572354848613449e-06   -0.010064008473451501   -0.0008171089645291934
0.00011144000801781137   -0.006409846496068485   -0.0007092217012285187
0.0019115020006724558   -0.010030000142496488   -0.0008407923314286255
4.572354848613449e-06   -0.010064008473451501   -0.0008171089645291934
0.0017484157734017995   -0.006425846571834346   -0.0007355808941784597
0.0017443212626116313   -0.006443156026562607   -0.0006993822402818206
0.001903127056909796   -0.010066687960046942   -0.0008274483358856391
0.003624955315205231   -0.006508119132769328   -0.0007007138963413275
0.00175157804893685   -0.006440800418442419   -0.0007157818451761895
0.001903127056909796   -0.010066687960046942   -0.0008274483358856391
0.004014571740911461   -0.010096548839074121   -0.000839227596294908
0.003624955315205231   -0.006508119132769328   -0.0007007138963413275
0.004012821274035646   -0.01008171279471062   -0.0008543731060755297
0.00175157804893685   -0.006440800418442419   -0.0007157818451761895
0.0035952907727886604   -0.0064963586414866865   -0.000743845523298748
0.004012821274035646   -0.01008171279471062   -0.0008543731060755297
0.003624955315205231   -0.006508119132769328   -0.0007007138963413275
0.00175157804893685   -0.006440800418442419   -0.0007157818451761895
0.004012821274035646   -0.01008171279471062   -0.0008543731060755297
0.0019125052334567154   -0.010062111785091163   -0.0008282932814808938
0.001903127056909796   -0.010066687960046942   -0.0008274483358856391
0.00175157804893685   -0.006440800418442419   -0.0007157818451761895
0.004012821274035646   -0.01008171279471062   -0.0008543731060755297
0.001903127056909796   -0.010066687960046942   -0.0008274483358856391
0.003624955315205231   -0.006508119132769328   -0.0007007138963413275
0.00175157804893685   -0.006440800418442419   -0.0007157818451761895
0.0019125052334567154   -0.010062111785091163   -0.0008282932814808938
0.0035952907727886604   -0.0064963586414866865   -0.000743845523298748
0.0017484157734017995   -0.006425846571834346   -0.0007355808941784597
0.0019125052334567154   -0.010062111785091163   -0.0008282932814808938
0.004012821274035646   -0.01008171279471062   -0.0008543731060755297
0.0035952907727886604   -0.0064963586414866865   -0.000743845523298748
0.004004493952258269   -0.010063369363200458   -0.0008752971297930674
0.0017484157734017995   -0.006425846571834346   -0.0007355808941784597
0.00356541647951756   -0.006473409226008942   -0.0007931081783707443
0.004004493952258269   -0.010063369363200458   -0.0008752971297930674
0.0035952907727886604   -0.0064963586414866865   -0.000743845523298748
0.0017484157734017995   -0.006425846571834346   -0.0007355808941784597
0.004004493952258269   -0.010063369363200458   -0.0008752971297930674
0.0019144367392764099   -0.010050811066663301   -0.0008326947934035614
0.0019125052334567154   -0.010062111785091163   -0.0008282932814808938
0.0017484157734017995   -0.006425846571834346   -0.0007355808941784597
0.004004493952258269   -0.010063369363200458   -0.0008752971297930674
0.0019125052334567154   -0.010062111785091163   -0.0008282932814808938
0.0035952907727886604   -0.0064963586414866865   -0.000743845523298748
0.0017484157734017995   -0.006425846571834346   -0.0007355808941784597
0.0019144367392764099   -0.010050811066663301   -0.0008326947934035614
0.00356541647951756   -0.006473409226008942   -0.0007931081783707443
0.0017429641294941312   -0.006395132787823298   -0.0007591855719754531
0.0019144367392764099   -0.010050811066663301   -0.0008326947934035614
0.004004493952258269   -0.010063369363200458   -0.0008752971297930674
0.00356541647951756   -0.006473409226008942   -0.0007931081783707443
0.003978933769633496   -0.010028790020008874   -0.0009019575916148682
0.0017429641294941312   -0.006395132787823298   -0.0007591855719754531
0.003511135006274078   -0.006425672621765209   -0.000848508836279442
0.003978933769633496   -0.010028790020008874   -0.0009019575916148682
0.00356541647951756   -0.006473409226008942   -0.0007931081783707443
0.0017429641294941312   -0.006395132787823298   -0.0007591855719754531
0.003978933769633496   -0.010028790020008874   -0.0009019575916148682
0.0019115020006724558   -0.010030000142496488   -0.0008407923314286255
0.0019144367392764099   -0.010050811066663301   -0.0008326947934035614
0.0017429641294941312   -0.006395132787823298   -0.0007591855719754531
0.003978933769633496   -0.010028790020008874   -0.0009019575916148682
0.0019144367392764099   -0.010050811066663301   -0.0008326947934035614
0.00356541647951756   -0.006473409226008942   -0.0007931081783707443
-0.005786416945033309   -0.010138143930755196   -0.0010462643969592887
-0.006348155646207572   -0.014047446871323465   -0.0010667813222974658
-0.0037581561927005256   -0.010083640551733872   -0.0009469407446281994
-0.005842841243625325   -0.010195470387866093   -0.0009905791738078222
-0.006348155646207572   -0.014047446871323465   -0.0010667813222974658
-0.004175086793119235   -0.014025456388526038   -0.0009880379584022237
-0.0037581561927005256   -0.010083640551733872   -0.0009469407446281994
-0.004172438919705726   -0.01406141076802623   -0.0009644270102022596
-0.005842841243625325   -0.010195470387866093   -0.0009905791738078222
-0.0037615209620516636   -0.010125972254762642   -0.0009083056514089789
-0.004172438919705726   -0.01406141076802623   -0.0009644270102022596
-0.0037581561927005256   -0.010083640551733872   -0.0009469407446281994
-0.005842841243625325   -0.010195470387866093   -0.0009905791738078222
-0.004172438919705726   -0.01406141076802623   -0.0009644270102022596
-0.006373790876701312   -0.014095832192206167   -0.0010383353736597445
-0.006348155646207572   -0.014047446871323465   -0.0010667813222974658
-0.005842841243625325   -0.010195470387866093   -0.0009905791738078222
-0.004172438919705726   -0.01406141076802623   -0.0009644270102022596
-0.006348155646207572   -0.014047446871323465   -0.0010667813222974658
-0.0037581561927005256   -0.010083640551733872   -0.0009469407446281994
-0.005842841243625325   -0.010195470387866093   -0.0009905791738078222
-0.006373790876701312   -0.014095832192206167   -0.0010383353736597445
-0.0037615209620516636   -0.010125972254762642   -0.0009083056514089789
-0.005874646434653426   -0.010236149150690868   -0.0009402867484993602
-0.006373790876701312   -0.014095832192206167   -0.0010383353736597445
-0.004172438919705726   -0.01406141076802623   -0.0009644270102022596
-0.0037615209620516636   -0.010125972254762642   -0.0009083056514089789
-0.0041658516441419   -0.014094694842308802   -0.0009447402249911502
-0.005874646434653426   -0.010236149150690868   -0.0009402867484993602
-0.0037635518700570927   -0.010159631386559339   -0.0008735408754809786
-0.0041658516441419   -0.014094694842308802   -0.0009447402249911502
-0.0037615209620516636   -0.010125972254762642   -0.0009083056514089789
-0.005874646434653426   -0.010236149150690868   -0.0009402867484993602
-0.0041658516441419   -0.014094694842308802   -0.0009447402249911502
-0.006381143947904099   -0.014135437459042229   -0.00101553406979568
-0.006373790876701312   -0.014095832192206167   -0.0010383353736597445
-0.005874646434653426   -0.010236149150690868   -0.0009402867484993602
-0.0041658516441419   -0.014094694842308802   -0.0009447402249911502
-0.006373790876701312   -0.014095832192206167   -0.0010383353736597445
-0.0037615209620516636   -0.010125972254762642   -0.0009083056514089789
-0.005874646434653426   -0.010236149150690868   -0.0009402867484993602
-0.006381143947904099   -0.014135437459042229   -0.00101553406979568
-0.0037635518700570927   -0.010159631386559339   -0.0008735408754809786
-0.005907311409189339   -0.010272815939600093   -0.0008960348508702846
-0.006381143947904099   -0.014135437459042229   -0.00101553406979568
-0.0041658516441419   -0.014094694842308802   -0.0009447402249911502
-0.0037635518700570927   -0.010159631386559339   -0.0008735408754809786
-0.0041511199512475625   -0.014127856640530467   -0.0009286927022879223
-0.005907311409189339   -0.010272815939600093   -0.0008960348508702846
-0.003754595297165753   -0.010187420107308706   -0.0008421246313314333
-0.0041511199512475625   -0.014127856640530467   -0.0009286927022879223
-0.0037635518700570927   -0.010159631386559339   -0.0008735408754809786
-0.005907311409189339   -0.010272815939600093   -0.0008960348508702846
-0.0041511199512475625   -0.014127856640530467   -0.0009286927022879223
-0.006382698821109002   -0.014178632210648991   -0.0009988733689398736
-0.006381143947904099   -0.014135437459042229   -0.00101553406979568
-0.005907311409189339   -0.010272815939600093   -0.0008960348508702846
-0.0041511199512475625   -0.014127856640530467   -0.0009286927022879223
-0.006381143947904099   -0.014135437459042229   -0.00101553406979568
-0.0037635518700570927   -0.010159631386559339   -0.0008735408754809786
-0.0037581561927005256   -0.010083640551733872   -0.0009469407446281994
-0.004175086793119235   -0.014025456388526038   -0.0009880379584022237
-0.0018576828941851105   -0.010055304994086177   -0.0008782013477405385
-0.0037615209620516636   -0.010125972254762642   -0.0009083056514089789
-0.004175086793119235   -0.014025456388526038   -0.0009880379584022237
-0.0021566904844129166   -0.014012612997044071   -0.0009344644783546764
-0.0018576828941851105   -0.010055304994086177   -0.0008782013477405385
-0.0021481837208276264   -0.014034291264904346   -0.000913718845011149
-0.0037615209620516636   -0.010125972254762642   -0.0009083056514089789
-0.0018530305555643646   -0.010081783517876329   -0.0008525606229828917
-0.0021481837208276264   -0.014034291264904346   -0.000913718845011149
-0.0018576828941851105   -0.010055304994086177   -0.0008782013477405385
-0.0037615209620516636   -0.010125972254762642   -0.0009083056514089789
-0.0021481837208276264   -0.014034291264904346   -0.000913718845011149
-0.004172438919705726   -0.01406141076802623   -0.0009644270102022596
-0.004175086793119235   -0.014025456388526038   -0.0009880379584022237
-0.0037615209620516636   -0.010125972254762642   -0.0009083056514089789
-0.0021481837208276264   -0.014034291264904346   -0.000913718845011149
-0.004175086793119235   -0.014025456388526038   -0.0009880379584022237
-0.0018576828941851105   -0.010055304994086177   -0.0008782013477405385
-0.0037615209620516636   -0.010125972254762642   -0.0009083056514089789
-0.004172438919705726   -0.01406141076802623   -0.0009644270102022596
-0.0018530305555643646   -0.010081783517876329   -0.0008525606229828917
-0.0037635518700570927   -0.010159631386559339   -0.0008735408754809786
-0.004172438919705726   -0.01406141076802623   -0.0009644270102022596
-0.0021481837208276264   -0.014034291264904346   -0.000913718845011149
-0.0018530305555643646   -0.010081783517876329   -0.0008525606229828917
-0.00213798659918053   -0.014054266821305263   -0.0008968953203852894
-0.0037635518700570927   -0.010159631386559339   -0.0008735408754809786
-0.0018471015644024027   -0.010100984154354956   -0.0008307262031555988
-0.00213798659918053   -0.014054266821305263   -0.0008968953203852894
-0.0018530305555643646   -0.010081783517876329   -0.0008525606229828917
-0.0037635518700570927   -0.010159631386559339   -0.0008735408754809786
-0.00213798659918053   -0.014054266821305263   -0.0008968953203852894
-0.0041658516441419   -0.014094694842308802   -0.0009447402249911502
-0.004172438919705726   -0.01406141076802623   -0.0009644270102022596
-0.0037635518700570927   -0.010159631386559339   -0.0008735408754809786
-0.00213798659918053   -0.014054266821305263   -0.0008968953203852894
-0.004172438919705726   -0.01406141076802623   -0.0009644270102022596
-0.0018530305555643646   -0.010081783517876329   -0.0008525606229828917
-0.0037635518700570927   -0.010159631386559339   -0.0008735408754809786
-0.0041658516441419   -0.014094694842308802   -0.0009447402249911502
-0.0018471015644024027   -0.010100984154354956   -0.0008307262031555988
-0.003754595297165753   -0.010187420107308706   -0.0008421246313314333
-0.0041658516441419   -0.014094694842308802   -0.0009447402249911502
-0.00213798659918053   -0.014054266821305263   -0.0008968953203852894
-0.0018471015644024027   -0.010100984154354956   -0.0008307262031555988
-0.002125913767621994   -0.014072607311152492   -0.0008840932488397544
-0.003754595297165753   -0.010187420107308706   -0.0008421246313314333
-0.0018387923350652708   -0.010113033990688754   -0.0008127653986964792
-0.002125913767621994   -0.014072607311152492   -0.0008840932488397544
-0.0018471015644024027   -0.010100984154354956   -0.0008307262031555988
-0.003754595297165753   -0.010187420107308706   -0.0008421246313314333
-0.002125913767621994   -0.014072607311152492   -0.0008840932488397544
-0.0041511199512475625   -0.014127856640530467   -0.0009286927022879223
-0.0041658516441419   -0.014094694842308802   -0.0009447402249911502
-0.003754595297165753   -0.010187420107308706   -0.0008421246313314333
-0.002125913767621994   -0.014072607311152492   -0.0008840932488397544
-0.0041658516441419   -0.014094694842308802   -0.0009447402249911502
-0.0018471015644024027   -0.010100984154354956   -0.0008307262031555988
-0.0018576828941851105   -0.010055304994086177   -0.0008782013477405385
-0.0021566904844129166   -0.014012612997044071   -0.0009344644783546764
-9.095454878076634e-06   -0.010050328676857819   -0.0008384099303053384
-0.0018530305555643646   -0.010081783517876329   -0.0008525606229828917
-0.0021566904844129166   -0.014012612997044071   -0.0009344644783546764
-0.00019296764500674243   -0.014005107459362664   -0.0009070197674959368
-9.095454878076634e-06   -0.010050328676857819   -0.0008384099303053384
-0.0001814345630893919   -0.014012207110418297   -0.0008893586628006284
-0.0018530305555643646   -0.010081783517876329   -0.0008525606229828917
-1.2990575322189484e-06   -0.010060833324922335   -0.0008258783841551325
-0.0001814345630893919   -0.014012207110418297   -0.0008893586628006284
-9.095454878076634e-06   -0.010050328676857819   -0.0008384099303053384
-0.0018530305555643646   -0.010081783517876329   -0.0008525606229828917
-0.0001814345630893919   -0.014012207110418297   -0.0008893586628006284
-0.0021481837208276264   -0.014034291264904346   -0.000913718845011149
-0.0021566904844129166   -0.014012612997044071   -0.0009344644783546764
-0.0018530305555643646   -0.010081783517876329   -0.0008525606229828917
-0.0001814345630893919   -0.014012207110418297   -0.0008893586628006284
-0.0021566904844129166   -0.014012612997044071   -0.0009344644783546764
-9.095454878076634e-06   -0.010050328676857819   -0.0008384099303053384
-0.0018530305555643646   -0.010081783517876329   -0.0008525606229828917
-0.0021481837208276264   -0.014034291264904346   -0.000913718845011149
-1.2990575322189484e-06   -0.010060833324922335   -0.0008258783841551325
-0.0018471015644024027   -0.010100984154354956   -0.0008307262031555988
-0.0021481837208276264   -0.014034291264904346   -0.000913718845011149
-0.0001814345630893919   -0.014012207110418297   -0.0008893586628006284
-1.2990575322189484e-06   -0.010060833324922335   -0.0008258783841551325
-0.00017132320514616647   -0.014017478080060033   -0.000875590170024934
-0.0018471015644024027   -0.010100984154354956   -0.0008307262031555988
4.572354848613449e-06   -0.010064008473451501   -0.0008171089645291934
-0.00017132320514616647   -0.014017478080060033   -0.000875590170024934
-1.2990575322189484e-06   -0.010060833324922335   -0.0008258783841551325
-0.0018471015644024027   -0.010100984154354956   -0.0008307262031555988
-0.00017132320514616647   -0.014017478080060033   -0.000875590170024934
-0.00213798659918053   -0.014054266821305263   -0.0008968953203852894
-0.0021481837208276264   -0.014034291264904346   -0.000913718845011149
-0.0018471015644024027   -0.010100984154354956   -0.0008307262031555988
-0.00017132320514616647   -0.014017478080060033   -0.000875590170024934
-0.0021481837208276264   -0.014034291264904346   -0.000913718845011149
-1.2990575322189484e-06   -0.010060833324922335   -0.0008258783841551325
-0.0018471015644024027   -0.010100984154354956   -0.0008307262031555988
-0.00213798659918053   -0.014054266821305263   -0.0008968953203852894
4.572354848613449e-06   -0.010064008473451501   -0.0008171089645291934
-0.0018387923350652708   -0.010113033990688754   -0.0008127653986964792
-0.00213798659918053   -0.014054266821305263   -0.0008968953203852894
-0.00017132320514616647   -0.014017478080060033   -0.000875590170024934
4.572354848613449e-06   -0.010064008473451501   -0.0008171089645291934
-0.00016336658641868886   -0.014020890043106344   -0.0008658534549884042
-0.0018387923350652708   -0.010113033990688754   -0.0008127653986964792
8.730051932954557e-06   -0.010059752651837933   -0.0008122647217699181
-0.00016336658641868886   -0.014020890043106344   -0.0008658534549884042
4.572354848613449e-06   -0.010064008473451501   -0.0008171089645291934
-0.0018387923350652708   -0.010113033990688754   -0.0008127653986964792
-0.00016336658641868886   -0.014020890043106344   -0.0008658534549884042
-0.002125913767621994   -0.014072607311152492   -0.0008840932488397544
-0.00213798659918053   -0.014054266821305263   -0.0008968953203852894
-0.0018387923350652708   -0.010113033990688754   -0.0008127653986964792
-0.00016336658641868886   -0.014020890043106344   -0.0008658534549884042
-0.00213798659918053   -0.014054266821305263   -0.0008968953203852894
4.572354848613449e-06   -0.010064008473451501   -0.0008171089645291934
-9.095454878076634e-06   -0.010050328676857819   -0.0008384099303053384
-0.00019296764500674243   -0.014005107459362664   -0.0009070197674959368
0.001903127056909796   -0.010066687960046942   -0.0008274483358856391
-1.2990575322189484e-06   -0.010060833324922335   -0.0008258783841551325
-0.00019296764500674243   -0.014005107459362664   -0.0009070197674959368
0.0018304742848821243   -0.014001638974173745   -0.0009059885599410967
0.001903127056909796   -0.010066687960046942   -0.0008274483358856391
0.0018455216885030648   -0.013994587364046544   -0.000891561619721735
-1.2990575322189484e-06   -0.010060833324922335   -0.0008258783841551325
0.0019125052334567154   -0.010062111785091163   -0.0008282932814808938
0.0018455216885030648   -0.013994587364046544   -0.000891561619721735
0.001903127056909796   -0.010066687960046942   -0.0008274483358856391
-1.2990575322189484e-06   -0.010060833324922335   -0.0008258783841551325
0.0018455216885030648   -0.013994587364046544   -0.000891561619721735
-0.0001814345630893919   -0.014012207110418297   -0.0008893586628006284
-0.00019296764500674243   -0.014005107459362664   -0.0009070197674959368
-1.2990575322189484e-06   -0.010060833324922335   -0.0008258783841551325
0.0018455216885030648   -0.013994587364046544   -0.000891561619721735
-0.00019296764500674243   -0.014005107459362664   -0.0009070197674959368
0.001903127056909796   -0.010066687960046942   -0.0008274483358856391
-1.2990575322189484e-06   -0.010060833324922335   -0.0008258783841551325
-0.0001814345630893919   -0.014012207110418297   -0.0008893586628006284
0.0019125052334567154   -0.010062111785091163   -0.0008282932814808938
4.572354848613449e-06   -0.010064008473451501   -0.0008171089645291934
-0.0001814345630893919   -0.014012207110418297   -0.0008893586628006284
0.0018455216885030648   -0.013994587364046544   -0.000891561619721735
0.0019125052334567154   -0.010062111785091163   -0.0008282932814808938
0.0018560101981630204   -0.013986552100739178   -0.00088091231881052
4.572354848613449e-06   -0.010064008473451501   -0.0008171089645291934
0.0019144367392764099   -0.010050811066663301   -0.0008326947934035614
0.0018560101981630204   -0.013986552100739178   -0.00088091231881052
0.0019125052334567154   -0.010062111785091163   -0.0008282932814808938
4.572354848613449e-06   -0.010064008473451501   -0.0008171089645291934
0.0018560101981630204   -0.013986552100739178   -0.00088091231881052
-0.00017132320514616647   -0.014017478080060033   -0.000875590170024934
-0.0001814345630893919   -0.014012207110418297   -0.0008893586628006284
4.572354848613449e-06   -0.010064008473451501   -0.0008171089645291934
0.0018560101981630204   -0.013986552100739178   -0.00088091231881052
-0.0001814345630893919   -0.014012207110418297   -0.0008893586628006284
0.0019125052334567154   -0.010062111785091163   -0.0008282932814808938
4.572354848613449e-06   -0.010064008473451501   -0.0008171089645291934
-0.00017132320514616647   -0.014017478080060033   -0.000875590170024934
0.0019144367392764099   -0.010050811066663301   -0.0008326947934035614
8.730051932954557e-06   -0.010059752651837933   -0.0008122647217699181
-0.00017132320514616647   -0.014017478080060033   -0.000875590170024934
0.0018560101981630204   -0.013986552100739178   -0.00088091231881052
0.0019144367392764099   -0.010050811066663301   -0.0008326947934035614
0.0018590262138666275   -0.01397495546506051   -0.0008739657151759599
8.730051932954557e-06   -0.010059752651837933   -0.0008122647217699181
0.0019115020006724558   -0.010030000142496488   -0.0008407923314286255
0.0018590262138666275   -0.01397495546506051   -0.0008739657151759599
0.0019144367392764099   -0.010050811066663301   -0.0008326947934035614
8.730051932954557e-06   -0.010059752651837933   -0.0008122647217699181
0.0018590262138666275   -0.01397495546506051   -0.0008739657151759599
-0.00016336658641868886   -0.014020890043106344   -0.0008658534549884042
-0.00017132320514616647   -0.014017478080060033   -0.000875590170024934
8.730051932954557e-06   -0.010059752651837933   -0.0008122647217699181
0.0018590262138666275   -0.01397495546506051   -0.0008739657151759599
-0.00017132320514616647   -0.014017478080060033   -0.000875590170024934
0.0019144367392764099   -0.010050811066663301   -0.0008326947934035614
0.001903127056909796   -0.010066687960046942   -0.0008274483358856391
0.0018304742848821243   -0.014001638974173745   -0.0009059885599410967
0.004014571740911461   -0.010096548839074121   -0.000839227596294908
0.0019125052334567154   -0.010062111785091163   -0.0008282932814808938
0.0018304742848821243   -0.014001638974173745   -0.0009059885599410967
0.004022395116832904   -0.013996538453955026   -0.000928893877554259
0.004014571740911461   -0.010096548839074121   -0.000839227596294908
0.004051465161823683   -0.013978265110508944   -0.000916680980749939
0.0019125052334567154   -0.010062111785091163   -0.0008282932814808938
0.004012821274035646   -0.01008171279471062   -0.0008543731060755297
0.004051465161823683   -0.013978265110508944   -0.000916680980749939
0.004014571740911461   -0.010096548839074121   -0.000839227596294908
0.0019125052334567154   -0.010062111785091163   -0.0008282932814808938
0.004051465161823683   -0.013978265110508944   -0.000916680980749939
0.0018455216885030648   -0.013994587364046544   -0.000891561619721735
0.0018304742848821243   -0.014001638974173745   -0.0009059885599410967
0.0019125052334567154   -0.010062111785091163   -0.0008282932814808938
0.004051465161823683   -0.013978265110508944   -0.000916680980749939
0.0018304742848821243   -0.014001638974173745   -0.0009059885599410967
0.004014571740911461   -0.010096548839074121   -0.000839227596294908
0.0019125052334567154   -0.010062111785091163   -0.0008282932814808938
0.0018455216885030648   -0.013994587364046544   -0.000891561619721735
0.004012821274035646   -0.01008171279471062   -0.0008543731060755297
0.0019144367392764099   -0.010050811066663301   -0.0008326947934035614
0.0018455216885030648   -0.013994587364046544   -0.000891561619721735
0.004051465161823683   -0.013978265110508944   -0.000916680980749939
0.004012821274035646   -0.01008171279471062   -0.0008543731060755297
0.0040674945917138425   -0.01396393774015252   -0.0009102199425985717
0.0019144367392764099   -0.010050811066663301   -0.0008326947934035614
0.004004493952258269   -0.010063369363200458   -0.0008752971297930674
0.0040674945917138425   -0.01396393774015252   -0.0009102199425985717
0.004012821274035646   -0.01008171279471062   -0.0008543731060755297
0.0019144367392764099   -0.010050811066663301   -0.0008326947934035614
0.0040674945917138425   -0.01396393774015252   -0.0009102199425985717
0.0018560101981630204   -0.013986552100739178   -0.00088091231881052
0.0018455216885030648   -0.013994587364046544   -0.000891561619721735
0.0019144367392764099   -0.010050811066663301   -0.0008326947934035614
0.0040674945917138425   -0.01396393774015252   -0.0009102199425985717
0.0018455216885030648   -0.013994587364046544   -0.000891561619721735
0.004012821274035646   -0.01008171279471062   -0.0008543731060755297
0.0019144367392764099   -0.010050811066663301   -0.0008326947934035614
0.0018560101981630204   -0.013986552100739178   -0.00088091231881052
0.004004493952258269   -0.010063369363200458   -0.0008752971297930674
0.0019115020006724558   -0.010030000142496488   -0.0008407923314286255
0.0018560101981630204   -0.013986552100739178   -0.00088091231881052
0.0040674945917138425   -0.01396393774015252   -0.0009102199425985717
0.004004493952258269   -0.010063369363200458   -0.0008752971297930674
0.004072795811945928   -0.013941271433493111   -0.0009096093016895408
0.0019115020006724558   -0.010030000142496488   -0.0008407923314286255
0.003978933769633496   -0.010028790020008874   -0.0009019575916148682
0.004072795811945928   -0.013941271433493111   -0.0009096093016895408
0.004004493952258269   -0.010063369363200458   -0.0008752971297930674
0.0019115020006724558   -0.010030000142496488   -0.0008407923314286255
0.004072795811945928   -0.013941271433493111   -0.0009096093016895408
0.0018590262138666275   -0.01397495546506051   -0.0008739657151759599
0.0018560101981630204   -0.013986552100739178   -0.00088091231881052
0.0019115020006724558   -0.010030000142496488   -0.0008407923314286255
0.004072795811945928   -0.013941271433493111   -0.0009096093016895408
0.0018560101981630204   -0.013986552100739178   -0.00088091231881052
0.004004493952258269   -0.010063369363200458   -0.0008752971297930674
-0.006348155646207572   -0.014047446871323465   -0.0010667813222974658
-0.006539956631340846   -0.01801876668385971   -0.001050057493126436
-0.004175086793119235   -0.014025456388526038   -0.0009880379584022237
-0.006373790876701312   -0.014095832192206167   -0.0010383353736597445
-0.006539956631340846   -0.01801876668385971   -0.001050057493126436
-0.004373220212300662   -0.018029337148449644   -0.0009921522577906632
-0.004175086793119235   -0.014025456388526038   -0.0009880379584022237
-0.004360866705989489   -0.01805883976455715   -0.000983253750578411
-0.006373790876701312   -0.014095832192206167   -0.0010383353736597445
-0.004172438919705726   -0.01406141076802623   -0.0009644270102022596
-0.004360866705989489   -0.01805883976455715   -0.000983253750578411
-0.004175086793119235   -0.014025456388526038   -0.0009880379584022237
-0.006373790876701312   -0.014095832192206167   -0.0010383353736597445
-0.004360866705989489   -0.01805883976455715   -0.000983253750578411
-0.006531423986266086   -0.018058281153156625   -0.0010485750990447853
-0.006539956631340846   -0.01801876668385971   -0.001050057493126436
-0.006373790876701312   -0.014095832192206167   -0.0010383353736597445
-0.004360866705989489   -0.01805883976455715   -0.000983253750578411
-0.006539956631340846   -0.01801876668385971   -0.001050057493126436
-0.004175086793119235   -0.014025456388526038   -0.0009880379584022237
-0.006373790876701312   -0.014095832192206167   -0.0010383353736597445
-0.006531423986266086   -0.018058281153156625   -0.0010485750990447853
-0.004172438919705726   -0.01406141076802623   -0.0009644270102022596
-0.006381143947904099   -0.014135437459042229   -0.00101553406979568
-0.006531423986266086   -0.018058281153156625   -0.0010485750990447853
-0.004360866705989489   -0.01805883976455715   -0.000983253750578411
-0.004172438919705726   -0.01406141076802623   -0.0009644270102022596
-0.004341990976108787   -0.018091673121253104   -0.0009783699133022088
-0.006381143947904099   -0.014135437459042229   -0.00101553406979568
-0.0041658516441419   -0.014094694842308802   -0.0009447402249911502
-0.004341990976108787   -0.018091673121253104   -0.0009783699133022088
-0.004172438919705726   -0.01406141076802623   -0.0009644270102022596
-0.006381143947904099   -0.014135437459042229   -0.00101553406979568
-0.004341990976108787   -0.018091673121253104   -0.0009783699133022088
-0.006510649103420615   -0.018096824714575743   -0.0010530886173410064
-0.006531423986266086   -0.018058281153156625   -0.0010485750990447853
-0.006381143947904099   -0.014135437459042229   -0.00101553406979568
-0.004341990976108787   -0.018091673121253104   -0.0009783699133022088
-0.006531423986266086   -0.018058281153156625   -0.0010485750990447853
-0.004172438919705726   -0.01406141076802623   -0.0009644270102022596
-0.006381143947904099   -0.014135437459042229   -0.00101553406979568
-0.006510649103420615   -0.018096824714575743   -0.0010530886173410064
-0.0041658516441419   -0.014094694842308802   -0.0009447402249911502
-0.006382698821109002   -0.014178632210648991   -0.0009988733689398736
-0.006510649103420615   -0.018096824714575743   -0.0010530886173410064
-0.004341990976108787   -0.018091673121253104   -0.0009783699133022088
-0.0041658516441419   -0.014094694842308802   -0.0009447402249911502
-0.0043177800431933   -0.01813010822061984   -0.0009774250653291508
-0.006382698821109002   -0.014178632210648991   -0.0009988733689398736
-0.0041511199512475625   -0.014127856640530467   -0.0009286927022879223
-0.0043177800431933   -0.01813010822061984   -0.0009774250653291508
-0.0041658516441419   -0.014094694842308802   -0.0009447402249911502
-0.006382698821109002   -0.014178632210648991   -0.0009988733689398736
-0.0043177800431933   -0.01813010822061984   -0.0009774250653291508
-0.006477474816271384   -0.01814663227081082   -0.001063914546567086
-0.006510649103420615   -0.018096824714575743   -0.0010530886173410064
-0.006382698821109002   -0.014178632210648991   -0.0009988733689398736
-0.0043177800431933   -0.01813010822061984   -0.0009774250653291508
-0.006510649103420615   -0.018096824714575743   -0.0010530886173410064
-0.0041658516441419   -0.014094694842308802   -0.0009447402249911502
-0.004175086793119235   -0.014025456388526038   -0.0009880379584022237
-0.004373220212300662   -0.018029337148449644   -0.0009921522577906632
-0.0021566904844129166   -0.014012612997044071   -0.0009344644783546764
-0.004172438919705726   -0.01406141076802623   -0.0009644270102022596
-0.004373220212300662   -0.018029337148449644   -0.0009921522577906632
-0.0023878884945623064   -0.018031474687838358   -0.0009537047841107543
-0.0021566904844129166   -0.014012612997044071   -0.0009344644783546764
-0.0023716237396394393   -0.0180483145273007   -0.00093768726794734
-0.004172438919705726   -0.01406141076802623   -0.0009644270102022596
-0.0021481837208276264   -0.014034291264904346   -0.000913718845011149
-0.0023716237396394393   -0.0180483145273007   -0.00093768726794734
-0.0021566904844129166   -0.014012612997044071   -0.0009344644783546764
-0.004172438919705726   -0.01406141076802623   -0.0009644270102022596
-0.0023716237396394393   -0.0180483145273007   -0.00093768726794734
-0.004360866705989489   -0.01805883976455715   -0.000983253750578411
-0.004373220212300662   -0.018029337148449644   -0.0009921522577906632
-0.004172438919705726   -0.01406141076802623   -0.0009644270102022596
-0.0023716237396394393   -0.0180483145273007   -0.00093768726794734
-0.004373220212300662   -0.018029337148449644   -0.0009921522577906632
-0.0021566904844129166   -0.014012612997044071   -0.0009344644783546764
-0.004172438919705726   -0.01406141076802623   -0.0009644270102022596
-0.004360866705989489   -0.01805883976455715   -0.000983253750578411
-0.0021481837208276264   -0.014034291264904346   -0.000913718845011149
-0.0041658516441419   -0.014094694842308802   -0.0009447402249911502
-0.004360866705989489   -0.01805883976455715   -0.000983253750578411
-0.0023716237396394393   -0.0180483145273007   -0.00093768726794734
-0.0021481837208276264   -0.014034291264904346   -0.000913718845011149
-0.0023533505466379317   -0.01806892570333816   -0.0009256955725846498
-0.0041658516441419   -0.014094694842308802   -0.0009447402249911502
-0.00213798659918053   -0.014054266821305263   -0.0008968953203852894
-0.0023533505466379317   -0.01806892570333816   -0.0009256955725846498
-0.0021481837208276264   -0.014034291264904346   -0.000913718845011149
-0.0041658516441419   -0.014094694842308802   -0.0009447402249911502
-0.0023533505466379317   -0.01806892570333816   -0.0009256955725846498
-0.004341990976108787   -0.018091673121253104   -0.0009783699133022088
-0.004360866705989489   -0.01805883976455715   -0.000983253750578411
-0.0041658516441419   -0.014094694842308802   -0.0009447402249911502
-0.0023533505466379317   -0.01806892570333816   -0.0009256955725846498
-0.004360866705989489   -0.01805883976455715   -0.000983253750578411
-0.0021481837208276264   -0.014034291264904346   -0.000913718845011149
-0.0041658516441419   -0.014094694842308802   -0.0009447402249911502
-0.004341990976108787   -0.018091673121253104   -0.0009783699133022088
-0.00213798659918053   -0.014054266821305263   -0.0008968953203852894
-0.0041511199512475625   -0.014127856640530467   -0.0009286927022879223
-0.004341990976108787   -0.018091673121253104   -0.0009783699133022088
-0.0023533505466379317   -0.01806892570333816   -0.0009256955725846498
-0.00213798659918053   -0.014054266821305263   -0.0008968953203852894
-0.0023337008570648537   -0.018093372784015363   -0.0009178658119534849
-0.0041511199512475625   -0.014127856640530467   -0.0009286927022879223
-0.002125913767621994   -0.014072607311152492   -0.0008840932488397544
-0.0023337008570648537   -0.018093372784015363   -0.0009178658119534849
-0.00213798659918053   -0.014054266821305263   -0.0008968953203852894
-0.0041511199512475625   -0.014127856640530467   -0.0009286927022879223
-0.0023337008570648537   -0.018093372784015363   -0.0009178658119534849
-0.0043177800431933   -0.01813010822061984   -0.0009774250653291508
-0.004341990976108787   -0.018091673121253104   -0.0009783699133022088
-0.0041511199512475625   -0.014127856640530467   -0.0009286927022879223
-0.0023337008570648537   -0.018093372784015363   -0.0009178658119534849
-0.004341990976108787   -0.018091673121253104   -0.0009783699133022088
-0.00213798659918053   -0.014054266821305263   -0.0008968953203852894
-0.0021566904844129166   -0.014012612997044071   -0.0009344644783546764
-0.0023878884945623064   -0.018031474687838358   -0.0009537047841107543
-0.00019296764500674243   -0.014005107459362664   -0.0009070197674959368
-0.0021481837208276264   -0.014034291264904346   -0.000913718845011149
-0.0023878884945623064   -0.018031474687838358   -0.0009537047841107543
-0.0004585865781273008   -0.0180207621473904   -0.0009382970622727621
-0.00019296764500674243   -0.014005107459362664   -0.0009070197674959368
-0.0004394490773318451   -0.01802447427421134   -0.0009155168310121169
-0.0021481837208276264   -0.014034291264904346   -0.000913718845011149
-0.0001814345630893919   -0.014012207110418297   -0.0008893586628006284
-0.0004394490773318451   -0.01802447427421134   -0.0009155168310121169
-0.00019296764500674243   -0.014005107459362664   -0.0009070197674959368
-0.0021481837208276264   -0.014034291264904346   -0.000913718845011149
-0.0004394490773318451   -0.01802447427421134   -0.0009155168310121169
-0.0023716237396394393   -0.0180483145273007   -0.00093768726794734
-0.0023878884945623064   -0.018031474687838358   -0.0009537047841107543
-0.0021481837208276264   -0.014034291264904346   -0.000913718845011149
-0.0004394490773318451   -0.01802447427421134   -0.0009155168310121169
-0.0023878884945623064   -0.018031474687838358   -0.0009537047841107543
-0.00019296764500674243   -0.014005107459362664   -0.0009070197674959368
-0.0021481837208276264   -0.014034291264904346   -0.000913718845011149
-0.0023716237396394393   -0.0180483145273007   -0.00093768726794734
-0.0001814345630893919   -0.014012207110418297   -0.0008893586628006284
-0.00213798659918053   -0.014054266821305263   -0.0008968953203852894
-0.0023716237396394393   -0.0180483145273007   -0.00093768726794734
-0.0004394490773318451   -0.01802447427421134   -0.0009155168310121169
-0.0001814345630893919   -0.014012207110418297   -0.0008893586628006284
-0.00042130961048966964   -0.018031675441356542   -0.000896738542744836
-0.00213798659918053   -0.014054266821305263   -0.0008968953203852894
-0.00017132320514616647   -0.014017478080060033   -0.000875590170024934
-0.00042130961048966964   -0.018031675441356542   -0.000896738542744836
-0.0001814345630893919   -0.014012207110418297   -0.0008893586628006284
-0.00213798659918053   -0.014054266821305263   -0.0008968953203852894
-0.00042130961048966964   -0.018031675441356542   -0.000896738542744836
-0.0023533505466379317   -0.01806892570333816   -0.0009256955725846498
-0.0023716237396394393   -0.0180483145273007   -0.00093768726794734
-0.00213798659918053   -0.014054266821305263   -0.0008968953203852894
-0.00042130961048966964   -0.018031675441356542   -0.000896738542744836
-0.0023716237396394393   -0.0180483145273007   -0.00093768726794734
-0.0001814345630893919   -0.014012207110418297   -0.0008893586628006284
-0.00213798659918053   -0.014054266821305263   -0.0008968953203852894
-0.0023533505466379317   -0.01806892570333816   -0.0009256955725846498
-0.00017132320514616647   -0.014017478080060033   -0.000875590170024934
-0.002125913767621994   -0.014072607311152492   -0.0008840932488397544
-0.0023533505466379317   -0.01806892570333816   -0.0009256955725846498
-0.00042130961048966964   -0.018031675441356542   -0.000896738542744836
-0.00017132320514616647   -0.014017478080060033   -0.000875590170024934
-0.0004057892203938639   -0.0180425238727733   -0.0008820994703932272
-0.002125913767621994   -0.014072607311152492   -0.0008840932488397544
-0.00016336658641868886   -0.014020890043106344   -0.0008658534549884042
-0.0004057892203938639   -0.0180425238727733   -0.0008820994703932272
-0.00017132320514616647   -0.014017478080060033   -0.000875590170024934
-0.002125913767621994   -0.014072607311152492   -0.0008840932488397544
-0.0004057892203938639   -0.0180425238727733   -0.0008820994703932272
-0.0023337008570648537   -0.018093372784015363   -0.0009178658119534849
-0.0023533505466379317   -0.01806892570333816   -0.0009256955725846498
-0.002125913767621994   -0.014072607311152492   -0.0008840932488397544
-0.0004057892203938639   -0.0180425238727733   -0.0008820994703932272
-0.0023533505466379317   -0.01806892570333816   -0.0009256955725846498
-0.00017132320514616647   -0.014017478080060033   -0.000875590170024934
-0.00019296764500674243   -0.014005107459362664   -0.0009070197674959368
-0.0004585865781273008   -0.0180207621473904   -0.0009382970622727621
0.0018304742848821243   -0.014001638974173745   -0.0009059885599410967
-0.0001814345630893919   -0.014012207110418297   -0.0008893586628006284
-0.0004585865781273008   -0.0180207621473904   -0.0009382970622727621
0.00152822901598381   -0.017997037058863602   -0.0009467133433653471
0.0018304742848821243   -0.014001638974173745   -0.0009059885599410967
0.0015525363516894072   -0.017987556165509594   -0.0009172720460952603
-0.0001814345630893919   -0.014012207110418297   -0.0008893586628006284
0.0018455216885030648   -0.013994587364046544   -0.000891561619721735
0.0015525363516894072   -0.017987556165509594   -0.0009172720460952603
0.0018304742848821243   -0.014001638974173745   -0.0009059885599410967
-0.0001814345630893919   -0.014012207110418297   -0.0008893586628006284
0.0015525363516894072   -0.017987556165509594   -0.0009172720460952603
-0.0004394490773318451   -0.01802447427421134   -0.0009155168310121169
-0.0004585865781273008   -0.0180207621473904   -0.0009382970622727621
-0.0001814345630893919   -0.014012207110418297   -0.0008893586628006284
0.0015525363516894072   -0.017987556165509594   -0.0009172720460952603
-0.0004585865781273008   -0.0180207621473904   -0.0009382970622727621
0.0018304742848821243   -0.014001638974173745   -0.0009059885599410967
-0.0001814345630893919   -0.014012207110418297   -0.0008893586628006284
-0.0004394490773318451   -0.01802447427421134   -0.0009155168310121169
0.0018455216885030648   -0.013994587364046544   -0.000891561619721735
-0.00017132320514616647   -0.014017478080060033   -0.000875590170024934
-0.0004394490773318451   -0.01802447427421134   -0.0009155168310121169
0.0015525363516894072   -0.017987556165509594   -0.0009172720460952603
0.0018455216885030648   -0.013994587364046544   -0.000891561619721735
0.001575126480679512   -0.017982611984205907   -0.0008918177886025482
-0.00017132320514616647   -0.014017478080060033   -0.000875590170024934
0.0018560101981630204   -0.013986552100739178   -0.00088091231881052
0.001575126480679512   -0.017982611984205907   -0.0008918177886025482
0.0018455216885030648   -0.013994587364046544   -0.000891561619721735
-0.00017132320514616647   -0.014017478080060033   -0.000875590170024934
0.001575126480679512   -0.017982611984205907   -0.0008918177886025482
-0.00042130961048966964   -0.018031675441356542   -0.000896738542744836
-0.0004394490773318451   -0.01802447427421134   -0.0009155168310121169
-0.00017132320514616647   -0.014017478080060033   -0.000875590170024934
0.001575126480679512   -0.017982611984205907   -0.0008918177886025482
-0.0004394490773318451   -0.01802447427421134   -0.0009155168310121169
0.0018455216885030648   -0.013994587364046544   -0.000891561619721735
-0.00017132320514616647   -0.014017478080060033   -0.000875590170024934
-0.00042130961048966964   -0.018031675441356542   -0.000896738542744836
0.0018560101981630204   -0.013986552100739178   -0.00088091231881052
-0.00016336658641868886   -0.014020890043106344   -0.0008658534549884042
-0.00042130961048966964   -0.018031675441356542   -0.000896738542744836
0.001575126480679512   -0.017982611984205907   -0.0008918177886025482
0.0018560101981630204   -0.013986552100739178   -0.00088091231881052
0.0015876152475094401   -0.01797988918483048   -0.0008700902169741025
-0.00016336658641868886   -0.014020890043106344   -0.0008658534549884042
0.0018590262138666275   -0.01397495546506051   -0.0008739657151759599
0.0015876152475094401   -0.01797988918483048   -0.0008700902169741025
0.0018560101981630204   -0.013986552100739178   -0.00088091231881052
-0.00016336658641868886   -0.014020890043106344   -0.0008658534549884042
0.0015876152475094401   -0.01797988918483048   -0.0008700902169741025
-0.0004057892203938639   -0.0180425238727733   -0.0008820994703932272
-0.00042130961048966964   -0.018031675441356542   -0.000896738542744836
-0.00016336658641868886   -0.014020890043106344   -0.0008658534549884042
0.0015876152475094401   -0.01797988918483048   -0.0008700902169741025
-0.00042130961048966964   -0.018031675441356542   -0.000896738542744836
0.0018560101981630204   -0.013986552100739178   -0.00088091231881052
0.0018304742848821243   -0.014001638974173745   -0.0009059885599410967
0.00152822901598381   -0.017997037058863602   -0.0009467133433653471
0.004022395116832904   -0.013996538453955026   -0.000928893877554259
0.0018455216885030648   -0.013994587364046544   -0.000891561619721735
0.00152822901598381   -0.017997037058863602   -0.0009467133433653471
0.0036538279857350714   -0.017957011879247465   -0.0009803225866969996
0.004022395116832904   -0.013996538453955026   -0.000928893877554259
0.003716653967141035   -0.01793553507305269   -0.0009414977674250118
0.0018455216885030648   -0.013994587364046544   -0.000891561619721735
0.004051465161823683   -0.013978265110508944   -0.000916680980749939
0.003716653967141035   -0.01793553507305269   -0.0009414977674250118
0.004022395116832904   -0.013996538453955026   -0.000928893877554259
0.0018455216885030648   -0.013994587364046544   -0.000891561619721735
0.003716653967141035   -0.01793553507305269   -0.0009414977674250118
0.0015525363516894072   -0.017987556165509594   -0.0009172720460952603
0.00152822901598381   -0.017997037058863602   -0.0009467133433653471
0.0018455216885030648   -0.013994587364046544   -0.000891561619721735
0.003716653967141035   -0.01793553507305269   -0.0009414977674250118
0.00152822901598381   -0.017997037058863602   -0.0009467133433653471
0.004022395116832904   -0.013996538453955026   -0.000928893877554259
0.0018455216885030648   -0.013994587364046544   -0.000891561619721735
0.0015525363516894072   -0.017987556165509594   -0.0009172720460952603
0.004051465161823683   -0.013978265110508944   -0.000916680980749939
0.0018560101981630204   -0.013986552100739178   -0.00088091231881052
0.0015525363516894072   -0.017987556165509594   -0.0009172720460952603
0.003716653967141035   -0.01793553507305269   -0.0009414977674250118
0.004051465161823683   -0.013978265110508944   -0.000916680980749939
0.003760139034512293   -0.017925101519932034   -0.0009083640939199965
0.0018560101981630204   -0.013986552100739178   -0.00088091231881052
0.0040674945917138425   -0.01396393774015252   -0.0009102199425985717
0.003760139034512293   -0.017925101519932034   -0.0009083640939199965
0.004051465161823683   -0.013978265110508944   -0.000916680980749939
0.0018560101981630204   -0.013986552100739178   -0.00088091231881052
0.003760139034512293   -0.017925101519932034   -0.0009083640939199965
0.001575126480679512   -0.017982611984205907   -0.0008918177886025482
0.0015525363516894072   -0.017987556165509594   -0.0009172720460952603
0.0018560101981630204   -0.013986552100739178   -0.00088091231881052
0.003760139034512293   -0.017925101519932034   -0.0009083640939199965
0.0015525363516894072   -0.017987556165509594   -0.0009172720460952603
0.004051465161823683   -0.013978265110508944   -0.000916680980749939
0.0018560101981630204   -0.013986552100739178   -0.00088091231881052
0.001575126480679512   -0.017982611984205907   -0.0008918177886025482
0.0040674945917138425   -0.01396393774015252   -0.0009102199425985717
0.0018590262138666275   -0.01397495546506051   -0.0008739657151759599
0.001575126480679512   -0.017982611984205907   -0.0008918177886025482
0.003760139034512293   -0.017925101519932034   -0.0009083640939199965
0.0040674945917138425   -0.01396393774015252   -0.0009102199425985717
0.0037991662579707477   -0.017913970471869028   -0.0008811610562340385
0.0018590262138666275   -0.01397495546506051   -0.0008739657151759599
0.004072795811945928   -0.013941271433493111   -0.0009096093016895408
0.0037991662579707477   -0.017913970471869028   -0.0008811610562340385
0.0040674945917138425   -0.01396393774015252   -0.0009102199425985717
0.0018590262138666275   -0.01397495546506051   -0.0008739657151759599
0.0037991662579707477   -0.017913970471869028   -0.0008811610562340385
0.0015876152475094401   -0.01797988918483048   -0.0008700902169741025
0.001575126480679512   -0.017982611984205907   -0.0008918177886025482
0.0018590262138666275   -0.01397495546506051   -0.0008739657151759599
0.0037991662579707477   -0.017913970471869028   -0.0008811610562340385
0.001575126480679512   -0.017982611984205907   -0.0008918177886025482
0.0040674945917138425   -0.01396393774015252   -0.0009102199425985717
-0.006539956631340846   -0.01801876668385971   -0.001050057493126436
-0.0063610820692334225   -0.021803477508016908   -0.0010050317939969853
-0.004373220212300662   -0.018029337148449644   -0.0009921522577906632
-0.006531423986266086   -0.018058281153156625   -0.0010485750990447853
-0.0063610820692334225   -0.021803477508016908   -0.0010050317939969853
-0.004354174795987583   -0.021846981206310394   -0.000970398534120435
-0.004373220212300662   -0.018029337148449644   -0.0009921522577906632
-0.004328567183366314   -0.02186892092334313   -0.0009757463925565206
-0.006531423986266086   -0.018058281153156625   -0.0010485750990447853
-0.004360866705989489   -0.01805883976455715   -0.000983253750578411
-0.004328567183366314   -0.02186892092334313   -0.0009757463925565206
-0.004373220212300662   -0.018029337148449644   -0.0009921522577906632
-0.006531423986266086   -0.018058281153156625   -0.0010485750990447853
-0.004328567183366314   -0.02186892092334313   -0.0009757463925565206
-0.006314808070404941   -0.021833114731796808   -0.001030406570298344
-0.0063610820692334225   -0.021803477508016908   -0.0010050317939969853
-0.006531423986266086   -0.018058281153156625   -0.0010485750990447853
-0.004328567183366314   -0.02186892092334313   -0.0009757463925565206
-0.0063610820692334225   -0.021803477508016908   -0.0010050317939969853
-0.004373220212300662   -0.018029337148449644   -0.0009921522577906632
-0.006531423986266086   -0.018058281153156625   -0.0010485750990447853
-0.006314808070404941   -0.021833114731796808   -0.001030406570298344
-0.004360866705989489   -0.01805883976455715   -0.000983253750578411
-0.006510649103420615   -0.018096824714575743   -0.0010530886173410064
-0.006314808070404941   -0.021833114731796808   -0.001030406570298344
-0.004328567183366314   -0.02186892092334313   -0.0009757463925565206
-0.004360866705989489   -0.01805883976455715   -0.000983253750578411
-0.0042940268700100695   -0.02190033830920027   -0.0009851829084631266
-0.006510649103420615   -0.018096824714575743   -0.0010530886173410064
-0.004341990976108787   -0.018091673121253104   -0.0009783699133022088
-0.0042940268700100695   -0.02190033830920027   -0.0009851829084631266
-0.004360866705989489   -0.01805883976455715   -0.000983253750578411
-0.006510649103420615   -0.018096824714575743   -0.0010530886173410064
-0.0042940268700100695   -0.02190033830920027   -0.0009851829084631266
-0.006262265976543756   -0.02186971798207578   -0.0010622068205612286
-0.006314808070404941   -0.021833114731796808   -0.001030406570298344
-0.006510649103420615   -0.018096824714575743   -0.0010530886173410064
-0.0042940268700100695   -0.02190033830920027   -0.0009851829084631266
-0.006314808070404941   -0.021833114731796808   -0.001030406570298344
-0.004360866705989489   -0.01805883976455715   -0.000983253750578411
-0.006510649103420615   -0.018096824714575743   -0.0010530886173410064
-0.006262265976543756   -0.02186971798207578   -0.0010622068205612286
-0.004341990976108787   -0.018091673121253104   -0.0009783699133022088
-0.006477474816271384   -0.01814663227081082   -0.001063914546567086
-0.006262265976543756   -0.02186971798207578   -0.0010622068205612286
-0.0042940268700100695   -0.02190033830920027   -0.0009851829084631266
-0.004341990976108787   -0.018091673121253104   -0.0009783699133022088
-0.004257024223577742   -0.021943158710290612   -0.0009988195458289295
-0.006477474816271384   -0.01814663227081082   -0.001063914546567086
-0.0043177800431933   -0.01813010822061984   -0.0009774250653291508
-0.004257024223577742   -0.021943158710290612   -0.0009988195458289295
-0.004341990976108787   -0.018091673121253104   -0.0009783699133022088
-0.006477474816271384   -0.01814663227081082   -0.001063914546567086
-0.004257024223577742   -0.021943158710290612   -0.0009988195458289295
-0.006190919695920556   -0.021925552687762844   -0.0011005651739321941
-0.006262265976543756   -0.02186971798207578   -0.0010622068205612286
-0.006477474816271384   -0.01814663227081082   -0.001063914546567086
-0.004257024223577742   -0.021943158710290612   -0.0009988195458289295
-0.006262265976543756   -0.02186971798207578   -0.0010622068205612286
-0.004341990976108787   -0.018091673121253104   -0.0009783699133022088
-0.004373220212300662   -0.018029337148449644   -0.0009921522577906632
-0.004354174795987583   -0.021846981206310394   -0.000970398534120435
-0.0023878884945623064   -0.018031474687838358   -0.0009537047841107543
-0.004360866705989489   -0.01805883976455715   -0.000983253750578411
-0.004354174795987583   -0.021846981206310394   -0.000970398534120435
-0.0025536944295838806   -0.021863966727142702   -0.000948288119898519
-0.0023878884945623064   -0.018031474687838358   -0.0009537047841107543
-0.002525881183358769   -0.021875293971659805   -0.0009366143082439827
-0.004360866705989489   -0.01805883976455715   -0.000983253750578411
-0.0023716237396394393   -0.0180483145273007   -0.00093768726794734
-0.002525881183358769   -0.021875293971659805   -0.0009366143082439827
-0.0023878884945623064   -0.018031474687838358   -0.0009537047841107543
-0.004360866705989489   -0.01805883976455715   -0.000983253750578411
-0.002525881183358769   -0.021875293971659805   -0.0009366143082439827
-0.004328567183366314   -0.02186892092334313   -0.0009757463925565206
-0.004354174795987583   -0.021846981206310394   -0.000970398534120435
-0.004360866705989489   -0.01805883976455715   -0.000983253750578411
-0.002525881183358769   -0.021875293971659805   -0.0009366143082439827
-0.004354174795987583   -0.021846981206310394   -0.000970398534120435
-0.0023878884945623064   -0.018031474687838358   -0.0009537047841107543
-0.004360866705989489   -0.01805883976455715   -0.000983253750578411
-0.004328567183366314   -0.02186892092334313   -0.0009757463925565206
-0.0023716237396394393   -0.0180483145273007   -0.00093768726794734
-0.004341990976108787   -0.018091673121253104   -0.0009783699133022088
-0.004328567183366314   -0.02186892092334313   -0.0009757463925565206
-0.002525881183358769   -0.021875293971659805   -0.0009366143082439827
-0.0023716237396394393   -0.0180483145273007   -0.00093768726794734
-0.002495990366674459   -0.021895718822779287   -0.0009289776169542624
-0.004341990976108787   -0.018091673121253104   -0.0009783699133022088
-0.0023533505466379317   -0.01806892570333816   -0.0009256955725846498
-0.002495990366674459   -0.021895718822779287   -0.0009289776169542624
-0.0023716237396394393   -0.0180483145273007   -0.00093768726794734
-0.004341990976108787   -0.018091673121253104   -0.0009783699133022088
-0.002495990366674459   -0.021895718822779287   -0.0009289776169542624
-0.0042940268700100695   -0.02190033830920027   -0.0009851829084631266
-0.004328567183366314   -0.02186892092334313   -0.0009757463925565206
-0.004341990976108787   -0.018091673121253104   -0.0009783699133022088
-0.002495990366674459   -0.021895718822779287   -0.0009289776169542624
-0.004328567183366314   -0.02186892092334313   -0.0009757463925565206
-0.0023716237396394393   -0.0180483145273007   -0.00093768726794734
-0.004341990976108787   -0.018091673121253104   -0.0009783699133022088
-0.0042940268700100695   -0.02190033830920027   -0.0009851829084631266
-0.0023533505466379317   -0.01806892570333816   -0.0009256955725846498
-0.0043177800431933   -0.01813010822061984   -0.0009774250653291508
-0.0042940268700100695   -0.02190033830920027   -0.0009851829084631266
-0.002495990366674459   -0.021895718822779287   -0.0009289776169542624
-0.0023533505466379317   -0.01806892570333816   -0.0009256955725846498
-0.002465267644453923   -0.02192549205265153   -0.000925581294704954
-0.0043177800431933   -0.01813010822061984   -0.0009774250653291508
-0.0023337008570648537   -0.018093372784015363   -0.0009178658119534849
-0.002465267644453923   -0.02192549205265153   -0.000925581294704954
-0.0023533505466379317   -0.01806892570333816   -0.0009256955725846498
-0.0043177800431933   -0.01813010822061984   -0.0009774250653291508
-0.002465267644453923   -0.02192549205265153   -0.000925581294704954
-0.004257024223577742   -0.021943158710290612   -0.0009988195458289295
-0.0042940268700100695   -0.02190033830920027   -0.0009851829084631266
-0.0043177800431933   -0.01813010822061984   -0.0009774250653291508
-0.002465267644453923   -0.02192549205265153   -0.000925581294704954
-0.0042940268700100695   -0.02190033830920027   -0.0009851829084631266
-0.0023533505466379317   -0.01806892570333816   -0.0009256955725846498
-0.0023878884945623064   -0.018031474687838358   -0.0009537047841107543
-0.0025536944295838806   -0.021863966727142702   -0.000948288119898519
-0.0004585865781273008   -0.0180207621473904   -0.0009382970622727621
-0.0023716237396394393   -0.0180483145273007   -0.00093768726794734
-0.0025536944295838806   -0.021863966727142702   -0.000948288119898519
-0.000807495520326332   -0.021850476405459947   -0.0009450239852092227
-0.0004585865781273008   -0.0180207621473904   -0.0009382970622727621
-0.0007767449287326426   -0.021850537427380332   -0.0009169123357828596
-0.0023716237396394393   -0.0180483145273007   -0.00093768726794734
-0.0004394490773318451   -0.01802447427421134   -0.0009155168310121169
-0.0007767449287326426   -0.021850537427380332   -0.0009169123357828596
-0.0004585865781273008   -0.0180207621473904   -0.0009382970622727621
-0.0023716237396394393   -0.0180483145273007   -0.00093768726794734
-0.0007767449287326426   -0.021850537427380332   -0.0009169123357828596
-0.002525881183358769   -0.021875293971659805   -0.0009366143082439827
-0.0025536944295838806   -0.021863966727142702   -0.000948288119898519
-0.0023716237396394393   -0.0180483145273007   -0.00093768726794734
-0.0007767449287326426   -0.021850537427380332   -0.0009169123357828596
-0.0025536944295838806   -0.021863966727142702   -0.000948288119898519
-0.0004585865781273008   -0.0180207621473904   -0.0009382970622727621
-0.0023716237396394393   -0.0180483145273007   -0.00093768726794734
-0.002525881183358769   -0.021875293971659805   -0.0009366143082439827
-0.0004394490773318451   -0.01802447427421134   -0.0009155168310121169
-0.0023533505466379317   -0.01806892570333816   -0.0009256955725846498
-0.002525881183358769   -0.021875293971659805   -0.0009366143082439827
-0.0007767449287326426   -0.021850537427380332   -0.0009169123357828596
-0.0004394490773318451   -0.01802447427421134   -0.0009155168310121169
-0.0007467809535047378   -0.021859051778256623   -0.0008928517186573034
-0.0023533505466379317   -0.01806892570333816   -0.0009256955725846498
-0.00042130961048966964   -0.018031675441356542   -0.000896738542744836
-0.0007467809535047378   -0.021859051778256623   -0.0008928517186573034
-0.0004394490773318451   -0.01802447427421134   -0.0009155168310121169
-0.0023533505466379317   -0.01806892570333816   -0.0009256955725846498
-0.0007467809535047378   -0.021859051778256623   -0.0008928517186573034
-0.002495990366674459   -0.021895718822779287   -0.0009289776169542624
-0.002525881183358769   -0.021875293971659805   -0.0009366143082439827
-0.0023533505466379317   -0.01806892570333816   -0.0009256955725846498
-0.0007467809535047378   -0.021859051778256623   -0.0008928517186573034
-0.002525881183358769   -0.021875293971659805   -0.0009366143082439827
-0.0004394490773318451   -0.01802447427421134   -0.0009155168310121169
-0.0023533505466379317   -0.01806892570333816   -0.0009256955725846498
-0.002495990366674459   -0.021895718822779287   -0.0009289776169542624
-0.00042130961048966964   -0.018031675441356542   -0.000896738542744836
-0.0023337008570648537   -0.018093372784015363   -0.0009178658119534849
-0.002495990366674459   -0.021895718822779287   -0.0009289776169542624
-0.0007467809535047378   -0.021859051778256623   -0.0008928517186573034
-0.00042130961048966964   -0.018031675441356542   -0.000896738542744836
-0.0007199899212979171   -0.021876706698035667   -0.0008729811852249981
-0.0023337008570648537   -0.018093372784015363   -0.0009178658119534849
-0.0004057892203938639   -0.0180425238727733   -0.0008820994703932272
-0.0007199899212979171   -0.021876706698035667   -0.0008729811852249981
-0.00042130961048966964   -0.018031675441356542   -0.000896738542744836
-0.0023337008570648537   -0.018093372784015363   -0.0009178658119534849
-0.0007199899212979171   -0.021876706698035667   -0.0008729811852249981
-0.002465267644453923   -0.02192549205265153   -0.000925581294704954
-0.002495990366674459   -0.021895718822779287   -0.0009289776169542624
-0.0023337008570648537   -0.018093372784015363   -0.0009178658119534849
-0.0007199899212979171   -0.021876706698035667   -0.0008729811852249981
-0.002495990366674459   -0.021895718822779287   -0.0009289776169542624
-0.00042130961048966964   -0.018031675441356542   -0.000896738542744836
-0.0004585865781273008   -0.0180207621473904   -0.0009382970622727621
-0.000807495520326332   -0.021850476405459947   -0.0009450239852092227
0.00152822901598381   -0.017997037058863602   -0.0009467133433653471
-0.0004394490773318451   -0.01802447427421134   -0.0009155168310121169
-0.000807495520326332   -0.021850476405459947   -0.0009450239852092227
0.0009978411043235621   -0.02180731004228173   -0.0009620780810838291
0.00152822901598381   -0.017997037058863602   -0.0009467133433653471
0.0010354611937522763   -0.02179534243032595   -0.0009176631337948822
-0.0004394490773318451   -0.01802447427421134   -0.0009155168310121169
0.0015525363516894072   -0.017987556165509594   -0.0009172720460952603
0.0010354611937522763   -0.02179534243032595   -0.0009176631337948822
0.00152822901598381   -0.017997037058863602   -0.0009467133433653471
-0.0004394490773318451   -0.01802447427421134   -0.0009155168310121169
0.0010354611937522763   -0.02179534243032595   -0.0009176631337948822
-0.0007767449287326426   -0.021850537427380332   -0.0009169123357828596
-0.000807495520326332   -0.021850476405459947   -0.0009450239852092227
-0.0004394490773318451   -0.01802447427421134   -0.0009155168310121169
0.0010354611937522763   -0.02179534243032595   -0.0009176631337948822
-0.000807495520326332   -0.021850476405459947   -0.0009450239852092227
0.00152822901598381   -0.017997037058863602   -0.0009467133433653471
-0.0004394490773318451   -0.01802447427421134   -0.0009155168310121169
-0.0007767449287326426   -0.021850537427380332   -0.0009169123357828596
0.0015525363516894072   -0.017987556165509594   -0.0009172720460952603
-0.00042130961048966964   -0.018031675441356542   -0.000896738542744836
-0.0007767449287326426   -0.021850537427380332   -0.0009169123357828596
0.0010354611937522763   -0.02179534243032595   -0.0009176631337948822
0.0015525363516894072   -0.017987556165509594   -0.0009172720460952603
0.0010741130470409159   -0.02179304237357719   -0.0008775532959841978
-0.00042130961048966964   -0.018031675441356542   -0.000896738542744836
0.001575126480679512   -0.017982611984205907   -0.0008918177886025482
0.0010741130470409159   -0.02179304237357719   -0.0008775532959841978
0.0015525363516894072   -0.017987556165509594   -0.0009172720460952603
-0.00042130961048966964   -0.018031675441356542   -0.000896738542744836
0.0010741130470409159   -0.02179304237357719   -0.0008775532959841978
-0.0007467809535047378   -0.021859051778256623   -0.0008928517186573034
-0.0007767449287326426   -0.021850537427380332   -0.0009169123357828596
-0.00042130961048966964   -0.018031675441356542   -0.000896738542744836
0.0010741130470409159   -0.02179304237357719   -0.0008775532959841978
-0.0007767449287326426   -0.021850537427380332   -0.0009169123357828596
0.0015525363516894072   -0.017987556165509594   -0.0009172720460952603
-0.00042130961048966964   -0.018031675441356542   -0.000896738542744836
-0.0007467809535047378   -0.021859051778256623   -0.0008928517186573034
0.001575126480679512   -0.017982611984205907   -0.0008918177886025482
-0.0004057892203938639   -0.0180425238727733   -0.0008820994703932272
-0.0007467809535047378   -0.021859051778256623   -0.0008928517186573034
0.0010741130470409159   -0.02179304237357719   -0.0008775532959841978
0.001575126480679512   -0.017982611984205907   -0.0008918177886025482
0.0010999517929159634   -0.02179864219174418   -0.0008411791529069444
-0.0004057892203938639   -0.0180425238727733   -0.0008820994703932272
0.0015876152475094401   -0.01797988918483048   -0.0008700902169741025
0.0010999517929159634   -0.02179864219174418   -0.0008411791529069444
0.001575126480679512   -0.017982611984205907   -0.0008918177886025482
-0.0004057892203938639   -0.0180425238727733   -0.0008820994703932272
0.0010999517929159634   -0.02179864219174418   -0.0008411791529069444
-0.0007199899212979171   -0.021876706698035667   -0.0008729811852249981
-0.0007467809535047378   -0.021859051778256623   -0.0008928517186573034
-0.0004057892203938639   -0.0180425238727733   -0.0008820994703932272
0.0010999517929159634   -0.02179864219174418   -0.0008411791529069444
-0.0007467809535047378   -0.021859051778256623   -0.0008928517186573034
0.001575126480679512   -0.017982611984205907   -0.0008918177886025482
0.00152822901598381   -0.017997037058863602   -0.0009467133433653471
0.0009978411043235621   -0.02180731004228173   -0.0009620780810838291
0.0036538279857350714   -0.017957011879247465   -0.0009803225866969996
0.0015525363516894072   -0.017987556165509594   -0.0009172720460952603
0.0009978411043235621   -0.02180731004228173   -0.0009620780810838291
0.0029160036394432877   -0.021733032994562574   -0.0010053798507360006
0.0036538279857350714   -0.017957011879247465   -0.0009803225866969996
0.0030161786643940094   -0.02170854076354948   -0.0009406361054302554
0.0015525363516894072   -0.017987556165509594   -0.0009172720460952603
0.003716653967141035   -0.01793553507305269   -0.0009414977674250118
0.0030161786643940094   -0.02170854076354948   -0.0009406361054302554
0.0036538279857350714   -0.017957011879247465   -0.0009803225866969996
0.0015525363516894072   -0.017987556165509594   -0.0009172720460952603
0.0030161786643940094   -0.02170854076354948   -0.0009406361054302554
0.0010354611937522763   -0.02179534243032595   -0.0009176631337948822
0.0009978411043235621   -0.02180731004228173   -0.0009620780810838291
0.0015525363516894072   -0.017987556165509594   -0.0009172720460952603
0.0030161786643940094   -0.02170854076354948   -0.0009406361054302554
0.0009978411043235621   -0.02180731004228173   -0.0009620780810838291
0.0036538279857350714   -0.017957011879247465   -0.0009803225866969996
0.0015525363516894072   -0.017987556165509594   -0.0009172720460952603
0.0010354611937522763   -0.02179534243032595   -0.0009176631337948822
0.003716653967141035   -0.01793553507305269   -0.0009414977674250118
0.001575126480679512   -0.017982611984205907   -0.0008918177886025482
0.0010354611937522763   -0.02179534243032595   -0.0009176631337948822
0.0030161786643940094   -0.02170854076354948   -0.0009406361054302554
0.003716653967141035   -0.01793553507305269   -0.0009414977674250118
0.0030905279846251406   -0.021701741046806555   -0.0008816291130450571
0.001575126480679512   -0.017982611984205907   -0.0008918177886025482
0.003760139034512293   -0.017925101519932034   -0.0009083640939199965
0.0030905279846251406   -0.021701741046806555   -0.0008816291130450571
0.003716653967141035   -0.01793553507305269   -0.0009414977674250118
0.001575126480679512   -0.017982611984205907   -0.0008918177886025482
0.0030905279846251406   -0.021701741046806555   -0.0008816291130450571
0.0010741130470409159   -0.02179304237357719   -0.0008775532959841978
0.0010354611937522763   -0.02179534243032595   -0.0009176631337948822
0.001575126480679512   -0.017982611984205907   -0.0008918177886025482
0.0030905279846251406   -0.021701741046806555   -0.0008816291130450571
0.0010354611937522763   -0.02179534243032595   -0.0009176631337948822
0.003716653967141035   -0.01793553507305269   -0.0009414977674250118
0.001575126480679512   -0.017982611984205907   -0.0008918177886025482
0.0010741130470409159   -0.02179304237357719   -0.0008775532959841978
0.003760139034512293   -0.017925101519932034   -0.0009083640939199965
0.0015876152475094401   -0.01797988918483048   -0.0008700902169741025
0.0010741130470409159   -0.02179304237357719   -0.0008775532959841978
0.0030905279846251406   -0.021701741046806555   -0.0008816291130450571
0.003760139034512293   -0.017925101519932034   -0.0009083640939199965
0.0031662139876263997   -0.021701740096888307   -0.000828628757487574
0.0015876152475094401   -0.01797988918483048   -0.0008700902169741025
0.0037991662579707477   -0.017913970471869028   -0.0008811610562340385
0.0031662139876263997   -0.021701740096888307   -0.000828628757487574
0.003760139034512293   -0.017925101519932034   -0.0009083640939199965
0.0015876152475094401   -0.01797988918483048   -0.0008700902169741025
0.0031662139876263997   -0.021701740096888307   -0.000828628757487574
0.0010999517929159634   -0.02179864219174418   -0.0008411791529069444
0.0010741130470409159   -0.02179304237357719   -0.0008775532959841978
0.0015876152475094401   -0.01797988918483048   -0.0008700902169741025
0.0031662139876263997   -0.021701740096888307   -0.000828628757487574
0.0010741130470409159   -0.02179304237357719   -0.0008775532959841978
0.003760139034512293   -0.017925101519932034   -0.0009083640939199965
-0.0063610820692334225   -0.021803477508016908   -0.0010050317939969853
-0.00580644541969366   -0.025146521524693943   -0.0009380447603093021
-0.004354174795987583   -0.021846981206310394   -0.000970398534120435
-0.006314808070404941   -0.021833114731796808   -0.001030406570298344
-0.00580644541969366   -0.025146521524693943   -0.0009380447603093021
-0.004118842803502174   -0.02522451952132275   -0.0009326321345783941
-0.004354174795987583   -0.021846981206310394   -0.000970398534120435
-0.004077107657605197   -0.02523576889021615   -0.0009511454652422955
-0.006314808070404941   -0.021833114731796808   -0.001030406570298344
-0.004328567183366314   -0.02186892092334313   -0.0009757463925565206
-0.004077107657605197   -0.02523576889021615   -0.0009511454652422955
-0.004354174795987583   -0.021846981206310394   -0.000970398534120435
-0.006314808070404941   -0.021833114731796808   -0.001030406570298344
-0.004077107657605197   -0.02523576889021615   -0.0009511454652422955
-0.005719154537690913   -0.02516317563374525   -0.0009900406127190998
-0.00580644541969366   -0.025146521524693943   -0.0009380447603093021
-0.006314808070404941   -0.021833114731796808   -0.001030406570298344
-0.004077107657605197   -0.02523576889021615   -0.0009511454652422955
-0.00580644541969366   -0.025146521524693943   -0.0009380447603093021
-0.004354174795987583   -0.021846981206310394   -0.000970398534120435
-0.006314808070404941   -0.021833114731796808   -0.001030406570298344
-0.005719154537690913   -0.02516317563374525   -0.0009900406127190998
-0.004328567183366314   -0.02186892092334313   -0.0009757463925565206
-0.006262265976543756   -0.02186971798207578   -0.0010622068205612286
-0.005719154537690913   -0.02516317563374525   -0.0009900406127190998
-0.004077107657605197   -0.02523576889021615   -0.0009511454652422955
-0.004328567183366314   -0.02186892092334313   -0.0009757463925565206
-0.004024671946777991   -0.02526288177825595   -0.0009737818660396775
-0.006262265976543756   -0.02186971798207578   -0.0010622068205612286
-0.0042940268700100695   -0.02190033830920027   -0.0009851829084631266
-0.004024671946777991   -0.02526288177825595   -0.0009737818660396775
-0.004328567183366314   -0.02186892092334313   -0.0009757463925565206
-0.006262265976543756   -0.02186971798207578   -0.0010622068205612286
-0.004024671946777991   -0.02526288177825595   -0.0009737818660396775
-0.005632275442657227   -0.025195001636682167   -0.0010487476530393715
-0.005719154537690913   -0.02516317563374525   -0.0009900406127190998
-0.006262265976543756   -0.02186971798207578   -0.0010622068205612286
-0.004024671946777991   -0.02526288177825595   -0.0009737818660396775
-0.005719154537690913   -0.02516317563374525   -0.0009900406127190998
-0.004328567183366314   -0.02186892092334313   -0.0009757463925565206
-0.006262265976543756   -0.02186971798207578   -0.0010622068205612286
-0.005632275442657227   -0.025195001636682167   -0.0010487476530393715
-0.0042940268700100695   -0.02190033830920027   -0.0009851829084631266
-0.006190919695920556   -0.021925552687762844   -0.0011005651739321941
-0.005632275442657227   -0.025195001636682167   -0.0010487476530393715
-0.004024671946777991   -0.02526288177825595   -0.0009737818660396775
-0.0042940268700100695   -0.02190033830920027   -0.0009851829084631266
-0.003972970808377556   -0.025307401443881657   -0.0010005020538589476
-0.006190919695920556   -0.021925552687762844   -0.0011005651739321941
-0.004257024223577742   -0.021943158710290612   -0.0009988195458289295
-0.003972970808377556   -0.025307401443881657   -0.0010005020538589476
-0.0042940268700100695   -0.02190033830920027   -0.0009851829084631266
-0.006190919695920556   -0.021925552687762844   -0.0011005651739321941
-0.003972970808377556   -0.025307401443881657   -0.0010005020538589476
-0.005521043078105418   -0.025254349435570273   -0.001114057248148622
-0.005632275442657227   -0.025195001636682167   -0.0010487476530393715
-0.006190919695920556   -0.021925552687762844   -0.0011005651739321941
-0.003972970808377556   -0.025307401443881657   -0.0010005020538589476
-0.005632275442657227   -0.025195001636682167   -0.0010487476530393715
-0.0042940268700100695   -0.02190033830920027   -0.0009851829084631266
-0.004354174795987583   -0.021846981206310394   -0.000970398534120435
-0.004118842803502174   -0.02522451952132275   -0.0009326321345783941
-0.0025536944295838806   -0.021863966727142702   -0.000948288119898519
-0.004328567183366314   -0.02186892092334313   -0.0009757463925565206
-0.004118842803502174   -0.02522451952132275   -0.0009326321345783941
-0.00265524597953392   -0.025260692045288278   -0.0009305953635980939
-0.0025536944295838806   -0.021863966727142702   -0.000948288119898519
-0.002612494292658124   -0.025264324767014887   -0.0009222215223719957
-0.004328567183366314   -0.02186892092334313   -0.0009757463925565206
-0.002525881183358769   -0.021875293971659805   -0.0009366143082439827
-0.002612494292658124   -0.025264324767014887   -0.0009222215223719957
-0.0025536944295838806   -0.021863966727142702   -0.000948288119898519
-0.004328567183366314   -0.02186892092334313   -0.0009757463925565206
-0.002612494292658124   -0.025264324767014887   -0.0009222215223719957
-0.004077107657605197   -0.02523576889021615   -0.0009511454652422955
-0.004118842803502174   -0.02522451952132275   -0.0009326321345783941
-0.004328567183366314   -0.02186892092334313   -0.0009757463925565206
-0.002612494292658124   -0.025264324767014887   -0.0009222215223719957
-0.004118842803502174   -0.02522451952132275   -0.0009326321345783941
-0.0025536944295838806   -0.021863966727142702   -0.000948288119898519
-0.004328567183366314   -0.02186892092334313   -0.0009757463925565206
-0.004077107657605197   -0.02523576889021615   -0.0009511454652422955
-0.002525881183358769   -0.021875293971659805   -0.0009366143082439827
-0.0042940268700100695   -0.02190033830920027   -0.0009851829084631266
-0.004077107657605197   -0.02523576889021615   -0.0009511454652422955
-0.002612494292658124   -0.025264324767014887   -0.0009222215223719957
-0.002525881183358769   -0.021875293971659805   -0.0009366143082439827
-0.002568342776034027   -0.025282137570884444   -0.0009178482965240374
-0.0042940268700100695   -0.02190033830920027   -0.0009851829084631266
-0.002495990366674459   -0.021895718822779287   -0.0009289776169542624
-0.002568342776034027   -0.025282137570884444   -0.0009178482965240374
-0.002525881183358769   -0.021875293971659805   -0.0009366143082439827
-0.0042940268700100695   -0.02190033830920027   -0.0009851829084631266
-0.002568342776034027   -0.025282137570884444   -0.0009178482965240374
-0.004024671946777991   -0.02526288177825595   -0.0009737818660396775
-0.004077107657605197   -0.02523576889021615   -0.0009511454652422955
-0.0042940268700100695   -0.02190033830920027   -0.0009851829084631266
-0.002568342776034027   -0.025282137570884444   -0.0009178482965240374
-0.004077107657605197   -0.02523576889021615   -0.0009511454652422955
-0.002525881183358769   -0.021875293971659805   -0.0009366143082439827
-0.0042940268700100695   -0.02190033830920027   -0.0009851829084631266
-0.004024671946777991   -0.02526288177825595   -0.0009737818660396775
-0.002495990366674459   -0.021895718822779287   -0.0009289776169542624
-0.004257024223577742   -0.021943158710290612   -0.0009988195458289295
-0.004024671946777991   -0.02526288177825595   -0.0009737818660396775
-0.002568342776034027   -0.025282137570884444   -0.0009178482965240374
-0.002495990366674459   -0.021895718822779287   -0.0009289776169542624
-0.0025242492283064073   -0.025314932026153696   -0.000917435348883465
-0.004257024223577742   -0.021943158710290612   -0.0009988195458289295
-0.002465267644453923   -0.02192549205265153   -0.000925581294704954
-0.0025242492283064073   -0.025314932026153696   -0.000917435348883465
-0.002495990366674459   -0.021895718822779287   -0.0009289776169542624
-0.004257024223577742   -0.021943158710290612   -0.0009988195458289295
-0.0025242492283064073   -0.025314932026153696   -0.000917435348883465
-0.003972970808377556   -0.025307401443881657   -0.0010005020538589476
-0.004024671946777991   -0.02526288177825595   -0.0009737818660396775
-0.004257024223577742   -0.021943158710290612   -0.0009988195458289295
-0.0025242492283064073   -0.025314932026153696   -0.000917435348883465
-0.004024671946777991   -0.02526288177825595   -0.0009737818660396775
-0.002495990366674459   -0.021895718822779287   -0.0009289776169542624
-0.0025536944295838806   -0.021863966727142702   -0.000948288119898519
-0.00265524597953392   -0.025260692045288278   -0.0009305953635980939
-0.000807495520326332   -0.021850476405459947   -0.0009450239852092227
-0.002525881183358769   -0.021875293971659805   -0.0009366143082439827
-0.00265524597953392   -0.025260692045288278   -0.0009305953635980939
-0.0012399922606334411   -0.025253407911653127   -0.000941380988491461
-0.000807495520326332   -0.021850476405459947   -0.0009450239852092227
-0.0011931714133770754   -0.025248459307978668   -0.0009070559811276411
-0.002525881183358769   -0.021875293971659805   -0.0009366143082439827
-0.0007767449287326426   -0.021850537427380332   -0.0009169123357828596
-0.0011931714133770754   -0.025248459307978668   -0.0009070559811276411
-0.000807495520326332   -0.021850476405459947   -0.0009450239852092227
-0.002525881183358769   -0.021875293971659805   -0.0009366143082439827
-0.0011931714133770754   -0.025248459307978668   -0.0009070559811276411
-0.002612494292658124   -0.025264324767014887   -0.0009222215223719957
-0.00265524597953392   -0.025260692045288278   -0.0009305953635980939
-0.002525881183358769   -0.021875293971659805   -0.0009366143082439827
-0.0011931714133770754   -0.025248459307978668   -0.0009070559811276411
-0.00265524597953392   -0.025260692045288278   -0.0009305953635980939
-0.000807495520326332   -0.021850476405459947   -0.0009450239852092227
-0.002525881183358769   -0.021875293971659805   -0.0009366143082439827
-0.002612494292658124   -0.025264324767014887   -0.0009222215223719957
-0.0007767449287326426   -0.021850537427380332   -0.0009169123357828596
-0.002495990366674459   -0.021895718822779287   -0.0009289776169542624
-0.002612494292658124   -0.025264324767014887   -0.0009222215223719957
-0.0011931714133770754   -0.025248459307978668   -0.0009070559811276411
-0.0007767449287326426   -0.021850537427380332   -0.0009169123357828596
-0.001147691885713414   -0.025256373752138524   -0.0008769970058818547
-0.002495990366674459   -0.021895718822779287   -0.0009289776169542624
-0.0007467809535047378   -0.021859051778256623   -0.0008928517186573034
-0.001147691885713414   -0.025256373752138524   -0.0008769970058818547
-0.0007767449287326426   -0.021850537427380332   -0.0009169123357828596
-0.002495990366674459   -0.021895718822779287   -0.0009289776169542624
-0.001147691885713414   -0.025256373752138524   -0.0008769970058818547
-0.002568342776034027   -0.025282137570884444   -0.0009178482965240374
-0.002612494292658124   -0.025264324767014887   -0.0009222215223719957
-0.002495990366674459   -0.021895718822779287   -0.0009289776169542624
-0.001147691885713414   -0.025256373752138524   -0.0008769970058818547
-0.002612494292658124   -0.025264324767014887   -0.0009222215223719957
-0.0007767449287326426   -0.021850537427380332   -0.0009169123357828596
-0.002495990366674459   -0.021895718822779287   -0.0009289776169542624
-0.002568342776034027   -0.025282137570884444   -0.0009178482965240374
-0.0007467809535047378   -0.021859051778256623   -0.0008928517186573034
-0.002465267644453923   -0.02192549205265153   -0.000925581294704954
-0.002568342776034027   -0.025282137570884444   -0.0009178482965240374
-0.001147691885713414   -0.025256373752138524   -0.0008769970058818547
-0.0007467809535047378   -0.021859051778256623   -0.0008928517186573034
-0.0011065663059819893   -0.02527894596310046   -0.0008508403967037684
-0.002465267644453923   -0.02192549205265153   -0.000925581294704954
-0.0007199899212979171   -0.021876706698035667   -0.0008729811852249981
-0.0011065663059819893   -0.02527894596310046   -0.0008508403967037684
-0.0007467809535047378   -0.021859051778256623   -0.0008928517186573034
-0.002465267644453923   -0.02192549205265153   -0.000925581294704954
-0.0011065663059819893   -0.02527894596310046   -0.0008508403967037684
-0.0025242492283064073   -0.025314932026153696   -0.000917435348883465
-0.002568342776034027   -0.025282137570884444   -0.0009178482965240374
-0.002465267644453923   -0.02192549205265153   -0.000925581294704954
-0.0011065663059819893   -0.02527894596310046   -0.0008508403967037684
-0.002568342776034027   -0.025282137570884444   -0.0009178482965240374
-0.0007467809535047378   -0.021859051778256623   -0.0008928517186573034
-0.000807495520326332   -0.021850476405459947   -0.0009450239852092227
-0.0012399922606334411   -0.025253407911653127   -0.000941380988491461
0.0009978411043235621   -0.02180731004228173   -0.0009620780810838291
-0.0007767449287326426   -0.021850537427380332   -0.0009169123357828596
-0.0012399922606334411   -0.025253407911653127   -0.000941380988491461
0.000239855759553434   -0.025201098142792384   -0.0009672448575045484
0.0009978411043235621   -0.02180731004228173   -0.0009620780810838291
0.00029688812218363797   -0.025185301062941402   -0.0009070364465602107
-0.0007767449287326426   -0.021850537427380332   -0.0009169123357828596
0.0010354611937522763   -0.02179534243032595   -0.0009176631337948822
0.00029688812218363797   -0.025185301062941402   -0.0009070364465602107
0.0009978411043235621   -0.02180731004228173   -0.0009620780810838291
-0.0007767449287326426   -0.021850537427380332   -0.0009169123357828596
0.00029688812218363797   -0.025185301062941402   -0.0009070364465602107
-0.0011931714133770754   -0.025248459307978668   -0.0009070559811276411
-0.0012399922606334411   -0.025253407911653127   -0.000941380988491461
-0.0007767449287326426   -0.021850537427380332   -0.0009169123357828596
0.00029688812218363797   -0.025185301062941402   -0.0009070364465602107
-0.0012399922606334411   -0.025253407911653127   -0.000941380988491461
0.0009978411043235621   -0.02180731004228173   -0.0009620780810838291
-0.0007767449287326426   -0.021850537427380332   -0.0009169123357828596
-0.0011931714133770754   -0.025248459307978668   -0.0009070559811276411
0.0010354611937522763   -0.02179534243032595   -0.0009176631337948822
-0.0007467809535047378   -0.021859051778256623   -0.0008928517186573034
-0.0011931714133770754   -0.025248459307978668   -0.0009070559811276411
0.00029688812218363797   -0.025185301062941402   -0.0009070364465602107
0.0010354611937522763   -0.02179534243032595   -0.0009176631337948822
0.00035711449810674954   -0.025183880225763455   -0.0008522256556228315
-0.0007467809535047378   -0.021859051778256623   -0.0008928517186573034
0.0010741130470409159   -0.02179304237357719   -0.0008775532959841978
0.00035711449810674954   -0.025183880225763455   -0.0008522256556228315
0.0010354611937522763   -0.02179534243032595   -0.0009176631337948822
-0.0007467809535047378   -0.021859051778256623   -0.0008928517186573034
0.00035711449810674954   -0.025183880225763455   -0.0008522256556228315
-0.001147691885713414   -0.025256373752138524   -0.0008769970058818547
-0.0011931714133770754   -0.025248459307978668   -0.0009070559811276411
-0.0007467809535047378   -0.021859051778256623   -0.0008928517186573034
0.00035711449810674954   -0.025183880225763455   -0.0008522256556228315
-0.0011931714133770754   -0.025248459307978668   -0.0009070559811276411
0.0010354611937522763   -0.02179534243032595   -0.0009176631337948822
-0.0007467809535047378   -0.021859051778256623   -0.0008928517186573034
-0.001147691885713414   -0.025256373752138524   -0.0008769970058818547
0.0010741130470409159   -0.02179304237357719   -0.0008775532959841978
-0.0007199899212979171   -0.021876706698035667   -0.0008729811852249981
-0.001147691885713414   -0.025256373752138524   -0.0008769970058818547
0.00035711449810674954   -0.025183880225763455   -0.0008522256556228315
0.0010741130470409159   -0.02179304237357719   -0.0008775532959841978
0.0004011589799765297   -0.025196163607017267   -0.0008011266813600577
-0.0007199899212979171   -0.021876706698035667   -0.0008729811852249981
0.0010999517929159634   -0.02179864219174418   -0.0008411791529069444
0.0004011589799765297   -0.025196163607017267   -0.0008011266813600577
0.0010741130470409159   -0.02179304237357719   -0.0008775532959841978
-0.0007199899212979171   -0.021876706698035667   -0.0008729811852249981
0.0004011589799765297   -0.025196163607017267   -0.0008011266813600577
-0.0011065663059819893   -0.02527894596310046   -0.0008508403967037684
-0.001147691885713414   -0.025256373752138524   -0.0008769970058818547
-0.0007199899212979171   -0.021876706698035667   -0.0008729811852249981
0.0004011589799765297   -0.025196163607017267   -0.0008011266813600577
-0.001147691885713414   -0.025256373752138524   -0.0008769970058818547
0.0010741130470409159   -0.02179304237357719   -0.0008775532959841978
0.0009978411043235621   -0.02180731004228173   -0.0009620780810838291
0.000239855759553434   -0.025201098142792384   -0.0009672448575045484
0.0029160036394432877   -0.021733032994562574   -0.0010053798507360006
0.0010354611937522763   -0.02179534243032595   -0.0009176631337948822
0.000239855759553434   -0.025201098142792384   -0.0009672448575045484
0.0018142530947622875   -0.02509885528333568   -0.0010219509851157077
0.0029160036394432877   -0.021733032994562574   -0.0010053798507360006
0.0019596722477546484   -0.025068636789881745   -0.0009297481953716137
0.0010354611937522763   -0.02179534243032595   -0.0009176631337948822
0.0030161786643940094   -0.02170854076354948   -0.0009406361054302554
0.0019596722477546484   -0.025068636789881745   -0.0009297481953716137
0.0029160036394432877   -0.021733032994562574   -0.0010053798507360006
0.0010354611937522763   -0.02179534243032595   -0.0009176631337948822
0.0019596722477546484   -0.025068636789881745   -0.0009297481953716137
0.00029688812218363797   -0.025185301062941402   -0.0009070364465602107
0.000239855759553434   -0.025201098142792384   -0.0009672448575045484
0.0010354611937522763   -0.02179534243032595   -0.0009176631337948822
0.0019596722477546484   -0.025068636789881745   -0.0009297481953716137
0.000239855759553434   -0.025201098142792384   -0.0009672448575045484
0.0029160036394432877   -0.021733032994562574   -0.0010053798507360006
0.0010354611937522763   -0.02179534243032595   -0.0009176631337948822
0.00029688812218363797   -0.025185301062941402   -0.0009070364465602107
0.0030161786643940094   -0.02170854076354948   -0.0009406361054302554
0.0010741130470409159   -0.02179304237357719   -0.0008775532959841978
0.00029688812218363797   -0.025185301062941402   -0.0009070364465602107
0.0019596722477546484   -0.025068636789881745   -0.0009297481953716137
0.0030161786643940094   -0.02170854076354948   -0.0009406361054302554
0.0020712393853837565   -0.025063400487680174   -0.0008442429727711367
0.0010741130470409159   -0.02179304237357719   -0.0008775532959841978
0.0030905279846251406   -0.021701741046806555   -0.0008816291130450571
0.0020712393853837565   -0.025063400487680174   -0.0008442429727711367
0.0030161786643940094   -0.02170854076354948   -0.0009406361054302554
0.0010741130470409159   -0.02179304237357719   -0.0008775532959841978
0.0020712393853837565   -0.025063400487680174   -0.0008442429727711367
0.00035711449810674954   -0.025183880225763455   -0.0008522256556228315
0.00029688812218363797   -0.025185301062941402   -0.0009070364465602107
0.0010741130470409159   -0.02179304237357719   -0.0008775532959841978
0.0020712393853837565   -0.025063400487680174   -0.0008442429727711367
0.00029688812218363797   -0.025185301062941402   -0.0009070364465602107
0.0030161786643940094   -0.02170854076354948   -0.0009406361054302554
0.0010741130470409159   -0.02179304237357719   -0.0008775532959841978
0.00035711449810674954   -0.025183880225763455   -0.0008522256556228315
0.0030905279846251406   -0.021701741046806555   -0.0008816291130450571
0.0010999517929159634   -0.02179864219174418   -0.0008411791529069444
0.00035711449810674954   -0.025183880225763455   -0.0008522256556228315
0.0020712393853837565   -0.025063400487680174   -0.0008442429727711367
0.0030905279846251406   -0.021701741046806555   -0.0008816291130450571
0.0021872432972584017   -0.02507251610094059   -0.0007661264466298736
0.0010999517929159634   -0.02179864219174418   -0.0008411791529069444
0.0031662139876263997   -0.021701740096888307   -0.000828628757487574
0.0021872432972584017   -0.02507251610094059   -0.0007661264466298736
0.0030905279846251406   -0.021701741046806555   -0.0008816291130450571
0.0010999517929159634   -0.02179864219174418   -0.0008411791529069444
0.0021872432972584017   -0.02507251610094059   -0.0007661264466298736
0.0004011589799765297   -0.025196163607017267   -0.0008011266813600577
0.00035711449810674954   -0.025183880225763455   -0.0008522256556228315
0.0010999517929159634   -0.02179864219174418   -0.0008411791529069444
0.0021872432972584017   -0.02507251610094059   -0.0007661264466298736
0.00035711449810674954   -0.025183880225763455   -0.0008522256556228315
0.0030905279846251406   -0.021701741046806555   -0.0008816291130450571
-0.00580644541969366   -0.025146521524693943   -0.0009380447603093021
-0.004871710927151448   -0.027767968106384145   -0.0008517665889617458
-0.004118842803502174   -0.02522451952132275   -0.0009326321345783941
-0.005719154537690913   -0.02516317563374525   -0.0009900406127190998
-0.004871710927151448   -0.027767968106384145   -0.0008517665889617458
-0.003669702646141983   -0.02788292414408101   -0.0008861326245040435
-0.004118842803502174   -0.02522451952132275   -0.0009326321345783941
-0.0036101306567014684   -0.02787718800732081   -0.0009145944322238252
-0.005719154537690913   -0.02516317563374525   -0.0009900406127190998
-0.004077107657605197   -0.02523576889021615   -0.0009511454652422955
-0.0036101306567014684   -0.02787718800732081   -0.0009145944322238252
-0.004118842803502174   -0.02522451952132275   -0.0009326321345783941
-0.005719154537690913   -0.02516317563374525   -0.0009900406127190998
-0.0036101306567014684   -0.02787718800732081   -0.0009145944322238252
-0.004742487248539548   -0.027764853433075422   -0.0009284716069177255
-0.004871710927151448   -0.027767968106384145   -0.0008517665889617458
-0.005719154537690913   -0.02516317563374525   -0.0009900406127190998
-0.0036101306567014684   -0.02787718800732081   -0.0009145944322238252
-0.004871710927151448   -0.027767968106384145   -0.0008517665889617458
-0.004118842803502174   -0.02522451952132275   -0.0009326321345783941
-0.005719154537690913   -0.02516317563374525   -0.0009900406127190998
-0.004742487248539548   -0.027764853433075422   -0.0009284716069177255
-0.004077107657605197   -0.02523576889021615   -0.0009511454652422955
-0.005632275442657227   -0.025195001636682167   -0.0010487476530393715
-0.004742487248539548   -0.027764853433075422   -0.0009284716069177255
-0.0036101306567014684   -0.02787718800732081   -0.0009145944322238252
-0.004077107657605197   -0.02523576889021615   -0.0009511454652422955
-0.003539936923415421   -0.027894059208903817   -0.0009472447764980875
-0.005632275442657227   -0.025195001636682167   -0.0010487476530393715
-0.004024671946777991   -0.02526288177825595   -0.0009737818660396775
-0.003539936923415421   -0.027894059208903817   -0.0009472447764980875
-0.004077107657605197   -0.02523576889021615   -0.0009511454652422955
-0.005632275442657227   -0.025195001636682167   -0.0010487476530393715
-0.003539936923415421   -0.027894059208903817   -0.0009472447764980875
-0.004623501704598984   -0.027785645839769016   -0.0010110850512903237
-0.004742487248539548   -0.027764853433075422   -0.0009284716069177255
-0.005632275442657227   -0.025195001636682167   -0.0010487476530393715
-0.003539936923415421   -0.027894059208903817   -0.0009472447764980875
-0.004742487248539548   -0.027764853433075422   -0.0009284716069177255
-0.004077107657605197   -0.02523576889021615   -0.0009511454652422955
-0.005632275442657227   -0.025195001636682167   -0.0010487476530393715
-0.004623501704598984   -0.027785645839769016   -0.0010110850512903237
-0.004024671946777991   -0.02526288177825595   -0.0009737818660396775
-0.005521043078105418   -0.025254349435570273   -0.001114057248148622
-0.004623501704598984   -0.027785645839769016   -0.0010110850512903237
-0.003539936923415421   -0.027894059208903817   -0.0009472447764980875
-0.004024671946777991   -0.02526288177825595   -0.0009737818660396775
-0.003476264489053044   -0.02793394153181408   -0.000983818414256611
-0.005521043078105418   -0.025254349435570273   -0.001114057248148622
-0.003972970808377556   -0.025307401443881657   -0.0010005020538589476
-0.003476264489053044   -0.02793394153181408   -0.000983818414256611
-0.004024671946777991   -0.02526288177825595   -0.0009737818660396775
-0.005521043078105418   -0.025254349435570273   -0.001114057248148622
-0.003476264489053044   -0.02793394153181408   -0.000983818414256611
-0.004478289228718477   -0.02784074554900936   -0.0010992735376768134
-0.004623501704598984   -0.027785645839769016   -0.0010110850512903237
-0.005521043078105418   -0.025254349435570273   -0.001114057248148622
-0.003476264489053044   -0.02793394153181408   -0.000983818414256611
-0.004623501704598984   -0.027785645839769016   -0.0010110850512903237
-0.004024671946777991   -0.02526288177825595   -0.0009737818660396775
-0.004118842803502174   -0.02522451952132275   -0.0009326321345783941
-0.003669702646141983   -0.02788292414408101   -0.0008861326245040435
-0.00265524597953392   -0.025260692045288278   -0.0009305953635980939
-0.004077107657605197   -0.02523576889021615   -0.0009511454652422955
-0.003669702646141983   -0.02788292414408101   -0.0008861326245040435
-0.0026847982220434114   -0.027956566645563927   -0.0009130573056700032
-0.00265524597953392   -0.025260692045288278   -0.0009305953635980939
-0.002623788804149543   -0.027947186044193915   -0.0009043726329200678
-0.004077107657605197   -0.02523576889021615   -0.0009511454652422955
-0.002612494292658124   -0.025264324767014887   -0.0009222215223719957
-0.002623788804149543   -0.027947186044193915   -0.0009043726329200678
-0.00265524597953392   -0.025260692045288278   -0.0009305953635980939
-0.004077107657605197   -0.02523576889021615   -0.0009511454652422955
-0.002623788804149543   -0.027947186044193915   -0.0009043726329200678
-0.0036101306567014684   -0.02787718800732081   -0.0009145944322238252
-0.003669702646141983   -0.02788292414408101   -0.0008861326245040435
-0.004077107657605197   -0.02523576889021615   -0.0009511454652422955
-0.002623788804149543   -0.027947186044193915   -0.0009043726329200678
-0.003669702646141983   -0.02788292414408101   -0.0008861326245040435
-0.00265524597953392   -0.025260692045288278   -0.0009305953635980939
-0.004077107657605197   -0.02523576889021615   -0.0009511454652422955
-0.0036101306567014684   -0.02787718800732081   -0.0009145944322238252
-0.002612494292658124   -0.025264324767014887   -0.0009222215223719957
-0.004024671946777991   -0.02526288177825595   -0.0009737818660396775
-0.0036101306567014684   -0.02787718800732081   -0.0009145944322238252
-0.002623788804149543   -0.027947186044193915   -0.0009043726329200678
-0.002612494292658124   -0.025264324767014887   -0.0009222215223719957
-0.002563564039325674   -0.027957359308123323   -0.0008997649048149127
-0.004024671946777991   -0.02526288177825595   -0.0009737818660396775
-0.002568342776034027   -0.025282137570884444   -0.0009178482965240374
-0.002563564039325674   -0.027957359308123323   -0.0008997649048149127
-0.002612494292658124   -0.025264324767014887   -0.0009222215223719957
-0.004024671946777991   -0.02526288177825595   -0.0009737818660396775
-0.002563564039325674   -0.027957359308123323   -0.0008997649048149127
-0.003539936923415421   -0.027894059208903817   -0.0009472447764980875
-0.0036101306567014684   -0.02787718800732081   -0.0009145944322238252
-0.004024671946777991   -0.02526288177825595   -0.0009737818660396775
-0.002563564039325674   -0.027957359308123323   -0.0008997649048149127
-0.0036101306567014684   -0.02787718800732081   -0.0009145944322238252
-0.002612494292658124   -0.025264324767014887   -0.0009222215223719957
-0.004024671946777991   -0.02526288177825595   -0.0009737818660396775
-0.003539936923415421   -0.027894059208903817   -0.0009472447764980875
-0.002568342776034027   -0.025282137570884444   -0.0009178482965240374
-0.003972970808377556   -0.025307401443881657   -0.0010005020538589476
-0.003539936923415421   -0.027894059208903817   -0.0009472447764980875
-0.002563564039325674   -0.027957359308123323   -0.0008997649048149127
-0.002568342776034027   -0.025282137570884444   -0.0009178482965240374
-0.0025080715238018597   -0.027987705201029014   -0.0009000752006350479
-0.003972970808377556   -0.025307401443881657   -0.0010005020538589476
-0.0025242492283064073   -0.025314932026153696   -0.000917435348883465
-0.0025080715238018597   -0.027987705201029014   -0.0009000752006350479
-0.002568342776034027   -0.025282137570884444   -0.0009178482965240374
-0.003972970808377556   -0.025307401443881657   -0.0010005020538589476
-0.0025080715238018597   -0.027987705201029014   -0.0009000752006350479
-0.003476264489053044   -0.02793394153181408   -0.000983818414256611
-0.003539936923415421   -0.027894059208903817   -0.0009472447764980875
-0.003972970808377556   -0.025307401443881657   -0.0010005020538589476
-0.0025080715238018597   -0.027987705201029014   -0.0009000752006350479
-0.003539936923415421   -0.027894059208903817   -0.0009472447764980875
-0.002568342776034027   -0.025282137570884444   -0.0009178482965240374
-0.00265524597953392   -0.025260692045288278   -0.0009305953635980939
-0.0026847982220434114   -0.027956566645563927   -0.0009130573056700032
-0.0012399922606334411   -0.025253407911653127   -0.000941380988491461
-0.002612494292658124   -0.025264324767014887   -0.0009222215223719957
-0.0026847982220434114   -0.027956566645563927   -0.0009130573056700032
-0.0017411724071173796   -0.027993911818084385   -0.0009451692446602842
-0.0012399922606334411   -0.025253407911653127   -0.000941380988491461
-0.001672426506906465   -0.02798019988446664   -0.0009014008457804769
-0.002612494292658124   -0.025264324767014887   -0.0009222215223719957
-0.0011931714133770754   -0.025248459307978668   -0.0009070559811276411
-0.001672426506906465   -0.02798019988446664   -0.0009014008457804769
-0.0012399922606334411   -0.025253407911653127   -0.000941380988491461
-0.002612494292658124   -0.025264324767014887   -0.0009222215223719957
-0.001672426506906465   -0.02798019988446664   -0.0009014008457804769
-0.002623788804149543   -0.027947186044193915   -0.0009043726329200678
-0.0026847982220434114   -0.027956566645563927   -0.0009130573056700032
-0.002612494292658124   -0.025264324767014887   -0.0009222215223719957
-0.001672426506906465   -0.02798019988446664   -0.0009014008457804769
-0.0026847982220434114   -0.027956566645563927   -0.0009130573056700032
-0.0012399922606334411   -0.025253407911653127   -0.000941380988491461
-0.002612494292658124   -0.025264324767014887   -0.0009222215223719957
-0.002623788804149543   -0.027947186044193915   -0.0009043726329200678
-0.0011931714133770754   -0.025248459307978668   -0.0009070559811276411
-0.002568342776034027   -0.025282137570884444   -0.0009178482965240374
-0.002623788804149543   -0.027947186044193915   -0.0009043726329200678
-0.001672426506906465   -0.02798019988446664   -0.0009014008457804769
-0.0011931714133770754   -0.025248459307978668   -0.0009070559811276411
-0.0016068341905124217   -0.02798375592463962   -0.0008612678064670255
-0.002568342776034027   -0.025282137570884444   -0.0009178482965240374
-0.001147691885713414   -0.025256373752138524   -0.0008769970058818547
-0.0016068341905124217   -0.02798375592463962   -0.0008612678064670255
-0.0011931714133770754   -0.025248459307978668   -0.0009070559811276411
-0.002568342776034027   -0.025282137570884444   -0.0009178482965240374
-0.0016068341905124217   -0.02798375592463962   -0.0008612678064670255
-0.002563564039325674   -0.027957359308123323   -0.0008997649048149127
-0.002623788804149543   -0.027947186044193915   -0.0009043726329200678
-0.002568342776034027   -0.025282137570884444   -0.0009178482965240374
-0.0016068341905124217   -0.02798375592463962   -0.0008612678064670255
-0.002623788804149543   -0.027947186044193915   -0.0009043726329200678
-0.0011931714133770754   -0.025248459307978668   -0.0009070559811276411
-0.002568342776034027   -0.025282137570884444   -0.0009178482965240374
-0.002563564039325674   -0.027957359308123323   -0.0008997649048149127
-0.001147691885713414   -0.025256373752138524   -0.0008769970058818547
-0.0025242492283064073   -0.025314932026153696   -0.000917435348883465
-0.002563564039325674   -0.027957359308123323   -0.0008997649048149127
-0.0016068341905124217   -0.02798375592463962   -0.0008612678064670255
-0.001147691885713414   -0.025256373752138524   -0.0008769970058818547
-0.0015521651903185297   -0.02800780902588929   -0.0008269687392832725
-0.0025242492283064073   -0.025314932026153696   -0.000917435348883465
-0.0011065663059819893   -0.02527894596310046   -0.0008508403967037684
-0.0015521651903185297   -0.02800780902588929   -0.0008269687392832725
-0.001147691885713414   -0.025256373752138524   -0.0008769970058818547
-0.0025242492283064073   -0.025314932026153696   -0.000917435348883465
-0.0015521651903185297   -0.02800780902588929   -0.0008269687392832725
-0.0025080715238018597   -0.027987705201029014   -0.0009000752006350479
-0.002563564039325674   -0.027957359308123323   -0.0008997649048149127
-0.0025242492283064073   -0.025314932026153696   -0.000917435348883465
-0.0015521651903185297   -0.02800780902588929   -0.0008269687392832725
-0.002563564039325674   -0.027957359308123323   -0.0008997649048149127
-0.001147691885713414   -0.025256373752138524   -0.0008769970058818547
-0.0012399922606334411   -0.025253407911653127   -0.000941380988491461
-0.0017411724071173796   -0.027993911818084385   -0.0009451692446602842
0.000239855759553434   -0.025201098142792384   -0.0009672448575045484
-0.0011931714133770754   -0.025248459307978668   -0.0009070559811276411
-0.0017411724071173796   -0.027993911818084385   -0.0009451692446602842
-0.0007398202600846184   -0.02798159238012533   -0.0009832461123803896
0.000239855759553434   -0.025201098142792384   -0.0009672448575045484
-0.0006515516729575738   -0.027960047510904053   -0.0009058403801786398
-0.0011931714133770754   -0.025248459307978668   -0.0009070559811276411
0.00029688812218363797   -0.025185301062941402   -0.0009070364465602107
-0.0006515516729575738   -0.027960047510904053   -0.0009058403801786398
0.000239855759553434   -0.025201098142792384   -0.0009672448575045484
-0.0011931714133770754   -0.025248459307978668   -0.0009070559811276411
-0.0006515516729575738   -0.027960047510904053   -0.0009058403801786398
-0.001672426506906465   -0.02798019988446664   -0.0009014008457804769
-0.0017411724071173796   -0.027993911818084385   -0.0009451692446602842
-0.0011931714133770754   -0.025248459307978668   -0.0009070559811276411
-0.0006515516729575738   -0.027960047510904053   -0.0009058403801786398
-0.0017411724071173796   -0.027993911818084385   -0.0009451692446602842
0.000239855759553434   -0.025201098142792384   -0.0009672448575045484
-0.0011931714133770754   -0.025248459307978668   -0.0009070559811276411
-0.001672426506906465   -0.02798019988446664   -0.0009014008457804769
0.00029688812218363797   -0.025185301062941402   -0.0009070364465602107
-0.001147691885713414   -0.025256373752138524   -0.0008769970058818547
-0.001672426506906465   -0.02798019988446664   -0.0009014008457804769
-0.0006515516729575738   -0.027960047510904053   -0.0009058403801786398
0.00029688812218363797   -0.025185301062941402   -0.0009070364465602107
-0.0005610306429092271   -0.027956411221299576   -0.0008323047792730394
-0.001147691885713414   -0.025256373752138524   -0.0008769970058818547
0.00035711449810674954   -0.025183880225763455   -0.0008522256556228315
-0.0005610306429092271   -0.027956411221299576   -0.0008323047792730394
0.00029688812218363797   -0.025185301062941402   -0.0009070364465602107
-0.001147691885713414   -0.025256373752138524   -0.0008769970058818547
-0.0005610306429092271   -0.027956411221299576   -0.0008323047792730394
-0.0016068341905124217   -0.02798375592463962   -0.0008612678064670255
-0.001672426506906465   -0.02798019988446664   -0.0009014008457804769
-0.001147691885713414   -0.025256373752138524   -0.0008769970058818547
-0.0005610306429092271   -0.027956411221299576   -0.0008323047792730394
-0.001672426506906465   -0.02798019988446664   -0.0009014008457804769
0.00029688812218363797   -0.025185301062941402   -0.0009070364465602107
-0.001147691885713414   -0.025256373752138524   -0.0008769970058818547
-0.0016068341905124217   -0.02798375592463962   -0.0008612678064670255
0.00035711449810674954   -0.025183880225763455   -0.0008522256556228315
-0.0011065663059819893   -0.02527894596310046   -0.0008508403967037684
-0.0016068341905124217   -0.02798375592463962   -0.0008612678064670255
-0.0005610306429092271   -0.027956411221299576   -0.0008323047792730394
0.00035711449810674954   -0.025183880225763455   -0.0008522256556228315
-0.0004941491420499505   -0.02797441975475888   -0.0007653775890311463
-0.0011065663059819893   -0.02527894596310046   -0.0008508403967037684
0.0004011589799765297   -0.025196163607017267   -0.0008011266813600577
-0.0004941491420499505   -0.02797441975475888   -0.0007653775890311463
0.00035711449810674954   -0.025183880225763455   -0.0008522256556228315
-0.0011065663059819893   -0.02527894596310046   -0.0008508403967037684
-0.0004941491420499505   -0.02797441975475888   -0.0007653775890311463
-0.0015521651903185297   -0.02800780902588929   -0.0008269687392832725
-0.0016068341905124217   -0.02798375592463962   -0.0008612678064670255
-0.0011065663059819893   -0.02527894596310046   -0.0008508403967037684
-0.0004941491420499505   -0.02797441975475888   -0.0007653775890311463
-0.0016068341905124217   -0.02798375592463962   -0.0008612678064670255
0.00035711449810674954   -0.025183880225763455   -0.0008522256556228315
0.000239855759553434   -0.025201098142792384   -0.0009672448575045484
-0.0007398202600846184   -0.02798159238012533   -0.0009832461123803896
0.0018142530947622875   -0.02509885528333568   -0.0010219509851157077
0.00029688812218363797   -0.025185301062941402   -0.0009070364465602107
-0.0007398202600846184   -0.02798159238012533   -0.0009832461123803896
0.00033379921414087053   -0.027884515841737866   -0.0010604074135625336
0.0018142530947622875   -0.02509885528333568   -0.0010219509851157077
0.0005416289122379711   -0.02783790997222341   -0.0009339353580889343
0.00029688812218363797   -0.025185301062941402   -0.0009070364465602107
0.0019596722477546484   -0.025068636789881745   -0.0009297481953716137
0.0005416289122379711   -0.02783790997222341   -0.0009339353580889343
0.0018142530947622875   -0.02509885528333568   -0.0010219509851157077
0.00029688812218363797   -0.025185301062941402   -0.0009070364465602107
0.0005416289122379711   -0.02783790997222341   -0.0009339353580889343
-0.0006515516729575738   -0.027960047510904053   -0.0009058403801786398
-0.0007398202600846184   -0.02798159238012533   -0.0009832461123803896
0.00029688812218363797   -0.025185301062941402   -0.0009070364465602107
0.0005416289122379711   -0.02783790997222341   -0.0009339353580889343
-0.0007398202600846184   -0.02798159238012533   -0.0009832461123803896
0.0018142530947622875   -0.02509885528333568   -0.0010219509851157077
0.00029688812218363797   -0.025185301062941402   -0.0009070364465602107
-0.0006515516729575738   -0.027960047510904053   -0.0009058403801786398
0.0019596722477546484   -0.025068636789881745   -0.0009297481953716137
0.00035711449810674954   -0.025183880225763455   -0.0008522256556228315
-0.0006515516729575738   -0.027960047510904053   -0.0009058403801786398
0.0005416289122379711   -0.02783790997222341   -0.0009339353580889343
0.0019596722477546484   -0.025068636789881745   -0.0009297481953716137
0.0007048396630293573   -0.027828607285237592   -0.0008150090488513222
0.00035711449810674954   -0.025183880225763455   -0.0008522256556228315
0.0020712393853837565   -0.025063400487680174   -0.0008442429727711367
0.0007048396630293573   -0.027828607285237592   -0.0008150090488513222
0.0019596722477546484   -0.025068636789881745   -0.0009297481953716137
0.00035711449810674954   -0.025183880225763455   -0.0008522256556228315
0.0007048396630293573   -0.027828607285237592   -0.0008150090488513222
-0.0005610306429092271   -0.027956411221299576   -0.0008323047792730394
-0.0006515516729575738   -0.027960047510904053   -0.0009058403801786398
0.00035711449810674954   -0.025183880225763455   -0.0008522256556228315
0.0007048396630293573   -0.027828607285237592   -0.0008150090488513222
-0.0006515516729575738   -0.027960047510904053   -0.0009058403801786398
0.0019596722477546484   -0.025068636789881745   -0.0009297481953716137
0.00035711449810674954   -0.025183880225763455   -0.0008522256556228315
-0.0005610306429092271   -0.027956411221299576   -0.0008323047792730394
0.0020712393853837565   -0.025063400487680174   -0.0008442429727711367
0.0004011589799765297   -0.025196163607017267   -0.0008011266813600577
-0.0005610306429092271   -0.027956411221299576   -0.0008323047792730394
0.0007048396630293573   -0.027828607285237592   -0.0008150090488513222
0.0020712393853837565   -0.025063400487680174   -0.0008442429727711367
0.0008749819976284668   -0.027837110164277146   -0.000706183141313191
0.0004011589799765297   -0.025196163607017267   -0.0008011266813600577
0.0021872432972584017   -0.02507251610094059   -0.0007661264466298736
0.0008749819976284668   -0.027837110164277146   -0.000706183141313191
0.0020712393853837565   -0.025063400487680174   -0.0008442429727711367
0.0004011589799765297   -0.025196163607017267   -0.0008011266813600577
0.0008749819976284668   -0.027837110164277146   -0.000706183141313191
-0.0004941491420499505   -0.02797441975475888   -0.0007653775890311463
-0.0005610306429092271   -0.027956411221299576   -0.0008323047792730394
0.0004011589799765297   -0.025196163607017267   -0.0008011266813600577
0.0008749819976284668   -0.027837110164277146   -0.000706183141313191
-0.0005610306429092271   -0.027956411221299576   -0.0008323047792730394
0.0020712393853837565   -0.025063400487680174   -0.0008442429727711367
-0.004871710927151448   -0.027767968106384145   -0.0008517665889617458
-0.003591744473947181   -0.029329990087625792   -0.0007501810105924546
-0.003669702646141983   -0.02788292414408101   -0.0008861326245040435
-0.004742487248539548   -0.027764853433075422   -0.0009284716069177255
-0.003591744473947181   -0.029329990087625792   -0.0007501810105924546
-0.003027730954533281   -0.029474951788347494   -0.0008366972741898044
-0.003669702646141983   -0.02788292414408101   -0.0008861326245040435
-0.0029529445156357493   -0.029446739907583317   -0.0008671345112209231
-0.004742487248539548   -0.027764853433075422   -0.0009284716069177255
-0.0036101306567014684   -0.02787718800732081   -0.0009145944322238252
-0.0029529445156357493   -0.029446739907583317   -0.0008671345112209231
-0.003669702646141983   -0.02788292414408101   -0.0008861326245040435
-0.004742487248539548   -0.027764853433075422   -0.0009284716069177255
-0.0029529445156357493   -0.029446739907583317   -0.0008671345112209231
-0.0034312360249103124   -0.029298148947252876   -0.0008420999353789473
-0.003591744473947181   -0.029329990087625792   -0.0007501810105924546
-0.004742487248539548   -0.027764853433075422   -0.0009284716069177255
-0.0029529445156357493   -0.029446739907583317   -0.0008671345112209231
-0.003591744473947181   -0.029329990087625792   -0.0007501810105924546
-0.003669702646141983   -0.02788292414408101   -0.0008861326245040435
-0.004742487248539548   -0.027764853433075422   -0.0009284716069177255
-0.0034312360249103124   -0.029298148947252876   -0.0008420999353789473
-0.0036101306567014684   -0.02787718800732081   -0.0009145944322238252
-0.004623501704598984   -0.027785645839769016   -0.0010110850512903237
-0.0034312360249103124   -0.029298148947252876   -0.0008420999353789473
-0.0029529445156357493   -0.029446739907583317   -0.0008671345112209231
-0.0036101306567014684   -0.02787718800732081   -0.0009145944322238252
-0.002869901874010135   -0.02944870878657035   -0.0008978902130431483
-0.004623501704598984   -0.027785645839769016   -0.0010110850512903237
-0.003539936923415421   -0.027894059208903817   -0.0009472447764980875
-0.002869901874010135   -0.02944870878657035   -0.0008978902130431483
-0.0036101306567014684   -0.02787718800732081   -0.0009145944322238252
-0.004623501704598984   -0.027785645839769016   -0.0010110850512903237
-0.002869901874010135   -0.02944870878657035   -0.0008978902130431483
-0.0032928014204463133   -0.029301519097448252   -0.0009337155129415872
-0.0034312360249103124   -0.029298148947252876   -0.0008420999353789473
-0.004623501704598984   -0.027785645839769016   -0.0010110850512903237
-0.002869901874010135   -0.02944870878657035   -0.0008978902130431483
-0.0034312360249103124   -0.029298148947252876   -0.0008420999353789473
-0.0036101306567014684   -0.02787718800732081   -0.0009145944322238252
-0.004623501704598984   -0.027785645839769016   -0.0010110850512903237
-0.0032928014204463133   -0.029301519097448252   -0.0009337155129415872
-0.003539936923415421   -0.027894059208903817   -0.0009472447764980875
-0.004478289228718477   -0.02784074554900936   -0.0010992735376768134
-0.0032928014204463133   -0.029301519097448252   -0.0009337155129415872
-0.002869901874010135   -0.02944870878657035   -0.0008978902130431483
-0.003539936923415421   -0.027894059208903817   -0.0009472447764980875
-0.0027928744922805005   -0.029481025478438543   -0.000929091800604993
-0.004478289228718477   -0.02784074554900936   -0.0010992735376768134
-0.003476264489053044   -0.02793394153181408   -0.000983818414256611
-0.0027928744922805005   -0.029481025478438543   -0.000929091800604993
-0.003539936923415421   -0.027894059208903817   -0.0009472447764980875
-0.004478289228718477   -0.02784074554900936   -0.0010992735376768134
-0.0027928744922805005   -0.029481025478438543   -0.000929091800604993
-0.0031284326693424343   -0.02934218428048827   -0.0010272883569848938
-0.0032928014204463133   -0.029301519097448252   -0.0009337155129415872
-0.004478289228718477   -0.02784074554900936   -0.0010992735376768134
-0.0027928744922805005   -0.029481025478438543   -0.000929091800604993
-0.0032928014204463133   -0.029301519097448252   -0.0009337155129415872
-0.003539936923415421   -0.027894059208903817   -0.0009472447764980875
-0.003669702646141983   -0.02788292414408101   -0.0008861326245040435
-0.003027730954533281   -0.029474951788347494   -0.0008366972741898044
-0.0026847982220434114   -0.027956566645563927   -0.0009130573056700032
-0.0036101306567014684   -0.02787718800732081   -0.0009145944322238252
-0.003027730954533281   -0.029474951788347494   -0.0008366972741898044
-0.002612418068888929   -0.02961833664817552   -0.0009130140434275442
-0.0026847982220434114   -0.027956566645563927   -0.0009130573056700032
-0.002533721205296934   -0.029589278768209045   -0.0008922957439262302
-0.0036101306567014684   -0.02787718800732081   -0.0009145944322238252
-0.002623788804149543   -0.027947186044193915   -0.0009043726329200678
-0.002533721205296934   -0.029589278768209045   -0.0008922957439262302
-0.0026847982220434114   -0.027956566645563927   -0.0009130573056700032
-0.0036101306567014684   -0.02787718800732081   -0.0009145944322238252
-0.002533721205296934   -0.029589278768209045   -0.0008922957439262302
-0.0029529445156357493   -0.029446739907583317   -0.0008671345112209231
-0.003027730954533281   -0.029474951788347494   -0.0008366972741898044
-0.0036101306567014684   -0.02787718800732081   -0.0009145944322238252
-0.002533721205296934   -0.029589278768209045   -0.0008922957439262302
-0.003027730954533281   -0.029474951788347494   -0.0008366972741898044
-0.0026847982220434114   -0.027956566645563927   -0.0009130573056700032
-0.0036101306567014684   -0.02787718800732081   -0.0009145944322238252
-0.0029529445156357493   -0.029446739907583317   -0.0008671345112209231
-0.002623788804149543   -0.027947186044193915   -0.0009043726329200678
-0.003539936923415421   -0.027894059208903817   -0.0009472447764980875
-0.0029529445156357493   -0.029446739907583317   -0.0008671345112209231
-0.002533721205296934   -0.029589278768209045   -0.0008922957439262302
-0.002623788804149543   -0.027947186044193915   -0.0009043726329200678
-0.0024575362554487305   -0.029589185546917866   -0.0008713344747849227
-0.003539936923415421   -0.027894059208903817   -0.0009472447764980875
-0.002563564039325674   -0.027957359308123323   -0.0008997649048149127
-0.0024575362554487305   -0.029589185546917866   -0.0008713344747849227
-0.002623788804149543   -0.027947186044193915   -0.0009043726329200678
-0.003539936923415421   -0.027894059208903817   -0.0009472447764980875
-0.0024575362554487305   -0.029589185546917866   -0.0008713344747849227
-0.002869901874010135   -0.02944870878657035   -0.0008978902130431483
-0.0029529445156357493   -0.029446739907583317   -0.0008671345112209231
-0.003539936923415421   -0.027894059208903817   -0.0009472447764980875
-0.0024575362554487305   -0.029589185546917866   -0.0008713344747849227
-0.0029529445156357493   -0.029446739907583317   -0.0008671345112209231
-0.002623788804149543   -0.027947186044193915   -0.0009043726329200678
-0.003539936923415421   -0.027894059208903817   -0.0009472447764980875
-0.002869901874010135   -0.02944870878657035   -0.0008978902130431483
-0.002563564039325674   -0.027957359308123323   -0.0008997649048149127
-0.003476264489053044   -0.02793394153181408   -0.000983818414256611
-0.002869901874010135   -0.02944870878657035   -0.0008978902130431483
-0.0024575362554487305   -0.029589185546917866   -0.0008713344747849227
-0.002563564039325674   -0.027957359308123323   -0.0008997649048149127
-0.0023781856086008677   -0.029617478928284417   -0.0008512369316026498
-0.003476264489053044   -0.02793394153181408   -0.000983818414256611
-0.0025080715238018597   -0.027987705201029014   -0.0009000752006350479
-0.0023781856086008677   -0.029617478928284417   -0.0008512369316026498
-0.002563564039325674   -0.027957359308123323   -0.0008997649048149127
-0.003476264489053044   -0.02793394153181408   -0.000983818414256611
-0.0023781856086008677   -0.029617478928284417   -0.0008512369316026498
-0.0027928744922805005   -0.029481025478438543   -0.000929091800604993
-0.002869901874010135   -0.02944870878657035   -0.0008978902130431483
-0.003476264489053044   -0.02793394153181408   -0.000983818414256611
-0.0023781856086008677   -0.029617478928284417   -0.0008512369316026498
-0.002869901874010135   -0.02944870878657035   -0.0008978902130431483
-0.002563564039325674   -0.027957359308123323   -0.0008997649048149127
-0.0026847982220434114   -0.027956566645563927   -0.0009130573056700032
-0.002612418068888929   -0.02961833664817552   -0.0009130140434275442
-0.0017411724071173796   -0.027993911818084385   -0.0009451692446602842
-0.002623788804149543   -0.027947186044193915   -0.0009043726329200678
-0.002612418068888929   -0.02961833664817552   -0.0009130140434275442
-0.0022323362544517055   -0.02978914373437768   -0.0009973578692285103
-0.0017411724071173796   -0.027993911818084385   -0.0009451692446602842
-0.0021359975226851935   -0.029763694691488228   -0.0009226595338532055
-0.002623788804149543   -0.027947186044193915   -0.0009043726329200678
-0.001672426506906465   -0.02798019988446664   -0.0009014008457804769
-0.0021359975226851935   -0.029763694691488228   -0.0009226595338532055
-0.0017411724071173796   -0.027993911818084385   -0.0009451692446602842
-0.002623788804149543   -0.027947186044193915   -0.0009043726329200678
-0.0021359975226851935   -0.029763694691488228   -0.0009226595338532055
-0.002533721205296934   -0.029589278768209045   -0.0008922957439262302
-0.002612418068888929   -0.02961833664817552   -0.0009130140434275442
-0.002623788804149543   -0.027947186044193915   -0.0009043726329200678
-0.0021359975226851935   -0.029763694691488228   -0.0009226595338532055
-0.002612418068888929   -0.02961833664817552   -0.0009130140434275442
-0.0017411724071173796   -0.027993911818084385   -0.0009451692446602842
-0.002623788804149543   -0.027947186044193915   -0.0009043726329200678
-0.002533721205296934   -0.029589278768209045   -0.0008922957439262302
-0.001672426506906465   -0.02798019988446664   -0.0009014008457804769
-0.002563564039325674   -0.027957359308123323   -0.0008997649048149127
-0.002533721205296934   -0.029589278768209045   -0.0008922957439262302
-0.0021359975226851935   -0.029763694691488228   -0.0009226595338532055
-0.001672426506906465   -0.02798019988446664   -0.0009014008457804769
-0.0020465805292907077   -0.029762582102576703   -0.0008481236022320998
-0.002563564039325674   -0.027957359308123323   -0.0008997649048149127
-0.0016068341905124217   -0.02798375592463962   -0.0008612678064670255
-0.0020465805292907077   -0.029762582102576703   -0.0008481236022320998
-0.001672426506906465   -0.02798019988446664   -0.0009014008457804769
-0.002563564039325674   -0.027957359308123323   -0.0008997649048149127
-0.0020465805292907077   -0.029762582102576703   -0.0008481236022320998
-0.0024575362554487305   -0.029589185546917866   -0.0008713344747849227
-0.002533721205296934   -0.029589278768209045   -0.0008922957439262302
-0.002563564039325674   -0.027957359308123323   -0.0008997649048149127
-0.0020465805292907077   -0.029762582102576703   -0.0008481236022320998
-0.002533721205296934   -0.029589278768209045   -0.0008922957439262302
-0.001672426506906465   -0.02798019988446664   -0.0009014008457804769
-0.002563564039325674   -0.027957359308123323   -0.0008997649048149127
-0.0024575362554487305   -0.029589185546917866   -0.0008713344747849227
-0.0016068341905124217   -0.02798375592463962   -0.0008612678064670255
-0.0025080715238018597   -0.027987705201029014   -0.0009000752006350479
-0.0024575362554487305   -0.029589185546917866   -0.0008713344747849227
-0.0020465805292907077   -0.029762582102576703   -0.0008481236022320998
-0.0016068341905124217   -0.02798375592463962   -0.0008612678064670255
-0.0019507755907559846   -0.02978455701824222   -0.0007735744593948147
-0.0025080715238018597   -0.027987705201029014   -0.0009000752006350479
-0.0015521651903185297   -0.02800780902588929   -0.0008269687392832725
-0.0019507755907559846   -0.02978455701824222   -0.0007735744593948147
-0.0016068341905124217   -0.02798375592463962   -0.0008612678064670255
-0.0025080715238018597   -0.027987705201029014   -0.0009000752006350479
-0.0019507755907559846   -0.02978455701824222   -0.0007735744593948147
-0.0023781856086008677   -0.029617478928284417   -0.0008512369316026498
-0.0024575362554487305   -0.029589185546917866   -0.0008713344747849227
-0.0025080715238018597   -0.027987705201029014   -0.0009000752006350479
-0.0019507755907559846   -0.02978455701824222   -0.0007735744593948147
-0.0024575362554487305   -0.029589185546917866   -0.0008713344747849227
-0.0016068341905124217   -0.02798375592463962   -0.0008612678064670255
-0.0017411724071173796   -0.027993911818084385   -0.0009451692446602842
-0.0022323362544517055   -0.02978914373437768   -0.0009973578692285103
-0.0007398202600846184   -0.02798159238012533   -0.0009832461123803896
-0.001672426506906465   -0.02798019988446664   -0.0009014008457804769
-0.0022323362544517055   -0.02978914373437768   -0.0009973578692285103
-0.0018582636036533681   -0.03   -0.0010633207408804132
-0.0007398202600846184   -0.02798159238012533   -0.0009832461123803896
-0.0017367639213305688   -0.03   -0.0009489471790378181
-0.001672426506906465   -0.02798019988446664   -0.0009014008457804769
-0.0006515516729575738   -0.027960047510904053   -0.0009058403801786398
-0.0017367639213305688   -0.03   -0.0009489471790378181
-0.0007398202600846184   -0.02798159238012533   -0.0009832461123803896
-0.001672426506906465   -0.02798019988446664   -0.0009014008457804769
-0.0017367639213305688   -0.03   -0.0009489471790378181
-0.0021359975226851935   -0.029763694691488228   -0.0009226595338532055
-0.0022323362544517055   -0.02978914373437768   -0.0009973578692285103
-0.001672426506906465   -0.02798019988446664   -0.0009014008457804769
-0.0017367639213305688   -0.03   -0.0009489471790378181
-0.0022323362544517055   -0.02978914373437768   -0.0009973578692285103
-0.0007398202600846184   -0.02798159238012533   -0.0009832461123803896
-0.001672426506906465   -0.02798019988446664   -0.0009014008457804769
-0.0021359975226851935   -0.029763694691488228   -0.0009226595338532055
-0.0006515516729575738   -0.027960047510904053   -0.0009058403801786398
-0.0016068341905124217   -0.02798375592463962   -0.0008612678064670255
-0.0021359975226851935   -0.029763694691488228   -0.0009226595338532055
-0.0017367639213305688   -0.03   -0.0009489471790378181
-0.0006515516729575738   -0.027960047510904053   -0.0009058403801786398
-0.0016144188701633438   -0.03   -0.0008332263441530326
-0.0016068341905124217   -0.02798375592463962   -0.0008612678064670255
-0.0005610306429092271   -0.027956411221299576   -0.0008323047792730394
-0.0016144188701633438   -0.03   -0.0008332263441530326
-0.0006515516729575738   -0.027960047510904053   -0.0009058403801786398
-0.0016068341905124217   -0.02798375592463962   -0.0008612678064670255
-0.0016144188701633438   -0.03   -0.0008332263441530326
-0.0020465805292907077   -0.029762582102576703   -0.0008481236022320998
-0.0021359975226851935   -0.029763694691488228   -0.0009226595338532055
-0.0016068341905124217   -0.02798375592463962   -0.0008612678064670255
-0.0016144188701633438   -0.03   -0.0008332263441530326
-0.0021359975226851935   -0.029763694691488228   -0.0009226595338532055
-0.0006515516729575738   -0.027960047510904053   -0.0009058403801786398
-0.0016068341905124217   -0.02798375592463962   -0.0008612678064670255
-0.0020465805292907077   -0.029762582102576703   -0.0008481236022320998
-0.0005610306429092271   -0.027956411221299576   -0.0008323047792730394
-0.0015521651903185297   -0.02800780902588929   -0.0008269687392832725
-0.0020465805292907077   -0.029762582102576703   -0.0008481236022320998
-0.0016144188701633438   -0.03   -0.0008332263441530326
-0.0005610306429092271   -0.027956411221299576   -0.0008323047792730394
-0.0014951596573021554   -0.03   -0.0007190584349311868
-0.0015521651903185297   -0.02800780902588929   -0.0008269687392832725
-0.0004941491420499505   -0.02797441975475888   -0.0007653775890311463
-0.0014951596573021554   -0.03   -0.0007190584349311868
-0.0005610306429092271   -0.027956411221299576   -0.0008323047792730394
-0.0015521651903185297   -0.02800780902588929   -0.0008269687392832725
-0.0014951596573021554   -0.03   -0.0007190584349311868
-0.0019507755907559846   -0.02978455701824222   -0.0007735744593948147
-0.0020465805292907077   -0.029762582102576703   -0.0008481236022320998
-0.0015521651903185297   -0.02800780902588929   -0.0008269687392832725
-0.0014951596573021554   -0.03   -0.0007190584349311868
-0.0020465805292907077   -0.029762582102576703   -0.0008481236022320998
-0.0005610306429092271   -0.027956411221299576   -0.0008323047792730394
-0.0007398202600846184   -0.02798159238012533   -0.0009832461123803896
-0.0018582636036533681   -0.03   -0.0010633207408804132
0.00033379921414087053   -0.027884515841737866   -0.0010604074135625336
-0.0006515516729575738   -0.027960047510904053   -0.0009058403801786398
-0.0018582636036533681   -0.03   -0.0010633207408804132
-0.001583990863432217   -0.03   -0.001143199863723945
0.00033379921414087053   -0.027884515841737866   -0.0010604074135625336
-0.0013277938107396085   -0.03   -0.000977251758432671
-0.0006515516729575738   -0.027960047510904053   -0.0009058403801786398
0.0005416289122379711   -0.02783790997222341   -0.0009339353580889343
-0.0013277938107396085   -0.03   -0.000977251758432671
0.00033379921414087053   -0.027884515841737866   -0.0010604074135625336
-0.0006515516729575738   -0.027960047510904053   -0.0009058403801786398
-0.0013277938107396085   -0.03   -0.000977251758432671
-0.0017367639213305688   -0.03   -0.0009489471790378181
-0.0018582636036533681   -0.03   -0.0010633207408804132
-0.0006515516729575738   -0.027960047510904053   -0.0009058403801786398
-0.0013277938107396085   -0.03   -0.000977251758432671
-0.0018582636036533681   -0.03   -0.0010633207408804132
0.00033379921414087053   -0.027884515841737866   -0.0010604074135625336
-0.0006515516729575738   -0.027960047510904053   -0.0009058403801786398
-0.0017367639213305688   -0.03   -0.0009489471790378181
0.0005416289122379711   -0.02783790997222341   -0.0009339353580889343
-0.0005610306429092271   -0.027956411221299576   -0.0008323047792730394
-0.0017367639213305688   -0.03   -0.0009489471790378181
-0.0013277938107396085   -0.03   -0.000977251758432671
0.0005416289122379711   -0.02783790997222341   -0.0009339353580889343
-0.001123502306178981   -0.03   -0.000818529034541665
-0.0005610306429092271   -0.027956411221299576   -0.0008323047792730394
0.0007048396630293573   -0.027828607285237592   -0.0008150090488513222
-0.001123502306178981   -0.03   -0.000818529034541665
0.0005416289122379711   -0.02783790997222341   -0.0009339353580889343
-0.0005610306429092271   -0.027956411221299576   -0.0008323047792730394
-0.001123502306178981   -0.03   -0.000818529034541665
-0.0016144188701633438   -0.03   -0.0008332263441530326
-0.0017367639213305688   -0.03   -0.0009489471790378181
-0.0005610306429092271   -0.027956411221299576   -0.0008323047792730394
-0.001123502306178981   -0.03   -0.000818529034541665
-0.0017367639213305688   -0.03   -0.0009489471790378181
0.0005416289122379711   -0.02783790997222341   -0.0009339353580889343
-0.0005610306429092271   -0.027956411221299576   -0.0008323047792730394
-0.0016144188701633438   -0.03   -0.0008332263441530326
0.0007048396630293573   -0.027828607285237592   -0.0008150090488513222
-0.0004941491420499505   -0.02797441975475888   -0.0007653775890311463
-0.0016144188701633438   -0.03   -0.0008332263441530326
-0.001123502306178981   -0.03   -0.000818529034541665
0.0007048396630293573   -0.027828607285237592   -0.0008150090488513222
-0.0008712276998315136   -0.03   -0.0006537332768084302
-0.0004941491420499505   -0.02797441975475888   -0.0007653775890311463
0.0008749819976284668   -0.027837110164277146   -0.000706183141313191
-0.0008712276998315136   -0.03   -0.0006537332768084302
0.0007048396630293573   -0.027828607285237592   -0.0008150090488513222
-0.0004941491420499505   -0.02797441975475888   -0.0007653775890311463
-0.0008712276998315136   -0.03   -0.0006537332768084302
-0.0014951596573021554   -0.03   -0.0007190584349311868
-0.0016144188701633438   -0.03   -0.0008332263441530326
-0.0004941491420499505   -0.02797441975475888   -0.0007653775890311463
-0.0008712276998315136   -0.03   -0.0006537332768084302
-0.0016144188701633438   -0.03   -0.0008332263441530326
0.0007048396630293573   -0.027828607285237592   -0.0008150090488513222
-0.003591744473947181   -0.029329990087625792   -0.0007501810105924546
-0.0021757865678372636   -0.02942761857162854   -0.0006424970604968233
-0.003027730954533281   -0.029474951788347494   -0.0008366972741898044
-0.0034312360249103124   -0.029298148947252876   -0.0008420999353789473
-0.0021757865678372636   -0.02942761857162854   -0.0006424970604968233
-0.0022949046725460305   -0.029540167261098708   -0.000753952297562393
-0.003027730954533281   -0.029474951788347494   -0.0008366972741898044
-0.0022381828627410557   -0.029501543671329067   -0.0007951899582660944
-0.0034312360249103124   -0.029298148947252876   -0.0008420999353789473
-0.0029529445156357493   -0.029446739907583317   -0.0008671345112209231
-0.0022381828627410557   -0.029501543671329067   -0.0007951899582660944
-0.003027730954533281   -0.029474951788347494   -0.0008366972741898044
-0.0034312360249103124   -0.029298148947252876   -0.0008420999353789473
-0.0022381828627410557   -0.029501543671329067   -0.0007951899582660944
-0.002029907539367881   -0.029377958373153292   -0.0007391342836951277
-0.0021757865678372636   -0.02942761857162854   -0.0006424970604968233
-0.0034312360249103124   -0.029298148947252876   -0.0008420999353789473
-0.0022381828627410557   -0.029501543671329067   -0.0007951899582660944
-0.0021757865678372636   -0.02942761857162854   -0.0006424970604968233
-0.003027730954533281   -0.029474951788347494   -0.0008366972741898044
-0.0034312360249103124   -0.029298148947252876   -0.0008420999353789473
-0.002029907539367881   -0.029377958373153292   -0.0007391342836951277
-0.0029529445156357493   -0.029446739907583317   -0.0008671345112209231
-0.0032928014204463133   -0.029301519097448252   -0.0009337155129415872
-0.002029907539367881   -0.029377958373153292   -0.0007391342836951277
-0.0022381828627410557   -0.029501543671329067   -0.0007951899582660944
-0.0029529445156357493   -0.029446739907583317   -0.0008671345112209231
-0.0021715167651467494   -0.029487867243493397   -0.0008333285568373338
-0.0032928014204463133   -0.029301519097448252   -0.0009337155129415872
-0.002869901874010135   -0.02944870878657035   -0.0008978902130431483
-0.0021715167651467494   -0.029487867243493397   -0.0008333285568373338
-0.0029529445156357493   -0.029446739907583317   -0.0008671345112209231
-0.0032928014204463133   -0.029301519097448252   -0.0009337155129415872
-0.0021715167651467494   -0.029487867243493397   -0.0008333285568373338
-0.0019085262082615211   -0.029363330499872015   -0.0008319309587561389
-0.002029907539367881   -0.029377958373153292   -0.0007391342836951277
-0.0032928014204463133   -0.029301519097448252   -0.0009337155129415872
-0.0021715167651467494   -0.029487867243493397   -0.0008333285568373338
-0.002029907539367881   -0.029377958373153292   -0.0007391342836951277
-0.0029529445156357493   -0.029446739907583317   -0.0008671345112209231
-0.0032928014204463133   -0.029301519097448252   -0.0009337155129415872
-0.0019085262082615211   -0.029363330499872015   -0.0008319309587561389
-0.002869901874010135   -0.02944870878657035   -0.0008978902130431483
-0.0031284326693424343   -0.02934218428048827   -0.0010272883569848938
-0.0019085262082615211   -0.029363330499872015   -0.0008319309587561389
-0.0021715167651467494   -0.029487867243493397   -0.0008333285568373338
-0.002869901874010135   -0.02944870878657035   -0.0008978902130431483
-0.002114488029364942   -0.02949936208653355   -0.0008681783865226493
-0.0031284326693424343   -0.02934218428048827   -0.0010272883569848938
-0.0027928744922805005   -0.029481025478438543   -0.000929091800604993
-0.002114488029364942   -0.02949936208653355   -0.0008681783865226493
-0.002869901874010135   -0.02944870878657035   -0.0008978902130431483
-0.0031284326693424343   -0.02934218428048827   -0.0010272883569848938
-0.002114488029364942   -0.02949936208653355   -0.0008681783865226493
-0.001770889228992793   -0.02937764192966964   -0.0009204948620834216
-0.0019085262082615211   -0.029363330499872015   -0.0008319309587561389
-0.0031284326693424343   -0.02934218428048827   -0.0010272883569848938
-0.002114488029364942   -0.02949936208653355   -0.0008681783865226493
-0.0019085262082615211   -0.029363330499872015   -0.0008319309587561389
-0.002869901874010135   -0.02944870878657035   -0.0008978902130431483
-0.003027730954533281   -0.029474951788347494   -0.0008366972741898044
-0.0022949046725460305   -0.029540167261098708   -0.000753952297562393
-0.002612418068888929   -0.02961833664817552   -0.0009130140434275442
-0.0029529445156357493   -0.029446739907583317   -0.0008671345112209231
-0.0022949046725460305   -0.029540167261098708   -0.000753952297562393
-0.002461473715910864   -0.029608790463340886   -0.0008429218956564901
-0.002612418068888929   -0.02961833664817552   -0.0009130140434275442
-0.00241135831004374   -0.02957426068962893   -0.0008438661810143934
-0.0029529445156357493   -0.029446739907583317   -0.0008671345112209231
-0.002533721205296934   -0.029589278768209045   -0.0008922957439262302
-0.00241135831004374   -0.02957426068962893   -0.0008438661810143934
-0.002612418068888929   -0.02961833664817552   -0.0009130140434275442
-0.0029529445156357493   -0.029446739907583317   -0.0008671345112209231
-0.00241135831004374   -0.02957426068962893   -0.0008438661810143934
-0.0022381828627410557   -0.029501543671329067   -0.0007951899582660944
-0.0022949046725460305   -0.029540167261098708   -0.000753952297562393
-0.0029529445156357493   -0.029446739907583317   -0.0008671345112209231
-0.00241135831004374   -0.02957426068962893   -0.0008438661810143934
-0.0022949046725460305   -0.029540167261098708   -0.000753952297562393
-0.002612418068888929   -0.02961833664817552   -0.0009130140434275442
-0.0029529445156357493   -0.029446739907583317   -0.0008671345112209231
-0.0022381828627410557   -0.029501543671329067   -0.0007951899582660944
-0.002533721205296934   -0.029589278768209045   -0.0008922957439262302
-0.002869901874010135   -0.02944870878657035   -0.0008978902130431483
-0.0022381828627410557   -0.029501543671329067   -0.0007951899582660944
-0.00241135831004374   -0.02957426068962893   -0.0008438661810143934
-0.002533721205296934   -0.029589278768209045   -0.0008922957439262302
-0.0023556118913283805   -0.029562319002311176   -0.0008407938612506196
-0.002869901874010135   -0.02944870878657035   -0.0008978902130431483
-0.0024575362554487305   -0.029589185546917866   -0.0008713344747849227
-0.0023556118913283805   -0.029562319002311176   -0.0008407938612506196
-0.002533721205296934   -0.029589278768209045   -0.0008922957439262302
-0.002869901874010135   -0.02944870878657035   -0.0008978902130431483
-0.0023556118913283805   -0.029562319002311176   -0.0008407938612506196
-0.0021715167651467494   -0.029487867243493397   -0.0008333285568373338
-0.0022381828627410557   -0.029501543671329067   -0.0007951899582660944
-0.002869901874010135   -0.02944870878657035   -0.0008978902130431483
-0.0023556118913283805   -0.029562319002311176   -0.0008407938612506196
-0.0022381828627410557   -0.029501543671329067   -0.0007951899582660944
-0.002533721205296934   -0.029589278768209045   -0.0008922957439262302
-0.002869901874010135   -0.02944870878657035   -0.0008978902130431483
-0.0021715167651467494   -0.029487867243493397   -0.0008333285568373338
-0.0024575362554487305   -0.029589185546917866   -0.0008713344747849227
-0.0027928744922805005   -0.029481025478438543   -0.000929091800604993
-0.0021715167651467494   -0.029487867243493397   -0.0008333285568373338
-0.0023556118913283805   -0.029562319002311176   -0.0008407938612506196
-0.0024575362554487305   -0.029589185546917866   -0.0008713344747849227
-0.002298973745498733   -0.029571982590922145   -0.0008345675599796397
-0.0027928744922805005   -0.029481025478438543   -0.000929091800604993
-0.0023781856086008677   -0.029617478928284417   -0.0008512369316026498
-0.002298973745498733   -0.029571982590922145   -0.0008345675599796397
-0.0024575362554487305   -0.029589185546917866   -0.0008713344747849227
-0.0027928744922805005   -0.029481025478438543   -0.000929091800604993
-0.002298973745498733   -0.029571982590922145   -0.0008345675599796397
-0.002114488029364942   -0.02949936208653355   -0.0008681783865226493
-0.0021715167651467494   -0.029487867243493397   -0.0008333285568373338
-0.0027928744922805005   -0.029481025478438543   -0.000929091800604993
-0.002298973745498733   -0.029571982590922145   -0.0008345675599796397
-0.0021715167651467494   -0.029487867243493397   -0.0008333285568373338
-0.0024575362554487305   -0.029589185546917866   -0.0008713344747849227
-0.002612418068888929   -0.02961833664817552   -0.0009130140434275442
-0.002461473715910864   -0.029608790463340886   -0.0008429218956564901
-0.0022323362544517055   -0.02978914373437768   -0.0009973578692285103
-0.002533721205296934   -0.029589278768209045   -0.0008922957439262302
-0.002461473715910864   -0.029608790463340886   -0.0008429218956564901
-0.0026407318032678293   -0.029636152137857714   -0.0009306426438857802
-0.0022323362544517055   -0.02978914373437768   -0.0009973578692285103
-0.0025888122155795505   -0.029603105642082878   -0.0008928292242889676
-0.002533721205296934   -0.029589278768209045   -0.0008922957439262302
-0.0021359975226851935   -0.029763694691488228   -0.0009226595338532055
-0.0025888122155795505   -0.029603105642082878   -0.0008928292242889676
-0.0022323362544517055   -0.02978914373437768   -0.0009973578692285103
-0.002533721205296934   -0.029589278768209045   -0.0008922957439262302
-0.0025888122155795505   -0.029603105642082878   -0.0008928292242889676
-0.00241135831004374   -0.02957426068962893   -0.0008438661810143934
-0.002461473715910864   -0.029608790463340886   -0.0008429218956564901
-0.002533721205296934   -0.029589278768209045   -0.0008922957439262302
-0.0025888122155795505   -0.029603105642082878   -0.0008928292242889676
-0.002461473715910864   -0.029608790463340886   -0.0008429218956564901
-0.0022323362544517055   -0.02978914373437768   -0.0009973578692285103
-0.002533721205296934   -0.029589278768209045   -0.0008922957439262302
-0.00241135831004374   -0.02957426068962893   -0.0008438661810143934
-0.0021359975226851935   -0.029763694691488228   -0.0009226595338532055
-0.0024575362554487305   -0.029589185546917866   -0.0008713344747849227
-0.00241135831004374   -0.02957426068962893   -0.0008438661810143934
-0.0025888122155795505   -0.029603105642082878   -0.0008928292242889676
-0.0021359975226851935   -0.029763694691488228   -0.0009226595338532055
-0.0025266387534324058   -0.029593003813143146   -0.0008501205121965797
-0.0024575362554487305   -0.029589185546917866   -0.0008713344747849227
-0.0020465805292907077   -0.029762582102576703   -0.0008481236022320998
-0.0025266387534324058   -0.029593003813143146   -0.0008501205121965797
-0.0021359975226851935   -0.029763694691488228   -0.0009226595338532055
-0.0024575362554487305   -0.029589185546917866   -0.0008713344747849227
-0.0025266387534324058   -0.029593003813143146   -0.0008501205121965797
-0.0023556118913283805   -0.029562319002311176   -0.0008407938612506196
-0.00241135831004374   -0.02957426068962893   -0.0008438661810143934
-0.0024575362554487305   -0.029589185546917866   -0.0008713344747849227
-0.0025266387534324058   -0.029593003813143146   -0.0008501205121965797
-0.00241135831004374   -0.02957426068962893   -0.0008438661810143934
-0.0021359975226851935   -0.029763694691488228   -0.0009226595338532055
-0.0024575362554487305   -0.029589185546917866   -0.0008713344747849227
-0.0023556118913283805   -0.029562319002311176   -0.0008407938612506196
-0.0020465805292907077   -0.029762582102576703   -0.0008481236022320998
-0.0023781856086008677   -0.029617478928284417   -0.0008512369316026498
-0.0023556118913283805   -0.029562319002311176   -0.0008407938612506196
-0.0025266387534324058   -0.029593003813143146   -0.0008501205121965797
-0.0020465805292907077   -0.029762582102576703   -0.0008481236022320998
-0.0024627639705846575   -0.029602363644308155   -0.0008046921403285656
-0.0023781856086008677   -0.029617478928284417   -0.0008512369316026498
-0.0019507755907559846   -0.02978455701824222   -0.0007735744593948147
-0.0024627639705846575   -0.029602363644308155   -0.0008046921403285656
-0.0020465805292907077   -0.029762582102576703   -0.0008481236022320998
-0.0023781856086008677   -0.029617478928284417   -0.0008512369316026498
-0.0024627639705846575   -0.029602363644308155   -0.0008046921403285656
-0.002298973745498733   -0.029571982590922145   -0.0008345675599796397
-0.0023556118913283805   -0.029562319002311176   -0.0008407938612506196
-0.0023781856086008677   -0.029617478928284417   -0.0008512369316026498
-0.0024627639705846575   -0.029602363644308155   -0.0008046921403285656
-0.0023556118913283805   -0.029562319002311176   -0.0008407938612506196
-0.0020465805292907077   -0.029762582102576703   -0.0008481236022320998
-0.0022323362544517055   -0.02978914373437768   -0.0009973578692285103
-0.0026407318032678293   -0.029636152137857714   -0.0009306426438857802
-0.0018582636036533681   -0.03   -0.0010633207408804132
-0.0021359975226851935   -0.029763694691488228   -0.0009226595338532055
-0.0026407318032678293   -0.029636152137857714   -0.0009306426438857802
-0.0029008005787068054   -0.02960245749696724   -0.0010143886774775178
-0.0018582636036533681   -0.03   -0.0010633207408804132
-0.002833029896281956   -0.02957103474824059   -0.0009395820235522161
-0.0021359975226851935   -0.029763694691488228   -0.0009226595338532055
-0.0017367639213305688   -0.03   -0.0009489471790378181
-0.002833029896281956   -0.02957103474824059   -0.0009395820235522161
-0.0018582636036533681   -0.03   -0.0010633207408804132
-0.0021359975226851935   -0.029763694691488228   -0.0009226595338532055
-0.002833029896281956   -0.02957103474824059   -0.0009395820235522161
-0.0025888122155795505   -0.029603105642082878   -0.0008928292242889676
-0.0026407318032678293   -0.029636152137857714   -0.0009306426438857802
-0.0021359975226851935   -0.029763694691488228   -0.0009226595338532055
-0.002833029896281956   -0.02957103474824059   -0.0009395820235522161
-0.0026407318032678293   -0.029636152137857714   -0.0009306426438857802
-0.0018582636036533681   -0.03   -0.0010633207408804132
-0.0021359975226851935   -0.029763694691488228   -0.0009226595338532055
-0.0025888122155795505   -0.029603105642082878   -0.0008928292242889676
-0.0017367639213305688   -0.03   -0.0009489471790378181
-0.0020465805292907077   -0.029762582102576703   -0.0008481236022320998
-0.0025888122155795505   -0.029603105642082878   -0.0008928292242889676
-0.002833029896281956   -0.02957103474824059   -0.0009395820235522161
-0.0017367639213305688   -0.03   -0.0009489471790378181
-0.002743363364984435   -0.029564195274072155   -0.0008592865427259416
-0.0020465805292907077   -0.029762582102576703   -0.0008481236022320998
-0.0016144188701633438   -0.03   -0.0008332263441530326
-0.002743363364984435   -0.029564195274072155   -0.0008592865427259416
-0.0017367639213305688   -0.03   -0.0009489471790378181
-0.0020465805292907077   -0.029762582102576703   -0.0008481236022320998
-0.002743363364984435   -0.029564195274072155   -0.0008592865427259416
-0.0025266387534324058   -0.029593003813143146   -0.0008501205121965797
-0.0025888122155795505   -0.029603105642082878   -0.0008928292242889676
-0.0020465805292907077   -0.029762582102576703   -0.0008481236022320998
-0.002743363364984435   -0.029564195274072155   -0.0008592865427259416
-0.0025888122155795505   -0.029603105642082878   -0.0008928292242889676
-0.0017367639213305688   -0.03   -0.0009489471790378181
-0.0020465805292907077   -0.029762582102576703   -0.0008481236022320998
-0.0025266387534324058   -0.029593003813143146   -0.0008501205121965797
-0.0016144188701633438   -0.03   -0.0008332263441530326
-0.0019507755907559846   -0.02978455701824222   -0.0007735744593948147
-0.0025266387534324058   -0.029593003813143146   -0.0008501205121965797
-0.002743363364984435   -0.029564195274072155   -0.0008592865427259416
-0.0016144188701633438   -0.03   -0.0008332263441530326
-0.0026593944462637584   -0.0295772837794853   -0.0007759742696581685
-0.0019507755907559846   -0.02978455701824222   -0.0007735744593948147
-0.0014951596573021554   -0.03   -0.0007190584349311868
-0.0026593944462637584   -0.0295772837794853   -0.0007759742696581685
-0.0016144188701633438   -0.03   -0.0008332263441530326
-0.0019507755907559846   -0.02978455701824222   -0.0007735744593948147
-0.0026593944462637584   -0.0295772837794853   -0.0007759742696581685
-0.0024627639705846575   -0.029602363644308155   -0.0008046921403285656
-0.0025266387534324058   -0.029593003813143146   -0.0008501205121965797
-0.0019507755907559846   -0.02978455701824222   -0.0007735744593948147
-0.0026593944462637584   -0.0295772837794853   -0.0007759742696581685
-0.0025266387534324058   -0.029593003813143146   -0.0008501205121965797
-0.0016144188701633438   -0.03   -0.0008332263441530326
-0.0018582636036533681   -0.03   -0.0010633207408804132
-0.0029008005787068054   -0.02960245749696724   -0.0010143886774775178
-0.001583990863432217   -0.03   -0.001143199863723945
-0.0017367639213305688   -0.03   -0.0009489471790378181
-0.0029008005787068054   -0.02960245749696724   -0.0010143886774775178
-0.003411807619390247   -0.029458085769613496   -0.0011039564122689847
-0.001583990863432217   -0.03   -0.001143199863723945
-0.0032290458761007677   -0.02943121758058219   -0.0009812795646367723
-0.0017367639213305688   -0.03   -0.0009489471790378181
-0.0013277938107396085   -0.03   -0.000977251758432671
-0.0032290458761007677   -0.02943121758058219   -0.0009812795646367723
-0.001583990863432217   -0.03   -0.001143199863723945
-0.0017367639213305688   -0.03   -0.0009489471790378181
-0.0032290458761007677   -0.02943121758058219   -0.0009812795646367723
-0.002833029896281956   -0.02957103474824059   -0.0009395820235522161
-0.0029008005787068054   -0.02960245749696724   -0.0010143886774775178
-0.0017367639213305688   -0.03   -0.0009489471790378181
-0.0032290458761007677   -0.02943121758058219   -0.0009812795646367723
-0.0029008005787068054   -0.02960245749696724   -0.0010143886774775178
-0.001583990863432217   -0.03   -0.001143199863723945
-0.0017367639213305688   -0.03   -0.0009489471790378181
-0.002833029896281956   -0.02957103474824059   -0.0009395820235522161
-0.0013277938107396085   -0.03   -0.000977251758432671
-0.0016144188701633438   -0.03   -0.0008332263441530326
-0.002833029896281956   -0.02957103474824059   -0.0009395820235522161
-0.0032290458761007677   -0.02943121758058219   -0.0009812795646367723
-0.0013277938107396085   -0.03   -0.000977251758432671
-0.003061657295398649   -0.029427787190786422   -0.0008505795380201584
-0.0016144188701633438   -0.03   -0.0008332263441530326
-0.001123502306178981   -0.03   -0.000818529034541665
-0.003061657295398649   -0.029427787190786422   -0.0008505795380201584
-0.0013277938107396085   -0.03   -0.000977251758432671
-0.0016144188701633438   -0.03   -0.0008332263441530326
-0.003061657295398649   -0.029427787190786422   -0.0008505795380201584
-0.002743363364984435   -0.029564195274072155   -0.0008592865427259416
-0.002833029896281956   -0.02957103474824059   -0.0009395820235522161
-0.0016144188701633438   -0.03   -0.0008332263441530326
-0.003061657295398649   -0.029427787190786422   -0.0008505795380201584
-0.002833029896281956   -0.02957103474824059   -0.0009395820235522161
-0.0013277938107396085   -0.03   -0.000977251758432671
-0.0016144188701633438   -0.03   -0.0008332263441530326
-0.002743363364984435   -0.029564195274072155   -0.0008592865427259416
-0.001123502306178981   -0.03   -0.000818529034541665
-0.0014951596573021554   -0.03   -0.0007190584349311868
-0.002743363364984435   -0.029564195274072155   -0.0008592865427259416
-0.003061657295398649   -0.029427787190786422   -0.0008505795380201584
-0.001123502306178981   -0.03   -0.000818529034541665
-0.002850164480028856   -0.029462944773180743   -0.0007140965661798482
-0.0014951596573021554   -0.03   -0.0007190584349311868
-0.0008712276998315136   -0.03   -0.0006537332768084302
-0.002850164480028856   -0.029462944773180743   -0.0007140965661798482
-0.001123502306178981   -0.03   -0.000818529034541665
-0.0014951596573021554   -0.03   -0.0007190584349311868
-0.002850164480028856   -0.029462944773180743   -0.0007140965661798482
-0.0026593944462637584   -0.0295772837794853   -0.0007759742696581685
-0.002743363364984435   -0.029564195274072155   -0.0008592865427259416
-0.0014951596573021554   -0.03   -0.0007190584349311868
-0.002850164480028856   -0.029462944773180743   -0.0007140965661798482
-0.002743363364984435   -0.029564195274072155   -0.0008592865427259416
-0.001123502306178981   -0.03   -0.000818529034541665
-0.0021757865678372636   -0.02942761857162854   -0.0006424970604968233
-0.0009242406978403991   -0.028345923346400966   -0.0005540892068693812
-0.0022949046725460305   -0.029540167261098708   -0.000753952297562393
-0.002029907539367881   -0.029377958373153292   -0.0007391342836951277
-0.0009242406978403991   -0.028345923346400966   -0.0005540892068693812
-0.0016632036127281898   -0.02843150103878153   -0.0006726511222118532
-0.0022949046725460305   -0.029540167261098708   -0.000753952297562393
-0.0016227941783756288   -0.028384719650979877   -0.0007095756741490862
-0.002029907539367881   -0.029377958373153292   -0.0007391342836951277
-0.0022381828627410557   -0.029501543671329067   -0.0007951899582660944
-0.0016227941783756288   -0.028384719650979877   -0.0007095756741490862
-0.0022949046725460305   -0.029540167261098708   -0.000753952297562393
-0.002029907539367881   -0.029377958373153292   -0.0007391342836951277
-0.0016227941783756288   -0.028384719650979877   -0.0007095756741490862
-0.0008073283857328938   -0.028287912762132765   -0.000638042747950288
-0.0009242406978403991   -0.028345923346400966   -0.0005540892068693812
-0.002029907539367881   -0.029377958373153292   -0.0007391342836951277
-0.0016227941783756288   -0.028384719650979877   -0.0007095756741490862
-0.0009242406978403991   -0.028345923346400966   -0.0005540892068693812
-0.0022949046725460305   -0.029540167261098708   -0.000753952297562393
-0.002029907539367881   -0.029377958373153292   -0.0007391342836951277
-0.0008073283857328938   -0.028287912762132765   -0.000638042747950288
-0.0022381828627410557   -0.029501543671329067   -0.0007951899582660944
-0.0019085262082615211   -0.029363330499872015   -0.0008319309587561389
-0.0008073283857328938   -0.028287912762132765   -0.000638042747950288
-0.0016227941783756288   -0.028384719650979877   -0.0007095756741490862
-0.0022381828627410557   -0.029501543671329067   -0.0007951899582660944
-0.0015771405771348574   -0.028359394858113472   -0.0007432577193529673
-0.0019085262082615211   -0.029363330499872015   -0.0008319309587561389
-0.0021715167651467494   -0.029487867243493397   -0.0008333285568373338
-0.0015771405771348574   -0.028359394858113472   -0.0007432577193529673
-0.0022381828627410557   -0.029501543671329067   -0.0007951899582660944
-0.0019085262082615211   -0.029363330499872015   -0.0008319309587561389
-0.0015771405771348574   -0.028359394858113472   -0.0007432577193529673
-0.0007153163316567828   -0.02826096346126964   -0.0007171952267506183
-0.0008073283857328938   -0.028287912762132765   -0.000638042747950288
-0.0019085262082615211   -0.029363330499872015   -0.0008319309587561389
-0.0015771405771348574   -0.028359394858113472   -0.0007432577193529673
-0.0008073283857328938   -0.028287912762132765   -0.000638042747950288
-0.0022381828627410557   -0.029501543671329067   -0.0007951899582660944
-0.0019085262082615211   -0.029363330499872015   -0.0008319309587561389
-0.0007153163316567828   -0.02826096346126964   -0.0007171952267506183
-0.0021715167651467494   -0.029487867243493397   -0.0008333285568373338
-0.001770889228992793   -0.02937764192966964   -0.0009204948620834216
-0.0007153163316567828   -0.02826096346126964   -0.0007171952267506183
-0.0015771405771348574   -0.028359394858113472   -0.0007432577193529673
-0.0021715167651467494   -0.029487867243493397   -0.0008333285568373338
-0.0015421848123942311   -0.028354811635953544   -0.0007738062841206667
-0.001770889228992793   -0.02937764192966964   -0.0009204948620834216
-0.002114488029364942   -0.02949936208653355   -0.0008681783865226493
-0.0015421848123942311   -0.028354811635953544   -0.0007738062841206667
-0.0021715167651467494   -0.029487867243493397   -0.0008333285568373338
-0.001770889228992793   -0.02937764192966964   -0.0009204948620834216
-0.0015421848123942311   -0.028354811635953544   -0.0007738062841206667
-0.0006144659441562249   -0.02825720101507184   -0.0007913505863115823
-0.0007153163316567828   -0.02826096346126964   -0.0007171952267506183
-0.001770889228992793   -0.02937764192966964   -0.0009204948620834216
-0.0015421848123942311   -0.028354811635953544   -0.0007738062841206667
-0.0007153163316567828   -0.02826096346126964   -0.0007171952267506183
-0.0021715167651467494   -0.029487867243493397   -0.0008333285568373338
-0.0022949046725460305   -0.029540167261098708   -0.000753952297562393
-0.0016632036127281898   -0.02843150103878153   -0.0006726511222118532
-0.002461473715910864   -0.029608790463340886   -0.0008429218956564901
-0.0022381828627410557   -0.029501543671329067   -0.0007951899582660944
-0.0016632036127281898   -0.02843150103878153   -0.0006726511222118532
-0.0023953137620769645   -0.02846145468881247   -0.000769099137443791
-0.002461473715910864   -0.029608790463340886   -0.0008429218956564901
-0.0023614391864588196   -0.02842066400269549   -0.000770988171256261
-0.0022381828627410557   -0.029501543671329067   -0.0007951899582660944
-0.00241135831004374   -0.02957426068962893   -0.0008438661810143934
-0.0023614391864588196   -0.02842066400269549   -0.000770988171256261
-0.002461473715910864   -0.029608790463340886   -0.0008429218956564901
-0.0022381828627410557   -0.029501543671329067   -0.0007951899582660944
-0.0023614391864588196   -0.02842066400269549   -0.000770988171256261
-0.0016227941783756288   -0.028384719650979877   -0.0007095756741490862
-0.0016632036127281898   -0.02843150103878153   -0.0006726511222118532
-0.0022381828627410557   -0.029501543671329067   -0.0007951899582660944
-0.0023614391864588196   -0.02842066400269549   -0.000770988171256261
-0.0016632036127281898   -0.02843150103878153   -0.0006726511222118532
-0.002461473715910864   -0.029608790463340886   -0.0008429218956564901
-0.0022381828627410557   -0.029501543671329067   -0.0007951899582660944
-0.0016227941783756288   -0.028384719650979877   -0.0007095756741490862
-0.00241135831004374   -0.02957426068962893   -0.0008438661810143934
-0.0021715167651467494   -0.029487867243493397   -0.0008333285568373338
-0.0016227941783756288   -0.028384719650979877   -0.0007095756741490862
-0.0023614391864588196   -0.02842066400269549   -0.000770988171256261
-0.00241135831004374   -0.02957426068962893   -0.0008438661810143934
-0.0023263855837795584   -0.028399207589847382   -0.0007698719151924985
-0.0021715167651467494   -0.029487867243493397   -0.0008333285568373338
-0.0023556118913283805   -0.029562319002311176   -0.0008407938612506196
-0.0023263855837795584   -0.028399207589847382   -0.0007698719151924985
-0.00241135831004374   -0.02957426068962893   -0.0008438661810143934
-0.0021715167651467494   -0.029487867243493397   -0.0008333285568373338
-0.0023263855837795584   -0.028399207589847382   -0.0007698719151924985
-0.0015771405771348574   -0.028359394858113472   -0.0007432577193529673
-0.0016227941783756288   -0.028384719650979877   -0.0007095756741490862
-0.0021715167651467494   -0.029487867243493397   -0.0008333285568373338
-0.0023263855837795584   -0.028399207589847382   -0.0007698719151924985
-0.0016227941783756288   -0.028384719650979877   -0.0007095756741490862
-0.00241135831004374   -0.02957426068962893   -0.0008438661810143934
-0.0021715167651467494   -0.029487867243493397   -0.0008333285568373338
-0.0015771405771348574   -0.028359394858113472   -0.0007432577193529673
-0.0023556118913283805   -0.029562319002311176   -0.0008407938612506196
-0.002114488029364942   -0.02949936208653355   -0.0008681783865226493
-0.0015771405771348574   -0.028359394858113472   -0.0007432577193529673
-0.0023263855837795584   -0.028399207589847382   -0.0007698719151924985
-0.0023556118913283805   -0.029562319002311176   -0.0008407938612506196
-0.0022926020781932972   -0.028396194270202457   -0.0007657329497134897
-0.002114488029364942   -0.02949936208653355   -0.0008681783865226493
-0.002298973745498733   -0.029571982590922145   -0.0008345675599796397
-0.0022926020781932972   -0.028396194270202457   -0.0007657329497134897
-0.0023556118913283805   -0.029562319002311176   -0.0008407938612506196
-0.002114488029364942   -0.02949936208653355   -0.0008681783865226493
-0.0022926020781932972   -0.028396194270202457   -0.0007657329497134897
-0.0015421848123942311   -0.028354811635953544   -0.0007738062841206667
-0.0015771405771348574   -0.028359394858113472   -0.0007432577193529673
-0.002114488029364942   -0.02949936208653355   -0.0008681783865226493
-0.0022926020781932972   -0.028396194270202457   -0.0007657329497134897
-0.0015771405771348574   -0.028359394858113472   -0.0007432577193529673
-0.0023556118913283805   -0.029562319002311176   -0.0008407938612506196
-0.002461473715910864   -0.029608790463340886   -0.0008429218956564901
-0.0023953137620769645   -0.02846145468881247   -0.000769099137443791
-0.0026407318032678293   -0.029636152137857714   -0.0009306426438857802
-0.00241135831004374   -0.02957426068962893   -0.0008438661810143934
-0.0023953137620769645   -0.02846145468881247   -0.000769099137443791
-0.003122756399159286   -0.028434308200200334   -0.00085942980424289
-0.0026407318032678293   -0.029636152137857714   -0.0009306426438857802
-0.003089150469727268   -0.02839802316066861   -0.0008277009459617567
-0.00241135831004374   -0.02957426068962893   -0.0008438661810143934
-0.0025888122155795505   -0.029603105642082878   -0.0008928292242889676
-0.003089150469727268   -0.02839802316066861   -0.0008277009459617567
-0.0026407318032678293   -0.029636152137857714   -0.0009306426438857802
-0.00241135831004374   -0.02957426068962893   -0.0008438661810143934
-0.003089150469727268   -0.02839802316066861   -0.0008277009459617567
-0.0023614391864588196   -0.02842066400269549   -0.000770988171256261
-0.0023953137620769645   -0.02846145468881247   -0.000769099137443791
-0.00241135831004374   -0.02957426068962893   -0.0008438661810143934
-0.003089150469727268   -0.02839802316066861   -0.0008277009459617567
-0.0023953137620769645   -0.02846145468881247   -0.000769099137443791
-0.0026407318032678293   -0.029636152137857714   -0.0009306426438857802
-0.00241135831004374   -0.02957426068962893   -0.0008438661810143934
-0.0023614391864588196   -0.02842066400269549   -0.000770988171256261
-0.0025888122155795505   -0.029603105642082878   -0.0008928292242889676
-0.0023556118913283805   -0.029562319002311176   -0.0008407938612506196
-0.0023614391864588196   -0.02842066400269549   -0.000770988171256261
-0.003089150469727268   -0.02839802316066861   -0.0008277009459617567
-0.0025888122155795505   -0.029603105642082878   -0.0008928292242889676
-0.003051440639812943   -0.028380760340949513   -0.0007930161784888897
-0.0023556118913283805   -0.029562319002311176   -0.0008407938612506196
-0.0025266387534324058   -0.029593003813143146   -0.0008501205121965797
-0.003051440639812943   -0.028380760340949513   -0.0007930161784888897
-0.0025888122155795505   -0.029603105642082878   -0.0008928292242889676
-0.0023556118913283805   -0.029562319002311176   -0.0008407938612506196
-0.003051440639812943   -0.028380760340949513   -0.0007930161784888897
-0.0023263855837795584   -0.028399207589847382   -0.0007698719151924985
-0.0023614391864588196   -0.02842066400269549   -0.000770988171256261
-0.0023556118913283805   -0.029562319002311176   -0.0008407938612506196
-0.003051440639812943   -0.028380760340949513   -0.0007930161784888897
-0.0023614391864588196   -0.02842066400269549   -0.000770988171256261
-0.0025888122155795505   -0.029603105642082878   -0.0008928292242889676
-0.0023556118913283805   -0.029562319002311176   -0.0008407938612506196
-0.0023263855837795584   -0.028399207589847382   -0.0007698719151924985
-0.0025266387534324058   -0.029593003813143146   -0.0008501205121965797
-0.002298973745498733   -0.029571982590922145   -0.0008345675599796397
-0.0023263855837795584   -0.028399207589847382   -0.0007698719151924985
-0.003051440639812943   -0.028380760340949513   -0.0007930161784888897
-0.0025266387534324058   -0.029593003813143146   -0.0008501205121965797
-0.0030136278459858288   -0.028380747889561   -0.0007550162555353673
-0.002298973745498733   -0.029571982590922145   -0.0008345675599796397
-0.0024627639705846575   -0.029602363644308155   -0.0008046921403285656
-0.0030136278459858288   -0.028380747889561   -0.0007550162555353673
-0.0025266387534324058   -0.029593003813143146   -0.0008501205121965797
-0.002298973745498733   -0.029571982590922145   -0.0008345675599796397
-0.0030136278459858288   -0.028380747889561   -0.0007550162555353673
-0.0022926020781932972   -0.028396194270202457   -0.0007657329497134897
-0.0023263855837795584   -0.028399207589847382   -0.0007698719151924985
-0.002298973745498733   -0.029571982590922145   -0.0008345675599796397
-0.0030136278459858288   -0.028380747889561   -0.0007550162555353673
-0.0023263855837795584   -0.028399207589847382   -0.0007698719151924985
-0.0025266387534324058   -0.029593003813143146   -0.0008501205121965797
-0.0026407318032678293   -0.029636152137857714   -0.0009306426438857802
-0.003122756399159286   -0.028434308200200334   -0.00085942980424289
-0.0029008005787068054   -0.02960245749696724   -0.0010143886774775178
-0.0025888122155795505   -0.029603105642082878   -0.0008928292242889676
-0.003122756399159286   -0.028434308200200334   -0.00085942980424289
-0.003920888486853851   -0.028346559105420353   -0.0009426096048302118
-0.0029008005787068054   -0.02960245749696724   -0.0010143886774775178
-0.0038796019394897524   -0.028314746812765922   -0.0008779549692864896
-0.0025888122155795505   -0.029603105642082878   -0.0008928292242889676
-0.002833029896281956   -0.02957103474824059   -0.0009395820235522161
-0.0038796019394897524   -0.028314746812765922   -0.0008779549692864896
-0.0029008005787068054   -0.02960245749696724   -0.0010143886774775178
-0.0025888122155795505   -0.029603105642082878   -0.0008928292242889676
-0.0038796019394897524   -0.028314746812765922   -0.0008779549692864896
-0.003089150469727268   -0.02839802316066861   -0.0008277009459617567
-0.003122756399159286   -0.028434308200200334   -0.00085942980424289
-0.0025888122155795505   -0.029603105642082878   -0.0008928292242889676
-0.0038796019394897524   -0.028314746812765922   -0.0008779549692864896
-0.003122756399159286   -0.028434308200200334   -0.00085942980424289
-0.0029008005787068054   -0.02960245749696724   -0.0010143886774775178
-0.0025888122155795505   -0.029603105642082878   -0.0008928292242889676
-0.003089150469727268   -0.02839802316066861   -0.0008277009459617567
-0.002833029896281956   -0.02957103474824059   -0.0009395820235522161
-0.0025266387534324058   -0.029593003813143146   -0.0008501205121965797
-0.003089150469727268   -0.02839802316066861   -0.0008277009459617567
-0.0038796019394897524   -0.028314746812765922   -0.0008779549692864896
-0.002833029896281956   -0.02957103474824059   -0.0009395820235522161
-0.0038224565489979414   -0.028301661246410273   -0.0008105763355468899
-0.0025266387534324058   -0.029593003813143146   -0.0008501205121965797
-0.002743363364984435   -0.029564195274072155   -0.0008592865427259416
-0.0038224565489979414   -0.028301661246410273   -0.0008105763355468899
-0.002833029896281956   -0.02957103474824059   -0.0009395820235522161
-0.0025266387534324058   -0.029593003813143146   -0.0008501205121965797
-0.0038224565489979414   -0.028301661246410273   -0.0008105763355468899
-0.003051440639812943   -0.028380760340949513   -0.0007930161784888897
-0.003089150469727268   -0.02839802316066861   -0.0008277009459617567
-0.0025266387534324058   -0.029593003813143146   -0.0008501205121965797
-0.0038224565489979414   -0.028301661246410273   -0.0008105763355468899
-0.003089150469727268   -0.02839802316066861   -0.0008277009459617567
-0.002833029896281956   -0.02957103474824059   -0.0009395820235522161
-0.0025266387534324058   -0.029593003813143146   -0.0008501205121965797
-0.003051440639812943   -0.028380760340949513   -0.0007930161784888897
-0.002743363364984435   -0.029564195274072155   -0.0008592865427259416
-0.0024627639705846575   -0.029602363644308155   -0.0008046921403285656
-0.003051440639812943   -0.028380760340949513   -0.0007930161784888897
-0.0038224565489979414   -0.028301661246410273   -0.0008105763355468899
-0.002743363364984435   -0.029564195274072155   -0.0008592865427259416
-0.0037728249462634284   -0.02830731068200804   -0.0007386358514354416
-0.0024627639705846575   -0.029602363644308155   -0.0008046921403285656
-0.0026593944462637584   -0.0295772837794853   -0.0007759742696581685
-0.0037728249462634284   -0.02830731068200804   -0.0007386358514354416
-0.002743363364984435   -0.029564195274072155   -0.0008592865427259416
-0.0024627639705846575   -0.029602363644308155   -0.0008046921403285656
-0.0037728249462634284   -0.02830731068200804   -0.0007386358514354416
-0.0030136278459858288   -0.028380747889561   -0.0007550162555353673
-0.003051440639812943   -0.028380760340949513   -0.0007930161784888897
-0.0024627639705846575   -0.029602363644308155   -0.0008046921403285656
-0.0037728249462634284   -0.02830731068200804   -0.0007386358514354416
-0.003051440639812943   -0.028380760340949513   -0.0007930161784888897
-0.002743363364984435   -0.029564195274072155   -0.0008592865427259416
-0.0029008005787068054   -0.02960245749696724   -0.0010143886774775178
-0.003920888486853851   -0.028346559105420353   -0.0009426096048302118
-0.003411807619390247   -0.029458085769613496   -0.0011039564122689847
-0.002833029896281956   -0.02957103474824059   -0.0009395820235522161
-0.003920888486853851   -0.028346559105420353   -0.0009426096048302118
-0.004948467425923042   -0.028203848731002304   -0.0010230745527265185
-0.003411807619390247   -0.029458085769613496   -0.0011039564122689847
-0.004813356067227508   -0.028169093442013203   -0.0009209288845448297
-0.002833029896281956   -0.02957103474824059   -0.0009395820235522161
-0.0032290458761007677   -0.02943121758058219   -0.0009812795646367723
-0.004813356067227508   -0.028169093442013203   -0.0009209288845448297
-0.003411807619390247   -0.029458085769613496   -0.0011039564122689847
-0.002833029896281956   -0.02957103474824059   -0.0009395820235522161
-0.004813356067227508   -0.028169093442013203   -0.0009209288845448297
-0.0038796019394897524   -0.028314746812765922   -0.0008779549692864896
-0.003920888486853851   -0.028346559105420353   -0.0009426096048302118
-0.002833029896281956   -0.02957103474824059   -0.0009395820235522161
-0.004813356067227508   -0.028169093442013203   -0.0009209288845448297
-0.003920888486853851   -0.028346559105420353   -0.0009426096048302118
-0.003411807619390247   -0.029458085769613496   -0.0011039564122689847
-0.002833029896281956   -0.02957103474824059   -0.0009395820235522161
-0.0038796019394897524   -0.028314746812765922   -0.0008779549692864896
-0.0032290458761007677   -0.02943121758058219   -0.0009812795646367723
-0.002743363364984435   -0.029564195274072155   -0.0008592865427259416
-0.0038796019394897524   -0.028314746812765922   -0.0008779549692864896
-0.004813356067227508   -0.028169093442013203   -0.0009209288845448297
-0.0032290458761007677   -0.02943121758058219   -0.0009812795646367723
-0.0046926881609719315   -0.02815698980359204   -0.0008130377432613245
-0.002743363364984435   -0.029564195274072155   -0.0008592865427259416
-0.003061657295398649   -0.029427787190786422   -0.0008505795380201584
-0.0046926881609719315   -0.02815698980359204   -0.0008130377432613245
-0.0032290458761007677   -0.02943121758058219   -0.0009812795646367723
-0.002743363364984435   -0.029564195274072155   -0.0008592865427259416
-0.0046926881609719315   -0.02815698980359204   -0.0008130377432613245
-0.0038224565489979414   -0.028301661246410273   -0.0008105763355468899
-0.0038796019394897524   -0.028314746812765922   -0.0008779549692864896
-0.002743363364984435   -0.029564195274072155   -0.0008592865427259416
-0.0046926881609719315   -0.02815698980359204   -0.0008130377432613245
-0.0038796019394897524   -0.028314746812765922   -0.0008779549692864896
-0.0032290458761007677   -0.02943121758058219   -0.0009812795646367723
-0.002743363364984435   -0.029564195274072155   -0.0008592865427259416
-0.0038224565489979414   -0.028301661246410273   -0.0008105763355468899
-0.003061657295398649   -0.029427787190786422   -0.0008505795380201584
-0.0026593944462637584   -0.0295772837794853   -0.0007759742696581685
-0.0038224565489979414   -0.028301661246410273   -0.0008105763355468899
-0.0046926881609719315   -0.02815698980359204   -0.0008130377432613245
-0.003061657295398649   -0.029427787190786422   -0.0008505795380201584
-0.004536353039561857   -0.028173925593480236   -0.0007004089844753032
-0.0026593944462637584   -0.0295772837794853   -0.0007759742696581685
-0.002850164480028856   -0.029462944773180743   -0.0007140965661798482
-0.004536353039561857   -0.028173925593480236   -0.0007004089844753032
-0.003061657295398649   -0.029427787190786422   -0.0008505795380201584
-0.0026593944462637584   -0.0295772837794853   -0.0007759742696581685
-0.004536353039561857   -0.028173925593480236   -0.0007004089844753032
-0.0037728249462634284   -0.02830731068200804   -0.0007386358514354416
-0.0038224565489979414   -0.028301661246410273   -0.0008105763355468899
-0.0026593944462637584   -0.0295772837794853   -0.0007759742696581685
-0.004536353039561857   -0.028173925593480236   -0.0007004089844753032
-0.0038224565489979414   -0.028301661246410273   -0.0008105763355468899
-0.003061657295398649   -0.029427787190786422   -0.0008505795380201584
-0.0009242406978403991   -0.028345923346400966   -0.0005540892068693812
9.753768216558965e-05   -0.026331400549588546   -0.0004574286166341955
-0.0016632036127281898   -0.02843150103878153   -0.0006726511222118532
-0.0008073283857328938   -0.028287912762132765   -0.000638042747950288
9.753768216558965e-05   -0.026331400549588546   -0.0004574286166341955
-0.001158369649519734   -0.026394680493890706   -0.0005739886613547153
-0.0016632036127281898   -0.02843150103878153   -0.0006726511222118532
-0.0011367701332991385   -0.026345616478693577   -0.0006034739731098159
-0.0008073283857328938   -0.028287912762132765   -0.000638042747950288
-0.0016227941783756288   -0.028384719650979877   -0.0007095756741490862
-0.0011367701332991385   -0.026345616478693577   -0.0006034739731098159
-0.0016632036127281898   -0.02843150103878153   -0.0006726511222118532
-0.0008073283857328938   -0.028287912762132765   -0.000638042747950288
-0.0011367701332991385   -0.026345616478693577   -0.0006034739731098159
0.00017990621524588838   -0.026272360671970856   -0.0005247538853231509
9.753768216558965e-05   -0.026331400549588546   -0.0004574286166341955
-0.0008073283857328938   -0.028287912762132765   -0.000638042747950288
-0.0011367701332991385   -0.026345616478693577   -0.0006034739731098159
9.753768216558965e-05   -0.026331400549588546   -0.0004574286166341955
-0.0016632036127281898   -0.02843150103878153   -0.0006726511222118532
-0.0008073283857328938   -0.028287912762132765   -0.000638042747950288
0.00017990621524588838   -0.026272360671970856   -0.0005247538853231509
-0.0016227941783756288   -0.028384719650979877   -0.0007095756741490862
-0.0007153163316567828   -0.02826096346126964   -0.0007171952267506183
0.00017990621524588838   -0.026272360671970856   -0.0005247538853231509
-0.0011367701332991385   -0.026345616478693577   -0.0006034739731098159
-0.0016227941783756288   -0.028384719650979877   -0.0007095756741490862
-0.0011120481304501121   -0.026314168612529228   -0.0006296156073130022
-0.0007153163316567828   -0.02826096346126964   -0.0007171952267506183
-0.0015771405771348574   -0.028359394858113472   -0.0007432577193529673
-0.0011120481304501121   -0.026314168612529228   -0.0006296156073130022
-0.0016227941783756288   -0.028384719650979877   -0.0007095756741490862
-0.0007153163316567828   -0.02826096346126964   -0.0007171952267506183
-0.0011120481304501121   -0.026314168612529228   -0.0006296156073130022
0.00024057477424803194   -0.026238938955226204   -0.0005873984157204302
0.00017990621524588838   -0.026272360671970856   -0.0005247538853231509
-0.0007153163316567828   -0.02826096346126964   -0.0007171952267506183
-0.0011120481304501121   -0.026314168612529228   -0.0006296156073130022
0.00017990621524588838   -0.026272360671970856   -0.0005247538853231509
-0.0016227941783756288   -0.028384719650979877   -0.0007095756741490862
-0.0007153163316567828   -0.02826096346126964   -0.0007171952267506183
0.00024057477424803194   -0.026238938955226204   -0.0005873984157204302
-0.0015771405771348574   -0.028359394858113472   -0.0007432577193529673
-0.0006144659441562249   -0.02825720101507184   -0.0007913505863115823
0.00024057477424803194   -0.026238938955226204   -0.0005873984157204302
-0.0011120481304501121   -0.026314168612529228   -0.0006296156073130022
-0.0015771405771348574   -0.028359394858113472   -0.0007432577193529673
-0.0010972525716215356   -0.026299385486346357   -0.000652744561945308
-0.0006144659441562249   -0.02825720101507184   -0.0007913505863115823
-0.0015421848123942311   -0.028354811635953544   -0.0007738062841206667
-0.0010972525716215356   -0.026299385486346357   -0.000652744561945308
-0.0015771405771348574   -0.028359394858113472   -0.0007432577193529673
-0.0006144659441562249   -0.02825720101507184   -0.0007913505863115823
-0.0010972525716215356   -0.026299385486346357   -0.000652744561945308
0.00030586663373267903   -0.02622351214971329   -0.0006453449947988789
0.00024057477424803194   -0.026238938955226204   -0.0005873984157204302
-0.0006144659441562249   -0.02825720101507184   -0.0007913505863115823
-0.0010972525716215356   -0.026299385486346357   -0.000652744561945308
0.00024057477424803194   -0.026238938955226204   -0.0005873984157204302
-0.0015771405771348574   -0.028359394858113472   -0.0007432577193529673
-0.0016632036127281898   -0.02843150103878153   -0.0006726511222118532
-0.001158369649519734   -0.026394680493890706   -0.0005739886613547153
-0.0023953137620769645   -0.02846145468881247   -0.000769099137443791
-0.0016227941783756288   -0.028384719650979877   -0.0007095756741490862
-0.001158369649519734   -0.026394680493890706   -0.0005739886613547153
-0.0023757620429059197   -0.026406844854537034   -0.0006696569300455543
-0.0023953137620769645   -0.02846145468881247   -0.000769099137443791
-0.0023599763357554765   -0.02636481591312572   -0.0006703093531045205
-0.0016227941783756288   -0.028384719650979877   -0.0007095756741490862
-0.0023614391864588196   -0.02842066400269549   -0.000770988171256261
-0.0023599763357554765   -0.02636481591312572   -0.0006703093531045205
-0.0023953137620769645   -0.02846145468881247   -0.000769099137443791
-0.0016227941783756288   -0.028384719650979877   -0.0007095756741490862
-0.0023599763357554765   -0.02636481591312572   -0.0006703093531045205
-0.0011367701332991385   -0.026345616478693577   -0.0006034739731098159
-0.001158369649519734   -0.026394680493890706   -0.0005739886613547153
-0.0016227941783756288   -0.028384719650979877   -0.0007095756741490862
-0.0023599763357554765   -0.02636481591312572   -0.0006703093531045205
-0.001158369649519734   -0.026394680493890706   -0.0005739886613547153
-0.0023953137620769645   -0.02846145468881247   -0.000769099137443791
-0.0016227941783756288   -0.028384719650979877   -0.0007095756741490862
-0.0011367701332991385   -0.026345616478693577   -0.0006034739731098159
-0.0023614391864588196   -0.02842066400269549   -0.000770988171256261
-0.0015771405771348574   -0.028359394858113472   -0.0007432577193529673
-0.0011367701332991385   -0.026345616478693577   -0.0006034739731098159
-0.0023599763357554765   -0.02636481591312572   -0.0006703093531045205
-0.0023614391864588196   -0.02842066400269549   -0.000770988171256261
-0.002343727324348104   -0.02633854514853455   -0.000667753101692749
-0.0015771405771348574   -0.028359394858113472   -0.0007432577193529673
-0.0023263855837795584   -0.028399207589847382   -0.0007698719151924985
-0.002343727324348104   -0.02633854514853455   -0.000667753101692749
-0.0023614391864588196   -0.02842066400269549   -0.000770988171256261
-0.0015771405771348574   -0.028359394858113472   -0.0007432577193529673
-0.002343727324348104   -0.02633854514853455   -0.000667753101692749
-0.0011120481304501121   -0.026314168612529228   -0.0006296156073130022
-0.0011367701332991385   -0.026345616478693577   -0.0006034739731098159
-0.0015771405771348574   -0.028359394858113472   -0.0007432577193529673
-0.002343727324348104   -0.02633854514853455   -0.000667753101692749
-0.0011367701332991385   -0.026345616478693577   -0.0006034739731098159
-0.0023614391864588196   -0.02842066400269549   -0.000770988171256261
-0.0015771405771348574   -0.028359394858113472   -0.0007432577193529673
-0.0011120481304501121   -0.026314168612529228   -0.0006296156073130022
-0.0023263855837795584   -0.028399207589847382   -0.0007698719151924985
-0.0015421848123942311   -0.028354811635953544   -0.0007738062841206667
-0.0011120481304501121   -0.026314168612529228   -0.0006296156073130022
-0.002343727324348104   -0.02633854514853455   -0.000667753101692749
-0.0023263855837795584   -0.028399207589847382   -0.0007698719151924985
-0.002329521613878055   -0.02632778719556723   -0.0006622097591520927
-0.0015421848123942311   -0.028354811635953544   -0.0007738062841206667
-0.0022926020781932972   -0.028396194270202457   -0.0007657329497134897
-0.002329521613878055   -0.02632778719556723   -0.0006622097591520927
-0.0023263855837795584   -0.028399207589847382   -0.0007698719151924985
-0.0015421848123942311   -0.028354811635953544   -0.0007738062841206667
-0.002329521613878055   -0.02632778719556723   -0.0006622097591520927
-0.0010972525716215356   -0.026299385486346357   -0.000652744561945308
-0.0011120481304501121   -0.026314168612529228   -0.0006296156073130022
-0.0015421848123942311   -0.028354811635953544   -0.0007738062841206667
-0.002329521613878055   -0.02632778719556723   -0.0006622097591520927
-0.0011120481304501121   -0.026314168612529228   -0.0006296156073130022
-0.0023263855837795584   -0.028399207589847382   -0.0007698719151924985
-0.0023953137620769645   -0.02846145468881247   -0.000769099137443791
-0.0023757620429059197   -0.026406844854537034   -0.0006696569300455543
-0.003122756399159286   -0.028434308200200334   -0.00085942980424289
-0.0023614391864588196   -0.02842066400269549   -0.000770988171256261
-0.0023757620429059197   -0.026406844854537034   -0.0006696569300455543
-0.003574533894718168   -0.026367834936223262   -0.00075597589718141
-0.003122756399159286   -0.028434308200200334   -0.00085942980424289
-0.0035598467352408658   -0.02633160362534981   -0.0007284841822486227
-0.0023614391864588196   -0.02842066400269549   -0.000770988171256261
-0.003089150469727268   -0.02839802316066861   -0.0008277009459617567
-0.0035598467352408658   -0.02633160362534981   -0.0007284841822486227
-0.003122756399159286   -0.028434308200200334   -0.00085942980424289
-0.0023614391864588196   -0.02842066400269549   -0.000770988171256261
-0.0035598467352408658   -0.02633160362534981   -0.0007284841822486227
-0.0023599763357554765   -0.02636481591312572   -0.0006703093531045205
-0.0023757620429059197   -0.026406844854537034   -0.0006696569300455543
-0.0023614391864588196   -0.02842066400269549   -0.000770988171256261
-0.0035598467352408658   -0.02633160362534981   -0.0007284841822486227
-0.0023757620429059197   -0.026406844854537034   -0.0006696569300455543
-0.003122756399159286   -0.028434308200200334   -0.00085942980424289
-0.0023614391864588196   -0.02842066400269549   -0.000770988171256261
-0.0023599763357554765   -0.02636481591312572   -0.0006703093531045205
-0.003089150469727268   -0.02839802316066861   -0.0008277009459617567
-0.0023263855837795584   -0.028399207589847382   -0.0007698719151924985
-0.0023599763357554765   -0.02636481591312572   -0.0006703093531045205
-0.0035598467352408658   -0.02633160362534981   -0.0007284841822486227
-0.003089150469727268   -0.02839802316066861   -0.0008277009459617567
-0.0035420896799349903   -0.026310959802831317   -0.0006978578220354644
-0.0023263855837795584   -0.028399207589847382   -0.0007698719151924985
-0.003051440639812943   -0.028380760340949513   -0.0007930161784888897
-0.0035420896799349903   -0.026310959802831317   -0.0006978578220354644
-0.003089150469727268   -0.02839802316066861   -0.0008277009459617567
-0.0023263855837795584   -0.028399207589847382   -0.0007698719151924985
-0.0035420896799349903   -0.026310959802831317   -0.0006978578220354644
-0.002343727324348104   -0.02633854514853455   -0.000667753101692749
-0.0023599763357554765   -0.02636481591312572   -0.0006703093531045205
-0.0023263855837795584   -0.028399207589847382   -0.0007698719151924985
-0.0035420896799349903   -0.026310959802831317   -0.0006978578220354644
-0.0023599763357554765   -0.02636481591312572   -0.0006703093531045205
-0.003089150469727268   -0.02839802316066861   -0.0008277009459617567
-0.0023263855837795584   -0.028399207589847382   -0.0007698719151924985
-0.002343727324348104   -0.02633854514853455   -0.000667753101692749
-0.003051440639812943   -0.028380760340949513   -0.0007930161784888897
-0.0022926020781932972   -0.028396194270202457   -0.0007657329497134897
-0.002343727324348104   -0.02633854514853455   -0.000667753101692749
-0.0035420896799349903   -0.026310959802831317   -0.0006978578220354644
-0.003051440639812943   -0.028380760340949513   -0.0007930161784888897
-0.003524852245073298   -0.026305206953126235   -0.0006641922719242804
-0.0022926020781932972   -0.028396194270202457   -0.0007657329497134897
-0.0030136278459858288   -0.028380747889561   -0.0007550162555353673
-0.003524852245073298   -0.026305206953126235   -0.0006641922719242804
-0.003051440639812943   -0.028380760340949513   -0.0007930161784888897
-0.0022926020781932972   -0.028396194270202457   -0.0007657329497134897
-0.003524852245073298   -0.026305206953126235   -0.0006641922719242804
-0.002329521613878055   -0.02632778719556723   -0.0006622097591520927
-0.002343727324348104   -0.02633854514853455   -0.000667753101692749
-0.0022926020781932972   -0.028396194270202457   -0.0007657329497134897
-0.003524852245073298   -0.026305206953126235   -0.0006641922719242804
-0.002343727324348104   -0.02633854514853455   -0.000667753101692749
-0.003051440639812943   -0.028380760340949513   -0.0007930161784888897
-0.003122756399159286   -0.028434308200200334   -0.00085942980424289
-0.003574533894718168   -0.026367834936223262   -0.00075597589718141
-0.003920888486853851   -0.028346559105420353   -0.0009426096048302118
-0.003089150469727268   -0.02839802316066861   -0.0008277009459617567
-0.003574533894718168   -0.026367834936223262   -0.00075597589718141
-0.004830110748635322   -0.026278961731311237   -0.0008327070983953148
-0.003920888486853851   -0.028346559105420353   -0.0009426096048302118
-0.004810775351054999   -0.02624821652939636   -0.000777011609058188
-0.003089150469727268   -0.02839802316066861   -0.0008277009459617567
-0.0038796019394897524   -0.028314746812765922   -0.0008779549692864896
-0.004810775351054999   -0.02624821652939636   -0.000777011609058188
-0.003920888486853851   -0.028346559105420353   -0.0009426096048302118
-0.003089150469727268   -0.02839802316066861   -0.0008277009459617567
-0.004810775351054999   -0.02624821652939636   -0.000777011609058188
-0.0035598467352408658   -0.02633160362534981   -0.0007284841822486227
-0.003574533894718168   -0.026367834936223262   -0.00075597589718141
-0.003089150469727268   -0.02839802316066861   -0.0008277009459617567
-0.004810775351054999   -0.02624821652939636   -0.000777011609058188
-0.003574533894718168   -0.026367834936223262   -0.00075597589718141
-0.003920888486853851   -0.028346559105420353   -0.0009426096048302118
-0.003089150469727268   -0.02839802316066861   -0.0008277009459617567
-0.0035598467352408658   -0.02633160362534981   -0.0007284841822486227
-0.0038796019394897524   -0.028314746812765922   -0.0008779549692864896
-0.003051440639812943   -0.028380760340949513   -0.0007930161784888897
-0.0035598467352408658   -0.02633160362534981   -0.0007284841822486227
-0.004810775351054999   -0.02624821652939636   -0.000777011609058188
-0.0038796019394897524   -0.028314746812765922   -0.0008779549692864896
-0.004777912319690711   -0.02623267345609148   -0.0007186702121947881
-0.003051440639812943   -0.028380760340949513   -0.0007930161784888897
-0.0038224565489979414   -0.028301661246410273   -0.0008105763355468899
-0.004777912319690711   -0.02623267345609148   -0.0007186702121947881
-0.0038796019394897524   -0.028314746812765922   -0.0008779549692864896
-0.003051440639812943   -0.028380760340949513   -0.0007930161784888897
-0.004777912319690711   -0.02623267345609148   -0.0007186702121947881
-0.0035420896799349903   -0.026310959802831317   -0.0006978578220354644
-0.0035598467352408658   -0.02633160362534981   -0.0007284841822486227
-0.003051440639812943   -0.028380760340949513   -0.0007930161784888897
-0.004777912319690711   -0.02623267345609148   -0.0007186702121947881
-0.0035598467352408658   -0.02633160362534981   -0.0007284841822486227
-0.0038796019394897524   -0.028314746812765922   -0.0008779549692864896
-0.003051440639812943   -0.028380760340949513   -0.0007930161784888897
-0.0035420896799349903   -0.026310959802831317   -0.0006978578220354644
-0.0038224565489979414   -0.028301661246410273   -0.0008105763355468899
-0.0030136278459858288   -0.028380747889561   -0.0007550162555353673
-0.0035420896799349903   -0.026310959802831317   -0.0006978578220354644
-0.004777912319690711   -0.02623267345609148   -0.0007186702121947881
-0.0038224565489979414   -0.028301661246410273   -0.0008105763355468899
-0.004751395109425682   -0.026233188985661376   -0.0006568431033112003
-0.0030136278459858288   -0.028380747889561   -0.0007550162555353673
-0.0037728249462634284   -0.02830731068200804   -0.0007386358514354416
-0.004751395109425682   -0.026233188985661376   -0.0006568431033112003
-0.0038224565489979414   -0.028301661246410273   -0.0008105763355468899
-0.0030136278459858288   -0.028380747889561   -0.0007550162555353673
-0.004751395109425682   -0.026233188985661376   -0.0006568431033112003
-0.003524852245073298   -0.026305206953126235   -0.0006641922719242804
-0.0035420896799349903   -0.026310959802831317   -0.0006978578220354644
-0.0030136278459858288   -0.028380747889561   -0.0007550162555353673
-0.004751395109425682   -0.026233188985661376   -0.0006568431033112003
-0.0035420896799349903   -0.026310959802831317   -0.0006978578220354644
-0.0038224565489979414   -0.028301661246410273   -0.0008105763355468899
-0.003920888486853851   -0.028346559105420353   -0.0009426096048302118
-0.004830110748635322   -0.026278961731311237   -0.0008327070983953148
-0.004948467425923042   -0.028203848731002304   -0.0010230745527265185
-0.0038796019394897524   -0.028314746812765922   -0.0008779549692864896
-0.004830110748635322   -0.026278961731311237   -0.0008327070983953148
-0.006294052226229301   -0.026150514464196535   -0.0009046881154236377
-0.004948467425923042   -0.028203848731002304   -0.0010230745527265185
-0.0061935289919973855   -0.026118248870302497   -0.0008174084452695469
-0.0038796019394897524   -0.028314746812765922   -0.0008779549692864896
-0.004813356067227508   -0.028169093442013203   -0.0009209288845448297
-0.0061935289919973855   -0.026118248870302497   -0.0008174084452695469
-0.004948467425923042   -0.028203848731002304   -0.0010230745527265185
-0.0038796019394897524   -0.028314746812765922   -0.0008779549692864896
-0.0061935289919973855   -0.026118248870302497   -0.0008174084452695469
-0.004810775351054999   -0.02624821652939636   -0.000777011609058188
-0.004830110748635322   -0.026278961731311237   -0.0008327070983953148
-0.0038796019394897524   -0.028314746812765922   -0.0008779549692864896
-0.0061935289919973855   -0.026118248870302497   -0.0008174084452695469
-0.004830110748635322   -0.026278961731311237   -0.0008327070983953148
-0.004948467425923042   -0.028203848731002304   -0.0010230745527265185
-0.0038796019394897524   -0.028314746812765922   -0.0008779549692864896
-0.004810775351054999   -0.02624821652939636   -0.000777011609058188
-0.004813356067227508   -0.028169093442013203   -0.0009209288845448297
-0.0038224565489979414   -0.028301661246410273   -0.0008105763355468899
-0.004810775351054999   -0.02624821652939636   -0.000777011609058188
-0.0061935289919973855   -0.026118248870302497   -0.0008174084452695469
-0.004813356067227508   -0.028169093442013203   -0.0009209288845448297
-0.006106565466528513   -0.026104091951922686   -0.0007257454802471316
-0.0038224565489979414   -0.028301661246410273   -0.0008105763355468899
-0.0046926881609719315   -0.02815698980359204   -0.0008130377432613245
-0.006106565466528513   -0.026104091951922686   -0.0007257454802471316
-0.004813356067227508   -0.028169093442013203   -0.0009209288845448297
-0.0038224565489979414   -0.028301661246410273   -0.0008105763355468899
-0.006106565466528513   -0.026104091951922686   -0.0007257454802471316
-0.004777912319690711   -0.02623267345609148   -0.0007186702121947881
-0.004810775351054999   -0.02624821652939636   -0.000777011609058188
-0.0038224565489979414   -0.028301661246410273   -0.0008105763355468899
-0.006106565466528513   -0.026104091951922686   -0.0007257454802471316
-0.004810775351054999   -0.02624821652939636   -0.000777011609058188
-0.004813356067227508   -0.028169093442013203   -0.0009209288845448297
-0.0038224565489979414   -0.028301661246410273   -0.0008105763355468899
-0.004777912319690711   -0.02623267345609148   -0.0007186702121947881
-0.0046926881609719315   -0.02815698980359204   -0.0008130377432613245
-0.0037728249462634284   -0.02830731068200804   -0.0007386358514354416
-0.004777912319690711   -0.02623267345609148   -0.0007186702121947881
-0.006106565466528513   -0.026104091951922686   -0.0007257454802471316
-0.0046926881609719315   -0.02815698980359204   -0.0008130377432613245
-0.005989523421642233   -0.026114409575905672   -0.0006302793881435214
-0.0037728249462634284   -0.02830731068200804   -0.0007386358514354416
-0.004536353039561857   -0.028173925593480236   -0.0007004089844753032
-0.005989523421642233   -0.026114409575905672   -0.0006302793881435214
-0.0046926881609719315   -0.02815698980359204   -0.0008130377432613245
-0.0037728249462634284   -0.02830731068200804   -0.0007386358514354416
-0.005989523421642233   -0.026114409575905672   -0.0006302793881435214
-0.004751395109425682   -0.026233188985661376   -0.0006568431033112003
-0.004777912319690711   -0.02623267345609148   -0.0007186702121947881
-0.0037728249462634284   -0.02830731068200804   -0.0007386358514354416
-0.005989523421642233   -0.026114409575905672   -0.0006302793881435214
-0.004777912319690711   -0.02623267345609148   -0.0007186702121947881
-0.0046926881609719315   -0.02815698980359204   -0.0008130377432613245
9.753768216558965e-05   -0.026331400549588546   -0.0004574286166341955
0.0008795857559969765   -0.023579967482627542   -0.0003482585350227122
-0.001158369649519734   -0.026394680493890706   -0.0005739886613547153
0.00017990621524588838   -0.026272360671970856   -0.0005247538853231509
0.0008795857559969765   -0.023579967482627542   -0.0003482585350227122
-0.0007907713150990654   -0.023622259244037085   -0.00045958944298727836
-0.001158369649519734   -0.026394680493890706   -0.0005739886613547153
-0.0007860254317228201   -0.023573450203103623   -0.000480238580410715
0.00017990621524588838   -0.026272360671970856   -0.0005247538853231509
-0.0011367701332991385   -0.026345616478693577   -0.0006034739731098159
-0.0007860254317228201   -0.023573450203103623   -0.000480238580410715
-0.001158369649519734   -0.026394680493890706   -0.0005739886613547153
0.00017990621524588838   -0.026272360671970856   -0.0005247538853231509
-0.0007860254317228201   -0.023573450203103623   -0.000480238580410715
0.0009293020358629365   -0.023522291578736143   -0.0003985111134736346
0.0008795857559969765   -0.023579967482627542   -0.0003482585350227122
0.00017990621524588838   -0.026272360671970856   -0.0005247538853231509
-0.0007860254317228201   -0.023573450203103623   -0.000480238580410715
0.0008795857559969765   -0.023579967482627542   -0.0003482585350227122
-0.001158369649519734   -0.026394680493890706   -0.0005739886613547153
0.00017990621524588838   -0.026272360671970856   -0.0005247538853231509
0.0009293020358629365   -0.023522291578736143   -0.0003985111134736346
-0.0011367701332991385   -0.026345616478693577   -0.0006034739731098159
0.00024057477424803194   -0.026238938955226204   -0.0005873984157204302
0.0009293020358629365   -0.023522291578736143   -0.0003985111134736346
-0.0007860254317228201   -0.023573450203103623   -0.000480238580410715
-0.0011367701332991385   -0.026345616478693577   -0.0006034739731098159
-0.0007799483360800168   -0.023538640242388054   -0.0004978097857399381
0.00024057477424803194   -0.026238938955226204   -0.0005873984157204302
-0.0011120481304501121   -0.026314168612529228   -0.0006296156073130022
-0.0007799483360800168   -0.023538640242388054   -0.0004978097857399381
-0.0011367701332991385   -0.026345616478693577   -0.0006034739731098159
0.00024057477424803194   -0.026238938955226204   -0.0005873984157204302
-0.0007799483360800168   -0.023538640242388054   -0.0004978097857399381
0.0009613002607819694   -0.023485138480229976   -0.0004444089393265549
0.0009293020358629365   -0.023522291578736143   -0.0003985111134736346
0.00024057477424803194   -0.026238938955226204   -0.0005873984157204302
-0.0007799483360800168   -0.023538640242388054   -0.0004978097857399381
0.0009293020358629365   -0.023522291578736143   -0.0003985111134736346
-0.0011367701332991385   -0.026345616478693577   -0.0006034739731098159
0.00024057477424803194   -0.026238938955226204   -0.0005873984157204302
0.0009613002607819694   -0.023485138480229976   -0.0004444089393265549
-0.0011120481304501121   -0.026314168612529228   -0.0006296156073130022
0.00030586663373267903   -0.02622351214971329   -0.0006453449947988789
0.0009613002607819694   -0.023485138480229976   -0.0004444089393265549
-0.0007799483360800168   -0.023538640242388054   -0.0004978097857399381
-0.0011120481304501121   -0.026314168612529228   -0.0006296156073130022
-0.0007823928658857089   -0.02351668330322615   -0.00051252671118013
0.00030586663373267903   -0.02622351214971329   -0.0006453449947988789
-0.0010972525716215356   -0.026299385486346357   -0.000652744561945308
-0.0007823928658857089   -0.02351668330322615   -0.00051252671118013
-0.0011120481304501121   -0.026314168612529228   -0.0006296156073130022
0.00030586663373267903   -0.02622351214971329   -0.0006453449947988789
-0.0007823928658857089   -0.02351668330322615   -0.00051252671118013
0.0009944798538496483   -0.023461110671023196   -0.0004860480863349017
0.0009613002607819694   -0.023485138480229976   -0.0004444089393265549
0.00030586663373267903   -0.02622351214971329   -0.0006453449947988789
-0.0007823928658857089   -0.02351668330322615   -0.00051252671118013
0.0009613002607819694   -0.023485138480229976   -0.0004444089393265549
-0.0011120481304501121   -0.026314168612529228   -0.0006296156073130022
-0.001158369649519734   -0.026394680493890706   -0.0005739886613547153
-0.0007907713150990654   -0.023622259244037085   -0.00045958944298727836
-0.0023757620429059197   -0.026406844854537034   -0.0006696569300455543
-0.0011367701332991385   -0.026345616478693577   -0.0006034739731098159
-0.0007907713150990654   -0.023622259244037085   -0.00045958944298727836
-0.0024001242402240126   -0.023622723936933765   -0.000550934527124203
-0.0023757620429059197   -0.026406844854537034   -0.0006696569300455543
-0.0024002071218398365   -0.023581582606652458   -0.0005489722576898291
-0.0011367701332991385   -0.026345616478693577   -0.0006034739731098159
-0.0023599763357554765   -0.02636481591312572   -0.0006703093531045205
-0.0024002071218398365   -0.023581582606652458   -0.0005489722576898291
-0.0023757620429059197   -0.026406844854537034   -0.0006696569300455543
-0.0011367701332991385   -0.026345616478693577   -0.0006034739731098159
-0.0024002071218398365   -0.023581582606652458   -0.0005489722576898291
-0.0007860254317228201   -0.023573450203103623   -0.000480238580410715
-0.0007907713150990654   -0.023622259244037085   -0.00045958944298727836
-0.0011367701332991385   -0.026345616478693577   -0.0006034739731098159
-0.0024002071218398365   -0.023581582606652458   -0.0005489722576898291
-0.0007907713150990654   -0.023622259244037085   -0.00045958944298727836
-0.0023757620429059197   -0.026406844854537034   -0.0006696569300455543
-0.0011367701332991385   -0.026345616478693577   -0.0006034739731098159
-0.0007860254317228201   -0.023573450203103623   -0.000480238580410715
-0.0023599763357554765   -0.02636481591312572   -0.0006703093531045205
-0.0011120481304501121   -0.026314168612529228   -0.0006296156073130022
-0.0007860254317228201   -0.023573450203103623   -0.000480238580410715
-0.0024002071218398365   -0.023581582606652458   -0.0005489722576898291
-0.0023599763357554765   -0.02636481591312572   -0.0006703093531045205
-0.002400174062141535   -0.023552773898272542   -0.0005439384558075245
-0.0011120481304501121   -0.026314168612529228   -0.0006296156073130022
-0.002343727324348104   -0.02633854514853455   -0.000667753101692749
-0.002400174062141535   -0.023552773898272542   -0.0005439384558075245
-0.0023599763357554765   -0.02636481591312572   -0.0006703093531045205
-0.0011120481304501121   -0.026314168612529228   -0.0006296156073130022
-0.002400174062141535   -0.023552773898272542   -0.0005439384558075245
-0.0007799483360800168   -0.023538640242388054   -0.0004978097857399381
-0.0007860254317228201   -0.023573450203103623   -0.000480238580410715
-0.0011120481304501121   -0.026314168612529228   -0.0006296156073130022
-0.002400174062141535   -0.023552773898272542   -0.0005439384558075245
-0.0007860254317228201   -0.023573450203103623   -0.000480238580410715
-0.0023599763357554765   -0.02636481591312572   -0.0006703093531045205
-0.0011120481304501121   -0.026314168612529228   -0.0006296156073130022
-0.0007799483360800168   -0.023538640242388054   -0.0004978097857399381
-0.002343727324348104   -0.02633854514853455   -0.000667753101692749
-0.0010972525716215356   -0.026299385486346357   -0.000652744561945308
-0.0007799483360800168   -0.023538640242388054   -0.0004978097857399381
-0.002400174062141535   -0.023552773898272542   -0.0005439384558075245
-0.002343727324348104   -0.02633854514853455   -0.000667753101692749
-0.002402278241636688   -0.02353632195971578   -0.0005359997512705809
-0.0010972525716215356   -0.026299385486346357   -0.000652744561945308
-0.002329521613878055   -0.02632778719556723   -0.0006622097591520927
-0.002402278241636688   -0.02353632195971578   -0.0005359997512705809
-0.002343727324348104   -0.02633854514853455   -0.000667753101692749
-0.0010972525716215356   -0.026299385486346357   -0.000652744561945308
-0.002402278241636688   -0.02353632195971578   -0.0005359997512705809
-0.0007823928658857089   -0.02351668330322615   -0.00051252671118013
-0.0007799483360800168   -0.023538640242388054   -0.0004978097857399381
-0.0010972525716215356   -0.026299385486346357   -0.000652744561945308
-0.002402278241636688   -0.02353632195971578   -0.0005359997512705809
-0.0007799483360800168   -0.023538640242388054   -0.0004978097857399381
-0.002343727324348104   -0.02633854514853455   -0.000667753101692749
-0.0023757620429059197   -0.026406844854537034   -0.0006696569300455543
-0.0024001242402240126   -0.023622723936933765   -0.000550934527124203
-0.003574533894718168   -0.026367834936223262   -0.00075597589718141
-0.0023599763357554765   -0.02636481591312572   -0.0006703093531045205
-0.0024001242402240126   -0.023622723936933765   -0.000550934527124203
-0.003982623493460509   -0.02358247508280717   -0.0006308016354662719
-0.003574533894718168   -0.026367834936223262   -0.00075597589718141
-0.003983914368640606   -0.023548023316070227   -0.0006065070635934786
-0.0023599763357554765   -0.02636481591312572   -0.0006703093531045205
-0.0035598467352408658   -0.02633160362534981   -0.0007284841822486227
-0.003983914368640606   -0.023548023316070227   -0.0006065070635934786
-0.003574533894718168   -0.026367834936223262   -0.00075597589718141
-0.0023599763357554765   -0.02636481591312572   -0.0006703093531045205
-0.003983914368640606   -0.023548023316070227   -0.0006065070635934786
-0.0024002071218398365   -0.023581582606652458   -0.0005489722576898291
-0.0024001242402240126   -0.023622723936933765   -0.000550934527124203
-0.0023599763357554765   -0.02636481591312572   -0.0006703093531045205
-0.003983914368640606   -0.023548023316070227   -0.0006065070635934786
-0.0024001242402240126   -0.023622723936933765   -0.000550934527124203
-0.003574533894718168   -0.026367834936223262   -0.00075597589718141
-0.0023599763357554765   -0.02636481591312572   -0.0006703093531045205
-0.0024002071218398365   -0.023581582606652458   -0.0005489722576898291
-0.0035598467352408658   -0.02633160362534981   -0.0007284841822486227
-0.002343727324348104   -0.02633854514853455   -0.000667753101692749
-0.0024002071218398365   -0.023581582606652458   -0.0005489722576898291
-0.003983914368640606   -0.023548023316070227   -0.0006065070635934786
-0.0035598467352408658   -0.02633160362534981   -0.0007284841822486227
-0.003982521286228156   -0.02352579576136569   -0.0005792044191970621
-0.002343727324348104   -0.02633854514853455   -0.000667753101692749
-0.0035420896799349903   -0.026310959802831317   -0.0006978578220354644
-0.003982521286228156   -0.02352579576136569   -0.0005792044191970621
-0.0035598467352408658   -0.02633160362534981   -0.0007284841822486227
-0.002343727324348104   -0.02633854514853455   -0.000667753101692749
-0.003982521286228156   -0.02352579576136569   -0.0005792044191970621
-0.002400174062141535   -0.023552773898272542   -0.0005439384558075245
-0.0024002071218398365   -0.023581582606652458   -0.0005489722576898291
-0.002343727324348104   -0.02633854514853455   -0.000667753101692749
-0.003982521286228156   -0.02352579576136569   -0.0005792044191970621
-0.0024002071218398365   -0.023581582606652458   -0.0005489722576898291
-0.0035598467352408658   -0.02633160362534981   -0.0007284841822486227
-0.002343727324348104   -0.02633854514853455   -0.000667753101692749
-0.002400174062141535   -0.023552773898272542   -0.0005439384558075245
-0.0035420896799349903   -0.026310959802831317   -0.0006978578220354644
-0.002329521613878055   -0.02632778719556723   -0.0006622097591520927
-0.002400174062141535   -0.023552773898272542   -0.0005439384558075245
-0.003982521286228156   -0.02352579576136569   -0.0005792044191970621
-0.0035420896799349903   -0.026310959802831317   -0.0006978578220354644
-0.003981629367987764   -0.023515585086690424   -0.0005489795346390316
-0.002329521613878055   -0.02632778719556723   -0.0006622097591520927
-0.003524852245073298   -0.026305206953126235   -0.0006641922719242804
-0.003981629367987764   -0.023515585086690424   -0.0005489795346390316
-0.0035420896799349903   -0.026310959802831317   -0.0006978578220354644
-0.002329521613878055   -0.02632778719556723   -0.0006622097591520927
-0.003981629367987764   -0.023515585086690424   -0.0005489795346390316
-0.002402278241636688   -0.02353632195971578   -0.0005359997512705809
-0.002400174062141535   -0.023552773898272542   -0.0005439384558075245
-0.002329521613878055   -0.02632778719556723   -0.0006622097591520927
-0.003981629367987764   -0.023515585086690424   -0.0005489795346390316
-0.002400174062141535   -0.023552773898272542   -0.0005439384558075245
-0.0035420896799349903   -0.026310959802831317   -0.0006978578220354644
-0.003574533894718168   -0.026367834936223262   -0.00075597589718141
-0.003982623493460509   -0.02358247508280717   -0.0006308016354662719
-0.004830110748635322   -0.026278961731311237   -0.0008327070983953148
-0.0035598467352408658   -0.02633160362534981   -0.0007284841822486227
-0.003982623493460509   -0.02358247508280717   -0.0006308016354662719
-0.00561413232756116   -0.023502978146103498   -0.000699411057143739
-0.004830110748635322   -0.026278961731311237   -0.0008327070983953148
-0.005612009966486642   -0.023474891545034866   -0.0006525087754617462
-0.0035598467352408658   -0.02633160362534981   -0.0007284841822486227
-0.004810775351054999   -0.02624821652939636   -0.000777011609058188
-0.005612009966486642   -0.023474891545034866   -0.0006525087754617462
-0.004830110748635322   -0.026278961731311237   -0.0008327070983953148
-0.0035598467352408658   -0.02633160362534981   -0.0007284841822486227
-0.005612009966486642   -0.023474891545034866   -0.0006525087754617462
-0.003983914368640606   -0.023548023316070227   -0.0006065070635934786
-0.003982623493460509   -0.02358247508280717   -0.0006308016354662719
-0.0035598467352408658   -0.02633160362534981   -0.0007284841822486227
-0.005612009966486642   -0.023474891545034866   -0.0006525087754617462
-0.003982623493460509   -0.02358247508280717   -0.0006308016354662719
-0.004830110748635322   -0.026278961731311237   -0.0008327070983953148
-0.0035598467352408658   -0.02633160362534981   -0.0007284841822486227
-0.003983914368640606   -0.023548023316070227   -0.0006065070635934786
-0.004810775351054999   -0.02624821652939636   -0.000777011609058188
-0.0035420896799349903   -0.026310959802831317   -0.0006978578220354644
-0.003983914368640606   -0.023548023316070227   -0.0006065070635934786
-0.005612009966486642   -0.023474891545034866   -0.0006525087754617462
-0.004810775351054999   -0.02624821652939636   -0.000777011609058188
-0.005598063280107395   -0.023458633413757975   -0.000603054418894979
-0.0035420896799349903   -0.026310959802831317   -0.0006978578220354644
-0.004777912319690711   -0.02623267345609148   -0.0007186702121947881
-0.005598063280107395   -0.023458633413757975   -0.000603054418894979
-0.004810775351054999   -0.02624821652939636   -0.000777011609058188
-0.0035420896799349903   -0.026310959802831317   -0.0006978578220354644
-0.005598063280107395   -0.023458633413757975   -0.000603054418894979
-0.003982521286228156   -0.02352579576136569   -0.0005792044191970621
-0.003983914368640606   -0.023548023316070227   -0.0006065070635934786
-0.0035420896799349903   -0.026310959802831317   -0.0006978578220354644
-0.005598063280107395   -0.023458633413757975   -0.000603054418894979
-0.003983914368640606   -0.023548023316070227   -0.0006065070635934786
-0.004810775351054999   -0.02624821652939636   -0.000777011609058188
-0.0035420896799349903   -0.026310959802831317   -0.0006978578220354644
-0.003982521286228156   -0.02352579576136569   -0.0005792044191970621
-0.004777912319690711   -0.02623267345609148   -0.0007186702121947881
-0.003524852245073298   -0.026305206953126235   -0.0006641922719242804
-0.003982521286228156   -0.02352579576136569   -0.0005792044191970621
-0.005598063280107395   -0.023458633413757975   -0.000603054418894979
-0.004777912319690711   -0.02623267345609148   -0.0007186702121947881
-0.005588803806128502   -0.02345540970664837   -0.0005504388919599249
-0.003524852245073298   -0.026305206953126235   -0.0006641922719242804
-0.004751395109425682   -0.026233188985661376   -0.0006568431033112003
-0.005588803806128502   -0.02345540970664837   -0.0005504388919599249
-0.004777912319690711   -0.02623267345609148   -0.0007186702121947881
-0.003524852245073298   -0.026305206953126235   -0.0006641922719242804
-0.005588803806128502   -0.02345540970664837   -0.0005504388919599249
-0.003981629367987764   -0.023515585086690424   -0.0005489795346390316
-0.003982521286228156   -0.02352579576136569   -0.0005792044191970621
-0.003524852245073298   -0.026305206953126235   -0.0006641922719242804
-0.005588803806128502   -0.02345540970664837   -0.0005504388919599249
-0.003982521286228156   -0.02352579576136569   -0.0005792044191970621
-0.004777912319690711   -0.02623267345609148   -0.0007186702121947881
-0.004830110748635322   -0.026278961731311237   -0.0008327070983953148
-0.00561413232756116   -0.023502978146103498   -0.000699411057143739
-0.006294052226229301   -0.026150514464196535   -0.0009046881154236377
-0.004810775351054999   -0.02624821652939636   -0.000777011609058188
-0.00561413232756116   -0.023502978146103498   -0.000699411057143739
-0.007436622459516078   -0.023392911727278563   -0.00076152261621426
-0.006294052226229301   -0.026150514464196535   -0.0009046881154236377
-0.0073671109641758725   -0.023365226504601145   -0.0006896257193668829
-0.004810775351054999   -0.02624821652939636   -0.000777011609058188
-0.0061935289919973855   -0.026118248870302497   -0.0008174084452695469
-0.0073671109641758725   -0.023365226504601145   -0.0006896257193668829
-0.006294052226229301   -0.026150514464196535   -0.0009046881154236377
-0.004810775351054999   -0.02624821652939636   -0.000777011609058188
-0.0073671109641758725   -0.023365226504601145   -0.0006896257193668829
-0.005612009966486642   -0.023474891545034866   -0.0006525087754617462
-0.00561413232756116   -0.023502978146103498   -0.000699411057143739
-0.004810775351054999   -0.02624821652939636   -0.000777011609058188
-0.0073671109641758725   -0.023365226504601145   -0.0006896257193668829
-0.00561413232756116   -0.023502978146103498   -0.000699411057143739
-0.006294052226229301   -0.026150514464196535   -0.0009046881154236377
-0.004810775351054999   -0.02624821652939636   -0.000777011609058188
-0.005612009966486642   -0.023474891545034866   -0.0006525087754617462
-0.0061935289919973855   -0.026118248870302497   -0.0008174084452695469
-0.004777912319690711   -0.02623267345609148   -0.0007186702121947881
-0.005612009966486642   -0.023474891545034866   -0.0006525087754617462
-0.0073671109641758725   -0.023365226504601145   -0.0006896257193668829
-0.0061935289919973855   -0.026118248870302497   -0.0008174084452695469
-0.0073078424733025015   -0.023351153609744303   -0.0006134224892320947
-0.004777912319690711   -0.02623267345609148   -0.0007186702121947881
-0.006106565466528513   -0.026104091951922686   -0.0007257454802471316
-0.0073078424733025015   -0.023351153609744303   -0.0006134224892320947
-0.0061935289919973855   -0.026118248870302497   -0.0008174084452695469
-0.004777912319690711   -0.02623267345609148   -0.0007186702121947881
-0.0073078424733025015   -0.023351153609744303   -0.0006134224892320947
-0.005598063280107395   -0.023458633413757975   -0.000603054418894979
-0.005612009966486642   -0.023474891545034866   -0.0006525087754617462
-0.004777912319690711   -0.02623267345609148   -0.0007186702121947881
-0.0073078424733025015   -0.023351153609744303   -0.0006134224892320947
-0.005612009966486642   -0.023474891545034866   -0.0006525087754617462
-0.0061935289919973855   -0.026118248870302497   -0.0008174084452695469
-0.004777912319690711   -0.02623267345609148   -0.0007186702121947881
-0.005598063280107395   -0.023458633413757975   -0.000603054418894979
-0.006106565466528513   -0.026104091951922686   -0.0007257454802471316
-0.004751395109425682   -0.026233188985661376   -0.0006568431033112003
-0.005598063280107395   -0.023458633413757975   -0.000603054418894979
-0.0073078424733025015   -0.023351153609744303   -0.0006134224892320947
-0.006106565466528513   -0.026104091951922686   -0.0007257454802471316
-0.00722255499779148   -0.02335768834892658   -0.0005335111332796829
-0.004751395109425682   -0.026233188985661376   -0.0006568431033112003
-0.005989523421642233   -0.026114409575905672   -0.0006302793881435214
-0.00722255499779148   -0.02335768834892658   -0.0005335111332796829
-0.006106565466528513   -0.026104091951922686   -0.0007257454802471316
-0.004751395109425682   -0.026233188985661376   -0.0006568431033112003
-0.00722255499779148   -0.02335768834892658   -0.0005335111332796829
-0.005588803806128502   -0.02345540970664837   -0.0005504388919599249
-0.005598063280107395   -0.023458633413757975   -0.000603054418894979
-0.004751395109425682   -0.026233188985661376   -0.0006568431033112003
-0.00722255499779148   -0.02335768834892658   -0.0005335111332796829
-0.005598063280107395   -0.023458633413757975   -0.000603054418894979
-0.006106565466528513   -0.026104091951922686   -0.0007257454802471316
0.0008795857559969765   -0.023579967482627542   -0.0003482585350227122
0.0014244354986120678   -0.020256045957784387   -0.00023227950793265793
-0.0007907713150990654   -0.023622259244037085   -0.00045958944298727836
0.0009293020358629365   -0.023522291578736143   -0.0003985111134736346
0.0014244354986120678   -0.020256045957784387   -0.00023227950793265793
-0.0005643126635145321   -0.020277355316751677   -0.0003369776411000713
-0.0007907713150990654   -0.023622259244037085   -0.00045958944298727836
-0.0005731984537299342   -0.020229769306787923   -0.0003483409307784915
0.0009293020358629365   -0.023522291578736143   -0.0003985111134736346
-0.0007860254317228201   -0.023573450203103623   -0.000480238580410715
-0.0005731984537299342   -0.020229769306787923   -0.0003483409307784915
-0.0007907713150990654   -0.023622259244037085   -0.00045958944298727836
0.0009293020358629365   -0.023522291578736143   -0.0003985111134736346
-0.0005731984537299342   -0.020229769306787923   -0.0003483409307784915
0.0014450368048321933   -0.020200472109559425   -0.0002656554859862831
0.0014244354986120678   -0.020256045957784387   -0.00023227950793265793
0.0009293020358629365   -0.023522291578736143   -0.0003985111134736346
-0.0005731984537299342   -0.020229769306787923   -0.0003483409307784915
0.0014244354986120678   -0.020256045957784387   -0.00023227950793265793
-0.0007907713150990654   -0.023622259244037085   -0.00045958944298727836
0.0009293020358629365   -0.023522291578736143   -0.0003985111134736346
0.0014450368048321933   -0.020200472109559425   -0.0002656554859862831
-0.0007860254317228201   -0.023573450203103623   -0.000480238580410715
0.0009613002607819694   -0.023485138480229976   -0.0004444089393265549
0.0014450368048321933   -0.020200472109559425   -0.0002656554859862831
-0.0005731984537299342   -0.020229769306787923   -0.0003483409307784915
-0.0007860254317228201   -0.023573450203103623   -0.000480238580410715
-0.000582480075524115   -0.020192649253079828   -0.0003569334124005818
0.0009613002607819694   -0.023485138480229976   -0.0004444089393265549
-0.0007799483360800168   -0.023538640242388054   -0.0004978097857399381
-0.000582480075524115   -0.020192649253079828   -0.0003569334124005818
-0.0007860254317228201   -0.023573450203103623   -0.000480238580410715
0.0009613002607819694   -0.023485138480229976   -0.0004444089393265549
-0.000582480075524115   -0.020192649253079828   -0.0003569334124005818
0.001451992213200662   -0.020160632557512933   -0.00029493802598593
0.0014450368048321933   -0.020200472109559425   -0.0002656554859862831
0.0009613002607819694   -0.023485138480229976   -0.0004444089393265549
-0.000582480075524115   -0.020192649253079828   -0.0003569334124005818
0.0014450368048321933   -0.020200472109559425   -0.0002656554859862831
-0.0007860254317228201   -0.023573450203103623   -0.000480238580410715
0.0009613002607819694   -0.023485138480229976   -0.0004444089393265549
0.001451992213200662   -0.020160632557512933   -0.00029493802598593
-0.0007799483360800168   -0.023538640242388054   -0.0004978097857399381
0.0009944798538496483   -0.023461110671023196   -0.0004860480863349017
0.001451992213200662   -0.020160632557512933   -0.00029493802598593
-0.000582480075524115   -0.020192649253079828   -0.0003569334124005818
-0.0007799483360800168   -0.023538640242388054   -0.0004978097857399381
-0.0005987125594923179   -0.020164790643014182   -0.0003628474887846902
0.0009944798538496483   -0.023461110671023196   -0.0004860480863349017
-0.0007823928658857089   -0.02351668330322615   -0.00051252671118013
-0.0005987125594923179   -0.020164790643014182   -0.0003628474887846902
-0.0007799483360800168   -0.023538640242388054   -0.0004978097857399381
0.0009944798538496483   -0.023461110671023196   -0.0004860480863349017
-0.0005987125594923179   -0.020164790643014182   -0.0003628474887846902
0.001456683648455329   -0.020129276376291718   -0.0003203237475583933
0.001451992213200662   -0.020160632557512933   -0.00029493802598593
0.0009944798538496483   -0.023461110671023196   -0.0004860480863349017
-0.0005987125594923179   -0.020164790643014182   -0.0003628474887846902
0.001451992213200662   -0.020160632557512933   -0.00029493802598593
-0.0007799483360800168   -0.023538640242388054   -0.0004978097857399381
-0.0007907713150990654   -0.023622259244037085   -0.00045958944298727836
-0.0005643126635145321   -0.020277355316751677   -0.0003369776411000713
-0.0024001242402240126   -0.023622723936933765   -0.000550934527124203
-0.0007860254317228201   -0.023573450203103623   -0.000480238580410715
-0.0005643126635145321   -0.020277355316751677   -0.0003369776411000713
-0.002471991152447007   -0.020267084434257225   -0.00042262967243761606
-0.0024001242402240126   -0.023622723936933765   -0.000550934527124203
-0.0024846207706500506   -0.020227531327278253   -0.00041750549893733105
-0.0007860254317228201   -0.023573450203103623   -0.000480238580410715
-0.0024002071218398365   -0.023581582606652458   -0.0005489722576898291
-0.0024846207706500506   -0.020227531327278253   -0.00041750549893733105
-0.0024001242402240126   -0.023622723936933765   -0.000550934527124203
-0.0007860254317228201   -0.023573450203103623   -0.000480238580410715
-0.0024846207706500506   -0.020227531327278253   -0.00041750549893733105
-0.0005731984537299342   -0.020229769306787923   -0.0003483409307784915
-0.0005643126635145321   -0.020277355316751677   -0.0003369776411000713
-0.0007860254317228201   -0.023573450203103623   -0.000480238580410715
-0.0024846207706500506   -0.020227531327278253   -0.00041750549893733105
-0.0005643126635145321   -0.020277355316751677   -0.0003369776411000713
-0.0024001242402240126   -0.023622723936933765   -0.000550934527124203
-0.0007860254317228201   -0.023573450203103623   -0.000480238580410715
-0.0005731984537299342   -0.020229769306787923   -0.0003483409307784915
-0.0024002071218398365   -0.023581582606652458   -0.0005489722576898291
-0.0007799483360800168   -0.023538640242388054   -0.0004978097857399381
-0.0005731984537299342   -0.020229769306787923   -0.0003483409307784915
-0.0024846207706500506   -0.020227531327278253   -0.00041750549893733105
-0.0024002071218398365   -0.023581582606652458   -0.0005489722576898291
-0.0024974267010697744   -0.020196943999542652   -0.00040952347647830035
-0.0007799483360800168   -0.023538640242388054   -0.0004978097857399381
-0.002400174062141535   -0.023552773898272542   -0.0005439384558075245
-0.0024974267010697744   -0.020196943999542652   -0.00040952347647830035
-0.0024002071218398365   -0.023581582606652458   -0.0005489722576898291
-0.0007799483360800168   -0.023538640242388054   -0.0004978097857399381
-0.0024974267010697744   -0.020196943999542652   -0.00040952347647830035
-0.000582480075524115   -0.020192649253079828   -0.0003569334124005818
-0.0005731984537299342   -0.020229769306787923   -0.0003483409307784915
-0.0007799483360800168   -0.023538640242388054   -0.0004978097857399381
-0.0024974267010697744   -0.020196943999542652   -0.00040952347647830035
-0.0005731984537299342   -0.020229769306787923   -0.0003483409307784915
-0.0024002071218398365   -0.023581582606652458   -0.0005489722576898291
-0.0007799483360800168   -0.023538640242388054   -0.0004978097857399381
-0.000582480075524115   -0.020192649253079828   -0.0003569334124005818
-0.002400174062141535   -0.023552773898272542   -0.0005439384558075245
-0.0007823928658857089   -0.02351668330322615   -0.00051252671118013
-0.000582480075524115   -0.020192649253079828   -0.0003569334124005818
-0.0024974267010697744   -0.020196943999542652   -0.00040952347647830035
-0.002400174062141535   -0.023552773898272542   -0.0005439384558075245
-0.0025122702641733954   -0.020175471919534314   -0.0003988281696007025
-0.0007823928658857089   -0.02351668330322615   -0.00051252671118013
-0.002402278241636688   -0.02353632195971578   -0.0005359997512705809
-0.0025122702641733954   -0.020175471919534314   -0.0003988281696007025
-0.002400174062141535   -0.023552773898272542   -0.0005439384558075245
-0.0007823928658857089   -0.02351668330322615   -0.00051252671118013
-0.0025122702641733954   -0.020175471919534314   -0.0003988281696007025
-0.0005987125594923179   -0.020164790643014182   -0.0003628474887846902
-0.000582480075524115   -0.020192649253079828   -0.0003569334124005818
-0.0007823928658857089   -0.02351668330322615   -0.00051252671118013
-0.0025122702641733954   -0.020175471919534314   -0.0003988281696007025
-0.000582480075524115   -0.020192649253079828   -0.0003569334124005818
-0.002400174062141535   -0.023552773898272542   -0.0005439384558075245
-0.0024001242402240126   -0.023622723936933765   -0.000550934527124203
-0.002471991152447007   -0.020267084434257225   -0.00042262967243761606
-0.003982623493460509   -0.02358247508280717   -0.0006308016354662719
-0.0024002071218398365   -0.023581582606652458   -0.0005489722576898291
-0.002471991152447007   -0.020267084434257225   -0.00042262967243761606
-0.004347732161644254   -0.02022733863561308   -0.0004956575125918961
-0.003982623493460509   -0.02358247508280717   -0.0006308016354662719
-0.004361425101500311   -0.020195040056239403   -0.0004741391870109581
-0.0024002071218398365   -0.023581582606652458   -0.0005489722576898291
-0.003983914368640606   -0.023548023316070227   -0.0006065070635934786
-0.004361425101500311   -0.020195040056239403   -0.0004741391870109581
-0.003982623493460509   -0.02358247508280717   -0.0006308016354662719
-0.0024002071218398365   -0.023581582606652458   -0.0005489722576898291
-0.004361425101500311   -0.020195040056239403   -0.0004741391870109581
-0.0024846207706500506   -0.020227531327278253   -0.00041750549893733105
-0.002471991152447007   -0.020267084434257225   -0.00042262967243761606
-0.0024002071218398365   -0.023581582606652458   -0.0005489722576898291
-0.004361425101500311   -0.020195040056239403   -0.0004741391870109581
-0.002471991152447007   -0.020267084434257225   -0.00042262967243761606
-0.003982623493460509   -0.02358247508280717   -0.0006308016354662719
-0.0024002071218398365   -0.023581582606652458   -0.0005489722576898291
-0.0024846207706500506   -0.020227531327278253   -0.00041750549893733105
-0.003983914368640606   -0.023548023316070227   -0.0006065070635934786
-0.002400174062141535   -0.023552773898272542   -0.0005439384558075245
-0.0024846207706500506   -0.020227531327278253   -0.00041750549893733105
-0.004361425101500311   -0.020195040056239403   -0.0004741391870109581
-0.003983914368640606   -0.023548023316070227   -0.0006065070635934786
-0.004372722806327509   -0.02017162261867665   -0.0004498167898238515
-0.002400174062141535   -0.023552773898272542   -0.0005439384558075245
-0.003982521286228156   -0.02352579576136569   -0.0005792044191970621
-0.004372722806327509   -0.02017162261867665   -0.0004498167898238515
-0.003983914368640606   -0.023548023316070227   -0.0006065070635934786
-0.002400174062141535   -0.023552773898272542   -0.0005439384558075245
-0.004372722806327509   -0.02017162261867665   -0.0004498167898238515
-0.0024974267010697744   -0.020196943999542652   -0.00040952347647830035
-0.0024846207706500506   -0.020227531327278253   -0.00041750549893733105
-0.002400174062141535   -0.023552773898272542   -0.0005439384558075245
-0.004372722806327509   -0.02017162261867665   -0.0004498167898238515
-0.0024846207706500506   -0.020227531327278253   -0.00041750549893733105
-0.003983914368640606   -0.023548023316070227   -0.0006065070635934786
-0.002400174062141535   -0.023552773898272542   -0.0005439384558075245
-0.0024974267010697744   -0.020196943999542652   -0.00040952347647830035
-0.003982521286228156   -0.02352579576136569   -0.0005792044191970621
-0.002402278241636688   -0.02353632195971578   -0.0005359997512705809
-0.0024974267010697744   -0.020196943999542652   -0.00040952347647830035
-0.004372722806327509   -0.02017162261867665   -0.0004498167898238515
-0.003982521286228156   -0.02352579576136569   -0.0005792044191970621
-0.004384364396677209   -0.02015704674561522   -0.0004227707250628908
-0.002402278241636688   -0.02353632195971578   -0.0005359997512705809
-0.003981629367987764   -0.023515585086690424   -0.0005489795346390316
-0.004384364396677209   -0.02015704674561522   -0.0004227707250628908
-0.003982521286228156   -0.02352579576136569   -0.0005792044191970621
-0.002402278241636688   -0.02353632195971578   -0.0005359997512705809
-0.004384364396677209   -0.02015704674561522   -0.0004227707250628908
-0.0025122702641733954   -0.020175471919534314   -0.0003988281696007025
-0.0024974267010697744   -0.020196943999542652   -0.00040952347647830035
-0.002402278241636688   -0.02353632195971578   -0.0005359997512705809
-0.004384364396677209   -0.02015704674561522   -0.0004227707250628908
-0.0024974267010697744   -0.020196943999542652   -0.00040952347647830035
-0.003982521286228156   -0.02352579576136569   -0.0005792044191970621
-0.003982623493460509   -0.02358247508280717   -0.0006308016354662719
-0.004347732161644254   -0.02022733863561308   -0.0004956575125918961
-0.00561413232756116   -0.023502978146103498   -0.000699411057143739
-0.003983914368640606   -0.023548023316070227   -0.0006065070635934786
-0.004347732161644254   -0.02022733863561308   -0.0004956575125918961
-0.006268050656413275   -0.020158884043986178   -0.0005563966373994482
-0.00561413232756116   -0.023502978146103498   -0.000699411057143739
-0.006279259778403018   -0.020133641043466242   -0.0005182544626311501
-0.003983914368640606   -0.023548023316070227   -0.0006065070635934786
-0.005612009966486642   -0.023474891545034866   -0.0006525087754617462
-0.006279259778403018   -0.020133641043466242   -0.0005182544626311501
-0.00561413232756116   -0.023502978146103498   -0.000699411057143739
-0.003983914368640606   -0.023548023316070227   -0.0006065070635934786
-0.006279259778403018   -0.020133641043466242   -0.0005182544626311501
-0.004361425101500311   -0.020195040056239403   -0.0004741391870109581
-0.004347732161644254   -0.02022733863561308   -0.0004956575125918961
-0.003983914368640606   -0.023548023316070227   -0.0006065070635934786
-0.006279259778403018   -0.020133641043466242   -0.0005182544626311501
-0.004347732161644254   -0.02022733863561308   -0.0004956575125918961
-0.00561413232756116   -0.023502978146103498   -0.000699411057143739
-0.003983914368640606   -0.023548023316070227   -0.0006065070635934786
-0.004361425101500311   -0.020195040056239403   -0.0004741391870109581
-0.005612009966486642   -0.023474891545034866   -0.0006525087754617462
-0.003982521286228156   -0.02352579576136569   -0.0005792044191970621
-0.004361425101500311   -0.020195040056239403   -0.0004741391870109581
-0.006279259778403018   -0.020133641043466242   -0.0005182544626311501
-0.005612009966486642   -0.023474891545034866   -0.0006525087754617462
-0.006280290868994139   -0.02011678531123838   -0.0004776951211667546
-0.003982521286228156   -0.02352579576136569   -0.0005792044191970621
-0.005598063280107395   -0.023458633413757975   -0.000603054418894979
-0.006280290868994139   -0.02011678531123838   -0.0004776951211667546
-0.005612009966486642   -0.023474891545034866   -0.0006525087754617462
-0.003982521286228156   -0.02352579576136569   -0.0005792044191970621
-0.006280290868994139   -0.02011678531123838   -0.0004776951211667546
-0.004372722806327509   -0.02017162261867665   -0.0004498167898238515
-0.004361425101500311   -0.020195040056239403   -0.0004741391870109581
-0.003982521286228156   -0.02352579576136569   -0.0005792044191970621
-0.006280290868994139   -0.02011678531123838   -0.0004776951211667546
-0.004361425101500311   -0.020195040056239403   -0.0004741391870109581
-0.005612009966486642   -0.023474891545034866   -0.0006525087754617462
-0.003982521286228156   -0.02352579576136569   -0.0005792044191970621
-0.004372722806327509   -0.02017162261867665   -0.0004498167898238515
-0.005598063280107395   -0.023458633413757975   -0.000603054418894979
-0.003981629367987764   -0.023515585086690424   -0.0005489795346390316
-0.004372722806327509   -0.02017162261867665   -0.0004498167898238515
-0.006280290868994139   -0.02011678531123838   -0.0004776951211667546
-0.005598063280107395   -0.023458633413757975   -0.000603054418894979
-0.006284306769861383   -0.020109577317896005   -0.0004342032211853997
-0.003981629367987764   -0.023515585086690424   -0.0005489795346390316
-0.005588803806128502   -0.02345540970664837   -0.0005504388919599249
-0.006284306769861383   -0.020109577317896005   -0.0004342032211853997
-0.005598063280107395   -0.023458633413757975   -0.000603054418894979
-0.003981629367987764   -0.023515585086690424   -0.0005489795346390316
-0.006284306769861383   -0.020109577317896005   -0.0004342032211853997
-0.004384364396677209   -0.02015704674561522   -0.0004227707250628908
-0.004372722806327509   -0.02017162261867665   -0.0004498167898238515
-0.003981629367987764   -0.023515585086690424   -0.0005489795346390316
-0.006284306769861383   -0.020109577317896005   -0.0004342032211853997
-0.004372722806327509   -0.02017162261867665   -0.0004498167898238515
-0.005598063280107395   -0.023458633413757975   -0.000603054418894979
-0.00561413232756116   -0.023502978146103498   -0.000699411057143739
-0.006268050656413275   -0.020158884043986178   -0.0005563966373994482
-0.007436622459516078   -0.023392911727278563   -0.00076152261621426
-0.005612009966486642   -0.023474891545034866   -0.0006525087754617462
-0.006268050656413275   -0.020158884043986178   -0.0005563966373994482
-0.00836281239413797   -0.020068607341880318   -0.0006083090975713242
-0.007436622459516078   -0.023392911727278563   -0.00076152261621426
-0.008321281272548381   -0.02004554326490168   -0.0005524383164528968
-0.005612009966486642   -0.023474891545034866   -0.0006525087754617462
-0.0073671109641758725   -0.023365226504601145   -0.0006896257193668829
-0.008321281272548381   -0.02004554326490168   -0.0005524383164528968
-0.007436622459516078   -0.023392911727278563   -0.00076152261621426
-0.005612009966486642   -0.023474891545034866   -0.0006525087754617462
-0.008321281272548381   -0.02004554326490168   -0.0005524383164528968
-0.006279259778403018   -0.020133641043466242   -0.0005182544626311501
-0.006268050656413275   -0.020158884043986178   -0.0005563966373994482
-0.005612009966486642   -0.023474891545034866   -0.0006525087754617462
-0.008321281272548381   -0.02004554326490168   -0.0005524383164528968
-0.006268050656413275   -0.020158884043986178   -0.0005563966373994482
-0.007436622459516078   -0.023392911727278563   -0.00076152261621426
-0.005612009966486642   -0.023474891545034866   -0.0006525087754617462
-0.006279259778403018   -0.020133641043466242   -0.0005182544626311501
-0.0073671109641758725   -0.023365226504601145   -0.0006896257193668829
-0.005598063280107395   -0.023458633413757975   -0.000603054418894979
-0.006279259778403018   -0.020133641043466242   -0.0005182544626311501
-0.008321281272548381   -0.02004554326490168   -0.0005524383164528968
-0.0073671109641758725   -0.023365226504601145   -0.0006896257193668829
-0.008286354561193013   -0.020031476645919578   -0.0004923373870551583
-0.005598063280107395   -0.023458633413757975   -0.000603054418894979
-0.0073078424733025015   -0.023351153609744303   -0.0006134224892320947
-0.008286354561193013   -0.020031476645919578   -0.0004923373870551583
-0.0073671109641758725   -0.023365226504601145   -0.0006896257193668829
-0.005598063280107395   -0.023458633413757975   -0.000603054418894979
-0.008286354561193013   -0.020031476645919578   -0.0004923373870551583
-0.006280290868994139   -0.02011678531123838   -0.0004776951211667546
-0.006279259778403018   -0.020133641043466242   -0.0005182544626311501
-0.005598063280107395   -0.023458633413757975   -0.000603054418894979
-0.008286354561193013   -0.020031476645919578   -0.0004923373870551583
-0.006279259778403018   -0.020133641043466242   -0.0005182544626311501
-0.0073671109641758725   -0.023365226504601145   -0.0006896257193668829
-0.005598063280107395   -0.023458633413757975   -0.000603054418894979
-0.006280290868994139   -0.02011678531123838   -0.0004776951211667546
-0.0073078424733025015   -0.023351153609744303   -0.0006134224892320947
-0.005588803806128502   -0.02345540970664837   -0.0005504388919599249
-0.006280290868994139   -0.02011678531123838   -0.0004776951211667546
-0.008286354561193013   -0.020031476645919578   -0.0004923373870551583
-0.0073078424733025015   -0.023351153609744303   -0.0006134224892320947
-0.008229241911956233   -0.020033726266398596   -0.00042853666080244925
-0.005588803806128502   -0.02345540970664837   -0.0005504388919599249
-0.00722255499779148   -0.02335768834892658   -0.0005335111332796829
-0.008229241911956233   -0.020033726266398596   -0.00042853666080244925
-0.0073078424733025015   -0.023351153609744303   -0.0006134224892320947
-0.005588803806128502   -0.02345540970664837   -0.0005504388919599249
-0.008229241911956233   -0.020033726266398596   -0.00042853666080244925
-0.006284306769861383   -0.020109577317896005   -0.0004342032211853997
-0.006280290868994139   -0.02011678531123838   -0.0004776951211667546
-0.005588803806128502   -0.02345540970664837   -0.0005504388919599249
-0.008229241911956233   -0.020033726266398596   -0.00042853666080244925
-0.006280290868994139   -0.02011678531123838   -0.0004776951211667546
-0.0073078424733025015   -0.023351153609744303   -0.0006134224892320947
0.0014244354986120678   -0.020256045957784387   -0.00023227950793265793
0.001733472216418828   -0.0165129253587738   -0.00011918110886353277
-0.0005643126635145321   -0.020277355316751677   -0.0003369776411000713
0.0014450368048321933   -0.020200472109559425   -0.0002656554859862831
0.001733472216418828   -0.0165129253587738   -0.00011918110886353277
-0.0004809980721898461   -0.01651329781107017   -0.0002160805428463052
-0.0005643126635145321   -0.020277355316751677   -0.0003369776411000713
-0.0005001834845643171   -0.016467350577192258   -0.00021795763579011225
0.0014450368048321933   -0.020200472109559425   -0.0002656554859862831
-0.0005731984537299342   -0.020229769306787923   -0.0003483409307784915
-0.0005001834845643171   -0.016467350577192258   -0.00021795763579011225
-0.0005643126635145321   -0.020277355316751677   -0.0003369776411000713
0.0014450368048321933   -0.020200472109559425   -0.0002656554859862831
-0.0005001834845643171   -0.016467350577192258   -0.00021795763579011225
0.00172854084280033   -0.01645978306734899   -0.00013572475859485478
0.001733472216418828   -0.0165129253587738   -0.00011918110886353277
0.0014450368048321933   -0.020200472109559425   -0.0002656554859862831
-0.0005001834845643171   -0.016467350577192258   -0.00021795763579011225
0.001733472216418828   -0.0165129253587738   -0.00011918110886353277
-0.0005643126635145321   -0.020277355316751677   -0.0003369776411000713
0.0014450368048321933   -0.020200472109559425   -0.0002656554859862831
0.00172854084280033   -0.01645978306734899   -0.00013572475859485478
-0.0005731984537299342   -0.020229769306787923   -0.0003483409307784915
0.001451992213200662   -0.020160632557512933   -0.00029493802598593
0.00172854084280033   -0.01645978306734899   -0.00013572475859485478
-0.0005001834845643171   -0.016467350577192258   -0.00021795763579011225
-0.0005731984537299342   -0.020229769306787923   -0.0003483409307784915
-0.0005215135048171718   -0.016428244542312   -0.0002173549840783703
0.001451992213200662   -0.020160632557512933   -0.00029493802598593
-0.000582480075524115   -0.020192649253079828   -0.0003569334124005818
-0.0005215135048171718   -0.016428244542312   -0.0002173549840783703
-0.0005731984537299342   -0.020229769306787923   -0.0003483409307784915
0.001451992213200662   -0.020160632557512933   -0.00029493802598593
-0.0005215135048171718   -0.016428244542312   -0.0002173549840783703
0.0017138261825023777   -0.01641761776836017   -0.00014829365190033975
0.00172854084280033   -0.01645978306734899   -0.00013572475859485478
0.001451992213200662   -0.020160632557512933   -0.00029493802598593
-0.0005215135048171718   -0.016428244542312   -0.0002173549840783703
0.00172854084280033   -0.01645978306734899   -0.00013572475859485478
-0.0005731984537299342   -0.020229769306787923   -0.0003483409307784915
0.001451992213200662   -0.020160632557512933   -0.00029493802598593
0.0017138261825023777   -0.01641761776836017   -0.00014829365190033975
-0.000582480075524115   -0.020192649253079828   -0.0003569334124005818
0.001456683648455329   -0.020129276376291718   -0.0003203237475583933
0.0017138261825023777   -0.01641761776836017   -0.00014829365190033975
-0.0005215135048171718   -0.016428244542312   -0.0002173549840783703
-0.000582480075524115   -0.020192649253079828   -0.0003569334124005818
-0.0005482083510776406   -0.016394930904128985   -0.00021417482494100494
0.001456683648455329   -0.020129276376291718   -0.0003203237475583933
-0.0005987125594923179   -0.020164790643014182   -0.0003628474887846902
-0.0005482083510776406   -0.016394930904128985   -0.00021417482494100494
-0.000582480075524115   -0.020192649253079828   -0.0003569334124005818
0.001456683648455329   -0.020129276376291718   -0.0003203237475583933
-0.0005482083510776406   -0.016394930904128985   -0.00021417482494100494
0.0016930676079103034   -0.016379289513480298   -0.00015716559873207755
0.0017138261825023777   -0.01641761776836017   -0.00014829365190033975
0.001456683648455329   -0.020129276376291718   -0.0003203237475583933
-0.0005482083510776406   -0.016394930904128985   -0.00021417482494100494
0.0017138261825023777   -0.01641761776836017   -0.00014829365190033975
-0.000582480075524115   -0.020192649253079828   -0.0003569334124005818
-0.0005643126635145321   -0.020277355316751677   -0.0003369776411000713
-0.0004809980721898461   -0.01651329781107017   -0.0002160805428463052
-0.002471991152447007   -0.020267084434257225   -0.00042262967243761606
-0.0005731984537299342   -0.020229769306787923   -0.0003483409307784915
-0.0004809980721898461   -0.01651329781107017   -0.0002160805428463052
-0.002593896884180288   -0.016493458706842153   -0.00029541213801279374
-0.002471991152447007   -0.020267084434257225   -0.00042262967243761606
-0.00261559903199882   -0.01645558476056862   -0.00028683042143140335
-0.0005731984537299342   -0.020229769306787923   -0.0003483409307784915
-0.0024846207706500506   -0.020227531327278253   -0.00041750549893733105
-0.00261559903199882   -0.01645558476056862   -0.00028683042143140335
-0.002471991152447007   -0.020267084434257225   -0.00042262967243761606
-0.0005731984537299342   -0.020229769306787923   -0.0003483409307784915
-0.00261559903199882   -0.01645558476056862   -0.00028683042143140335
-0.0005001834845643171   -0.016467350577192258   -0.00021795763579011225
-0.0004809980721898461   -0.01651329781107017   -0.0002160805428463052
-0.0005731984537299342   -0.020229769306787923   -0.0003483409307784915
-0.00261559903199882   -0.01645558476056862   -0.00028683042143140335
-0.0004809980721898461   -0.01651329781107017   -0.0002160805428463052
-0.002471991152447007   -0.020267084434257225   -0.00042262967243761606
-0.0005731984537299342   -0.020229769306787923   -0.0003483409307784915
-0.0005001834845643171   -0.016467350577192258   -0.00021795763579011225
-0.0024846207706500506   -0.020227531327278253   -0.00041750549893733105
-0.000582480075524115   -0.020192649253079828   -0.0003569334124005818
-0.0005001834845643171   -0.016467350577192258   -0.00021795763579011225
-0.00261559903199882   -0.01645558476056862   -0.00028683042143140335
-0.0024846207706500506   -0.020227531327278253   -0.00041750549893733105
-0.002637752735344165   -0.01642327843712947   -0.0002756599135899436
-0.000582480075524115   -0.020192649253079828   -0.0003569334124005818
-0.0024974267010697744   -0.020196943999542652   -0.00040952347647830035
-0.002637752735344165   -0.01642327843712947   -0.0002756599135899436
-0.0024846207706500506   -0.020227531327278253   -0.00041750549893733105
-0.000582480075524115   -0.020192649253079828   -0.0003569334124005818
-0.002637752735344165   -0.01642327843712947   -0.0002756599135899436
-0.0005215135048171718   -0.016428244542312   -0.0002173549840783703
-0.0005001834845643171   -0.016467350577192258   -0.00021795763579011225
-0.000582480075524115   -0.020192649253079828   -0.0003569334124005818
-0.002637752735344165   -0.01642327843712947   -0.0002756599135899436
-0.0005001834845643171   -0.016467350577192258   -0.00021795763579011225
-0.0024846207706500506   -0.020227531327278253   -0.00041750549893733105
-0.000582480075524115   -0.020192649253079828   -0.0003569334124005818
-0.0005215135048171718   -0.016428244542312   -0.0002173549840783703
-0.0024974267010697744   -0.020196943999542652   -0.00040952347647830035
-0.0005987125594923179   -0.020164790643014182   -0.0003628474887846902
-0.0005215135048171718   -0.016428244542312   -0.0002173549840783703
-0.002637752735344165   -0.01642327843712947   -0.0002756599135899436
-0.0024974267010697744   -0.020196943999542652   -0.00040952347647830035
-0.002661816390587084   -0.016396861715970917   -0.0002620285848711186
-0.0005987125594923179   -0.020164790643014182   -0.0003628474887846902
-0.0025122702641733954   -0.020175471919534314   -0.0003988281696007025
-0.002661816390587084   -0.016396861715970917   -0.0002620285848711186
-0.0024974267010697744   -0.020196943999542652   -0.00040952347647830035
-0.0005987125594923179   -0.020164790643014182   -0.0003628474887846902
-0.002661816390587084   -0.016396861715970917   -0.0002620285848711186
-0.0005482083510776406   -0.016394930904128985   -0.00021417482494100494
-0.0005215135048171718   -0.016428244542312   -0.0002173549840783703
-0.0005987125594923179   -0.020164790643014182   -0.0003628474887846902
-0.002661816390587084   -0.016396861715970917   -0.0002620285848711186
-0.0005215135048171718   -0.016428244542312   -0.0002173549840783703
-0.0024974267010697744   -0.020196943999542652   -0.00040952347647830035
-0.002471991152447007   -0.020267084434257225   -0.00042262967243761606
-0.002593896884180288   -0.016493458706842153   -0.00029541213801279374
-0.004347732161644254   -0.02022733863561308   -0.0004956575125918961
-0.0024846207706500506   -0.020227531327278253   -0.00041750549893733105
-0.002593896884180288   -0.016493458706842153   -0.00029541213801279374
-0.004671104092491846   -0.016455856524176776   -0.00036198193710759366
-0.004347732161644254   -0.02022733863561308   -0.0004956575125918961
-0.004693523931883109   -0.01642538228901127   -0.0003429799730056422
-0.0024846207706500506   -0.020227531327278253   -0.00041750549893733105
-0.004361425101500311   -0.020195040056239403   -0.0004741391870109581
-0.004693523931883109   -0.01642538228901127   -0.0003429799730056422
-0.004347732161644254   -0.02022733863561308   -0.0004956575125918961
-0.0024846207706500506   -0.020227531327278253   -0.00041750549893733105
-0.004693523931883109   -0.01642538228901127   -0.0003429799730056422
-0.00261559903199882   -0.01645558476056862   -0.00028683042143140335
-0.002593896884180288   -0.016493458706842153   -0.00029541213801279374
-0.0024846207706500506   -0.020227531327278253   -0.00041750549893733105
-0.004693523931883109   -0.01642538228901127   -0.0003429799730056422
-0.002593896884180288   -0.016493458706842153   -0.00029541213801279374
-0.004347732161644254   -0.02022733863561308   -0.0004956575125918961
-0.0024846207706500506   -0.020227531327278253   -0.00041750549893733105
-0.00261559903199882   -0.01645558476056862   -0.00028683042143140335
-0.004361425101500311   -0.020195040056239403   -0.0004741391870109581
-0.0024974267010697744   -0.020196943999542652   -0.00040952347647830035
-0.00261559903199882   -0.01645558476056862   -0.00028683042143140335
-0.004693523931883109   -0.01642538228901127   -0.0003429799730056422
-0.004361425101500311   -0.020195040056239403   -0.0004741391870109581
-0.004713826203892077   -0.016400436512200182   -0.0003214516580110859
-0.0024974267010697744   -0.020196943999542652   -0.00040952347647830035
-0.004372722806327509   -0.02017162261867665   -0.0004498167898238515
-0.004713826203892077   -0.016400436512200182   -0.0003214516580110859
-0.004361425101500311   -0.020195040056239403   -0.0004741391870109581
-0.0024974267010697744   -0.020196943999542652   -0.00040952347647830035
-0.004713826203892077   -0.016400436512200182   -0.0003214516580110859
-0.002637752735344165   -0.01642327843712947   -0.0002756599135899436
-0.00261559903199882   -0.01645558476056862   -0.00028683042143140335
-0.0024974267010697744   -0.020196943999542652   -0.00040952347647830035
-0.004713826203892077   -0.016400436512200182   -0.0003214516580110859
-0.00261559903199882   -0.01645558476056862   -0.00028683042143140335
-0.004361425101500311   -0.020195040056239403   -0.0004741391870109581
-0.0024974267010697744   -0.020196943999542652   -0.00040952347647830035
-0.002637752735344165   -0.01642327843712947   -0.0002756599135899436
-0.004372722806327509   -0.02017162261867665   -0.0004498167898238515
-0.0025122702641733954   -0.020175471919534314   -0.0003988281696007025
-0.002637752735344165   -0.01642327843712947   -0.0002756599135899436
-0.004713826203892077   -0.016400436512200182   -0.0003214516580110859
-0.004372722806327509   -0.02017162261867665   -0.0004498167898238515
-0.00473432595687003   -0.01638105643388885   -0.00029749081283295424
-0.0025122702641733954   -0.020175471919534314   -0.0003988281696007025
-0.004384364396677209   -0.02015704674561522   -0.0004227707250628908
-0.00473432595687003   -0.01638105643388885   -0.00029749081283295424
-0.004372722806327509   -0.02017162261867665   -0.0004498167898238515
-0.0025122702641733954   -0.020175471919534314   -0.0003988281696007025
-0.00473432595687003   -0.01638105643388885   -0.00029749081283295424
-0.002661816390587084   -0.016396861715970917   -0.0002620285848711186
-0.002637752735344165   -0.01642327843712947   -0.0002756599135899436
-0.0025122702641733954   -0.020175471919534314   -0.0003988281696007025
-0.00473432595687003   -0.01638105643388885   -0.00029749081283295424
-0.002637752735344165   -0.01642327843712947   -0.0002756599135899436
-0.004372722806327509   -0.02017162261867665   -0.0004498167898238515
-0.004347732161644254   -0.02022733863561308   -0.0004956575125918961
-0.004671104092491846   -0.016455856524176776   -0.00036198193710759366
-0.006268050656413275   -0.020158884043986178   -0.0005563966373994482
-0.004361425101500311   -0.020195040056239403   -0.0004741391870109581
-0.004671104092491846   -0.016455856524176776   -0.00036198193710759366
-0.006789613453852228   -0.016399703257789715   -0.0004159812760751485
-0.006268050656413275   -0.020158884043986178   -0.0005563966373994482
-0.0068103588142282715   -0.016376671784694673   -0.0003864758340658497
-0.004361425101500311   -0.020195040056239403   -0.0004741391870109581
-0.006279259778403018   -0.020133641043466242   -0.0005182544626311501
-0.0068103588142282715   -0.016376671784694673   -0.0003864758340658497
-0.006268050656413275   -0.020158884043986178   -0.0005563966373994482
-0.004361425101500311   -0.020195040056239403   -0.0004741391870109581
-0.0068103588142282715   -0.016376671784694673   -0.0003864758340658497
-0.004693523931883109   -0.01642538228901127   -0.0003429799730056422
-0.004671104092491846   -0.016455856524176776   -0.00036198193710759366
-0.004361425101500311   -0.020195040056239403   -0.0004741391870109581
-0.0068103588142282715   -0.016376671784694673   -0.0003864758340658497
-0.004671104092491846   -0.016455856524176776   -0.00036198193710759366
-0.006268050656413275   -0.020158884043986178   -0.0005563966373994482
-0.004361425101500311   -0.020195040056239403   -0.0004741391870109581
-0.004693523931883109   -0.01642538228901127   -0.0003429799730056422
-0.006279259778403018   -0.020133641043466242   -0.0005182544626311501
-0.004372722806327509   -0.02017162261867665   -0.0004498167898238515
-0.004693523931883109   -0.01642538228901127   -0.0003429799730056422
-0.0068103588142282715   -0.016376671784694673   -0.0003864758340658497
-0.006279259778403018   -0.020133641043466242   -0.0005182544626311501
-0.006822654625684334   -0.016358520698747367   -0.0003547793350739455
-0.004372722806327509   -0.02017162261867665   -0.0004498167898238515
-0.006280290868994139   -0.02011678531123838   -0.0004776951211667546
-0.006822654625684334   -0.016358520698747367   -0.0003547793350739455
-0.006279259778403018   -0.020133641043466242   -0.0005182544626311501
-0.004372722806327509   -0.02017162261867665   -0.0004498167898238515
-0.006822654625684334   -0.016358520698747367   -0.0003547793350739455
-0.004713826203892077   -0.016400436512200182   -0.0003214516580110859
-0.004693523931883109   -0.01642538228901127   -0.0003429799730056422
-0.004372722806327509   -0.02017162261867665   -0.0004498167898238515
-0.006822654625684334   -0.016358520698747367   -0.0003547793350739455
-0.004693523931883109   -0.01642538228901127   -0.0003429799730056422
-0.006279259778403018   -0.020133641043466242   -0.0005182544626311501
-0.004372722806327509   -0.02017162261867665   -0.0004498167898238515
-0.004713826203892077   -0.016400436512200182   -0.0003214516580110859
-0.006280290868994139   -0.02011678531123838   -0.0004776951211667546
-0.004384364396677209   -0.02015704674561522   -0.0004227707250628908
-0.004713826203892077   -0.016400436512200182   -0.0003214516580110859
-0.006822654625684334   -0.016358520698747367   -0.0003547793350739455
-0.006280290868994139   -0.02011678531123838   -0.0004776951211667546
-0.006836300623783059   -0.016346431411325524   -0.0003204414455176698
-0.004384364396677209   -0.02015704674561522   -0.0004227707250628908
-0.006284306769861383   -0.020109577317896005   -0.0004342032211853997
-0.006836300623783059   -0.016346431411325524   -0.0003204414455176698
-0.006280290868994139   -0.02011678531123838   -0.0004776951211667546
-0.004384364396677209   -0.02015704674561522   -0.0004227707250628908
-0.006836300623783059   -0.016346431411325524   -0.0003204414455176698
-0.00473432595687003   -0.01638105643388885   -0.00029749081283295424
-0.004713826203892077   -0.016400436512200182   -0.0003214516580110859
-0.004384364396677209   -0.02015704674561522   -0.0004227707250628908
-0.006836300623783059   -0.016346431411325524   -0.0003204414455176698
-0.004713826203892077   -0.016400436512200182   -0.0003214516580110859
-0.006280290868994139   -0.02011678531123838   -0.0004776951211667546
-0.006268050656413275   -0.020158884043986178   -0.0005563966373994482
-0.006789613453852228   -0.016399703257789715   -0.0004159812760751485
-0.00836281239413797   -0.020068607341880318   -0.0006083090975713242
-0.006279259778403018   -0.020133641043466242   -0.0005182544626311501
-0.006789613453852228   -0.016399703257789715   -0.0004159812760751485
-0.009064603293986402   -0.016330158524724886   -0.00045866938620560556
-0.00836281239413797   -0.020068607341880318   -0.0006083090975713242
-0.00904758380238248   -0.016310896248409392   -0.00041907735496296496
-0.006279259778403018   -0.020133641043466242   -0.0005182544626311501
-0.008321281272548381   -0.02004554326490168   -0.0005524383164528968
-0.00904758380238248   -0.016310896248409392   -0.00041907735496296496
-0.00836281239413797   -0.020068607341880318   -0.0006083090975713242
-0.006279259778403018   -0.020133641043466242   -0.0005182544626311501
-0.00904758380238248   -0.016310896248409392   -0.00041907735496296496
-0.0068103588142282715   -0.016376671784694673   -0.0003864758340658497
-0.006789613453852228   -0.016399703257789715   -0.0004159812760751485
-0.006279259778403018   -0.020133641043466242   -0.0005182544626311501
-0.00904758380238248   -0.016310896248409392   -0.00041907735496296496
-0.006789613453852228   -0.016399703257789715   -0.0004159812760751485
-0.00836281239413797   -0.020068607341880318   -0.0006083090975713242
-0.006279259778403018   -0.020133641043466242   -0.0005182544626311501
-0.0068103588142282715   -0.016376671784694673   -0.0003864758340658497
-0.008321281272548381   -0.02004554326490168   -0.0005524383164528968
-0.006280290868994139   -0.02011678531123838   -0.0004776951211667546
-0.0068103588142282715   -0.016376671784694673   -0.0003864758340658497
-0.00904758380238248   -0.016310896248409392   -0.00041907735496296496
-0.008321281272548381   -0.02004554326490168   -0.0005524383164528968
-0.009033695163415472   -0.016295951529755288   -0.0003754638862727074
-0.006280290868994139   -0.02011678531123838   -0.0004776951211667546
-0.008286354561193013   -0.020031476645919578   -0.0004923373870551583
-0.009033695163415472   -0.016295951529755288   -0.0003754638862727074
-0.008321281272548381   -0.02004554326490168   -0.0005524383164528968
-0.006280290868994139   -0.02011678531123838   -0.0004776951211667546
-0.009033695163415472   -0.016295951529755288   -0.0003754638862727074
-0.006822654625684334   -0.016358520698747367   -0.0003547793350739455
-0.0068103588142282715   -0.016376671784694673   -0.0003864758340658497
-0.006280290868994139   -0.02011678531123838   -0.0004776951211667546
-0.009033695163415472   -0.016295951529755288   -0.0003754638862727074
-0.0068103588142282715   -0.016376671784694673   -0.0003864758340658497
-0.008321281272548381   -0.02004554326490168   -0.0005524383164528968
-0.006280290868994139   -0.02011678531123838   -0.0004776951211667546
-0.006822654625684334   -0.016358520698747367   -0.0003547793350739455
-0.008286354561193013   -0.020031476645919578   -0.0004923373870551583
-0.006284306769861383   -0.020109577317896005   -0.0004342032211853997
-0.006822654625684334   -0.016358520698747367   -0.0003547793350739455
-0.009033695163415472   -0.016295951529755288   -0.0003754638862727074
-0.008286354561193013   -0.020031476645919578   -0.0004923373870551583
-0.009001688317956957   -0.01629267623207594   -0.00032828590601322234
-0.006284306769861383   -0.020109577317896005   -0.0004342032211853997
-0.008229241911956233   -0.020033726266398596   -0.00042853666080244925
-0.009001688317956957   -0.01629267623207594   -0.00032828590601322234
-0.008286354561193013   -0.020031476645919578   -0.0004923373870551583
-0.006284306769861383   -0.020109577317896005   -0.0004342032211853997
-0.009001688317956957   -0.01629267623207594   -0.00032828590601322234
-0.006836300623783059   -0.016346431411325524   -0.0003204414455176698
-0.006822654625684334   -0.016358520698747367   -0.0003547793350739455
-0.006284306769861383   -0.020109577317896005   -0.0004342032211853997
-0.009001688317956957   -0.01629267623207594   -0.00032828590601322234
-0.006822654625684334   -0.016358520698747367   -0.0003547793350739455
-0.008286354561193013   -0.020031476645919578   -0.0004923373870551583
0.001733472216418828   -0.0165129253587738   -0.00011918110886353277
0.0018048311691160582   -0.012498991191737356   -2.030674136525933e-05
-0.0004809980721898461   -0.01651329781107017   -0.0002160805428463052
0.00172854084280033   -0.01645978306734899   -0.00013572475859485478
0.0018048311691160582   -0.012498991191737356   -2.030674136525933e-05
-0.0005416251333360147   -0.0124791209603271   -0.00010704424084759679
-0.0004809980721898461   -0.01651329781107017   -0.0002160805428463052
-0.0005682492369740417   -0.01243527745096435   -9.935078194534952e-05
0.00172854084280033   -0.01645978306734899   -0.00013572475859485478
-0.0005001834845643171   -0.016467350577192258   -0.00021795763579011225
-0.0005682492369740417   -0.01243527745096435   -9.935078194534952e-05
-0.0004809980721898461   -0.01651329781107017   -0.0002160805428463052
0.00172854084280033   -0.01645978306734899   -0.00013572475859485478
-0.0005682492369740417   -0.01243527745096435   -9.935078194534952e-05
0.0017773792350235988   -0.012448429701182045   -1.9596863005117225e-05
0.0018048311691160582   -0.012498991191737356   -2.030674136525933e-05
0.00172854084280033   -0.01645978306734899   -0.00013572475859485478
-0.0005682492369740417   -0.01243527745096435   -9.935078194534952e-05
0.0018048311691160582   -0.012498991191737356   -2.030674136525933e-05
-0.0004809980721898461   -0.01651329781107017   -0.0002160805428463052
0.00172854084280033   -0.01645978306734899   -0.00013572475859485478
0.0017773792350235988   -0.012448429701182045   -1.9596863005117225e-05
-0.0005001834845643171   -0.016467350577192258   -0.00021795763579011225
0.0017138261825023777   -0.01641761776836017   -0.00014829365190033975
0.0017773792350235988   -0.012448429701182045   -1.9596863005117225e-05
-0.0005682492369740417   -0.01243527745096435   -9.935078194534952e-05
-0.0005001834845643171   -0.016467350577192258   -0.00021795763579011225
-0.000598792607403347   -0.012394213726859673   -8.938866406760996e-05
0.0017138261825023777   -0.01641761776836017   -0.00014829365190033975
-0.0005215135048171718   -0.016428244542312   -0.0002173549840783703
-0.000598792607403347   -0.012394213726859673   -8.938866406760996e-05
-0.0005001834845643171   -0.016467350577192258   -0.00021795763579011225
0.0017138261825023777   -0.01641761776836017   -0.00014829365190033975
-0.000598792607403347   -0.012394213726859673   -8.938866406760996e-05
0.0017430592516092336   -0.012403728866174963   -1.4265141179551378e-05
0.0017773792350235988   -0.012448429701182045   -1.9596863005117225e-05
0.0017138261825023777   -0.01641761776836017   -0.00014829365190033975
-0.000598792607403347   -0.012394213726859673   -8.938866406760996e-05
0.0017773792350235988   -0.012448429701182045   -1.9596863005117225e-05
-0.0005001834845643171   -0.016467350577192258   -0.00021795763579011225
0.0017138261825023777   -0.01641761776836017   -0.00014829365190033975
0.0017430592516092336   -0.012403728866174963   -1.4265141179551378e-05
-0.0005215135048171718   -0.016428244542312   -0.0002173549840783703
0.0016930676079103034   -0.016379289513480298   -0.00015716559873207755
0.0017430592516092336   -0.012403728866174963   -1.4265141179551378e-05
-0.000598792607403347   -0.012394213726859673   -8.938866406760996e-05
-0.0005215135048171718   -0.016428244542312   -0.0002173549840783703
-0.0006332285251095929   -0.01235535155582787   -7.65918618803192e-05
0.0016930676079103034   -0.016379289513480298   -0.00015716559873207755
-0.0005482083510776406   -0.016394930904128985   -0.00021417482494100494
-0.0006332285251095929   -0.01235535155582787   -7.65918618803192e-05
-0.0005215135048171718   -0.016428244542312   -0.0002173549840783703
0.0016930676079103034   -0.016379289513480298   -0.00015716559873207755
-0.0006332285251095929   -0.01235535155582787   -7.65918618803192e-05
0.0016976546459751423   -0.012357211487576378   -4.51648660392868e-06
0.0017430592516092336   -0.012403728866174963   -1.4265141179551378e-05
0.0016930676079103034   -0.016379289513480298   -0.00015716559873207755
-0.0006332285251095929   -0.01235535155582787   -7.65918618803192e-05
0.0017430592516092336   -0.012403728866174963   -1.4265141179551378e-05
-0.0005215135048171718   -0.016428244542312   -0.0002173549840783703
-0.0004809980721898461   -0.01651329781107017   -0.0002160805428463052
-0.0005416251333360147   -0.0124791209603271   -0.00010704424084759679
-0.002593896884180288   -0.016493458706842153   -0.00029541213801279374
-0.0005001834845643171   -0.016467350577192258   -0.00021795763579011225
-0.0005416251333360147   -0.0124791209603271   -0.00010704424084759679
-0.002764797063203461   -0.012455171907929368   -0.00017978495861016726
-0.002593896884180288   -0.016493458706842153   -0.00029541213801279374
-0.0027921599060660683   -0.01241879780347676   -0.0001674850428652546
-0.0005001834845643171   -0.016467350577192258   -0.00021795763579011225
-0.00261559903199882   -0.01645558476056862   -0.00028683042143140335
-0.0027921599060660683   -0.01241879780347676   -0.0001674850428652546
-0.002593896884180288   -0.016493458706842153   -0.00029541213801279374
-0.0005001834845643171   -0.016467350577192258   -0.00021795763579011225
-0.0027921599060660683   -0.01241879780347676   -0.0001674850428652546
-0.0005682492369740417   -0.01243527745096435   -9.935078194534952e-05
-0.0005416251333360147   -0.0124791209603271   -0.00010704424084759679
-0.0005001834845643171   -0.016467350577192258   -0.00021795763579011225
-0.0027921599060660683   -0.01241879780347676   -0.0001674850428652546
-0.0005416251333360147   -0.0124791209603271   -0.00010704424084759679
-0.002593896884180288   -0.016493458706842153   -0.00029541213801279374
-0.0005001834845643171   -0.016467350577192258   -0.00021795763579011225
-0.0005682492369740417   -0.01243527745096435   -9.935078194534952e-05
-0.00261559903199882   -0.01645558476056862   -0.00028683042143140335
-0.0005215135048171718   -0.016428244542312   -0.0002173549840783703
-0.0005682492369740417   -0.01243527745096435   -9.935078194534952e-05
-0.0027921599060660683   -0.01241879780347676   -0.0001674850428652546
-0.00261559903199882   -0.01645558476056862   -0.00028683042143140335
-0.0028201595772626227   -0.012384574351775398   -0.00015301232607389025
-0.0005215135048171718   -0.016428244542312   -0.0002173549840783703
-0.002637752735344165   -0.01642327843712947   -0.0002756599135899436
-0.0028201595772626227   -0.012384574351775398   -0.00015301232607389025
-0.00261559903199882   -0.01645558476056862   -0.00028683042143140335
-0.0005215135048171718   -0.016428244542312   -0.0002173549840783703
-0.0028201595772626227   -0.012384574351775398   -0.00015301232607389025
-0.000598792607403347   -0.012394213726859673   -8.938866406760996e-05
-0.0005682492369740417   -0.01243527745096435   -9.935078194534952e-05
-0.0005215135048171718   -0.016428244542312   -0.0002173549840783703
-0.0028201595772626227   -0.012384574351775398   -0.00015301232607389025
-0.0005682492369740417   -0.01243527745096435   -9.935078194534952e-05
-0.00261559903199882   -0.01645558476056862   -0.00028683042143140335
-0.0005215135048171718   -0.016428244542312   -0.0002173549840783703
-0.000598792607403347   -0.012394213726859673   -8.938866406760996e-05
-0.002637752735344165   -0.01642327843712947   -0.0002756599135899436
-0.0005482083510776406   -0.016394930904128985   -0.00021417482494100494
-0.000598792607403347   -0.012394213726859673   -8.938866406760996e-05
-0.0028201595772626227   -0.012384574351775398   -0.00015301232607389025
-0.002637752735344165   -0.01642327843712947   -0.0002756599135899436
-0.002849977016898462   -0.012353064744094826   -0.00013635170806528395
-0.0005482083510776406   -0.016394930904128985   -0.00021417482494100494
-0.002661816390587084   -0.016396861715970917   -0.0002620285848711186
-0.002849977016898462   -0.012353064744094826   -0.00013635170806528395
-0.002637752735344165   -0.01642327843712947   -0.0002756599135899436
-0.0005482083510776406   -0.016394930904128985   -0.00021417482494100494
-0.002849977016898462   -0.012353064744094826   -0.00013635170806528395
-0.0006332285251095929   -0.01235535155582787   -7.65918618803192e-05
-0.000598792607403347   -0.012394213726859673   -8.938866406760996e-05
-0.0005482083510776406   -0.016394930904128985   -0.00021417482494100494
-0.002849977016898462   -0.012353064744094826   -0.00013635170806528395
-0.000598792607403347   -0.012394213726859673   -8.938866406760996e-05
-0.002637752735344165   -0.01642327843712947   -0.0002756599135899436
-0.002593896884180288   -0.016493458706842153   -0.00029541213801279374
-0.002764797063203461   -0.012455171907929368   -0.00017978495861016726
-0.004671104092491846   -0.016455856524176776   -0.00036198193710759366
-0.00261559903199882   -0.01645558476056862   -0.00028683042143140335
-0.002764797063203461   -0.012455171907929368   -0.00017978495861016726
-0.004951390381896402   -0.012426090788096306   -0.0002411646152998538
-0.004671104092491846   -0.016455856524176776   -0.00036198193710759366
-0.004978634650980537   -0.012396595220568504   -0.0002242927664513654
-0.00261559903199882   -0.01645558476056862   -0.00028683042143140335
-0.004693523931883109   -0.01642538228901127   -0.0003429799730056422
-0.004978634650980537   -0.012396595220568504   -0.0002242927664513654
-0.004671104092491846   -0.016455856524176776   -0.00036198193710759366
-0.00261559903199882   -0.01645558476056862   -0.00028683042143140335
-0.004978634650980537   -0.012396595220568504   -0.0002242927664513654
-0.0027921599060660683   -0.01241879780347676   -0.0001674850428652546
-0.002764797063203461   -0.012455171907929368   -0.00017978495861016726
-0.00261559903199882   -0.01645558476056862   -0.00028683042143140335
-0.004978634650980537   -0.012396595220568504   -0.0002242927664513654
-0.002764797063203461   -0.012455171907929368   -0.00017978495861016726
-0.004671104092491846   -0.016455856524176776   -0.00036198193710759366
-0.00261559903199882   -0.01645558476056862   -0.00028683042143140335
-0.0027921599060660683   -0.01241879780347676   -0.0001674850428652546
-0.004693523931883109   -0.01642538228901127   -0.0003429799730056422
-0.002637752735344165   -0.01642327843712947   -0.0002756599135899436
-0.0027921599060660683   -0.01241879780347676   -0.0001674850428652546
-0.004978634650980537   -0.012396595220568504   -0.0002242927664513654
-0.004693523931883109   -0.01642538228901127   -0.0003429799730056422
-0.005004093632619828   -0.01236935823050902   -0.00020532189586714334
-0.002637752735344165   -0.01642327843712947   -0.0002756599135899436
-0.004713826203892077   -0.016400436512200182   -0.0003214516580110859
-0.005004093632619828   -0.01236935823050902   -0.00020532189586714334
-0.004693523931883109   -0.01642538228901127   -0.0003429799730056422
-0.002637752735344165   -0.01642327843712947   -0.0002756599135899436
-0.005004093632619828   -0.01236935823050902   -0.00020532189586714334
-0.0028201595772626227   -0.012384574351775398   -0.00015301232607389025
-0.0027921599060660683   -0.01241879780347676   -0.0001674850428652546
-0.002637752735344165   -0.01642327843712947   -0.0002756599135899436
-0.005004093632619828   -0.01236935823050902   -0.00020532189586714334
-0.0027921599060660683   -0.01241879780347676   -0.0001674850428652546
-0.004693523931883109   -0.01642538228901127   -0.0003429799730056422
-0.002637752735344165   -0.01642327843712947   -0.0002756599135899436
-0.0028201595772626227   -0.012384574351775398   -0.00015301232607389025
-0.004713826203892077   -0.016400436512200182   -0.0003214516580110859
-0.002661816390587084   -0.016396861715970917   -0.0002620285848711186
-0.0028201595772626227   -0.012384574351775398   -0.00015301232607389025
-0.005004093632619828   -0.01236935823050902   -0.00020532189586714334
-0.004713826203892077   -0.016400436512200182   -0.0003214516580110859
-0.00502964442435797   -0.012344450164700914   -0.00018435347450701178
-0.002661816390587084   -0.016396861715970917   -0.0002620285848711186
-0.00473432595687003   -0.01638105643388885   -0.00029749081283295424
-0.00502964442435797   -0.012344450164700914   -0.00018435347450701178
-0.004713826203892077   -0.016400436512200182   -0.0003214516580110859
-0.002661816390587084   -0.016396861715970917   -0.0002620285848711186
-0.00502964442435797   -0.012344450164700914   -0.00018435347450701178
-0.002849977016898462   -0.012353064744094826   -0.00013635170806528395
-0.0028201595772626227   -0.012384574351775398   -0.00015301232607389025
-0.002661816390587084   -0.016396861715970917   -0.0002620285848711186
-0.00502964442435797   -0.012344450164700914   -0.00018435347450701178
-0.0028201595772626227   -0.012384574351775398   -0.00015301232607389025
-0.004713826203892077   -0.016400436512200182   -0.0003214516580110859
-0.004671104092491846   -0.016455856524176776   -0.00036198193710759366
-0.004951390381896402   -0.012426090788096306   -0.0002411646152998538
-0.006789613453852228   -0.016399703257789715   -0.0004159812760751485
-0.004693523931883109   -0.01642538228901127   -0.0003429799730056422
-0.004951390381896402   -0.012426090788096306   -0.0002411646152998538
-0.00717772575594045   -0.012386541556417661   -0.000290652552633818
-0.006789613453852228   -0.016399703257789715   -0.0004159812760751485
-0.007203783540925922   -0.01236427751567981   -0.0002692648399710991
-0.004693523931883109   -0.01642538228901127   -0.0003429799730056422
-0.0068103588142282715   -0.016376671784694673   -0.0003864758340658497
-0.007203783540925922   -0.01236427751567981   -0.0002692648399710991
-0.006789613453852228   -0.016399703257789715   -0.0004159812760751485
-0.004693523931883109   -0.01642538228901127   -0.0003429799730056422
-0.007203783540925922   -0.01236427751567981   -0.0002692648399710991
-0.004978634650980537   -0.012396595220568504   -0.0002242927664513654
-0.004951390381896402   -0.012426090788096306   -0.0002411646152998538
-0.004693523931883109   -0.01642538228901127   -0.0003429799730056422
-0.007203783540925922   -0.01236427751567981   -0.0002692648399710991
-0.004951390381896402   -0.012426090788096306   -0.0002411646152998538
-0.006789613453852228   -0.016399703257789715   -0.0004159812760751485
-0.004693523931883109   -0.01642538228901127   -0.0003429799730056422
-0.004978634650980537   -0.012396595220568504   -0.0002242927664513654
-0.0068103588142282715   -0.016376671784694673   -0.0003864758340658497
-0.004713826203892077   -0.016400436512200182   -0.0003214516580110859
-0.004978634650980537   -0.012396595220568504   -0.0002242927664513654
-0.007203783540925922   -0.01236427751567981   -0.0002692648399710991
-0.0068103588142282715   -0.016376671784694673   -0.0003864758340658497
-0.00722335201004571   -0.012343495582268485   -0.0002461127650555501
-0.004713826203892077   -0.016400436512200182   -0.0003214516580110859
-0.006822654625684334   -0.016358520698747367   -0.0003547793350739455
-0.00722335201004571   -0.012343495582268485   -0.0002461127650555501
-0.0068103588142282715   -0.016376671784694673   -0.0003864758340658497
-0.004713826203892077   -0.016400436512200182   -0.0003214516580110859
-0.00722335201004571   -0.012343495582268485   -0.0002461127650555501
-0.005004093632619828   -0.01236935823050902   -0.00020532189586714334
-0.004978634650980537   -0.012396595220568504   -0.0002242927664513654
-0.004713826203892077   -0.016400436512200182   -0.0003214516580110859
-0.00722335201004571   -0.012343495582268485   -0.0002461127650555501
-0.004978634650980537   -0.012396595220568504   -0.0002242927664513654
-0.0068103588142282715   -0.016376671784694673   -0.0003864758340658497
-0.004713826203892077   -0.016400436512200182   -0.0003214516580110859
-0.005004093632619828   -0.01236935823050902   -0.00020532189586714334
-0.006822654625684334   -0.016358520698747367   -0.0003547793350739455
-0.00473432595687003   -0.01638105643388885   -0.00029749081283295424
-0.005004093632619828   -0.01236935823050902   -0.00020532189586714334
-0.00722335201004571   -0.012343495582268485   -0.0002461127650555501
-0.006822654625684334   -0.016358520698747367   -0.0003547793350739455
-0.007242812278289208   -0.012325186441917347   -0.00022074631243244622
-0.00473432595687003   -0.01638105643388885   -0.00029749081283295424
-0.006836300623783059   -0.016346431411325524   -0.0003204414455176698
-0.007242812278289208   -0.012325186441917347   -0.00022074631243244622
-0.006822654625684334   -0.016358520698747367   -0.0003547793350739455
-0.00473432595687003   -0.01638105643388885   -0.00029749081283295424
-0.007242812278289208   -0.012325186441917347   -0.00022074631243244622
-0.00502964442435797   -0.012344450164700914   -0.00018435347450701178
-0.005004093632619828   -0.01236935823050902   -0.00020532189586714334
-0.00473432595687003   -0.01638105643388885   -0.00029749081283295424
-0.007242812278289208   -0.012325186441917347   -0.00022074631243244622
-0.005004093632619828   -0.01236935823050902   -0.00020532189586714334
-0.006822654625684334   -0.016358520698747367   -0.0003547793350739455
-0.006789613453852228   -0.016399703257789715   -0.0004159812760751485
-0.00717772575594045   -0.012386541556417661   -0.000290652552633818
-0.009064603293986402   -0.016330158524724886   -0.00045866938620560556
-0.0068103588142282715   -0.016376671784694673   -0.0003864758340658497
-0.00717772575594045   -0.012386541556417661   -0.000290652552633818
-0.009539150149049743   -0.012339408487991761   -0.00032682463875862144
-0.009064603293986402   -0.016330158524724886   -0.00045866938620560556
-0.009542059619000858   -0.012321950382161509   -0.0003028557100727966
-0.0068103588142282715   -0.016376671784694673   -0.0003864758340658497
-0.00904758380238248   -0.016310896248409392   -0.00041907735496296496
-0.009542059619000858   -0.012321950382161509   -0.0003028557100727966
-0.009064603293986402   -0.016330158524724886   -0.00045866938620560556
-0.0068103588142282715   -0.016376671784694673   -0.0003864758340658497
-0.009542059619000858   -0.012321950382161509   -0.0003028557100727966
-0.007203783540925922   -0.01236427751567981   -0.0002692648399710991
-0.00717772575594045   -0.012386541556417661   -0.000290652552633818
-0.0068103588142282715   -0.016376671784694673   -0.0003864758340658497
-0.009542059619000858   -0.012321950382161509   -0.0003028557100727966
-0.00717772575594045   -0.012386541556417661   -0.000290652552633818
-0.009064603293986402   -0.016330158524724886   -0.00045866938620560556
-0.0068103588142282715   -0.016376671784694673   -0.0003864758340658497
-0.007203783540925922   -0.01236427751567981   -0.0002692648399710991
-0.00904758380238248   -0.016310896248409392   -0.00041907735496296496
-0.006822654625684334   -0.016358520698747367   -0.0003547793350739455
-0.007203783540925922   -0.01236427751567981   -0.0002692648399710991
-0.009542059619000858   -0.012321950382161509   -0.0003028557100727966
-0.00904758380238248   -0.016310896248409392   -0.00041907735496296496
-0.009545228814119719   -0.012304488631561849   -0.00027534759926866345
-0.006822654625684334   -0.016358520698747367   -0.0003547793350739455
-0.009033695163415472   -0.016295951529755288   -0.0003754638862727074
-0.009545228814119719   -0.012304488631561849   -0.00027534759926866345
-0.00904758380238248   -0.016310896248409392   -0.00041907735496296496
-0.006822654625684334   -0.016358520698747367   -0.0003547793350739455
-0.009545228814119719   -0.012304488631561849   -0.00027534759926866345
-0.00722335201004571   -0.012343495582268485   -0.0002461127650555501
-0.007203783540925922   -0.01236427751567981   -0.0002692648399710991
-0.006822654625684334   -0.016358520698747367   -0.0003547793350739455
-0.009545228814119719   -0.012304488631561849   -0.00027534759926866345
-0.007203783540925922   -0.01236427751567981   -0.0002692648399710991
-0.00904758380238248   -0.016310896248409392   -0.00041907735496296496
-0.006822654625684334   -0.016358520698747367   -0.0003547793350739455
-0.00722335201004571   -0.012343495582268485   -0.0002461127650555501
-0.009033695163415472   -0.016295951529755288   -0.0003754638862727074
-0.006836300623783059   -0.016346431411325524   -0.0003204414455176698
-0.00722335201004571   -0.012343495582268485   -0.0002461127650555501
-0.009545228814119719   -0.012304488631561849   -0.00027534759926866345
-0.009033695163415472   -0.016295951529755288   -0.0003754638862727074
-0.009534827364962042   -0.012293900219636061   -0.0002447126268927736
-0.006836300623783059   -0.016346431411325524   -0.0003204414455176698
-0.009001688317956957   -0.01629267623207594   -0.00032828590601322234
-0.009534827364962042   -0.012293900219636061   -0.0002447126268927736
-0.009033695163415472   -0.016295951529755288   -0.0003754638862727074
-0.006836300623783059   -0.016346431411325524   -0.0003204414455176698
-0.009534827364962042   -0.012293900219636061   -0.0002447126268927736
-0.007242812278289208   -0.012325186441917347   -0.00022074631243244622
-0.00722335201004571   -0.012343495582268485   -0.0002461127650555501
-0.006836300623783059   -0.016346431411325524   -0.0003204414455176698
-0.009534827364962042   -0.012293900219636061   -0.0002447126268927736
-0.00722335201004571   -0.012343495582268485   -0.0002461127650555501
-0.009033695163415472   -0.016295951529755288   -0.0003754638862727074
0.0018048311691160582   -0.012498991191737356   -2.030674136525933e-05
0.0016265302055731609   -0.008354502436500249   4.805602045302879e-05
-0.0005416251333360147   -0.0124791209603271   -0.00010704424084759679
0.0017773792350235988   -0.012448429701182045   -1.9596863005117225e-05
0.0016265302055731609   -0.008354502436500249   4.805602045302879e-05
-0.0007435827500165334   -0.008316210787291197   -2.0058746797196118e-05
-0.0005416251333360147   -0.0124791209603271   -0.00010704424084759679
-0.0007757513237504126   -0.008276729212227957   -3.4552349577222176e-06
0.0017773792350235988   -0.012448429701182045   -1.9596863005117225e-05
-0.0005682492369740417   -0.01243527745096435   -9.935078194534952e-05
-0.0007757513237504126   -0.008276729212227957   -3.4552349577222176e-06
-0.0005416251333360147   -0.0124791209603271   -0.00010704424084759679
0.0017773792350235988   -0.012448429701182045   -1.9596863005117225e-05
-0.0007757513237504126   -0.008276729212227957   -3.4552349577222176e-06
0.0015764344266592553   -0.00830649344531971   6.823365828736107e-05
0.0016265302055731609   -0.008354502436500249   4.805602045302879e-05
0.0017773792350235988   -0.012448429701182045   -1.9596863005117225e-05
-0.0007757513237504126   -0.008276729212227957   -3.4552349577222176e-06
0.0016265302055731609   -0.008354502436500249   4.805602045302879e-05
-0.0005416251333360147   -0.0124791209603271   -0.00010704424084759679
0.0017773792350235988   -0.012448429701182045   -1.9596863005117225e-05
0.0015764344266592553   -0.00830649344531971   6.823365828736107e-05
-0.0005682492369740417   -0.01243527745096435   -9.935078194534952e-05
0.0017430592516092336   -0.012403728866174963   -1.4265141179551378e-05
0.0015764344266592553   -0.00830649344531971   6.823365828736107e-05
-0.0007757513237504126   -0.008276729212227957   -3.4552349577222176e-06
-0.0005682492369740417   -0.01243527745096435   -9.935078194534952e-05
-0.0008134773965059025   -0.008235183224078844   1.617724065747502e-05
0.0017430592516092336   -0.012403728866174963   -1.4265141179551378e-05
-0.000598792607403347   -0.012394213726859673   -8.938866406760996e-05
-0.0008134773965059025   -0.008235183224078844   1.617724065747502e-05
-0.0005682492369740417   -0.01243527745096435   -9.935078194534952e-05
0.0017430592516092336   -0.012403728866174963   -1.4265141179551378e-05
-0.0008134773965059025   -0.008235183224078844   1.617724065747502e-05
0.0015200102687068057   -0.008259112422423118   9.76572680656029e-05
0.0015764344266592553   -0.00830649344531971   6.823365828736107e-05
0.0017430592516092336   -0.012403728866174963   -1.4265141179551378e-05
-0.0008134773965059025   -0.008235183224078844   1.617724065747502e-05
0.0015764344266592553   -0.00830649344531971   6.823365828736107e-05
-0.0005682492369740417   -0.01243527745096435   -9.935078194534952e-05
0.0017430592516092336   -0.012403728866174963   -1.4265141179551378e-05
0.0015200102687068057   -0.008259112422423118   9.76572680656029e-05
-0.000598792607403347   -0.012394213726859673   -8.938866406760996e-05
0.0016976546459751423   -0.012357211487576378   -4.51648660392868e-06
0.0015200102687068057   -0.008259112422423118   9.76572680656029e-05
-0.0008134773965059025   -0.008235183224078844   1.617724065747502e-05
-0.000598792607403347   -0.012394213726859673   -8.938866406760996e-05
-0.0008526120106909089   -0.008191181740678928   3.88133399434853e-05
0.0016976546459751423   -0.012357211487576378   -4.51648660392868e-06
-0.0006332285251095929   -0.01235535155582787   -7.65918618803192e-05
-0.0008526120106909089   -0.008191181740678928   3.88133399434853e-05
-0.000598792607403347   -0.012394213726859673   -8.938866406760996e-05
0.0016976546459751423   -0.012357211487576378   -4.51648660392868e-06
-0.0008526120106909089   -0.008191181740678928   3.88133399434853e-05
0.0014510196362369147   -0.008200792303340448   0.00013011081788254924
0.0015200102687068057   -0.008259112422423118   9.76572680656029e-05
0.0016976546459751423   -0.012357211487576378   -4.51648660392868e-06
-0.0008526120106909089   -0.008191181740678928   3.88133399434853e-05
0.0015200102687068057   -0.008259112422423118   9.76572680656029e-05
-0.000598792607403347   -0.012394213726859673   -8.938866406760996e-05
-0.0005416251333360147   -0.0124791209603271   -0.00010704424084759679
-0.0007435827500165334   -0.008316210787291197   -2.0058746797196118e-05
-0.002764797063203461   -0.012455171907929368   -0.00017978495861016726
-0.0005682492369740417   -0.01243527745096435   -9.935078194534952e-05
-0.0007435827500165334   -0.008316210787291197   -2.0058746797196118e-05
-0.0029737728830231884   -0.008306260621715713   -8.535407164876335e-05
-0.002764797063203461   -0.012455171907929368   -0.00017978495861016726
-0.0030030379434355615   -0.00827207588150423   -6.966865683251128e-05
-0.0005682492369740417   -0.01243527745096435   -9.935078194534952e-05
-0.0027921599060660683   -0.01241879780347676   -0.0001674850428652546
-0.0030030379434355615   -0.00827207588150423   -6.966865683251128e-05
-0.002764797063203461   -0.012455171907929368   -0.00017978495861016726
-0.0005682492369740417   -0.01243527745096435   -9.935078194534952e-05
-0.0030030379434355615   -0.00827207588150423   -6.966865683251128e-05
-0.0007757513237504126   -0.008276729212227957   -3.4552349577222176e-06
-0.0007435827500165334   -0.008316210787291197   -2.0058746797196118e-05
-0.0005682492369740417   -0.01243527745096435   -9.935078194534952e-05
-0.0030030379434355615   -0.00827207588150423   -6.966865683251128e-05
-0.0007435827500165334   -0.008316210787291197   -2.0058746797196118e-05
-0.002764797063203461   -0.012455171907929368   -0.00017978495861016726
-0.0005682492369740417   -0.01243527745096435   -9.935078194534952e-05
-0.0007757513237504126   -0.008276729212227957   -3.4552349577222176e-06
-0.0027921599060660683   -0.01241879780347676   -0.0001674850428652546
-0.000598792607403347   -0.012394213726859673   -8.938866406760996e-05
-0.0007757513237504126   -0.008276729212227957   -3.4552349577222176e-06
-0.0030030379434355615   -0.00827207588150423   -6.966865683251128e-05
-0.0027921599060660683   -0.01241879780347676   -0.0001674850428652546
-0.0030333578236945396   -0.008236565302896055   -5.238181071916421e-05
-0.000598792607403347   -0.012394213726859673   -8.938866406760996e-05
-0.0028201595772626227   -0.012384574351775398   -0.00015301232607389025
-0.0030333578236945396   -0.008236565302896055   -5.238181071916421e-05
-0.0027921599060660683   -0.01241879780347676   -0.0001674850428652546
-0.000598792607403347   -0.012394213726859673   -8.938866406760996e-05
-0.0030333578236945396   -0.008236565302896055   -5.238181071916421e-05
-0.0008134773965059025   -0.008235183224078844   1.617724065747502e-05
-0.0007757513237504126   -0.008276729212227957   -3.4552349577222176e-06
-0.000598792607403347   -0.012394213726859673   -8.938866406760996e-05
-0.0030333578236945396   -0.008236565302896055   -5.238181071916421e-05
-0.0007757513237504126   -0.008276729212227957   -3.4552349577222176e-06
-0.0027921599060660683   -0.01241879780347676   -0.0001674850428652546
-0.000598792607403347   -0.012394213726859673   -8.938866406760996e-05
-0.0008134773965059025   -0.008235183224078844   1.617724065747502e-05
-0.0028201595772626227   -0.012384574351775398   -0.00015301232607389025
-0.0006332285251095929   -0.01235535155582787   -7.65918618803192e-05
-0.0008134773965059025   -0.008235183224078844   1.617724065747502e-05
-0.0030333578236945396   -0.008236565302896055   -5.238181071916421e-05
-0.0028201595772626227   -0.012384574351775398   -0.00015301232607389025
-0.0030649700538338226   -0.008200429236834447   -3.318385111416052e-05
-0.0006332285251095929   -0.01235535155582787   -7.65918618803192e-05
-0.002849977016898462   -0.012353064744094826   -0.00013635170806528395
-0.0030649700538338226   -0.008200429236834447   -3.318385111416052e-05
-0.0028201595772626227   -0.012384574351775398   -0.00015301232607389025
-0.0006332285251095929   -0.01235535155582787   -7.65918618803192e-05
-0.0030649700538338226   -0.008200429236834447   -3.318385111416052e-05
-0.0008526120106909089   -0.008191181740678928   3.88133399434853e-05
-0.0008134773965059025   -0.008235183224078844   1.617724065747502e-05
-0.0006332285251095929   -0.01235535155582787   -7.65918618803192e-05
-0.0030649700538338226   -0.008200429236834447   -3.318385111416052e-05
-0.0008134773965059025   -0.008235183224078844   1.617724065747502e-05
-0.0028201595772626227   -0.012384574351775398   -0.00015301232607389025
-0.002764797063203461   -0.012455171907929368   -0.00017978495861016726
-0.0029737728830231884   -0.008306260621715713   -8.535407164876335e-05
-0.004951390381896402   -0.012426090788096306   -0.0002411646152998538
-0.0027921599060660683   -0.01241879780347676   -0.0001674850428652546
-0.0029737728830231884   -0.008306260621715713   -8.535407164876335e-05
-0.005179880320110367   -0.008303437020756015   -0.0001441500776527153
-0.004951390381896402   -0.012426090788096306   -0.0002411646152998538
-0.005207949475659502   -0.008273660515884787   -0.00012898369224633008
-0.0027921599060660683   -0.01241879780347676   -0.0001674850428652546
-0.004978634650980537   -0.012396595220568504   -0.0002242927664513654
-0.005207949475659502   -0.008273660515884787   -0.00012898369224633008
-0.004951390381896402   -0.012426090788096306   -0.0002411646152998538
-0.0027921599060660683   -0.01241879780347676   -0.0001674850428652546
-0.005207949475659502   -0.008273660515884787   -0.00012898369224633008
-0.0030030379434355615   -0.00827207588150423   -6.966865683251128e-05
-0.0029737728830231884   -0.008306260621715713   -8.535407164876335e-05
-0.0027921599060660683   -0.01241879780347676   -0.0001674850428652546
-0.005207949475659502   -0.008273660515884787   -0.00012898369224633008
-0.0029737728830231884   -0.008306260621715713   -8.535407164876335e-05
-0.004951390381896402   -0.012426090788096306   -0.0002411646152998538
-0.0027921599060660683   -0.01241879780347676   -0.0001674850428652546
-0.0030030379434355615   -0.00827207588150423   -6.966865683251128e-05
-0.004978634650980537   -0.012396595220568504   -0.0002242927664513654
-0.0028201595772626227   -0.012384574351775398   -0.00015301232607389025
-0.0030030379434355615   -0.00827207588150423   -6.966865683251128e-05
-0.005207949475659502   -0.008273660515884787   -0.00012898369224633008
-0.004978634650980537   -0.012396595220568504   -0.0002242927664513654
-0.0052346937271505025   -0.008243423674225439   -0.00011240935298225963
-0.0028201595772626227   -0.012384574351775398   -0.00015301232607389025
-0.005004093632619828   -0.01236935823050902   -0.00020532189586714334
-0.0052346937271505025   -0.008243423674225439   -0.00011240935298225963
-0.004978634650980537   -0.012396595220568504   -0.0002242927664513654
-0.0028201595772626227   -0.012384574351775398   -0.00015301232607389025
-0.0052346937271505025   -0.008243423674225439   -0.00011240935298225963
-0.0030333578236945396   -0.008236565302896055   -5.238181071916421e-05
-0.0030030379434355615   -0.00827207588150423   -6.966865683251128e-05
-0.0028201595772626227   -0.012384574351775398   -0.00015301232607389025
-0.0052346937271505025   -0.008243423674225439   -0.00011240935298225963
-0.0030030379434355615   -0.00827207588150423   -6.966865683251128e-05
-0.004978634650980537   -0.012396595220568504   -0.0002242927664513654
-0.0028201595772626227   -0.012384574351775398   -0.00015301232607389025
-0.0030333578236945396   -0.008236565302896055   -5.238181071916421e-05
-0.005004093632619828   -0.01236935823050902   -0.00020532189586714334
-0.002849977016898462   -0.012353064744094826   -0.00013635170806528395
-0.0030333578236945396   -0.008236565302896055   -5.238181071916421e-05
-0.0052346937271505025   -0.008243423674225439   -0.00011240935298225963
-0.005004093632619828   -0.01236935823050902   -0.00020532189586714334
-0.005261174027755394   -0.008212541838288932   -9.449974779878446e-05
-0.002849977016898462   -0.012353064744094826   -0.00013635170806528395
-0.00502964442435797   -0.012344450164700914   -0.00018435347450701178
-0.005261174027755394   -0.008212541838288932   -9.449974779878446e-05
-0.005004093632619828   -0.01236935823050902   -0.00020532189586714334
-0.002849977016898462   -0.012353064744094826   -0.00013635170806528395
-0.005261174027755394   -0.008212541838288932   -9.449974779878446e-05
-0.0030649700538338226   -0.008200429236834447   -3.318385111416052e-05
-0.0030333578236945396   -0.008236565302896055   -5.238181071916421e-05
-0.002849977016898462   -0.012353064744094826   -0.00013635170806528395
-0.005261174027755394   -0.008212541838288932   -9.449974779878446e-05
-0.0030333578236945396   -0.008236565302896055   -5.238181071916421e-05
-0.005004093632619828   -0.01236935823050902   -0.00020532189586714334
-0.004951390381896402   -0.012426090788096306   -0.0002411646152998538
-0.005179880320110367   -0.008303437020756015   -0.0001441500776527153
-0.00717772575594045   -0.012386541556417661   -0.000290652552633818
-0.004978634650980537   -0.012396595220568504   -0.0002242927664513654
-0.005179880320110367   -0.008303437020756015   -0.0001441500776527153
-0.007432902140647962   -0.00829033662865634   -0.00019309074967514687
-0.00717772575594045   -0.012386541556417661   -0.000290652552633818
-0.007459657781296699   -0.00826639041299877   -0.00017854562107492077
-0.004978634650980537   -0.012396595220568504   -0.0002242927664513654
-0.007203783540925922   -0.01236427751567981   -0.0002692648399710991
-0.007459657781296699   -0.00826639041299877   -0.00017854562107492077
-0.00717772575594045   -0.012386541556417661   -0.000290652552633818
-0.004978634650980537   -0.012396595220568504   -0.0002242927664513654
-0.007459657781296699   -0.00826639041299877   -0.00017854562107492077
-0.005207949475659502   -0.008273660515884787   -0.00012898369224633008
-0.005179880320110367   -0.008303437020756015   -0.0001441500776527153
-0.004978634650980537   -0.012396595220568504   -0.0002242927664513654
-0.007459657781296699   -0.00826639041299877   -0.00017854562107492077
-0.005179880320110367   -0.008303437020756015   -0.0001441500776527153
-0.00717772575594045   -0.012386541556417661   -0.000290652552633818
-0.004978634650980537   -0.012396595220568504   -0.0002242927664513654
-0.005207949475659502   -0.008273660515884787   -0.00012898369224633008
-0.007203783540925922   -0.01236427751567981   -0.0002692648399710991
-0.005004093632619828   -0.01236935823050902   -0.00020532189586714334
-0.005207949475659502   -0.008273660515884787   -0.00012898369224633008
-0.007459657781296699   -0.00826639041299877   -0.00017854562107492077
-0.007203783540925922   -0.01236427751567981   -0.0002692648399710991
-0.007482226952443682   -0.008241158505575968   -0.00016297843214157874
-0.005004093632619828   -0.01236935823050902   -0.00020532189586714334
-0.00722335201004571   -0.012343495582268485   -0.0002461127650555501
-0.007482226952443682   -0.008241158505575968   -0.00016297843214157874
-0.007203783540925922   -0.01236427751567981   -0.0002692648399710991
-0.005004093632619828   -0.01236935823050902   -0.00020532189586714334
-0.007482226952443682   -0.008241158505575968   -0.00016297843214157874
-0.0052346937271505025   -0.008243423674225439   -0.00011240935298225963
-0.005207949475659502   -0.008273660515884787   -0.00012898369224633008
-0.005004093632619828   -0.01236935823050902   -0.00020532189586714334
-0.007482226952443682   -0.008241158505575968   -0.00016297843214157874
-0.005207949475659502   -0.008273660515884787   -0.00012898369224633008
-0.007203783540925922   -0.01236427751567981   -0.0002692648399710991
-0.005004093632619828   -0.01236935823050902   -0.00020532189586714334
-0.0052346937271505025   -0.008243423674225439   -0.00011240935298225963
-0.00722335201004571   -0.012343495582268485   -0.0002461127650555501
-0.00502964442435797   -0.012344450164700914   -0.00018435347450701178
-0.0052346937271505025   -0.008243423674225439   -0.00011240935298225963
-0.007482226952443682   -0.008241158505575968   -0.00016297843214157874
-0.00722335201004571   -0.012343495582268485   -0.0002461127650555501
-0.00750355235667395   -0.008215330199958912   -0.0001459652102006501
-0.00502964442435797   -0.012344450164700914   -0.00018435347450701178
-0.007242812278289208   -0.012325186441917347   -0.00022074631243244622
-0.00750355235667395   -0.008215330199958912   -0.0001459652102006501
-0.00722335201004571   -0.012343495582268485   -0.0002461127650555501
-0.00502964442435797   -0.012344450164700914   -0.00018435347450701178
-0.00750355235667395   -0.008215330199958912   -0.0001459652102006501
-0.005261174027755394   -0.008212541838288932   -9.449974779878446e-05
-0.0052346937271505025   -0.008243423674225439   -0.00011240935298225963
-0.00502964442435797   -0.012344450164700914   -0.00018435347450701178
-0.00750355235667395   -0.008215330199958912   -0.0001459652102006501
-0.0052346937271505025   -0.008243423674225439   -0.00011240935298225963
-0.00722335201004571   -0.012343495582268485   -0.0002461127650555501
-0.00717772575594045   -0.012386541556417661   -0.000290652552633818
-0.007432902140647962   -0.00829033662865634   -0.00019309074967514687
-0.009539150149049743   -0.012339408487991761   -0.00032682463875862144
-0.007203783540925922   -0.01236427751567981   -0.0002692648399710991
-0.007432902140647962   -0.00829033662865634   -0.00019309074967514687
-0.009795112271043712   -0.008268464146996838   -0.0002285766649878368
-0.009539150149049743   -0.012339408487991761   -0.00032682463875862144
-0.009811203365597954   -0.008248679557863224   -0.00021734398766405899
-0.007203783540925922   -0.01236427751567981   -0.0002692648399710991
-0.009542059619000858   -0.012321950382161509   -0.0003028557100727966
-0.009811203365597954   -0.008248679557863224   -0.00021734398766405899
-0.009539150149049743   -0.012339408487991761   -0.00032682463875862144
-0.007203783540925922   -0.01236427751567981   -0.0002692648399710991
-0.009811203365597954   -0.008248679557863224   -0.00021734398766405899
-0.007459657781296699   -0.00826639041299877   -0.00017854562107492077
-0.007432902140647962   -0.00829033662865634   -0.00019309074967514687
-0.007203783540925922   -0.01236427751567981   -0.0002692648399710991
-0.009811203365597954   -0.008248679557863224   -0.00021734398766405899
-0.007432902140647962   -0.00829033662865634   -0.00019309074967514687
-0.009539150149049743   -0.012339408487991761   -0.00032682463875862144
-0.007203783540925922   -0.01236427751567981   -0.0002692648399710991
-0.007459657781296699   -0.00826639041299877   -0.00017854562107492077
-0.009542059619000858   -0.012321950382161509   -0.0003028557100727966
-0.00722335201004571   -0.012343495582268485   -0.0002461127650555501
-0.007459657781296699   -0.00826639041299877   -0.00017854562107492077
-0.009811203365597954   -0.008248679557863224   -0.00021734398766405899
-0.009542059619000858   -0.012321950382161509   -0.0003028557100727966
-0.00982591717678493   -0.008226159893102717   -0.00020364936158983484
-0.00722335201004571   -0.012343495582268485   -0.0002461127650555501
-0.009545228814119719   -0.012304488631561849   -0.00027534759926866345
-0.00982591717678493   -0.008226159893102717   -0.00020364936158983484
-0.009542059619000858   -0.012321950382161509   -0.0003028557100727966
-0.00722335201004571   -0.012343495582268485   -0.0002461127650555501
-0.00982591717678493   -0.008226159893102717   -0.00020364936158983484
-0.007482226952443682   -0.008241158505575968   -0.00016297843214157874
-0.007459657781296699   -0.00826639041299877   -0.00017854562107492077
-0.00722335201004571   -0.012343495582268485   -0.0002461127650555501
-0.00982591717678493   -0.008226159893102717   -0.00020364936158983484
-0.007459657781296699   -0.00826639041299877   -0.00017854562107492077
-0.009542059619000858   -0.012321950382161509   -0.0003028557100727966
-0.00722335201004571   -0.012343495582268485   -0.0002461127650555501
-0.007482226952443682   -0.008241158505575968   -0.00016297843214157874
-0.009545228814119719   -0.012304488631561849   -0.00027534759926866345
-0.007242812278289208   -0.012325186441917347   -0.00022074631243244622
-0.007482226952443682   -0.008241158505575968   -0.00016297843214157874
-0.00982591717678493   -0.008226159893102717   -0.00020364936158983484
-0.009545228814119719   -0.012304488631561849   -0.00027534759926866345
-0.009832444754137588   -0.008205890364483914   -0.00018808295576276817
-0.007242812278289208   -0.012325186441917347   -0.00022074631243244622
-0.009534827364962042   -0.012293900219636061   -0.0002447126268927736
-0.009832444754137588   -0.008205890364483914   -0.00018808295576276817
-0.009545228814119719   -0.012304488631561849   -0.00027534759926866345
-0.007242812278289208   -0.012325186441917347   -0.00022074631243244622
-0.009832444754137588   -0.008205890364483914   -0.00018808295576276817
-0.00750355235667395   -0.008215330199958912   -0.0001459652102006501
-0.007482226952443682   -0.008241158505575968   -0.00016297843214157874
-0.007242812278289208   -0.012325186441917347   -0.00022074631243244622
-0.009832444754137588   -0.008205890364483914   -0.00018808295576276817
-0.007482226952443682   -0.008241158505575968   -0.00016297843214157874
-0.009545228814119719   -0.012304488631561849   -0.00027534759926866345
0.0016265302055731609   -0.008354502436500249   4.805602045302879e-05
0.0011452036131401186   -0.004206267518037819   5.2290008903920565e-05
-0.0007435827500165334   -0.008316210787291197   -2.0058746797196118e-05
0.0015764344266592553   -0.00830649344531971   6.823365828736107e-05
0.0011452036131401186   -0.004206267518037819   5.2290008903920565e-05
-0.0010717177268016887   -0.004153480137153195   2.9474319659485547e-05
-0.0007435827500165334   -0.008316210787291197   -2.0058746797196118e-05
-0.0011039503019309362   -0.004134426754920152   5.2901627608432306e-05
0.0015764344266592553   -0.00830649344531971   6.823365828736107e-05
-0.0007757513237504126   -0.008276729212227957   -3.4552349577222176e-06
-0.0011039503019309362   -0.004134426754920152   5.2901627608432306e-05
-0.0007435827500165334   -0.008316210787291197   -2.0058746797196118e-05
0.0015764344266592553   -0.00830649344531971   6.823365828736107e-05
-0.0011039503019309362   -0.004134426754920152   5.2901627608432306e-05
0.001044475493760175   -0.004154866844802368   0.00010993659224330533
0.0011452036131401186   -0.004206267518037819   5.2290008903920565e-05
0.0015764344266592553   -0.00830649344531971   6.823365828736107e-05
-0.0011039503019309362   -0.004134426754920152   5.2901627608432306e-05
0.0011452036131401186   -0.004206267518037819   5.2290008903920565e-05
-0.0007435827500165334   -0.008316210787291197   -2.0058746797196118e-05
0.0015764344266592553   -0.00830649344531971   6.823365828736107e-05
0.001044475493760175   -0.004154866844802368   0.00010993659224330533
-0.0007757513237504126   -0.008276729212227957   -3.4552349577222176e-06
0.0015200102687068057   -0.008259112422423118   9.76572680656029e-05
0.001044475493760175   -0.004154866844802368   0.00010993659224330533
-0.0011039503019309362   -0.004134426754920152   5.2901627608432306e-05
-0.0007757513237504126   -0.008276729212227957   -3.4552349577222176e-06
-0.0011467139705410325   -0.004099133858517075   8.146482028012463e-05
0.0015200102687068057   -0.008259112422423118   9.76572680656029e-05
-0.0008134773965059025   -0.008235183224078844   1.617724065747502e-05
-0.0011467139705410325   -0.004099133858517075   8.146482028012463e-05
-0.0007757513237504126   -0.008276729212227957   -3.4552349577222176e-06
0.0015200102687068057   -0.008259112422423118   9.76572680656029e-05
-0.0011467139705410325   -0.004099133858517075   8.146482028012463e-05
0.000985670852976734   -0.004113465989451421   0.00015273227985713374
0.001044475493760175   -0.004154866844802368   0.00010993659224330533
0.0015200102687068057   -0.008259112422423118   9.76572680656029e-05
-0.0011467139705410325   -0.004099133858517075   8.146482028012463e-05
0.001044475493760175   -0.004154866844802368   0.00010993659224330533
-0.0007757513237504126   -0.008276729212227957   -3.4552349577222176e-06
0.0015200102687068057   -0.008259112422423118   9.76572680656029e-05
0.000985670852976734   -0.004113465989451421   0.00015273227985713374
-0.0008134773965059025   -0.008235183224078844   1.617724065747502e-05
0.0014510196362369147   -0.008200792303340448   0.00013011081788254924
0.000985670852976734   -0.004113465989451421   0.00015273227985713374
-0.0011467139705410325   -0.004099133858517075   8.146482028012463e-05
-0.0008134773965059025   -0.008235183224078844   1.617724065747502e-05
-0.0011828436110925807   -0.0040614305506357674   0.00010658438233146339
0.0014510196362369147   -0.008200792303340448   0.00013011081788254924
-0.0008526120106909089   -0.008191181740678928   3.88133399434853e-05
-0.0011828436110925807   -0.0040614305506357674   0.00010658438233146339
-0.0008134773965059025   -0.008235183224078844   1.617724065747502e-05
0.0014510196362369147   -0.008200792303340448   0.00013011081788254924
-0.0011828436110925807   -0.0040614305506357674   0.00010658438233146339
0.0009100205578637159   -0.004049589703897366   0.00020184006884085406
0.000985670852976734   -0.004113465989451421   0.00015273227985713374
0.0014510196362369147   -0.008200792303340448   0.00013011081788254924
-0.0011828436110925807   -0.0040614305506357674   0.00010658438233146339
0.000985670852976734   -0.004113465989451421   0.00015273227985713374
-0.0008134773965059025   -0.008235183224078844   1.617724065747502e-05
-0.0007435827500165334   -0.008316210787291197   -2.0058746797196118e-05
-0.0010717177268016887   -0.004153480137153195   2.9474319659485547e-05
-0.0029737728830231884   -0.008306260621715713   -8.535407164876335e-05
-0.0007757513237504126   -0.008276729212227957   -3.4552349577222176e-06
-0.0010717177268016887   -0.004153480137153195   2.9474319659485547e-05
-0.003176643717675242   -0.0042161257595899355   -2.1559809602422383e-05
-0.0029737728830231884   -0.008306260621715713   -8.535407164876335e-05
-0.003206679434323473   -0.00418603146500026   -4.819907210350451e-06
-0.0007757513237504126   -0.008276729212227957   -3.4552349577222176e-06
-0.0030030379434355615   -0.00827207588150423   -6.966865683251128e-05
-0.003206679434323473   -0.00418603146500026   -4.819907210350451e-06
-0.0029737728830231884   -0.008306260621715713   -8.535407164876335e-05
-0.0007757513237504126   -0.008276729212227957   -3.4552349577222176e-06
-0.003206679434323473   -0.00418603146500026   -4.819907210350451e-06
-0.0011039503019309362   -0.004134426754920152   5.2901627608432306e-05
-0.0010717177268016887   -0.004153480137153195   2.9474319659485547e-05
-0.0007757513237504126   -0.008276729212227957   -3.4552349577222176e-06
-0.003206679434323473   -0.00418603146500026   -4.819907210350451e-06
-0.0010717177268016887   -0.004153480137153195   2.9474319659485547e-05
-0.0029737728830231884   -0.008306260621715713   -8.535407164876335e-05
-0.0007757513237504126   -0.008276729212227957   -3.4552349577222176e-06
-0.0011039503019309362   -0.004134426754920152   5.2901627608432306e-05
-0.0030030379434355615   -0.00827207588150423   -6.966865683251128e-05
-0.0008134773965059025   -0.008235183224078844   1.617724065747502e-05
-0.0011039503019309362   -0.004134426754920152   5.2901627608432306e-05
-0.003206679434323473   -0.00418603146500026   -4.819907210350451e-06
-0.0030030379434355615   -0.00827207588150423   -6.966865683251128e-05
-0.0032383119600301355   -0.00415180524887937   1.2993428618408379e-05
-0.0008134773965059025   -0.008235183224078844   1.617724065747502e-05
-0.0030333578236945396   -0.008236565302896055   -5.238181071916421e-05
-0.0032383119600301355   -0.00415180524887937   1.2993428618408379e-05
-0.0030030379434355615   -0.00827207588150423   -6.966865683251128e-05
-0.0008134773965059025   -0.008235183224078844   1.617724065747502e-05
-0.0032383119600301355   -0.00415180524887937   1.2993428618408379e-05
-0.0011467139705410325   -0.004099133858517075   8.146482028012463e-05
-0.0011039503019309362   -0.004134426754920152   5.2901627608432306e-05
-0.0008134773965059025   -0.008235183224078844   1.617724065747502e-05
-0.0032383119600301355   -0.00415180524887937   1.2993428618408379e-05
-0.0011039503019309362   -0.004134426754920152   5.2901627608432306e-05
-0.0030030379434355615   -0.00827207588150423   -6.966865683251128e-05
-0.0008134773965059025   -0.008235183224078844   1.617724065747502e-05
-0.0011467139705410325   -0.004099133858517075   8.146482028012463e-05
-0.0030333578236945396   -0.008236565302896055   -5.238181071916421e-05
-0.0008526120106909089   -0.008191181740678928   3.88133399434853e-05
-0.0011467139705410325   -0.004099133858517075   8.146482028012463e-05
-0.0032383119600301355   -0.00415180524887937   1.2993428618408379e-05
-0.0030333578236945396   -0.008236565302896055   -5.238181071916421e-05
-0.0032685387270473968   -0.004114290415647474   3.2696595741560616e-05
-0.0008526120106909089   -0.008191181740678928   3.88133399434853e-05
-0.0030649700538338226   -0.008200429236834447   -3.318385111416052e-05
-0.0032685387270473968   -0.004114290415647474   3.2696595741560616e-05
-0.0030333578236945396   -0.008236565302896055   -5.238181071916421e-05
-0.0008526120106909089   -0.008191181740678928   3.88133399434853e-05
-0.0032685387270473968   -0.004114290415647474   3.2696595741560616e-05
-0.0011828436110925807   -0.0040614305506357674   0.00010658438233146339
-0.0011467139705410325   -0.004099133858517075   8.146482028012463e-05
-0.0008526120106909089   -0.008191181740678928   3.88133399434853e-05
-0.0032685387270473968   -0.004114290415647474   3.2696595741560616e-05
-0.0011467139705410325   -0.004099133858517075   8.146482028012463e-05
-0.0030333578236945396   -0.008236565302896055   -5.238181071916421e-05
-0.0029737728830231884   -0.008306260621715713   -8.535407164876335e-05
-0.003176643717675242   -0.0042161257595899355   -2.1559809602422383e-05
-0.005179880320110367   -0.008303437020756015   -0.0001441500776527153
-0.0030030379434355615   -0.00827207588150423   -6.966865683251128e-05
-0.003176643717675242   -0.0042161257595899355   -2.1559809602422383e-05
-0.005330997804445703   -0.004265098152068457   -7.87423154359457e-05
-0.005179880320110367   -0.008303437020756015   -0.0001441500776527153
-0.005358130644793501   -0.004234129503318338   -6.565101453279422e-05
-0.0030030379434355615   -0.00827207588150423   -6.966865683251128e-05
-0.005207949475659502   -0.008273660515884787   -0.00012898369224633008
-0.005358130644793501   -0.004234129503318338   -6.565101453279422e-05
-0.005179880320110367   -0.008303437020756015   -0.0001441500776527153
-0.0030030379434355615   -0.00827207588150423   -6.966865683251128e-05
-0.005358130644793501   -0.004234129503318338   -6.565101453279422e-05
-0.003206679434323473   -0.00418603146500026   -4.819907210350451e-06
-0.003176643717675242   -0.0042161257595899355   -2.1559809602422383e-05
-0.0030030379434355615   -0.00827207588150423   -6.966865683251128e-05
-0.005358130644793501   -0.004234129503318338   -6.565101453279422e-05
-0.003176643717675242   -0.0042161257595899355   -2.1559809602422383e-05
-0.005179880320110367   -0.008303437020756015   -0.0001441500776527153
-0.0030030379434355615   -0.00827207588150423   -6.966865683251128e-05
-0.003206679434323473   -0.00418603146500026   -4.819907210350451e-06
-0.005207949475659502   -0.008273660515884787   -0.00012898369224633008
-0.0030333578236945396   -0.008236565302896055   -5.238181071916421e-05
-0.003206679434323473   -0.00418603146500026   -4.819907210350451e-06
-0.005358130644793501   -0.004234129503318338   -6.565101453279422e-05
-0.005207949475659502   -0.008273660515884787   -0.00012898369224633008
-0.005384211226369337   -0.004201312088115946   -5.253277395910961e-05
-0.0030333578236945396   -0.008236565302896055   -5.238181071916421e-05
-0.0052346937271505025   -0.008243423674225439   -0.00011240935298225963
-0.005384211226369337   -0.004201312088115946   -5.253277395910961e-05
-0.005207949475659502   -0.008273660515884787   -0.00012898369224633008
-0.0030333578236945396   -0.008236565302896055   -5.238181071916421e-05
-0.005384211226369337   -0.004201312088115946   -5.253277395910961e-05
-0.0032383119600301355   -0.00415180524887937   1.2993428618408379e-05
-0.003206679434323473   -0.00418603146500026   -4.819907210350451e-06
-0.0030333578236945396   -0.008236565302896055   -5.238181071916421e-05
-0.005384211226369337   -0.004201312088115946   -5.253277395910961e-05
-0.003206679434323473   -0.00418603146500026   -4.819907210350451e-06
-0.005207949475659502   -0.008273660515884787   -0.00012898369224633008
-0.0030333578236945396   -0.008236565302896055   -5.238181071916421e-05
-0.0032383119600301355   -0.00415180524887937   1.2993428618408379e-05
-0.0052346937271505025   -0.008243423674225439   -0.00011240935298225963
-0.0030649700538338226   -0.008200429236834447   -3.318385111416052e-05
-0.0032383119600301355   -0.00415180524887937   1.2993428618408379e-05
-0.005384211226369337   -0.004201312088115946   -5.253277395910961e-05
-0.0052346937271505025   -0.008243423674225439   -0.00011240935298225963
-0.005408340917007904   -0.004165695204849035   -3.817732548983367e-05
-0.0030649700538338226   -0.008200429236834447   -3.318385111416052e-05
-0.005261174027755394   -0.008212541838288932   -9.449974779878446e-05
-0.005408340917007904   -0.004165695204849035   -3.817732548983367e-05
-0.0052346937271505025   -0.008243423674225439   -0.00011240935298225963
-0.0030649700538338226   -0.008200429236834447   -3.318385111416052e-05
-0.005408340917007904   -0.004165695204849035   -3.817732548983367e-05
-0.0032685387270473968   -0.004114290415647474   3.2696595741560616e-05
-0.0032383119600301355   -0.00415180524887937   1.2993428618408379e-05
-0.0030649700538338226   -0.008200429236834447   -3.318385111416052e-05
-0.005408340917007904   -0.004165695204849035   -3.817732548983367e-05
-0.0032383119600301355   -0.00415180524887937   1.2993428618408379e-05
-0.0052346937271505025   -0.008243423674225439   -0.00011240935298225963
-0.005179880320110367   -0.008303437020756015   -0.0001441500776527153
-0.005330997804445703   -0.004265098152068457   -7.87423154359457e-05
-0.007432902140647962   -0.00829033662865634   -0.00019309074967514687
-0.005207949475659502   -0.008273660515884787   -0.00012898369224633008
-0.005330997804445703   -0.004265098152068457   -7.87423154359457e-05
-0.00756109030235635   -0.004285306181685087   -0.00013138595642408506
-0.007432902140647962   -0.00829033662865634   -0.00019309074967514687
-0.007585569055244894   -0.00425767915388727   -0.00012174408287359318
-0.005207949475659502   -0.008273660515884787   -0.00012898369224633008
-0.007459657781296699   -0.00826639041299877   -0.00017854562107492077
-0.007585569055244894   -0.00425767915388727   -0.00012174408287359318
-0.007432902140647962   -0.00829033662865634   -0.00019309074967514687
-0.005207949475659502   -0.008273660515884787   -0.00012898369224633008
-0.007585569055244894   -0.00425767915388727   -0.00012174408287359318
-0.005358130644793501   -0.004234129503318338   -6.565101453279422e-05
-0.005330997804445703   -0.004265098152068457   -7.87423154359457e-05
-0.005207949475659502   -0.008273660515884787   -0.00012898369224633008
-0.007585569055244894   -0.00425767915388727   -0.00012174408287359318
-0.005330997804445703   -0.004265098152068457   -7.87423154359457e-05
-0.007432902140647962   -0.00829033662865634   -0.00019309074967514687
-0.005207949475659502   -0.008273660515884787   -0.00012898369224633008
-0.005358130644793501   -0.004234129503318338   -6.565101453279422e-05
-0.007459657781296699   -0.00826639041299877   -0.00017854562107492077
-0.0052346937271505025   -0.008243423674225439   -0.00011240935298225963
-0.005358130644793501   -0.004234129503318338   -6.565101453279422e-05
-0.007585569055244894   -0.00425767915388727   -0.00012174408287359318
-0.007459657781296699   -0.00826639041299877   -0.00017854562107492077
-0.0076073891769141665   -0.004227440642571304   -0.00011231331957748276
-0.0052346937271505025   -0.008243423674225439   -0.00011240935298225963
-0.007482226952443682   -0.008241158505575968   -0.00016297843214157874
-0.0076073891769141665   -0.004227440642571304   -0.00011231331957748276
-0.007459657781296699   -0.00826639041299877   -0.00017854562107492077
-0.0052346937271505025   -0.008243423674225439   -0.00011240935298225963
-0.0076073891769141665   -0.004227440642571304   -0.00011231331957748276
-0.005384211226369337   -0.004201312088115946   -5.253277395910961e-05
-0.005358130644793501   -0.004234129503318338   -6.565101453279422e-05
-0.0052346937271505025   -0.008243423674225439   -0.00011240935298225963
-0.0076073891769141665   -0.004227440642571304   -0.00011231331957748276
-0.005358130644793501   -0.004234129503318338   -6.565101453279422e-05
-0.007459657781296699   -0.00826639041299877   -0.00017854562107492077
-0.0052346937271505025   -0.008243423674225439   -0.00011240935298225963
-0.005384211226369337   -0.004201312088115946   -5.253277395910961e-05
-0.007482226952443682   -0.008241158505575968   -0.00016297843214157874
-0.005261174027755394   -0.008212541838288932   -9.449974779878446e-05
-0.005384211226369337   -0.004201312088115946   -5.253277395910961e-05
-0.0076073891769141665   -0.004227440642571304   -0.00011231331957748276
-0.007482226952443682   -0.008241158505575968   -0.00016297843214157874
-0.00762717485028857   -0.004195179486864385   -0.00010252801346311482
-0.005261174027755394   -0.008212541838288932   -9.449974779878446e-05
-0.00750355235667395   -0.008215330199958912   -0.0001459652102006501
-0.00762717485028857   -0.004195179486864385   -0.00010252801346311482
-0.007482226952443682   -0.008241158505575968   -0.00016297843214157874
-0.005261174027755394   -0.008212541838288932   -9.449974779878446e-05
-0.00762717485028857   -0.004195179486864385   -0.00010252801346311482
-0.005408340917007904   -0.004165695204849035   -3.817732548983367e-05
-0.005384211226369337   -0.004201312088115946   -5.253277395910961e-05
-0.005261174027755394   -0.008212541838288932   -9.449974779878446e-05
-0.00762717485028857   -0.004195179486864385   -0.00010252801346311482
-0.005384211226369337   -0.004201312088115946   -5.253277395910961e-05
-0.007482226952443682   -0.008241158505575968   -0.00016297843214157874
-0.007432902140647962   -0.00829033662865634   -0.00019309074967514687
-0.00756109030235635   -0.004285306181685087   -0.00013138595642408506
-0.009795112271043712   -0.008268464146996838   -0.0002285766649878368
-0.007459657781296699   -0.00826639041299877   -0.00017854562107492077
-0.00756109030235635   -0.004285306181685087   -0.00013138595642408506
-0.009872644994448235   -0.004287384661776971   -0.00017459735090799924
-0.009795112271043712   -0.008268464146996838   -0.0002285766649878368
-0.009893513974132469   -0.004260653623339758   -0.00017026758198647945
-0.007459657781296699   -0.00826639041299877   -0.00017854562107492077
-0.009811203365597954   -0.008248679557863224   -0.00021734398766405899
-0.009893513974132469   -0.004260653623339758   -0.00017026758198647945
-0.009795112271043712   -0.008268464146996838   -0.0002285766649878368
-0.007459657781296699   -0.00826639041299877   -0.00017854562107492077
-0.009893513974132469   -0.004260653623339758   -0.00017026758198647945
-0.007585569055244894   -0.00425767915388727   -0.00012174408287359318
-0.00756109030235635   -0.004285306181685087   -0.00013138595642408506
-0.007459657781296699   -0.00826639041299877   -0.00017854562107492077
-0.009893513974132469   -0.004260653623339758   -0.00017026758198647945
-0.00756109030235635   -0.004285306181685087   -0.00013138595642408506
-0.009795112271043712   -0.008268464146996838   -0.0002285766649878368
-0.007459657781296699   -0.00826639041299877   -0.00017854562107492077
-0.007585569055244894   -0.00425767915388727   -0.00012174408287359318
-0.009811203365597954   -0.008248679557863224   -0.00021734398766405899
-0.007482226952443682   -0.008241158505575968   -0.00016297843214157874
-0.007585569055244894   -0.00425767915388727   -0.00012174408287359318
-0.009893513974132469   -0.004260653623339758   -0.00017026758198647945
-0.009811203365597954   -0.008248679557863224   -0.00021734398766405899
-0.009912210957080279   -0.0042316026173716895   -0.00016516840266526313
-0.007482226952443682   -0.008241158505575968   -0.00016297843214157874
-0.00982591717678493   -0.008226159893102717   -0.00020364936158983484
-0.009912210957080279   -0.0042316026173716895   -0.00016516840266526313
-0.009811203365597954   -0.008248679557863224   -0.00021734398766405899
-0.007482226952443682   -0.008241158505575968   -0.00016297843214157874
-0.009912210957080279   -0.0042316026173716895   -0.00016516840266526313
-0.0076073891769141665   -0.004227440642571304   -0.00011231331957748276
-0.007585569055244894   -0.00425767915388727   -0.00012174408287359318
-0.007482226952443682   -0.008241158505575968   -0.00016297843214157874
-0.009912210957080279   -0.0042316026173716895   -0.00016516840266526313
-0.007585569055244894   -0.00425767915388727   -0.00012174408287359318
-0.009811203365597954   -0.008248679557863224   -0.00021734398766405899
-0.007482226952443682   -0.008241158505575968   -0.00016297843214157874
-0.0076073891769141665   -0.004227440642571304   -0.00011231331957748276
-0.00982591717678493   -0.008226159893102717   -0.00020364936158983484
-0.00750355235667395   -0.008215330199958912   -0.0001459652102006501
-0.0076073891769141665   -0.004227440642571304   -0.00011231331957748276
-0.009912210957080279   -0.0042316026173716895   -0.00016516840266526313
-0.00982591717678493   -0.008226159893102717   -0.00020364936158983484
-0.00992772343257185   -0.004200868755867368   -0.00016030481303216173
-0.00750355235667395   -0.008215330199958912   -0.0001459652102006501
-0.009832444754137588   -0.008205890364483914   -0.00018808295576276817
-0.00992772343257185   -0.004200868755867368   -0.00016030481303216173
-0.00982591717678493   -0.008226159893102717   -0.00020364936158983484
-0.00750355235667395   -0.008215330199958912   -0.0001459652102006501
-0.00992772343257185   -0.004200868755867368   -0.00016030481303216173
-0.00762717485028857   -0.004195179486864385   -0.00010252801346311482
-0.0076073891769141665   -0.004227440642571304   -0.00011231331957748276
-0.00750355235667395   -0.008215330199958912   -0.0001459652102006501
-0.00992772343257185   -0.004200868755867368   -0.00016030481303216173
-0.0076073891769141665   -0.004227440642571304   -0.00011231331957748276
-0.00982591717678493   -0.008226159893102717   -0.00020364936158983484
0.0011452036131401186   -0.004206267518037819   5.2290008903920565e-05
0.0   0.0   0.0
-0.0010717177268016887   -0.004153480137153195   2.9474319659485547e-05
0.001044475493760175   -0.004154866844802368   0.00010993659224330533
0.0   0.0   0.0
-0.0013385644337477623   -0.00035095102961799497   -8.540776332004793e-06
-0.0010717177268016887   -0.004153480137153195   2.9474319659485547e-05
-0.001418787420017589   -0.0002750702612138682   3.8744580442342506e-05
0.001044475493760175   -0.004154866844802368   0.00010993659224330533
-0.0011039503019309362   -0.004134426754920152   5.2901627608432306e-05
-0.001418787420017589   -0.0002750702612138682   3.8744580442342506e-05
-0.0010717177268016887   -0.004153480137153195   2.9474319659485547e-05
0.001044475493760175   -0.004154866844802368   0.00010993659224330533
-0.001418787420017589   -0.0002750702612138682   3.8744580442342506e-05
0.0   0.0   0.0
0.0   0.0   0.0
0.001044475493760175   -0.004154866844802368   0.00010993659224330533
-0.001418787420017589   -0.0002750702612138682   3.8744580442342506e-05
0.0   0.0   0.0
-0.0010717177268016887   -0.004153480137153195   2.9474319659485547e-05
0.001044475493760175   -0.004154866844802368   0.00010993659224330533
0.0   0.0   0.0
-0.0011039503019309362   -0.004134426754920152   5.2901627608432306e-05
0.000985670852976734   -0.004113465989451421   0.00015273227985713374
0.0   0.0   0.0
-0.001418787420017589   -0.0002750702612138682   3.8744580442342506e-05
-0.0011039503019309362   -0.004134426754920152   5.2901627608432306e-05
-0.0014694835423226572   -0.00023881269645425538   6.64274330560292e-05
0.000985670852976734   -0.004113465989451421   0.00015273227985713374
-0.0011467139705410325   -0.004099133858517075   8.146482028012463e-05
-0.0014694835423226572   -0.00023881269645425538   6.64274330560292e-05
-0.0011039503019309362   -0.004134426754920152   5.2901627608432306e-05
0.000985670852976734   -0.004113465989451421   0.00015273227985713374
-0.0014694835423226572   -0.00023881269645425538   6.64274330560292e-05
0.0   0.0   0.0
0.0   0.0   0.0
0.000985670852976734   -0.004113465989451421   0.00015273227985713374
-0.0014694835423226572   -0.00023881269645425538   6.64274330560292e-05
0.0   0.0   0.0
-0.0011039503019309362   -0.004134426754920152   5.2901627608432306e-05
0.000985670852976734   -0.004113465989451421   0.00015273227985713374
0.0   0.0   0.0
-0.0011467139705410325   -0.004099133858517075   8.146482028012463e-05
0.0009100205578637159   -0.004049589703897366   0.00020184006884085406
0.0   0.0   0.0
-0.0014694835423226572   -0.00023881269645425538   6.64274330560292e-05
-0.0011467139705410325   -0.004099133858517075   8.146482028012463e-05
-0.0015380615257983969   -0.00019046665194364425   9.827694368965797e-05
0.0009100205578637159   -0.004049589703897366   0.00020184006884085406
-0.0011828436110925807   -0.0040614305506357674   0.00010658438233146339
-0.0015380615257983969   -0.00019046665194364425   9.827694368965797e-05
-0.0011467139705410325   -0.004099133858517075   8.146482028012463e-05
0.0009100205578637159   -0.004049589703897366   0.00020184006884085406
-0.0015380615257983969   -0.00019046665194364425   9.827694368965797e-05
0.0   0.0   0.0
0.0   0.0   0.0
0.0009100205578637159   -0.004049589703897366   0.00020184006884085406
-0.0015380615257983969   -0.00019046665194364425   9.827694368965797e-05
0.0   0.0   0.0
-0.0011467139705410325   -0.004099133858517075   8.146482028012463e-05
-0.0010717177268016887   -0.004153480137153195   2.9474319659485547e-05
-0.0013385644337477623   -0.00035095102961799497   -8.540776332004793e-06
-0.003176643717675242   -0.0042161257595899355   -2.1559809602422383e-05
-0.0011039503019309362   -0.004134426754920152   5.2901627608432306e-05
-0.0013385644337477623   -0.00035095102961799497   -8.540776332004793e-06
-0.0032689016630704937   -0.0004639403741526863   -4.072190562497449e-06
-0.003176643717675242   -0.0042161257595899355   -2.1559809602422383e-05
-0.003310697681188742   -0.0004231215416171625   8.574219995571295e-06
-0.0011039503019309362   -0.004134426754920152   5.2901627608432306e-05
-0.003206679434323473   -0.00418603146500026   -4.819907210350451e-06
-0.003310697681188742   -0.0004231215416171625   8.574219995571295e-06
-0.003176643717675242   -0.0042161257595899355   -2.1559809602422383e-05
-0.0011039503019309362   -0.004134426754920152   5.2901627608432306e-05
-0.003310697681188742   -0.0004231215416171625   8.574219995571295e-06
-0.001418787420017589   -0.0002750702612138682   3.8744580442342506e-05
-0.0013385644337477623   -0.00035095102961799497   -8.540776332004793e-06
-0.0011039503019309362   -0.004134426754920152   5.2901627608432306e-05
-0.003310697681188742   -0.0004231215416171625   8.574219995571295e-06
-0.0013385644337477623   -0.00035095102961799497   -8.540776332004793e-06
-0.003176643717675242   -0.0042161257595899355   -2.1559809602422383e-05
-0.0011039503019309362   -0.004134426754920152   5.2901627608432306e-05
-0.001418787420017589   -0.0002750702612138682   3.8744580442342506e-05
-0.003206679434323473   -0.00418603146500026   -4.819907210350451e-06
-0.0011467139705410325   -0.004099133858517075   8.146482028012463e-05
-0.001418787420017589   -0.0002750702612138682   3.8744580442342506e-05
-0.003310697681188742   -0.0004231215416171625   8.574219995571295e-06
-0.003206679434323473   -0.00418603146500026   -4.819907210350451e-06
-0.003352479318880432   -0.00037518819807149577   3.082897285969546e-05
-0.0011467139705410325   -0.004099133858517075   8.146482028012463e-05
-0.0032383119600301355   -0.00415180524887937   1.2993428618408379e-05
-0.003352479318880432   -0.00037518819807149577   3.082897285969546e-05
-0.003206679434323473   -0.00418603146500026   -4.819907210350451e-06
-0.0011467139705410325   -0.004099133858517075   8.146482028012463e-05
-0.003352479318880432   -0.00037518819807149577   3.082897285969546e-05
-0.0014694835423226572   -0.00023881269645425538   6.64274330560292e-05
-0.001418787420017589   -0.0002750702612138682   3.8744580442342506e-05
-0.0011467139705410325   -0.004099133858517075   8.146482028012463e-05
-0.003352479318880432   -0.00037518819807149577   3.082897285969546e-05
-0.001418787420017589   -0.0002750702612138682   3.8744580442342506e-05
-0.003206679434323473   -0.00418603146500026   -4.819907210350451e-06
-0.0011467139705410325   -0.004099133858517075   8.146482028012463e-05
-0.0014694835423226572   -0.00023881269645425538   6.64274330560292e-05
-0.0032383119600301355   -0.00415180524887937   1.2993428618408379e-05
-0.0011828436110925807   -0.0040614305506357674   0.00010658438233146339
-0.0014694835423226572   -0.00023881269645425538   6.64274330560292e-05
-0.003352479318880432   -0.00037518819807149577   3.082897285969546e-05
-0.0032383119600301355   -0.00415180524887937   1.2993428618408379e-05
-0.0033993753859053164   -0.00031937471020550534   5.238652237023961e-05
-0.0011828436110925807   -0.0040614305506357674   0.00010658438233146339
-0.0032685387270473968   -0.004114290415647474   3.2696595741560616e-05
-0.0033993753859053164   -0.00031937471020550534   5.238652237023961e-05
-0.0032383119600301355   -0.00415180524887937   1.2993428618408379e-05
-0.0011828436110925807   -0.0040614305506357674   0.00010658438233146339
-0.0033993753859053164   -0.00031937471020550534   5.238652237023961e-05
-0.0015380615257983969   -0.00019046665194364425   9.827694368965797e-05
-0.0014694835423226572   -0.00023881269645425538   6.64274330560292e-05
-0.0011828436110925807   -0.0040614305506357674   0.00010658438233146339
-0.0033993753859053164   -0.00031937471020550534   5.238652237023961e-05
-0.0014694835423226572   -0.00023881269645425538   6.64274330560292e-05
-0.0032383119600301355   -0.00415180524887937   1.2993428618408379e-05
-0.003176643717675242   -0.0042161257595899355   -2.1559809602422383e-05
-0.0032689016630704937   -0.0004639403741526863   -4.072190562497449e-06
-0.005330997804445703   -0.004265098152068457   -7.87423154359457e-05
-0.003206679434323473   -0.00418603146500026   -4.819907210350451e-06
-0.0032689016630704937   -0.0004639403741526863   -4.072190562497449e-06
-0.005382901311815469   -0.0004978799553397707   -3.880029996471689e-05
-0.005330997804445703   -0.004265098152068457   -7.87423154359457e-05
-0.005408517725703068   -0.0004667679318527209   -3.5065101800423896e-05
-0.003206679434323473   -0.00418603146500026   -4.819907210350451e-06
-0.005358130644793501   -0.004234129503318338   -6.565101453279422e-05
-0.005408517725703068   -0.0004667679318527209   -3.5065101800423896e-05
-0.005330997804445703   -0.004265098152068457   -7.87423154359457e-05
-0.003206679434323473   -0.00418603146500026   -4.819907210350451e-06
-0.005408517725703068   -0.0004667679318527209   -3.5065101800423896e-05
-0.003310697681188742   -0.0004231215416171625   8.574219995571295e-06
-0.0032689016630704937   -0.0004639403741526863   -4.072190562497449e-06
-0.003206679434323473   -0.00418603146500026   -4.819907210350451e-06
-0.005408517725703068   -0.0004667679318527209   -3.5065101800423896e-05
-0.0032689016630704937   -0.0004639403741526863   -4.072190562497449e-06
-0.005330997804445703   -0.004265098152068457   -7.87423154359457e-05
-0.003206679434323473   -0.00418603146500026   -4.819907210350451e-06
-0.003310697681188742   -0.0004231215416171625   8.574219995571295e-06
-0.005358130644793501   -0.004234129503318338   -6.565101453279422e-05
-0.0032383119600301355   -0.00415180524887937   1.2993428618408379e-05
-0.003310697681188742   -0.0004231215416171625   8.574219995571295e-06
-0.005408517725703068   -0.0004667679318527209   -3.5065101800423896e-05
-0.005358130644793501   -0.004234129503318338   -6.565101453279422e-05
-0.005435200013304181   -0.0004303002761397179   -2.864311521608389e-05
-0.0032383119600301355   -0.00415180524887937   1.2993428618408379e-05
-0.005384211226369337   -0.004201312088115946   -5.253277395910961e-05
-0.005435200013304181   -0.0004303002761397179   -2.864311521608389e-05
-0.005358130644793501   -0.004234129503318338   -6.565101453279422e-05
-0.0032383119600301355   -0.00415180524887937   1.2993428618408379e-05
-0.005435200013304181   -0.0004303002761397179   -2.864311521608389e-05
-0.003352479318880432   -0.00037518819807149577   3.082897285969546e-05
-0.003310697681188742   -0.0004231215416171625   8.574219995571295e-06
-0.0032383119600301355   -0.00415180524887937   1.2993428618408379e-05
-0.005435200013304181   -0.0004303002761397179   -2.864311521608389e-05
-0.003310697681188742   -0.0004231215416171625   8.574219995571295e-06
-0.005358130644793501   -0.004234129503318338   -6.565101453279422e-05
-0.0032383119600301355   -0.00415180524887937   1.2993428618408379e-05
-0.003352479318880432   -0.00037518819807149577   3.082897285969546e-05
-0.005384211226369337   -0.004201312088115946   -5.253277395910961e-05
-0.0032685387270473968   -0.004114290415647474   3.2696595741560616e-05
-0.003352479318880432   -0.00037518819807149577   3.082897285969546e-05
-0.005435200013304181   -0.0004303002761397179   -2.864311521608389e-05
-0.005384211226369337   -0.004201312088115946   -5.253277395910961e-05
-0.005461037797749394   -0.00038533667730286224   -2.0144357382883648e-05
-0.0032685387270473968   -0.004114290415647474   3.2696595741560616e-05
-0.005408340917007904   -0.004165695204849035   -3.817732548983367e-05
-0.005461037797749394   -0.00038533667730286224   -2.0144357382883648e-05
-0.005384211226369337   -0.004201312088115946   -5.253277395910961e-05
-0.0032685387270473968   -0.004114290415647474   3.2696595741560616e-05
-0.005461037797749394   -0.00038533667730286224   -2.0144357382883648e-05
-0.0033993753859053164   -0.00031937471020550534   5.238652237023961e-05
-0.003352479318880432   -0.00037518819807149577   3.082897285969546e-05
-0.0032685387270473968   -0.004114290415647474   3.2696595741560616e-05
-0.005461037797749394   -0.00038533667730286224   -2.0144357382883648e-05
-0.003352479318880432   -0.00037518819807149577   3.082897285969546e-05
-0.005384211226369337   -0.004201312088115946   -5.253277395910961e-05
-0.005330997804445703   -0.004265098152068457   -7.87423154359457e-05
-0.005382901311815469   -0.0004978799553397707   -3.880029996471689e-05
-0.00756109030235635   -0.004285306181685087   -0.00013138595642408506
-0.005358130644793501   -0.004234129503318338   -6.565101453279422e-05
-0.005382901311815469   -0.0004978799553397707   -3.880029996471689e-05
-0.007600614666487235   -0.0004947487494320842   -9.059339262183543e-05
-0.00756109030235635   -0.004285306181685087   -0.00013138595642408506
-0.0076179831132145645   -0.00046732732774770866   -8.895915490592808e-05
-0.005358130644793501   -0.004234129503318338   -6.565101453279422e-05
-0.007585569055244894   -0.00425767915388727   -0.00012174408287359318
-0.0076179831132145645   -0.00046732732774770866   -8.895915490592808e-05
-0.00756109030235635   -0.004285306181685087   -0.00013138595642408506
-0.005358130644793501   -0.004234129503318338   -6.565101453279422e-05
-0.0076179831132145645   -0.00046732732774770866   -8.895915490592808e-05
-0.005408517725703068   -0.0004667679318527209   -3.5065101800423896e-05
-0.005382901311815469   -0.0004978799553397707   -3.880029996471689e-05
-0.005358130644793501   -0.004234129503318338   -6.565101453279422e-05
-0.0076179831132145645   -0.00046732732774770866   -8.895915490592808e-05
-0.005382901311815469   -0.0004978799553397707   -3.880029996471689e-05
-0.00756109030235635   -0.004285306181685087   -0.00013138595642408506
-0.005358130644793501   -0.004234129503318338   -6.565101453279422e-05
-0.005408517725703068   -0.0004667679318527209   -3.5065101800423896e-05
-0.007585569055244894   -0.00425767915388727   -0.00012174408287359318
-0.005384211226369337   -0.004201312088115946   -5.253277395910961e-05
-0.005408517725703068   -0.0004667679318527209   -3.5065101800423896e-05
-0.0076179831132145645   -0.00046732732774770866   -8.895915490592808e-05
-0.007585569055244894   -0.00425767915388727   -0.00012174408287359318
-0.007636087787453904   -0.00043646127236804383   -8.762640100427901e-05
-0.005384211226369337   -0.004201312088115946   -5.253277395910961e-05
-0.0076073891769141665   -0.004227440642571304   -0.00011231331957748276
-0.007636087787453904   -0.00043646127236804383   -8.762640100427901e-05
-0.007585569055244894   -0.00425767915388727   -0.00012174408287359318
-0.005384211226369337   -0.004201312088115946   -5.253277395910961e-05
-0.007636087787453904   -0.00043646127236804383   -8.762640100427901e-05
-0.005435200013304181   -0.0004303002761397179   -2.864311521608389e-05
-0.005408517725703068   -0.0004667679318527209   -3.5065101800423896e-05
-0.005384211226369337   -0.004201312088115946   -5.253277395910961e-05
-0.007636087787453904   -0.00043646127236804383   -8.762640100427901e-05
-0.005408517725703068   -0.0004667679318527209   -3.5065101800423896e-05
-0.007585569055244894   -0.00425767915388727   -0.00012174408287359318
-0.005384211226369337   -0.004201312088115946   -5.253277395910961e-05
-0.005435200013304181   -0.0004303002761397179   -2.864311521608389e-05
-0.0076073891769141665   -0.004227440642571304   -0.00011231331957748276
-0.005408340917007904   -0.004165695204849035   -3.817732548983367e-05
-0.005435200013304181   -0.0004303002761397179   -2.864311521608389e-05
-0.007636087787453904   -0.00043646127236804383   -8.762640100427901e-05
-0.0076073891769141665   -0.004227440642571304   -0.00011231331957748276
-0.007650201264096252   -0.0004026909361515369   -8.665366407288444e-05
-0.005408340917007904   -0.004165695204849035   -3.817732548983367e-05
-0.00762717485028857   -0.004195179486864385   -0.00010252801346311482
-0.007650201264096252   -0.0004026909361515369   -8.665366407288444e-05
-0.0076073891769141665   -0.004227440642571304   -0.00011231331957748276
-0.005408340917007904   -0.004165695204849035   -3.817732548983367e-05
-0.007650201264096252   -0.0004026909361515369   -8.665366407288444e-05
-0.005461037797749394   -0.00038533667730286224   -2.0144357382883648e-05
-0.005435200013304181   -0.0004303002761397179   -2.864311521608389e-05
-0.005408340917007904   -0.004165695204849035   -3.817732548983367e-05
-0.007650201264096252   -0.0004026909361515369   -8.665366407288444e-05
-0.005435200013304181   -0.0004303002761397179   -2.864311521608389e-05
-0.0076073891769141665   -0.004227440642571304   -0.00011231331957748276
-0.00756109030235635   -0.004285306181685087   -0.00013138595642408506
-0.007600614666487235   -0.0004947487494320842   -9.059339262183543e-05
-0.009872644994448235   -0.004287384661776971   -0.00017459735090799924
-0.007585569055244894   -0.00425767915388727   -0.00012174408287359318
-0.007600614666487235   -0.0004947487494320842   -9.059339262183543e-05
-0.009881033737156238   -0.000491603257911768   -0.00014175266763887047
-0.009872644994448235   -0.004287384661776971   -0.00017459735090799924
-0.009894958754974868   -0.0004619843675586752   -0.00014161318855592133
-0.007585569055244894   -0.00425767915388727   -0.00012174408287359318
-0.009893513974132469   -0.004260653623339758   -0.00017026758198647945
-0.009894958754974868   -0.0004619843675586752   -0.00014161318855592133
-0.009872644994448235   -0.004287384661776971   -0.00017459735090799924
-0.007585569055244894   -0.00425767915388727   -0.00012174408287359318
-0.009894958754974868   -0.0004619843675586752   -0.00014161318855592133
-0.0076179831132145645   -0.00046732732774770866   -8.895915490592808e-05
-0.007600614666487235   -0.0004947487494320842   -9.059339262183543e-05
-0.007585569055244894   -0.00425767915388727   -0.00012174408287359318
-0.009894958754974868   -0.0004619843675586752   -0.00014161318855592133
-0.007600614666487235   -0.0004947487494320842   -9.059339262183543e-05
-0.009872644994448235   -0.004287384661776971   -0.00017459735090799924
-0.007585569055244894   -0.00425767915388727   -0.00012174408287359318
-0.0076179831132145645   -0.00046732732774770866   -8.895915490592808e-05
-0.009893513974132469   -0.004260653623339758   -0.00017026758198647945
-0.0076073891769141665   -0.004227440642571304   -0.00011231331957748276
-0.0076179831132145645   -0.00046732732774770866   -8.895915490592808e-05
-0.009894958754974868   -0.0004619843675586752   -0.00014161318855592133
-0.009893513974132469   -0.004260653623339758   -0.00017026758198647945
-0.009910213340910813   -0.00043216143886757084   -0.00014379717561708268
-0.0076073891769141665   -0.004227440642571304   -0.00011231331957748276
-0.009912210957080279   -0.0042316026173716895   -0.00016516840266526313
-0.009910213340910813   -0.00043216143886757084   -0.00014379717561708268
-0.009893513974132469   -0.004260653623339758   -0.00017026758198647945
-0.0076073891769141665   -0.004227440642571304   -0.00011231331957748276
-0.009910213340910813   -0.00043216143886757084   -0.00014379717561708268
-0.007636087787453904   -0.00043646127236804383   -8.762640100427901e-05
-0.0076179831132145645   -0.00046732732774770866   -8.895915490592808e-05
-0.0076073891769141665   -0.004227440642571304   -0.00011231331957748276
-0.009910213340910813   -0.00043216143886757084   -0.00014379717561708268
-0.0076179831132145645   -0.00046732732774770866   -8.895915490592808e-05
-0.009893513974132469   -0.004260653623339758   -0.00017026758198647945
-0.0076073891769141665   -0.004227440642571304   -0.00011231331957748276
-0.007636087787453904   -0.00043646127236804383   -8.762640100427901e-05
-0.009912210957080279   -0.0042316026173716895   -0.00016516840266526313
-0.00762717485028857   -0.004195179486864385   -0.00010252801346311482
-0.007636087787453904   -0.00043646127236804383   -8.762640100427901e-05
-0.009910213340910813   -0.00043216143886757084   -0.00014379717561708268
-0.009912210957080279   -0.0042316026173716895   -0.00016516840266526313
-0.009921570736568398   -0.0003995295531539985   -0.00014606435980242283
-0.00762717485028857   -0.004195179486864385   -0.00010252801346311482
-0.00992772343257185   -0.004200868755867368   -0.00016030481303216173
-0.009921570736568398   -0.0003995295531539985   -0.00014606435980242283
-0.009912210957080279   -0.0042316026173716895   -0.00016516840266526313
-0.00762717485028857   -0.004195179486864385   -0.00010252801346311482
-0.009921570736568398   -0.0003995295531539985   -0.00014606435980242283
-0.007650201264096252   -0.0004026909361515369   -8.665366407288444e-05
-0.007636087787453904   -0.00043646127236804383   -8.762640100427901e-05
-0.00762717485028857   -0.004195179486864385   -0.00010252801346311482
-0.009921570736568398   -0.0003995295531539985   -0.00014606435980242283
-0.007636087787453904   -0.00043646127236804383   -8.762640100427901e-05
-0.009912210957080279   -0.0042316026173716895   -0.00016516840266526313
              </DataArray>   
          </PointData>  
       </Piece>  
   </UnstructuredGrid> 
</VTKFile> 
