<?xml version="1.0"?> 
<VTKFile type="UnstructuredGrid"> 
   <UnstructuredGrid> 
      <Piece NumberOfPoints="6000"  NumberOfCells="1500">  
          <Points>  
             <DataArray type="Float64" NumberOfComponents="3" format="ascii">   
-500.0   0.0   0.0
-450.0   0.0   0.0
-500.0   30.0   0.0
-500.0   0.0   16.666666666666668
-450.0   0.0   0.0
-450.0   30.0   0.0
-500.0   30.0   0.0
-450.0   30.0   16.666666666666668
-500.0   0.0   16.666666666666668
-500.0   30.0   16.666666666666668
-450.0   30.0   16.666666666666668
-500.0   30.0   0.0
-500.0   0.0   16.666666666666668
-450.0   30.0   16.666666666666668
-450.0   0.0   16.666666666666668
-450.0   0.0   0.0
-500.0   0.0   16.666666666666668
-450.0   30.0   16.666666666666668
-450.0   0.0   0.0
-500.0   30.0   0.0
-500.0   0.0   16.666666666666668
-450.0   0.0   16.666666666666668
-500.0   30.0   16.666666666666668
-500.0   0.0   33.333333333333336
-450.0   0.0   16.666666666666668
-450.0   30.0   16.666666666666668
-500.0   30.0   16.666666666666668
-450.0   30.0   33.333333333333336
-500.0   0.0   33.333333333333336
-500.0   30.0   33.333333333333336
-450.0   30.0   33.333333333333336
-500.0   30.0   16.666666666666668
-500.0   0.0   33.333333333333336
-450.0   30.0   33.333333333333336
-450.0   0.0   33.333333333333336
-450.0   0.0   16.666666666666668
-500.0   0.0   33.333333333333336
-450.0   30.0   33.333333333333336
-450.0   0.0   16.666666666666668
-500.0   30.0   16.666666666666668
-500.0   0.0   33.333333333333336
-450.0   0.0   33.333333333333336
-500.0   30.0   33.333333333333336
-500.0   0.0   50.0
-450.0   0.0   33.333333333333336
-450.0   30.0   33.333333333333336
-500.0   30.0   33.333333333333336
-450.0   30.0   50.0
-500.0   0.0   50.0
-500.0   30.0   50.0
-450.0   30.0   50.0
-500.0   30.0   33.333333333333336
-500.0   0.0   50.0
-450.0   30.0   50.0
-450.0   0.0   50.0
-450.0   0.0   33.333333333333336
-500.0   0.0   50.0
-450.0   30.0   50.0
-450.0   0.0   33.333333333333336
-500.0   30.0   33.333333333333336
-500.0   30.0   0.0
-450.0   30.0   0.0
-500.0   60.0   0.0
-500.0   30.0   16.666666666666668
-450.0   30.0   0.0
-450.0   60.0   0.0
-500.0   60.0   0.0
-450.0   60.0   16.666666666666668
-500.0   30.0   16.666666666666668
-500.0   60.0   16.666666666666668
-450.0   60.0   16.666666666666668
-500.0   60.0   0.0
-500.0   30.0   16.666666666666668
-450.0   60.0   16.666666666666668
-450.0   30.0   16.666666666666668
-450.0   30.0   0.0
-500.0   30.0   16.666666666666668
-450.0   60.0   16.666666666666668
-450.0   30.0   0.0
-500.0   60.0   0.0
-500.0   30.0   16.666666666666668
-450.0   30.0   16.666666666666668
-500.0   60.0   16.666666666666668
-500.0   30.0   33.333333333333336
-450.0   30.0   16.666666666666668
-450.0   60.0   16.666666666666668
-500.0   60.0   16.666666666666668
-450.0   60.0   33.333333333333336
-500.0   30.0   33.333333333333336
-500.0   60.0   33.333333333333336
-450.0   60.0   33.333333333333336
-500.0   60.0   16.666666666666668
-500.0   30.0   33.333333333333336
-450.0   60.0   33.333333333333336
-450.0   30.0   33.333333333333336
-450.0   30.0   16.666666666666668
-500.0   30.0   33.333333333333336
-450.0   60.0   33.333333333333336
-450.0   30.0   16.666666666666668
-500.0   60.0   16.666666666666668
-500.0   30.0   33.333333333333336
-450.0   30.0   33.333333333333336
-500.0   60.0   33.333333333333336
-500.0   30.0   50.0
-450.0   30.0   33.333333333333336
-450.0   60.0   33.333333333333336
-500.0   60.0   33.333333333333336
-450.0   60.0   50.0
-500.0   30.0   50.0
-500.0   60.0   50.0
-450.0   60.0   50.0
-500.0   60.0   33.333333333333336
-500.0   30.0   50.0
-450.0   60.0   50.0
-450.0   30.0   50.0
-450.0   30.0   33.333333333333336
-500.0   30.0   50.0
-450.0   60.0   50.0
-450.0   30.0   33.333333333333336
-500.0   60.0   33.333333333333336
-500.0   60.0   0.0
-450.0   60.0   0.0
-500.0   90.0   0.0
-500.0   60.0   16.666666666666668
-450.0   60.0   0.0
-450.0   90.0   0.0
-500.0   90.0   0.0
-450.0   90.0   16.666666666666668
-500.0   60.0   16.666666666666668
-500.0   90.0   16.666666666666668
-450.0   90.0   16.666666666666668
-500.0   90.0   0.0
-500.0   60.0   16.666666666666668
-450.0   90.0   16.666666666666668
-450.0   60.0   16.666666666666668
-450.0   60.0   0.0
-500.0   60.0   16.666666666666668
-450.0   90.0   16.666666666666668
-450.0   60.0   0.0
-500.0   90.0   0.0
-500.0   60.0   16.666666666666668
-450.0   60.0   16.666666666666668
-500.0   90.0   16.666666666666668
-500.0   60.0   33.333333333333336
-450.0   60.0   16.666666666666668
-450.0   90.0   16.666666666666668
-500.0   90.0   16.666666666666668
-450.0   90.0   33.333333333333336
-500.0   60.0   33.333333333333336
-500.0   90.0   33.333333333333336
-450.0   90.0   33.333333333333336
-500.0   90.0   16.666666666666668
-500.0   60.0   33.333333333333336
-450.0   90.0   33.333333333333336
-450.0   60.0   33.333333333333336
-450.0   60.0   16.666666666666668
-500.0   60.0   33.333333333333336
-450.0   90.0   33.333333333333336
-450.0   60.0   16.666666666666668
-500.0   90.0   16.666666666666668
-500.0   60.0   33.333333333333336
-450.0   60.0   33.333333333333336
-500.0   90.0   33.333333333333336
-500.0   60.0   50.0
-450.0   60.0   33.333333333333336
-450.0   90.0   33.333333333333336
-500.0   90.0   33.333333333333336
-450.0   90.0   50.0
-500.0   60.0   50.0
-500.0   90.0   50.0
-450.0   90.0   50.0
-500.0   90.0   33.333333333333336
-500.0   60.0   50.0
-450.0   90.0   50.0
-450.0   60.0   50.0
-450.0   60.0   33.333333333333336
-500.0   60.0   50.0
-450.0   90.0   50.0
-450.0   60.0   33.333333333333336
-500.0   90.0   33.333333333333336
-500.0   90.0   0.0
-450.0   90.0   0.0
-500.0   120.0   0.0
-500.0   90.0   16.666666666666668
-450.0   90.0   0.0
-450.0   120.0   0.0
-500.0   120.0   0.0
-450.0   120.0   16.666666666666668
-500.0   90.0   16.666666666666668
-500.0   120.0   16.666666666666668
-450.0   120.0   16.666666666666668
-500.0   120.0   0.0
-500.0   90.0   16.666666666666668
-450.0   120.0   16.666666666666668
-450.0   90.0   16.666666666666668
-450.0   90.0   0.0
-500.0   90.0   16.666666666666668
-450.0   120.0   16.666666666666668
-450.0   90.0   0.0
-500.0   120.0   0.0
-500.0   90.0   16.666666666666668
-450.0   90.0   16.666666666666668
-500.0   120.0   16.666666666666668
-500.0   90.0   33.333333333333336
-450.0   90.0   16.666666666666668
-450.0   120.0   16.666666666666668
-500.0   120.0   16.666666666666668
-450.0   120.0   33.333333333333336
-500.0   90.0   33.333333333333336
-500.0   120.0   33.333333333333336
-450.0   120.0   33.333333333333336
-500.0   120.0   16.666666666666668
-500.0   90.0   33.333333333333336
-450.0   120.0   33.333333333333336
-450.0   90.0   33.333333333333336
-450.0   90.0   16.666666666666668
-500.0   90.0   33.333333333333336
-450.0   120.0   33.333333333333336
-450.0   90.0   16.666666666666668
-500.0   120.0   16.666666666666668
-500.0   90.0   33.333333333333336
-450.0   90.0   33.333333333333336
-500.0   120.0   33.333333333333336
-500.0   90.0   50.0
-450.0   90.0   33.333333333333336
-450.0   120.0   33.333333333333336
-500.0   120.0   33.333333333333336
-450.0   120.0   50.0
-500.0   90.0   50.0
-500.0   120.0   50.0
-450.0   120.0   50.0
-500.0   120.0   33.333333333333336
-500.0   90.0   50.0
-450.0   120.0   50.0
-450.0   90.0   50.0
-450.0   90.0   33.333333333333336
-500.0   90.0   50.0
-450.0   120.0   50.0
-450.0   90.0   33.333333333333336
-500.0   120.0   33.333333333333336
-500.0   120.0   0.0
-450.0   120.0   0.0
-500.0   150.0   0.0
-500.0   120.0   16.666666666666668
-450.0   120.0   0.0
-450.0   150.0   0.0
-500.0   150.0   0.0
-450.0   150.0   16.666666666666668
-500.0   120.0   16.666666666666668
-500.0   150.0   16.666666666666668
-450.0   150.0   16.666666666666668
-500.0   150.0   0.0
-500.0   120.0   16.666666666666668
-450.0   150.0   16.666666666666668
-450.0   120.0   16.666666666666668
-450.0   120.0   0.0
-500.0   120.0   16.666666666666668
-450.0   150.0   16.666666666666668
-450.0   120.0   0.0
-500.0   150.0   0.0
-500.0   120.0   16.666666666666668
-450.0   120.0   16.666666666666668
-500.0   150.0   16.666666666666668
-500.0   120.0   33.333333333333336
-450.0   120.0   16.666666666666668
-450.0   150.0   16.666666666666668
-500.0   150.0   16.666666666666668
-450.0   150.0   33.333333333333336
-500.0   120.0   33.333333333333336
-500.0   150.0   33.333333333333336
-450.0   150.0   33.333333333333336
-500.0   150.0   16.666666666666668
-500.0   120.0   33.333333333333336
-450.0   150.0   33.333333333333336
-450.0   120.0   33.333333333333336
-450.0   120.0   16.666666666666668
-500.0   120.0   33.333333333333336
-450.0   150.0   33.333333333333336
-450.0   120.0   16.666666666666668
-500.0   150.0   16.666666666666668
-500.0   120.0   33.333333333333336
-450.0   120.0   33.333333333333336
-500.0   150.0   33.333333333333336
-500.0   120.0   50.0
-450.0   120.0   33.333333333333336
-450.0   150.0   33.333333333333336
-500.0   150.0   33.333333333333336
-450.0   150.0   50.0
-500.0   120.0   50.0
-500.0   150.0   50.0
-450.0   150.0   50.0
-500.0   150.0   33.333333333333336
-500.0   120.0   50.0
-450.0   150.0   50.0
-450.0   120.0   50.0
-450.0   120.0   33.333333333333336
-500.0   120.0   50.0
-450.0   150.0   50.0
-450.0   120.0   33.333333333333336
-500.0   150.0   33.333333333333336
-450.0   0.0   0.0
-400.0   0.0   0.0
-450.0   30.0   0.0
-450.0   0.0   16.666666666666668
-400.0   0.0   0.0
-400.0   30.0   0.0
-450.0   30.0   0.0
-400.0   30.0   16.666666666666668
-450.0   0.0   16.666666666666668
-450.0   30.0   16.666666666666668
-400.0   30.0   16.666666666666668
-450.0   30.0   0.0
-450.0   0.0   16.666666666666668
-400.0   30.0   16.666666666666668
-400.0   0.0   16.666666666666668
-400.0   0.0   0.0
-450.0   0.0   16.666666666666668
-400.0   30.0   16.666666666666668
-400.0   0.0   0.0
-450.0   30.0   0.0
-450.0   0.0   16.666666666666668
-400.0   0.0   16.666666666666668
-450.0   30.0   16.666666666666668
-450.0   0.0   33.333333333333336
-400.0   0.0   16.666666666666668
-400.0   30.0   16.666666666666668
-450.0   30.0   16.666666666666668
-400.0   30.0   33.333333333333336
-450.0   0.0   33.333333333333336
-450.0   30.0   33.333333333333336
-400.0   30.0   33.333333333333336
-450.0   30.0   16.666666666666668
-450.0   0.0   33.333333333333336
-400.0   30.0   33.333333333333336
-400.0   0.0   33.333333333333336
-400.0   0.0   16.666666666666668
-450.0   0.0   33.333333333333336
-400.0   30.0   33.333333333333336
-400.0   0.0   16.666666666666668
-450.0   30.0   16.666666666666668
-450.0   0.0   33.333333333333336
-400.0   0.0   33.333333333333336
-450.0   30.0   33.333333333333336
-450.0   0.0   50.0
-400.0   0.0   33.333333333333336
-400.0   30.0   33.333333333333336
-450.0   30.0   33.333333333333336
-400.0   30.0   50.0
-450.0   0.0   50.0
-450.0   30.0   50.0
-400.0   30.0   50.0
-450.0   30.0   33.333333333333336
-450.0   0.0   50.0
-400.0   30.0   50.0
-400.0   0.0   50.0
-400.0   0.0   33.333333333333336
-450.0   0.0   50.0
-400.0   30.0   50.0
-400.0   0.0   33.333333333333336
-450.0   30.0   33.333333333333336
-450.0   30.0   0.0
-400.0   30.0   0.0
-450.0   60.0   0.0
-450.0   30.0   16.666666666666668
-400.0   30.0   0.0
-400.0   60.0   0.0
-450.0   60.0   0.0
-400.0   60.0   16.666666666666668
-450.0   30.0   16.666666666666668
-450.0   60.0   16.666666666666668
-400.0   60.0   16.666666666666668
-450.0   60.0   0.0
-450.0   30.0   16.666666666666668
-400.0   60.0   16.666666666666668
-400.0   30.0   16.666666666666668
-400.0   30.0   0.0
-450.0   30.0   16.666666666666668
-400.0   60.0   16.666666666666668
-400.0   30.0   0.0
-450.0   60.0   0.0
-450.0   30.0   16.666666666666668
-400.0   30.0   16.666666666666668
-450.0   60.0   16.666666666666668
-450.0   30.0   33.333333333333336
-400.0   30.0   16.666666666666668
-400.0   60.0   16.666666666666668
-450.0   60.0   16.666666666666668
-400.0   60.0   33.333333333333336
-450.0   30.0   33.333333333333336
-450.0   60.0   33.333333333333336
-400.0   60.0   33.333333333333336
-450.0   60.0   16.666666666666668
-450.0   30.0   33.333333333333336
-400.0   60.0   33.333333333333336
-400.0   30.0   33.333333333333336
-400.0   30.0   16.666666666666668
-450.0   30.0   33.333333333333336
-400.0   60.0   33.333333333333336
-400.0   30.0   16.666666666666668
-450.0   60.0   16.666666666666668
-450.0   30.0   33.333333333333336
-400.0   30.0   33.333333333333336
-450.0   60.0   33.333333333333336
-450.0   30.0   50.0
-400.0   30.0   33.333333333333336
-400.0   60.0   33.333333333333336
-450.0   60.0   33.333333333333336
-400.0   60.0   50.0
-450.0   30.0   50.0
-450.0   60.0   50.0
-400.0   60.0   50.0
-450.0   60.0   33.333333333333336
-450.0   30.0   50.0
-400.0   60.0   50.0
-400.0   30.0   50.0
-400.0   30.0   33.333333333333336
-450.0   30.0   50.0
-400.0   60.0   50.0
-400.0   30.0   33.333333333333336
-450.0   60.0   33.333333333333336
-450.0   60.0   0.0
-400.0   60.0   0.0
-450.0   90.0   0.0
-450.0   60.0   16.666666666666668
-400.0   60.0   0.0
-400.0   90.0   0.0
-450.0   90.0   0.0
-400.0   90.0   16.666666666666668
-450.0   60.0   16.666666666666668
-450.0   90.0   16.666666666666668
-400.0   90.0   16.666666666666668
-450.0   90.0   0.0
-450.0   60.0   16.666666666666668
-400.0   90.0   16.666666666666668
-400.0   60.0   16.666666666666668
-400.0   60.0   0.0
-450.0   60.0   16.666666666666668
-400.0   90.0   16.666666666666668
-400.0   60.0   0.0
-450.0   90.0   0.0
-450.0   60.0   16.666666666666668
-400.0   60.0   16.666666666666668
-450.0   90.0   16.666666666666668
-450.0   60.0   33.333333333333336
-400.0   60.0   16.666666666666668
-400.0   90.0   16.666666666666668
-450.0   90.0   16.666666666666668
-400.0   90.0   33.333333333333336
-450.0   60.0   33.333333333333336
-450.0   90.0   33.333333333333336
-400.0   90.0   33.333333333333336
-450.0   90.0   16.666666666666668
-450.0   60.0   33.333333333333336
-400.0   90.0   33.333333333333336
-400.0   60.0   33.333333333333336
-400.0   60.0   16.666666666666668
-450.0   60.0   33.333333333333336
-400.0   90.0   33.333333333333336
-400.0   60.0   16.666666666666668
-450.0   90.0   16.666666666666668
-450.0   60.0   33.333333333333336
-400.0   60.0   33.333333333333336
-450.0   90.0   33.333333333333336
-450.0   60.0   50.0
-400.0   60.0   33.333333333333336
-400.0   90.0   33.333333333333336
-450.0   90.0   33.333333333333336
-400.0   90.0   50.0
-450.0   60.0   50.0
-450.0   90.0   50.0
-400.0   90.0   50.0
-450.0   90.0   33.333333333333336
-450.0   60.0   50.0
-400.0   90.0   50.0
-400.0   60.0   50.0
-400.0   60.0   33.333333333333336
-450.0   60.0   50.0
-400.0   90.0   50.0
-400.0   60.0   33.333333333333336
-450.0   90.0   33.333333333333336
-450.0   90.0   0.0
-400.0   90.0   0.0
-450.0   120.0   0.0
-450.0   90.0   16.666666666666668
-400.0   90.0   0.0
-400.0   120.0   0.0
-450.0   120.0   0.0
-400.0   120.0   16.666666666666668
-450.0   90.0   16.666666666666668
-450.0   120.0   16.666666666666668
-400.0   120.0   16.666666666666668
-450.0   120.0   0.0
-450.0   90.0   16.666666666666668
-400.0   120.0   16.666666666666668
-400.0   90.0   16.666666666666668
-400.0   90.0   0.0
-450.0   90.0   16.666666666666668
-400.0   120.0   16.666666666666668
-400.0   90.0   0.0
-450.0   120.0   0.0
-450.0   90.0   16.666666666666668
-400.0   90.0   16.666666666666668
-450.0   120.0   16.666666666666668
-450.0   90.0   33.333333333333336
-400.0   90.0   16.666666666666668
-400.0   120.0   16.666666666666668
-450.0   120.0   16.666666666666668
-400.0   120.0   33.333333333333336
-450.0   90.0   33.333333333333336
-450.0   120.0   33.333333333333336
-400.0   120.0   33.333333333333336
-450.0   120.0   16.666666666666668
-450.0   90.0   33.333333333333336
-400.0   120.0   33.333333333333336
-400.0   90.0   33.333333333333336
-400.0   90.0   16.666666666666668
-450.0   90.0   33.333333333333336
-400.0   120.0   33.333333333333336
-400.0   90.0   16.666666666666668
-450.0   120.0   16.666666666666668
-450.0   90.0   33.333333333333336
-400.0   90.0   33.333333333333336
-450.0   120.0   33.333333333333336
-450.0   90.0   50.0
-400.0   90.0   33.333333333333336
-400.0   120.0   33.333333333333336
-450.0   120.0   33.333333333333336
-400.0   120.0   50.0
-450.0   90.0   50.0
-450.0   120.0   50.0
-400.0   120.0   50.0
-450.0   120.0   33.333333333333336
-450.0   90.0   50.0
-400.0   120.0   50.0
-400.0   90.0   50.0
-400.0   90.0   33.333333333333336
-450.0   90.0   50.0
-400.0   120.0   50.0
-400.0   90.0   33.333333333333336
-450.0   120.0   33.333333333333336
-450.0   120.0   0.0
-400.0   120.0   0.0
-450.0   150.0   0.0
-450.0   120.0   16.666666666666668
-400.0   120.0   0.0
-400.0   150.0   0.0
-450.0   150.0   0.0
-400.0   150.0   16.666666666666668
-450.0   120.0   16.666666666666668
-450.0   150.0   16.666666666666668
-400.0   150.0   16.666666666666668
-450.0   150.0   0.0
-450.0   120.0   16.666666666666668
-400.0   150.0   16.666666666666668
-400.0   120.0   16.666666666666668
-400.0   120.0   0.0
-450.0   120.0   16.666666666666668
-400.0   150.0   16.666666666666668
-400.0   120.0   0.0
-450.0   150.0   0.0
-450.0   120.0   16.666666666666668
-400.0   120.0   16.666666666666668
-450.0   150.0   16.666666666666668
-450.0   120.0   33.333333333333336
-400.0   120.0   16.666666666666668
-400.0   150.0   16.666666666666668
-450.0   150.0   16.666666666666668
-400.0   150.0   33.333333333333336
-450.0   120.0   33.333333333333336
-450.0   150.0   33.333333333333336
-400.0   150.0   33.333333333333336
-450.0   150.0   16.666666666666668
-450.0   120.0   33.333333333333336
-400.0   150.0   33.333333333333336
-400.0   120.0   33.333333333333336
-400.0   120.0   16.666666666666668
-450.0   120.0   33.333333333333336
-400.0   150.0   33.333333333333336
-400.0   120.0   16.666666666666668
-450.0   150.0   16.666666666666668
-450.0   120.0   33.333333333333336
-400.0   120.0   33.333333333333336
-450.0   150.0   33.333333333333336
-450.0   120.0   50.0
-400.0   120.0   33.333333333333336
-400.0   150.0   33.333333333333336
-450.0   150.0   33.333333333333336
-400.0   150.0   50.0
-450.0   120.0   50.0
-450.0   150.0   50.0
-400.0   150.0   50.0
-450.0   150.0   33.333333333333336
-450.0   120.0   50.0
-400.0   150.0   50.0
-400.0   120.0   50.0
-400.0   120.0   33.333333333333336
-450.0   120.0   50.0
-400.0   150.0   50.0
-400.0   120.0   33.333333333333336
-450.0   150.0   33.333333333333336
-400.0   0.0   0.0
-350.0   0.0   0.0
-400.0   30.0   0.0
-400.0   0.0   16.666666666666668
-350.0   0.0   0.0
-350.0   30.0   0.0
-400.0   30.0   0.0
-350.0   30.0   16.666666666666668
-400.0   0.0   16.666666666666668
-400.0   30.0   16.666666666666668
-350.0   30.0   16.666666666666668
-400.0   30.0   0.0
-400.0   0.0   16.666666666666668
-350.0   30.0   16.666666666666668
-350.0   0.0   16.666666666666668
-350.0   0.0   0.0
-400.0   0.0   16.666666666666668
-350.0   30.0   16.666666666666668
-350.0   0.0   0.0
-400.0   30.0   0.0
-400.0   0.0   16.666666666666668
-350.0   0.0   16.666666666666668
-400.0   30.0   16.666666666666668
-400.0   0.0   33.333333333333336
-350.0   0.0   16.666666666666668
-350.0   30.0   16.666666666666668
-400.0   30.0   16.666666666666668
-350.0   30.0   33.333333333333336
-400.0   0.0   33.333333333333336
-400.0   30.0   33.333333333333336
-350.0   30.0   33.333333333333336
-400.0   30.0   16.666666666666668
-400.0   0.0   33.333333333333336
-350.0   30.0   33.333333333333336
-350.0   0.0   33.333333333333336
-350.0   0.0   16.666666666666668
-400.0   0.0   33.333333333333336
-350.0   30.0   33.333333333333336
-350.0   0.0   16.666666666666668
-400.0   30.0   16.666666666666668
-400.0   0.0   33.333333333333336
-350.0   0.0   33.333333333333336
-400.0   30.0   33.333333333333336
-400.0   0.0   50.0
-350.0   0.0   33.333333333333336
-350.0   30.0   33.333333333333336
-400.0   30.0   33.333333333333336
-350.0   30.0   50.0
-400.0   0.0   50.0
-400.0   30.0   50.0
-350.0   30.0   50.0
-400.0   30.0   33.333333333333336
-400.0   0.0   50.0
-350.0   30.0   50.0
-350.0   0.0   50.0
-350.0   0.0   33.333333333333336
-400.0   0.0   50.0
-350.0   30.0   50.0
-350.0   0.0   33.333333333333336
-400.0   30.0   33.333333333333336
-400.0   30.0   0.0
-350.0   30.0   0.0
-400.0   60.0   0.0
-400.0   30.0   16.666666666666668
-350.0   30.0   0.0
-350.0   60.0   0.0
-400.0   60.0   0.0
-350.0   60.0   16.666666666666668
-400.0   30.0   16.666666666666668
-400.0   60.0   16.666666666666668
-350.0   60.0   16.666666666666668
-400.0   60.0   0.0
-400.0   30.0   16.666666666666668
-350.0   60.0   16.666666666666668
-350.0   30.0   16.666666666666668
-350.0   30.0   0.0
-400.0   30.0   16.666666666666668
-350.0   60.0   16.666666666666668
-350.0   30.0   0.0
-400.0   60.0   0.0
-400.0   30.0   16.666666666666668
-350.0   30.0   16.666666666666668
-400.0   60.0   16.666666666666668
-400.0   30.0   33.333333333333336
-350.0   30.0   16.666666666666668
-350.0   60.0   16.666666666666668
-400.0   60.0   16.666666666666668
-350.0   60.0   33.333333333333336
-400.0   30.0   33.333333333333336
-400.0   60.0   33.333333333333336
-350.0   60.0   33.333333333333336
-400.0   60.0   16.666666666666668
-400.0   30.0   33.333333333333336
-350.0   60.0   33.333333333333336
-350.0   30.0   33.333333333333336
-350.0   30.0   16.666666666666668
-400.0   30.0   33.333333333333336
-350.0   60.0   33.333333333333336
-350.0   30.0   16.666666666666668
-400.0   60.0   16.666666666666668
-400.0   30.0   33.333333333333336
-350.0   30.0   33.333333333333336
-400.0   60.0   33.333333333333336
-400.0   30.0   50.0
-350.0   30.0   33.333333333333336
-350.0   60.0   33.333333333333336
-400.0   60.0   33.333333333333336
-350.0   60.0   50.0
-400.0   30.0   50.0
-400.0   60.0   50.0
-350.0   60.0   50.0
-400.0   60.0   33.333333333333336
-400.0   30.0   50.0
-350.0   60.0   50.0
-350.0   30.0   50.0
-350.0   30.0   33.333333333333336
-400.0   30.0   50.0
-350.0   60.0   50.0
-350.0   30.0   33.333333333333336
-400.0   60.0   33.333333333333336
-400.0   60.0   0.0
-350.0   60.0   0.0
-400.0   90.0   0.0
-400.0   60.0   16.666666666666668
-350.0   60.0   0.0
-350.0   90.0   0.0
-400.0   90.0   0.0
-350.0   90.0   16.666666666666668
-400.0   60.0   16.666666666666668
-400.0   90.0   16.666666666666668
-350.0   90.0   16.666666666666668
-400.0   90.0   0.0
-400.0   60.0   16.666666666666668
-350.0   90.0   16.666666666666668
-350.0   60.0   16.666666666666668
-350.0   60.0   0.0
-400.0   60.0   16.666666666666668
-350.0   90.0   16.666666666666668
-350.0   60.0   0.0
-400.0   90.0   0.0
-400.0   60.0   16.666666666666668
-350.0   60.0   16.666666666666668
-400.0   90.0   16.666666666666668
-400.0   60.0   33.333333333333336
-350.0   60.0   16.666666666666668
-350.0   90.0   16.666666666666668
-400.0   90.0   16.666666666666668
-350.0   90.0   33.333333333333336
-400.0   60.0   33.333333333333336
-400.0   90.0   33.333333333333336
-350.0   90.0   33.333333333333336
-400.0   90.0   16.666666666666668
-400.0   60.0   33.333333333333336
-350.0   90.0   33.333333333333336
-350.0   60.0   33.333333333333336
-350.0   60.0   16.666666666666668
-400.0   60.0   33.333333333333336
-350.0   90.0   33.333333333333336
-350.0   60.0   16.666666666666668
-400.0   90.0   16.666666666666668
-400.0   60.0   33.333333333333336
-350.0   60.0   33.333333333333336
-400.0   90.0   33.333333333333336
-400.0   60.0   50.0
-350.0   60.0   33.333333333333336
-350.0   90.0   33.333333333333336
-400.0   90.0   33.333333333333336
-350.0   90.0   50.0
-400.0   60.0   50.0
-400.0   90.0   50.0
-350.0   90.0   50.0
-400.0   90.0   33.333333333333336
-400.0   60.0   50.0
-350.0   90.0   50.0
-350.0   60.0   50.0
-350.0   60.0   33.333333333333336
-400.0   60.0   50.0
-350.0   90.0   50.0
-350.0   60.0   33.333333333333336
-400.0   90.0   33.333333333333336
-400.0   90.0   0.0
-350.0   90.0   0.0
-400.0   120.0   0.0
-400.0   90.0   16.666666666666668
-350.0   90.0   0.0
-350.0   120.0   0.0
-400.0   120.0   0.0
-350.0   120.0   16.666666666666668
-400.0   90.0   16.666666666666668
-400.0   120.0   16.666666666666668
-350.0   120.0   16.666666666666668
-400.0   120.0   0.0
-400.0   90.0   16.666666666666668
-350.0   120.0   16.666666666666668
-350.0   90.0   16.666666666666668
-350.0   90.0   0.0
-400.0   90.0   16.666666666666668
-350.0   120.0   16.666666666666668
-350.0   90.0   0.0
-400.0   120.0   0.0
-400.0   90.0   16.666666666666668
-350.0   90.0   16.666666666666668
-400.0   120.0   16.666666666666668
-400.0   90.0   33.333333333333336
-350.0   90.0   16.666666666666668
-350.0   120.0   16.666666666666668
-400.0   120.0   16.666666666666668
-350.0   120.0   33.333333333333336
-400.0   90.0   33.333333333333336
-400.0   120.0   33.333333333333336
-350.0   120.0   33.333333333333336
-400.0   120.0   16.666666666666668
-400.0   90.0   33.333333333333336
-350.0   120.0   33.333333333333336
-350.0   90.0   33.333333333333336
-350.0   90.0   16.666666666666668
-400.0   90.0   33.333333333333336
-350.0   120.0   33.333333333333336
-350.0   90.0   16.666666666666668
-400.0   120.0   16.666666666666668
-400.0   90.0   33.333333333333336
-350.0   90.0   33.333333333333336
-400.0   120.0   33.333333333333336
-400.0   90.0   50.0
-350.0   90.0   33.333333333333336
-350.0   120.0   33.333333333333336
-400.0   120.0   33.333333333333336
-350.0   120.0   50.0
-400.0   90.0   50.0
-400.0   120.0   50.0
-350.0   120.0   50.0
-400.0   120.0   33.333333333333336
-400.0   90.0   50.0
-350.0   120.0   50.0
-350.0   90.0   50.0
-350.0   90.0   33.333333333333336
-400.0   90.0   50.0
-350.0   120.0   50.0
-350.0   90.0   33.333333333333336
-400.0   120.0   33.333333333333336
-400.0   120.0   0.0
-350.0   120.0   0.0
-400.0   150.0   0.0
-400.0   120.0   16.666666666666668
-350.0   120.0   0.0
-350.0   150.0   0.0
-400.0   150.0   0.0
-350.0   150.0   16.666666666666668
-400.0   120.0   16.666666666666668
-400.0   150.0   16.666666666666668
-350.0   150.0   16.666666666666668
-400.0   150.0   0.0
-400.0   120.0   16.666666666666668
-350.0   150.0   16.666666666666668
-350.0   120.0   16.666666666666668
-350.0   120.0   0.0
-400.0   120.0   16.666666666666668
-350.0   150.0   16.666666666666668
-350.0   120.0   0.0
-400.0   150.0   0.0
-400.0   120.0   16.666666666666668
-350.0   120.0   16.666666666666668
-400.0   150.0   16.666666666666668
-400.0   120.0   33.333333333333336
-350.0   120.0   16.666666666666668
-350.0   150.0   16.666666666666668
-400.0   150.0   16.666666666666668
-350.0   150.0   33.333333333333336
-400.0   120.0   33.333333333333336
-400.0   150.0   33.333333333333336
-350.0   150.0   33.333333333333336
-400.0   150.0   16.666666666666668
-400.0   120.0   33.333333333333336
-350.0   150.0   33.333333333333336
-350.0   120.0   33.333333333333336
-350.0   120.0   16.666666666666668
-400.0   120.0   33.333333333333336
-350.0   150.0   33.333333333333336
-350.0   120.0   16.666666666666668
-400.0   150.0   16.666666666666668
-400.0   120.0   33.333333333333336
-350.0   120.0   33.333333333333336
-400.0   150.0   33.333333333333336
-400.0   120.0   50.0
-350.0   120.0   33.333333333333336
-350.0   150.0   33.333333333333336
-400.0   150.0   33.333333333333336
-350.0   150.0   50.0
-400.0   120.0   50.0
-400.0   150.0   50.0
-350.0   150.0   50.0
-400.0   150.0   33.333333333333336
-400.0   120.0   50.0
-350.0   150.0   50.0
-350.0   120.0   50.0
-350.0   120.0   33.333333333333336
-400.0   120.0   50.0
-350.0   150.0   50.0
-350.0   120.0   33.333333333333336
-400.0   150.0   33.333333333333336
-350.0   0.0   0.0
-300.0   0.0   0.0
-350.0   30.0   0.0
-350.0   0.0   16.666666666666668
-300.0   0.0   0.0
-300.0   30.0   0.0
-350.0   30.0   0.0
-300.0   30.0   16.666666666666668
-350.0   0.0   16.666666666666668
-350.0   30.0   16.666666666666668
-300.0   30.0   16.666666666666668
-350.0   30.0   0.0
-350.0   0.0   16.666666666666668
-300.0   30.0   16.666666666666668
-300.0   0.0   16.666666666666668
-300.0   0.0   0.0
-350.0   0.0   16.666666666666668
-300.0   30.0   16.666666666666668
-300.0   0.0   0.0
-350.0   30.0   0.0
-350.0   0.0   16.666666666666668
-300.0   0.0   16.666666666666668
-350.0   30.0   16.666666666666668
-350.0   0.0   33.333333333333336
-300.0   0.0   16.666666666666668
-300.0   30.0   16.666666666666668
-350.0   30.0   16.666666666666668
-300.0   30.0   33.333333333333336
-350.0   0.0   33.333333333333336
-350.0   30.0   33.333333333333336
-300.0   30.0   33.333333333333336
-350.0   30.0   16.666666666666668
-350.0   0.0   33.333333333333336
-300.0   30.0   33.333333333333336
-300.0   0.0   33.333333333333336
-300.0   0.0   16.666666666666668
-350.0   0.0   33.333333333333336
-300.0   30.0   33.333333333333336
-300.0   0.0   16.666666666666668
-350.0   30.0   16.666666666666668
-350.0   0.0   33.333333333333336
-300.0   0.0   33.333333333333336
-350.0   30.0   33.333333333333336
-350.0   0.0   50.0
-300.0   0.0   33.333333333333336
-300.0   30.0   33.333333333333336
-350.0   30.0   33.333333333333336
-300.0   30.0   50.0
-350.0   0.0   50.0
-350.0   30.0   50.0
-300.0   30.0   50.0
-350.0   30.0   33.333333333333336
-350.0   0.0   50.0
-300.0   30.0   50.0
-300.0   0.0   50.0
-300.0   0.0   33.333333333333336
-350.0   0.0   50.0
-300.0   30.0   50.0
-300.0   0.0   33.333333333333336
-350.0   30.0   33.333333333333336
-350.0   30.0   0.0
-300.0   30.0   0.0
-350.0   60.0   0.0
-350.0   30.0   16.666666666666668
-300.0   30.0   0.0
-300.0   60.0   0.0
-350.0   60.0   0.0
-300.0   60.0   16.666666666666668
-350.0   30.0   16.666666666666668
-350.0   60.0   16.666666666666668
-300.0   60.0   16.666666666666668
-350.0   60.0   0.0
-350.0   30.0   16.666666666666668
-300.0   60.0   16.666666666666668
-300.0   30.0   16.666666666666668
-300.0   30.0   0.0
-350.0   30.0   16.666666666666668
-300.0   60.0   16.666666666666668
-300.0   30.0   0.0
-350.0   60.0   0.0
-350.0   30.0   16.666666666666668
-300.0   30.0   16.666666666666668
-350.0   60.0   16.666666666666668
-350.0   30.0   33.333333333333336
-300.0   30.0   16.666666666666668
-300.0   60.0   16.666666666666668
-350.0   60.0   16.666666666666668
-300.0   60.0   33.333333333333336
-350.0   30.0   33.333333333333336
-350.0   60.0   33.333333333333336
-300.0   60.0   33.333333333333336
-350.0   60.0   16.666666666666668
-350.0   30.0   33.333333333333336
-300.0   60.0   33.333333333333336
-300.0   30.0   33.333333333333336
-300.0   30.0   16.666666666666668
-350.0   30.0   33.333333333333336
-300.0   60.0   33.333333333333336
-300.0   30.0   16.666666666666668
-350.0   60.0   16.666666666666668
-350.0   30.0   33.333333333333336
-300.0   30.0   33.333333333333336
-350.0   60.0   33.333333333333336
-350.0   30.0   50.0
-300.0   30.0   33.333333333333336
-300.0   60.0   33.333333333333336
-350.0   60.0   33.333333333333336
-300.0   60.0   50.0
-350.0   30.0   50.0
-350.0   60.0   50.0
-300.0   60.0   50.0
-350.0   60.0   33.333333333333336
-350.0   30.0   50.0
-300.0   60.0   50.0
-300.0   30.0   50.0
-300.0   30.0   33.333333333333336
-350.0   30.0   50.0
-300.0   60.0   50.0
-300.0   30.0   33.333333333333336
-350.0   60.0   33.333333333333336
-350.0   60.0   0.0
-300.0   60.0   0.0
-350.0   90.0   0.0
-350.0   60.0   16.666666666666668
-300.0   60.0   0.0
-300.0   90.0   0.0
-350.0   90.0   0.0
-300.0   90.0   16.666666666666668
-350.0   60.0   16.666666666666668
-350.0   90.0   16.666666666666668
-300.0   90.0   16.666666666666668
-350.0   90.0   0.0
-350.0   60.0   16.666666666666668
-300.0   90.0   16.666666666666668
-300.0   60.0   16.666666666666668
-300.0   60.0   0.0
-350.0   60.0   16.666666666666668
-300.0   90.0   16.666666666666668
-300.0   60.0   0.0
-350.0   90.0   0.0
-350.0   60.0   16.666666666666668
-300.0   60.0   16.666666666666668
-350.0   90.0   16.666666666666668
-350.0   60.0   33.333333333333336
-300.0   60.0   16.666666666666668
-300.0   90.0   16.666666666666668
-350.0   90.0   16.666666666666668
-300.0   90.0   33.333333333333336
-350.0   60.0   33.333333333333336
-350.0   90.0   33.333333333333336
-300.0   90.0   33.333333333333336
-350.0   90.0   16.666666666666668
-350.0   60.0   33.333333333333336
-300.0   90.0   33.333333333333336
-300.0   60.0   33.333333333333336
-300.0   60.0   16.666666666666668
-350.0   60.0   33.333333333333336
-300.0   90.0   33.333333333333336
-300.0   60.0   16.666666666666668
-350.0   90.0   16.666666666666668
-350.0   60.0   33.333333333333336
-300.0   60.0   33.333333333333336
-350.0   90.0   33.333333333333336
-350.0   60.0   50.0
-300.0   60.0   33.333333333333336
-300.0   90.0   33.333333333333336
-350.0   90.0   33.333333333333336
-300.0   90.0   50.0
-350.0   60.0   50.0
-350.0   90.0   50.0
-300.0   90.0   50.0
-350.0   90.0   33.333333333333336
-350.0   60.0   50.0
-300.0   90.0   50.0
-300.0   60.0   50.0
-300.0   60.0   33.333333333333336
-350.0   60.0   50.0
-300.0   90.0   50.0
-300.0   60.0   33.333333333333336
-350.0   90.0   33.333333333333336
-350.0   90.0   0.0
-300.0   90.0   0.0
-350.0   120.0   0.0
-350.0   90.0   16.666666666666668
-300.0   90.0   0.0
-300.0   120.0   0.0
-350.0   120.0   0.0
-300.0   120.0   16.666666666666668
-350.0   90.0   16.666666666666668
-350.0   120.0   16.666666666666668
-300.0   120.0   16.666666666666668
-350.0   120.0   0.0
-350.0   90.0   16.666666666666668
-300.0   120.0   16.666666666666668
-300.0   90.0   16.666666666666668
-300.0   90.0   0.0
-350.0   90.0   16.666666666666668
-300.0   120.0   16.666666666666668
-300.0   90.0   0.0
-350.0   120.0   0.0
-350.0   90.0   16.666666666666668
-300.0   90.0   16.666666666666668
-350.0   120.0   16.666666666666668
-350.0   90.0   33.333333333333336
-300.0   90.0   16.666666666666668
-300.0   120.0   16.666666666666668
-350.0   120.0   16.666666666666668
-300.0   120.0   33.333333333333336
-350.0   90.0   33.333333333333336
-350.0   120.0   33.333333333333336
-300.0   120.0   33.333333333333336
-350.0   120.0   16.666666666666668
-350.0   90.0   33.333333333333336
-300.0   120.0   33.333333333333336
-300.0   90.0   33.333333333333336
-300.0   90.0   16.666666666666668
-350.0   90.0   33.333333333333336
-300.0   120.0   33.333333333333336
-300.0   90.0   16.666666666666668
-350.0   120.0   16.666666666666668
-350.0   90.0   33.333333333333336
-300.0   90.0   33.333333333333336
-350.0   120.0   33.333333333333336
-350.0   90.0   50.0
-300.0   90.0   33.333333333333336
-300.0   120.0   33.333333333333336
-350.0   120.0   33.333333333333336
-300.0   120.0   50.0
-350.0   90.0   50.0
-350.0   120.0   50.0
-300.0   120.0   50.0
-350.0   120.0   33.333333333333336
-350.0   90.0   50.0
-300.0   120.0   50.0
-300.0   90.0   50.0
-300.0   90.0   33.333333333333336
-350.0   90.0   50.0
-300.0   120.0   50.0
-300.0   90.0   33.333333333333336
-350.0   120.0   33.333333333333336
-350.0   120.0   0.0
-300.0   120.0   0.0
-350.0   150.0   0.0
-350.0   120.0   16.666666666666668
-300.0   120.0   0.0
-300.0   150.0   0.0
-350.0   150.0   0.0
-300.0   150.0   16.666666666666668
-350.0   120.0   16.666666666666668
-350.0   150.0   16.666666666666668
-300.0   150.0   16.666666666666668
-350.0   150.0   0.0
-350.0   120.0   16.666666666666668
-300.0   150.0   16.666666666666668
-300.0   120.0   16.666666666666668
-300.0   120.0   0.0
-350.0   120.0   16.666666666666668
-300.0   150.0   16.666666666666668
-300.0   120.0   0.0
-350.0   150.0   0.0
-350.0   120.0   16.666666666666668
-300.0   120.0   16.666666666666668
-350.0   150.0   16.666666666666668
-350.0   120.0   33.333333333333336
-300.0   120.0   16.666666666666668
-300.0   150.0   16.666666666666668
-350.0   150.0   16.666666666666668
-300.0   150.0   33.333333333333336
-350.0   120.0   33.333333333333336
-350.0   150.0   33.333333333333336
-300.0   150.0   33.333333333333336
-350.0   150.0   16.666666666666668
-350.0   120.0   33.333333333333336
-300.0   150.0   33.333333333333336
-300.0   120.0   33.333333333333336
-300.0   120.0   16.666666666666668
-350.0   120.0   33.333333333333336
-300.0   150.0   33.333333333333336
-300.0   120.0   16.666666666666668
-350.0   150.0   16.666666666666668
-350.0   120.0   33.333333333333336
-300.0   120.0   33.333333333333336
-350.0   150.0   33.333333333333336
-350.0   120.0   50.0
-300.0   120.0   33.333333333333336
-300.0   150.0   33.333333333333336
-350.0   150.0   33.333333333333336
-300.0   150.0   50.0
-350.0   120.0   50.0
-350.0   150.0   50.0
-300.0   150.0   50.0
-350.0   150.0   33.333333333333336
-350.0   120.0   50.0
-300.0   150.0   50.0
-300.0   120.0   50.0
-300.0   120.0   33.333333333333336
-350.0   120.0   50.0
-300.0   150.0   50.0
-300.0   120.0   33.333333333333336
-350.0   150.0   33.333333333333336
-300.0   0.0   0.0
-250.0   0.0   0.0
-300.0   30.0   0.0
-300.0   0.0   16.666666666666668
-250.0   0.0   0.0
-250.0   30.0   0.0
-300.0   30.0   0.0
-250.0   30.0   16.666666666666668
-300.0   0.0   16.666666666666668
-300.0   30.0   16.666666666666668
-250.0   30.0   16.666666666666668
-300.0   30.0   0.0
-300.0   0.0   16.666666666666668
-250.0   30.0   16.666666666666668
-250.0   0.0   16.666666666666668
-250.0   0.0   0.0
-300.0   0.0   16.666666666666668
-250.0   30.0   16.666666666666668
-250.0   0.0   0.0
-300.0   30.0   0.0
-300.0   0.0   16.666666666666668
-250.0   0.0   16.666666666666668
-300.0   30.0   16.666666666666668
-300.0   0.0   33.333333333333336
-250.0   0.0   16.666666666666668
-250.0   30.0   16.666666666666668
-300.0   30.0   16.666666666666668
-250.0   30.0   33.333333333333336
-300.0   0.0   33.333333333333336
-300.0   30.0   33.333333333333336
-250.0   30.0   33.333333333333336
-300.0   30.0   16.666666666666668
-300.0   0.0   33.333333333333336
-250.0   30.0   33.333333333333336
-250.0   0.0   33.333333333333336
-250.0   0.0   16.666666666666668
-300.0   0.0   33.333333333333336
-250.0   30.0   33.333333333333336
-250.0   0.0   16.666666666666668
-300.0   30.0   16.666666666666668
-300.0   0.0   33.333333333333336
-250.0   0.0   33.333333333333336
-300.0   30.0   33.333333333333336
-300.0   0.0   50.0
-250.0   0.0   33.333333333333336
-250.0   30.0   33.333333333333336
-300.0   30.0   33.333333333333336
-250.0   30.0   50.0
-300.0   0.0   50.0
-300.0   30.0   50.0
-250.0   30.0   50.0
-300.0   30.0   33.333333333333336
-300.0   0.0   50.0
-250.0   30.0   50.0
-250.0   0.0   50.0
-250.0   0.0   33.333333333333336
-300.0   0.0   50.0
-250.0   30.0   50.0
-250.0   0.0   33.333333333333336
-300.0   30.0   33.333333333333336
-300.0   30.0   0.0
-250.0   30.0   0.0
-300.0   60.0   0.0
-300.0   30.0   16.666666666666668
-250.0   30.0   0.0
-250.0   60.0   0.0
-300.0   60.0   0.0
-250.0   60.0   16.666666666666668
-300.0   30.0   16.666666666666668
-300.0   60.0   16.666666666666668
-250.0   60.0   16.666666666666668
-300.0   60.0   0.0
-300.0   30.0   16.666666666666668
-250.0   60.0   16.666666666666668
-250.0   30.0   16.666666666666668
-250.0   30.0   0.0
-300.0   30.0   16.666666666666668
-250.0   60.0   16.666666666666668
-250.0   30.0   0.0
-300.0   60.0   0.0
-300.0   30.0   16.666666666666668
-250.0   30.0   16.666666666666668
-300.0   60.0   16.666666666666668
-300.0   30.0   33.333333333333336
-250.0   30.0   16.666666666666668
-250.0   60.0   16.666666666666668
-300.0   60.0   16.666666666666668
-250.0   60.0   33.333333333333336
-300.0   30.0   33.333333333333336
-300.0   60.0   33.333333333333336
-250.0   60.0   33.333333333333336
-300.0   60.0   16.666666666666668
-300.0   30.0   33.333333333333336
-250.0   60.0   33.333333333333336
-250.0   30.0   33.333333333333336
-250.0   30.0   16.666666666666668
-300.0   30.0   33.333333333333336
-250.0   60.0   33.333333333333336
-250.0   30.0   16.666666666666668
-300.0   60.0   16.666666666666668
-300.0   30.0   33.333333333333336
-250.0   30.0   33.333333333333336
-300.0   60.0   33.333333333333336
-300.0   30.0   50.0
-250.0   30.0   33.333333333333336
-250.0   60.0   33.333333333333336
-300.0   60.0   33.333333333333336
-250.0   60.0   50.0
-300.0   30.0   50.0
-300.0   60.0   50.0
-250.0   60.0   50.0
-300.0   60.0   33.333333333333336
-300.0   30.0   50.0
-250.0   60.0   50.0
-250.0   30.0   50.0
-250.0   30.0   33.333333333333336
-300.0   30.0   50.0
-250.0   60.0   50.0
-250.0   30.0   33.333333333333336
-300.0   60.0   33.333333333333336
-300.0   60.0   0.0
-250.0   60.0   0.0
-300.0   90.0   0.0
-300.0   60.0   16.666666666666668
-250.0   60.0   0.0
-250.0   90.0   0.0
-300.0   90.0   0.0
-250.0   90.0   16.666666666666668
-300.0   60.0   16.666666666666668
-300.0   90.0   16.666666666666668
-250.0   90.0   16.666666666666668
-300.0   90.0   0.0
-300.0   60.0   16.666666666666668
-250.0   90.0   16.666666666666668
-250.0   60.0   16.666666666666668
-250.0   60.0   0.0
-300.0   60.0   16.666666666666668
-250.0   90.0   16.666666666666668
-250.0   60.0   0.0
-300.0   90.0   0.0
-300.0   60.0   16.666666666666668
-250.0   60.0   16.666666666666668
-300.0   90.0   16.666666666666668
-300.0   60.0   33.333333333333336
-250.0   60.0   16.666666666666668
-250.0   90.0   16.666666666666668
-300.0   90.0   16.666666666666668
-250.0   90.0   33.333333333333336
-300.0   60.0   33.333333333333336
-300.0   90.0   33.333333333333336
-250.0   90.0   33.333333333333336
-300.0   90.0   16.666666666666668
-300.0   60.0   33.333333333333336
-250.0   90.0   33.333333333333336
-250.0   60.0   33.333333333333336
-250.0   60.0   16.666666666666668
-300.0   60.0   33.333333333333336
-250.0   90.0   33.333333333333336
-250.0   60.0   16.666666666666668
-300.0   90.0   16.666666666666668
-300.0   60.0   33.333333333333336
-250.0   60.0   33.333333333333336
-300.0   90.0   33.333333333333336
-300.0   60.0   50.0
-250.0   60.0   33.333333333333336
-250.0   90.0   33.333333333333336
-300.0   90.0   33.333333333333336
-250.0   90.0   50.0
-300.0   60.0   50.0
-300.0   90.0   50.0
-250.0   90.0   50.0
-300.0   90.0   33.333333333333336
-300.0   60.0   50.0
-250.0   90.0   50.0
-250.0   60.0   50.0
-250.0   60.0   33.333333333333336
-300.0   60.0   50.0
-250.0   90.0   50.0
-250.0   60.0   33.333333333333336
-300.0   90.0   33.333333333333336
-300.0   90.0   0.0
-250.0   90.0   0.0
-300.0   120.0   0.0
-300.0   90.0   16.666666666666668
-250.0   90.0   0.0
-250.0   120.0   0.0
-300.0   120.0   0.0
-250.0   120.0   16.666666666666668
-300.0   90.0   16.666666666666668
-300.0   120.0   16.666666666666668
-250.0   120.0   16.666666666666668
-300.0   120.0   0.0
-300.0   90.0   16.666666666666668
-250.0   120.0   16.666666666666668
-250.0   90.0   16.666666666666668
-250.0   90.0   0.0
-300.0   90.0   16.666666666666668
-250.0   120.0   16.666666666666668
-250.0   90.0   0.0
-300.0   120.0   0.0
-300.0   90.0   16.666666666666668
-250.0   90.0   16.666666666666668
-300.0   120.0   16.666666666666668
-300.0   90.0   33.333333333333336
-250.0   90.0   16.666666666666668
-250.0   120.0   16.666666666666668
-300.0   120.0   16.666666666666668
-250.0   120.0   33.333333333333336
-300.0   90.0   33.333333333333336
-300.0   120.0   33.333333333333336
-250.0   120.0   33.333333333333336
-300.0   120.0   16.666666666666668
-300.0   90.0   33.333333333333336
-250.0   120.0   33.333333333333336
-250.0   90.0   33.333333333333336
-250.0   90.0   16.666666666666668
-300.0   90.0   33.333333333333336
-250.0   120.0   33.333333333333336
-250.0   90.0   16.666666666666668
-300.0   120.0   16.666666666666668
-300.0   90.0   33.333333333333336
-250.0   90.0   33.333333333333336
-300.0   120.0   33.333333333333336
-300.0   90.0   50.0
-250.0   90.0   33.333333333333336
-250.0   120.0   33.333333333333336
-300.0   120.0   33.333333333333336
-250.0   120.0   50.0
-300.0   90.0   50.0
-300.0   120.0   50.0
-250.0   120.0   50.0
-300.0   120.0   33.333333333333336
-300.0   90.0   50.0
-250.0   120.0   50.0
-250.0   90.0   50.0
-250.0   90.0   33.333333333333336
-300.0   90.0   50.0
-250.0   120.0   50.0
-250.0   90.0   33.333333333333336
-300.0   120.0   33.333333333333336
-300.0   120.0   0.0
-250.0   120.0   0.0
-300.0   150.0   0.0
-300.0   120.0   16.666666666666668
-250.0   120.0   0.0
-250.0   150.0   0.0
-300.0   150.0   0.0
-250.0   150.0   16.666666666666668
-300.0   120.0   16.666666666666668
-300.0   150.0   16.666666666666668
-250.0   150.0   16.666666666666668
-300.0   150.0   0.0
-300.0   120.0   16.666666666666668
-250.0   150.0   16.666666666666668
-250.0   120.0   16.666666666666668
-250.0   120.0   0.0
-300.0   120.0   16.666666666666668
-250.0   150.0   16.666666666666668
-250.0   120.0   0.0
-300.0   150.0   0.0
-300.0   120.0   16.666666666666668
-250.0   120.0   16.666666666666668
-300.0   150.0   16.666666666666668
-300.0   120.0   33.333333333333336
-250.0   120.0   16.666666666666668
-250.0   150.0   16.666666666666668
-300.0   150.0   16.666666666666668
-250.0   150.0   33.333333333333336
-300.0   120.0   33.333333333333336
-300.0   150.0   33.333333333333336
-250.0   150.0   33.333333333333336
-300.0   150.0   16.666666666666668
-300.0   120.0   33.333333333333336
-250.0   150.0   33.333333333333336
-250.0   120.0   33.333333333333336
-250.0   120.0   16.666666666666668
-300.0   120.0   33.333333333333336
-250.0   150.0   33.333333333333336
-250.0   120.0   16.666666666666668
-300.0   150.0   16.666666666666668
-300.0   120.0   33.333333333333336
-250.0   120.0   33.333333333333336
-300.0   150.0   33.333333333333336
-300.0   120.0   50.0
-250.0   120.0   33.333333333333336
-250.0   150.0   33.333333333333336
-300.0   150.0   33.333333333333336
-250.0   150.0   50.0
-300.0   120.0   50.0
-300.0   150.0   50.0
-250.0   150.0   50.0
-300.0   150.0   33.333333333333336
-300.0   120.0   50.0
-250.0   150.0   50.0
-250.0   120.0   50.0
-250.0   120.0   33.333333333333336
-300.0   120.0   50.0
-250.0   150.0   50.0
-250.0   120.0   33.333333333333336
-300.0   150.0   33.333333333333336
-250.0   0.0   0.0
-200.0   0.0   0.0
-250.0   30.0   0.0
-250.0   0.0   16.666666666666668
-200.0   0.0   0.0
-200.0   30.0   0.0
-250.0   30.0   0.0
-200.0   30.0   16.666666666666668
-250.0   0.0   16.666666666666668
-250.0   30.0   16.666666666666668
-200.0   30.0   16.666666666666668
-250.0   30.0   0.0
-250.0   0.0   16.666666666666668
-200.0   30.0   16.666666666666668
-200.0   0.0   16.666666666666668
-200.0   0.0   0.0
-250.0   0.0   16.666666666666668
-200.0   30.0   16.666666666666668
-200.0   0.0   0.0
-250.0   30.0   0.0
-250.0   0.0   16.666666666666668
-200.0   0.0   16.666666666666668
-250.0   30.0   16.666666666666668
-250.0   0.0   33.333333333333336
-200.0   0.0   16.666666666666668
-200.0   30.0   16.666666666666668
-250.0   30.0   16.666666666666668
-200.0   30.0   33.333333333333336
-250.0   0.0   33.333333333333336
-250.0   30.0   33.333333333333336
-200.0   30.0   33.333333333333336
-250.0   30.0   16.666666666666668
-250.0   0.0   33.333333333333336
-200.0   30.0   33.333333333333336
-200.0   0.0   33.333333333333336
-200.0   0.0   16.666666666666668
-250.0   0.0   33.333333333333336
-200.0   30.0   33.333333333333336
-200.0   0.0   16.666666666666668
-250.0   30.0   16.666666666666668
-250.0   0.0   33.333333333333336
-200.0   0.0   33.333333333333336
-250.0   30.0   33.333333333333336
-250.0   0.0   50.0
-200.0   0.0   33.333333333333336
-200.0   30.0   33.333333333333336
-250.0   30.0   33.333333333333336
-200.0   30.0   50.0
-250.0   0.0   50.0
-250.0   30.0   50.0
-200.0   30.0   50.0
-250.0   30.0   33.333333333333336
-250.0   0.0   50.0
-200.0   30.0   50.0
-200.0   0.0   50.0
-200.0   0.0   33.333333333333336
-250.0   0.0   50.0
-200.0   30.0   50.0
-200.0   0.0   33.333333333333336
-250.0   30.0   33.333333333333336
-250.0   30.0   0.0
-200.0   30.0   0.0
-250.0   60.0   0.0
-250.0   30.0   16.666666666666668
-200.0   30.0   0.0
-200.0   60.0   0.0
-250.0   60.0   0.0
-200.0   60.0   16.666666666666668
-250.0   30.0   16.666666666666668
-250.0   60.0   16.666666666666668
-200.0   60.0   16.666666666666668
-250.0   60.0   0.0
-250.0   30.0   16.666666666666668
-200.0   60.0   16.666666666666668
-200.0   30.0   16.666666666666668
-200.0   30.0   0.0
-250.0   30.0   16.666666666666668
-200.0   60.0   16.666666666666668
-200.0   30.0   0.0
-250.0   60.0   0.0
-250.0   30.0   16.666666666666668
-200.0   30.0   16.666666666666668
-250.0   60.0   16.666666666666668
-250.0   30.0   33.333333333333336
-200.0   30.0   16.666666666666668
-200.0   60.0   16.666666666666668
-250.0   60.0   16.666666666666668
-200.0   60.0   33.333333333333336
-250.0   30.0   33.333333333333336
-250.0   60.0   33.333333333333336
-200.0   60.0   33.333333333333336
-250.0   60.0   16.666666666666668
-250.0   30.0   33.333333333333336
-200.0   60.0   33.333333333333336
-200.0   30.0   33.333333333333336
-200.0   30.0   16.666666666666668
-250.0   30.0   33.333333333333336
-200.0   60.0   33.333333333333336
-200.0   30.0   16.666666666666668
-250.0   60.0   16.666666666666668
-250.0   30.0   33.333333333333336
-200.0   30.0   33.333333333333336
-250.0   60.0   33.333333333333336
-250.0   30.0   50.0
-200.0   30.0   33.333333333333336
-200.0   60.0   33.333333333333336
-250.0   60.0   33.333333333333336
-200.0   60.0   50.0
-250.0   30.0   50.0
-250.0   60.0   50.0
-200.0   60.0   50.0
-250.0   60.0   33.333333333333336
-250.0   30.0   50.0
-200.0   60.0   50.0
-200.0   30.0   50.0
-200.0   30.0   33.333333333333336
-250.0   30.0   50.0
-200.0   60.0   50.0
-200.0   30.0   33.333333333333336
-250.0   60.0   33.333333333333336
-250.0   60.0   0.0
-200.0   60.0   0.0
-250.0   90.0   0.0
-250.0   60.0   16.666666666666668
-200.0   60.0   0.0
-200.0   90.0   0.0
-250.0   90.0   0.0
-200.0   90.0   16.666666666666668
-250.0   60.0   16.666666666666668
-250.0   90.0   16.666666666666668
-200.0   90.0   16.666666666666668
-250.0   90.0   0.0
-250.0   60.0   16.666666666666668
-200.0   90.0   16.666666666666668
-200.0   60.0   16.666666666666668
-200.0   60.0   0.0
-250.0   60.0   16.666666666666668
-200.0   90.0   16.666666666666668
-200.0   60.0   0.0
-250.0   90.0   0.0
-250.0   60.0   16.666666666666668
-200.0   60.0   16.666666666666668
-250.0   90.0   16.666666666666668
-250.0   60.0   33.333333333333336
-200.0   60.0   16.666666666666668
-200.0   90.0   16.666666666666668
-250.0   90.0   16.666666666666668
-200.0   90.0   33.333333333333336
-250.0   60.0   33.333333333333336
-250.0   90.0   33.333333333333336
-200.0   90.0   33.333333333333336
-250.0   90.0   16.666666666666668
-250.0   60.0   33.333333333333336
-200.0   90.0   33.333333333333336
-200.0   60.0   33.333333333333336
-200.0   60.0   16.666666666666668
-250.0   60.0   33.333333333333336
-200.0   90.0   33.333333333333336
-200.0   60.0   16.666666666666668
-250.0   90.0   16.666666666666668
-250.0   60.0   33.333333333333336
-200.0   60.0   33.333333333333336
-250.0   90.0   33.333333333333336
-250.0   60.0   50.0
-200.0   60.0   33.333333333333336
-200.0   90.0   33.333333333333336
-250.0   90.0   33.333333333333336
-200.0   90.0   50.0
-250.0   60.0   50.0
-250.0   90.0   50.0
-200.0   90.0   50.0
-250.0   90.0   33.333333333333336
-250.0   60.0   50.0
-200.0   90.0   50.0
-200.0   60.0   50.0
-200.0   60.0   33.333333333333336
-250.0   60.0   50.0
-200.0   90.0   50.0
-200.0   60.0   33.333333333333336
-250.0   90.0   33.333333333333336
-250.0   90.0   0.0
-200.0   90.0   0.0
-250.0   120.0   0.0
-250.0   90.0   16.666666666666668
-200.0   90.0   0.0
-200.0   120.0   0.0
-250.0   120.0   0.0
-200.0   120.0   16.666666666666668
-250.0   90.0   16.666666666666668
-250.0   120.0   16.666666666666668
-200.0   120.0   16.666666666666668
-250.0   120.0   0.0
-250.0   90.0   16.666666666666668
-200.0   120.0   16.666666666666668
-200.0   90.0   16.666666666666668
-200.0   90.0   0.0
-250.0   90.0   16.666666666666668
-200.0   120.0   16.666666666666668
-200.0   90.0   0.0
-250.0   120.0   0.0
-250.0   90.0   16.666666666666668
-200.0   90.0   16.666666666666668
-250.0   120.0   16.666666666666668
-250.0   90.0   33.333333333333336
-200.0   90.0   16.666666666666668
-200.0   120.0   16.666666666666668
-250.0   120.0   16.666666666666668
-200.0   120.0   33.333333333333336
-250.0   90.0   33.333333333333336
-250.0   120.0   33.333333333333336
-200.0   120.0   33.333333333333336
-250.0   120.0   16.666666666666668
-250.0   90.0   33.333333333333336
-200.0   120.0   33.333333333333336
-200.0   90.0   33.333333333333336
-200.0   90.0   16.666666666666668
-250.0   90.0   33.333333333333336
-200.0   120.0   33.333333333333336
-200.0   90.0   16.666666666666668
-250.0   120.0   16.666666666666668
-250.0   90.0   33.333333333333336
-200.0   90.0   33.333333333333336
-250.0   120.0   33.333333333333336
-250.0   90.0   50.0
-200.0   90.0   33.333333333333336
-200.0   120.0   33.333333333333336
-250.0   120.0   33.333333333333336
-200.0   120.0   50.0
-250.0   90.0   50.0
-250.0   120.0   50.0
-200.0   120.0   50.0
-250.0   120.0   33.333333333333336
-250.0   90.0   50.0
-200.0   120.0   50.0
-200.0   90.0   50.0
-200.0   90.0   33.333333333333336
-250.0   90.0   50.0
-200.0   120.0   50.0
-200.0   90.0   33.333333333333336
-250.0   120.0   33.333333333333336
-250.0   120.0   0.0
-200.0   120.0   0.0
-250.0   150.0   0.0
-250.0   120.0   16.666666666666668
-200.0   120.0   0.0
-200.0   150.0   0.0
-250.0   150.0   0.0
-200.0   150.0   16.666666666666668
-250.0   120.0   16.666666666666668
-250.0   150.0   16.666666666666668
-200.0   150.0   16.666666666666668
-250.0   150.0   0.0
-250.0   120.0   16.666666666666668
-200.0   150.0   16.666666666666668
-200.0   120.0   16.666666666666668
-200.0   120.0   0.0
-250.0   120.0   16.666666666666668
-200.0   150.0   16.666666666666668
-200.0   120.0   0.0
-250.0   150.0   0.0
-250.0   120.0   16.666666666666668
-200.0   120.0   16.666666666666668
-250.0   150.0   16.666666666666668
-250.0   120.0   33.333333333333336
-200.0   120.0   16.666666666666668
-200.0   150.0   16.666666666666668
-250.0   150.0   16.666666666666668
-200.0   150.0   33.333333333333336
-250.0   120.0   33.333333333333336
-250.0   150.0   33.333333333333336
-200.0   150.0   33.333333333333336
-250.0   150.0   16.666666666666668
-250.0   120.0   33.333333333333336
-200.0   150.0   33.333333333333336
-200.0   120.0   33.333333333333336
-200.0   120.0   16.666666666666668
-250.0   120.0   33.333333333333336
-200.0   150.0   33.333333333333336
-200.0   120.0   16.666666666666668
-250.0   150.0   16.666666666666668
-250.0   120.0   33.333333333333336
-200.0   120.0   33.333333333333336
-250.0   150.0   33.333333333333336
-250.0   120.0   50.0
-200.0   120.0   33.333333333333336
-200.0   150.0   33.333333333333336
-250.0   150.0   33.333333333333336
-200.0   150.0   50.0
-250.0   120.0   50.0
-250.0   150.0   50.0
-200.0   150.0   50.0
-250.0   150.0   33.333333333333336
-250.0   120.0   50.0
-200.0   150.0   50.0
-200.0   120.0   50.0
-200.0   120.0   33.333333333333336
-250.0   120.0   50.0
-200.0   150.0   50.0
-200.0   120.0   33.333333333333336
-250.0   150.0   33.333333333333336
-200.0   0.0   0.0
-150.0   0.0   0.0
-200.0   30.0   0.0
-200.0   0.0   16.666666666666668
-150.0   0.0   0.0
-150.0   30.0   0.0
-200.0   30.0   0.0
-150.0   30.0   16.666666666666668
-200.0   0.0   16.666666666666668
-200.0   30.0   16.666666666666668
-150.0   30.0   16.666666666666668
-200.0   30.0   0.0
-200.0   0.0   16.666666666666668
-150.0   30.0   16.666666666666668
-150.0   0.0   16.666666666666668
-150.0   0.0   0.0
-200.0   0.0   16.666666666666668
-150.0   30.0   16.666666666666668
-150.0   0.0   0.0
-200.0   30.0   0.0
-200.0   0.0   16.666666666666668
-150.0   0.0   16.666666666666668
-200.0   30.0   16.666666666666668
-200.0   0.0   33.333333333333336
-150.0   0.0   16.666666666666668
-150.0   30.0   16.666666666666668
-200.0   30.0   16.666666666666668
-150.0   30.0   33.333333333333336
-200.0   0.0   33.333333333333336
-200.0   30.0   33.333333333333336
-150.0   30.0   33.333333333333336
-200.0   30.0   16.666666666666668
-200.0   0.0   33.333333333333336
-150.0   30.0   33.333333333333336
-150.0   0.0   33.333333333333336
-150.0   0.0   16.666666666666668
-200.0   0.0   33.333333333333336
-150.0   30.0   33.333333333333336
-150.0   0.0   16.666666666666668
-200.0   30.0   16.666666666666668
-200.0   0.0   33.333333333333336
-150.0   0.0   33.333333333333336
-200.0   30.0   33.333333333333336
-200.0   0.0   50.0
-150.0   0.0   33.333333333333336
-150.0   30.0   33.333333333333336
-200.0   30.0   33.333333333333336
-150.0   30.0   50.0
-200.0   0.0   50.0
-200.0   30.0   50.0
-150.0   30.0   50.0
-200.0   30.0   33.333333333333336
-200.0   0.0   50.0
-150.0   30.0   50.0
-150.0   0.0   50.0
-150.0   0.0   33.333333333333336
-200.0   0.0   50.0
-150.0   30.0   50.0
-150.0   0.0   33.333333333333336
-200.0   30.0   33.333333333333336
-200.0   30.0   0.0
-150.0   30.0   0.0
-200.0   60.0   0.0
-200.0   30.0   16.666666666666668
-150.0   30.0   0.0
-150.0   60.0   0.0
-200.0   60.0   0.0
-150.0   60.0   16.666666666666668
-200.0   30.0   16.666666666666668
-200.0   60.0   16.666666666666668
-150.0   60.0   16.666666666666668
-200.0   60.0   0.0
-200.0   30.0   16.666666666666668
-150.0   60.0   16.666666666666668
-150.0   30.0   16.666666666666668
-150.0   30.0   0.0
-200.0   30.0   16.666666666666668
-150.0   60.0   16.666666666666668
-150.0   30.0   0.0
-200.0   60.0   0.0
-200.0   30.0   16.666666666666668
-150.0   30.0   16.666666666666668
-200.0   60.0   16.666666666666668
-200.0   30.0   33.333333333333336
-150.0   30.0   16.666666666666668
-150.0   60.0   16.666666666666668
-200.0   60.0   16.666666666666668
-150.0   60.0   33.333333333333336
-200.0   30.0   33.333333333333336
-200.0   60.0   33.333333333333336
-150.0   60.0   33.333333333333336
-200.0   60.0   16.666666666666668
-200.0   30.0   33.333333333333336
-150.0   60.0   33.333333333333336
-150.0   30.0   33.333333333333336
-150.0   30.0   16.666666666666668
-200.0   30.0   33.333333333333336
-150.0   60.0   33.333333333333336
-150.0   30.0   16.666666666666668
-200.0   60.0   16.666666666666668
-200.0   30.0   33.333333333333336
-150.0   30.0   33.333333333333336
-200.0   60.0   33.333333333333336
-200.0   30.0   50.0
-150.0   30.0   33.333333333333336
-150.0   60.0   33.333333333333336
-200.0   60.0   33.333333333333336
-150.0   60.0   50.0
-200.0   30.0   50.0
-200.0   60.0   50.0
-150.0   60.0   50.0
-200.0   60.0   33.333333333333336
-200.0   30.0   50.0
-150.0   60.0   50.0
-150.0   30.0   50.0
-150.0   30.0   33.333333333333336
-200.0   30.0   50.0
-150.0   60.0   50.0
-150.0   30.0   33.333333333333336
-200.0   60.0   33.333333333333336
-200.0   60.0   0.0
-150.0   60.0   0.0
-200.0   90.0   0.0
-200.0   60.0   16.666666666666668
-150.0   60.0   0.0
-150.0   90.0   0.0
-200.0   90.0   0.0
-150.0   90.0   16.666666666666668
-200.0   60.0   16.666666666666668
-200.0   90.0   16.666666666666668
-150.0   90.0   16.666666666666668
-200.0   90.0   0.0
-200.0   60.0   16.666666666666668
-150.0   90.0   16.666666666666668
-150.0   60.0   16.666666666666668
-150.0   60.0   0.0
-200.0   60.0   16.666666666666668
-150.0   90.0   16.666666666666668
-150.0   60.0   0.0
-200.0   90.0   0.0
-200.0   60.0   16.666666666666668
-150.0   60.0   16.666666666666668
-200.0   90.0   16.666666666666668
-200.0   60.0   33.333333333333336
-150.0   60.0   16.666666666666668
-150.0   90.0   16.666666666666668
-200.0   90.0   16.666666666666668
-150.0   90.0   33.333333333333336
-200.0   60.0   33.333333333333336
-200.0   90.0   33.333333333333336
-150.0   90.0   33.333333333333336
-200.0   90.0   16.666666666666668
-200.0   60.0   33.333333333333336
-150.0   90.0   33.333333333333336
-150.0   60.0   33.333333333333336
-150.0   60.0   16.666666666666668
-200.0   60.0   33.333333333333336
-150.0   90.0   33.333333333333336
-150.0   60.0   16.666666666666668
-200.0   90.0   16.666666666666668
-200.0   60.0   33.333333333333336
-150.0   60.0   33.333333333333336
-200.0   90.0   33.333333333333336
-200.0   60.0   50.0
-150.0   60.0   33.333333333333336
-150.0   90.0   33.333333333333336
-200.0   90.0   33.333333333333336
-150.0   90.0   50.0
-200.0   60.0   50.0
-200.0   90.0   50.0
-150.0   90.0   50.0
-200.0   90.0   33.333333333333336
-200.0   60.0   50.0
-150.0   90.0   50.0
-150.0   60.0   50.0
-150.0   60.0   33.333333333333336
-200.0   60.0   50.0
-150.0   90.0   50.0
-150.0   60.0   33.333333333333336
-200.0   90.0   33.333333333333336
-200.0   90.0   0.0
-150.0   90.0   0.0
-200.0   120.0   0.0
-200.0   90.0   16.666666666666668
-150.0   90.0   0.0
-150.0   120.0   0.0
-200.0   120.0   0.0
-150.0   120.0   16.666666666666668
-200.0   90.0   16.666666666666668
-200.0   120.0   16.666666666666668
-150.0   120.0   16.666666666666668
-200.0   120.0   0.0
-200.0   90.0   16.666666666666668
-150.0   120.0   16.666666666666668
-150.0   90.0   16.666666666666668
-150.0   90.0   0.0
-200.0   90.0   16.666666666666668
-150.0   120.0   16.666666666666668
-150.0   90.0   0.0
-200.0   120.0   0.0
-200.0   90.0   16.666666666666668
-150.0   90.0   16.666666666666668
-200.0   120.0   16.666666666666668
-200.0   90.0   33.333333333333336
-150.0   90.0   16.666666666666668
-150.0   120.0   16.666666666666668
-200.0   120.0   16.666666666666668
-150.0   120.0   33.333333333333336
-200.0   90.0   33.333333333333336
-200.0   120.0   33.333333333333336
-150.0   120.0   33.333333333333336
-200.0   120.0   16.666666666666668
-200.0   90.0   33.333333333333336
-150.0   120.0   33.333333333333336
-150.0   90.0   33.333333333333336
-150.0   90.0   16.666666666666668
-200.0   90.0   33.333333333333336
-150.0   120.0   33.333333333333336
-150.0   90.0   16.666666666666668
-200.0   120.0   16.666666666666668
-200.0   90.0   33.333333333333336
-150.0   90.0   33.333333333333336
-200.0   120.0   33.333333333333336
-200.0   90.0   50.0
-150.0   90.0   33.333333333333336
-150.0   120.0   33.333333333333336
-200.0   120.0   33.333333333333336
-150.0   120.0   50.0
-200.0   90.0   50.0
-200.0   120.0   50.0
-150.0   120.0   50.0
-200.0   120.0   33.333333333333336
-200.0   90.0   50.0
-150.0   120.0   50.0
-150.0   90.0   50.0
-150.0   90.0   33.333333333333336
-200.0   90.0   50.0
-150.0   120.0   50.0
-150.0   90.0   33.333333333333336
-200.0   120.0   33.333333333333336
-200.0   120.0   0.0
-150.0   120.0   0.0
-200.0   150.0   0.0
-200.0   120.0   16.666666666666668
-150.0   120.0   0.0
-150.0   150.0   0.0
-200.0   150.0   0.0
-150.0   150.0   16.666666666666668
-200.0   120.0   16.666666666666668
-200.0   150.0   16.666666666666668
-150.0   150.0   16.666666666666668
-200.0   150.0   0.0
-200.0   120.0   16.666666666666668
-150.0   150.0   16.666666666666668
-150.0   120.0   16.666666666666668
-150.0   120.0   0.0
-200.0   120.0   16.666666666666668
-150.0   150.0   16.666666666666668
-150.0   120.0   0.0
-200.0   150.0   0.0
-200.0   120.0   16.666666666666668
-150.0   120.0   16.666666666666668
-200.0   150.0   16.666666666666668
-200.0   120.0   33.333333333333336
-150.0   120.0   16.666666666666668
-150.0   150.0   16.666666666666668
-200.0   150.0   16.666666666666668
-150.0   150.0   33.333333333333336
-200.0   120.0   33.333333333333336
-200.0   150.0   33.333333333333336
-150.0   150.0   33.333333333333336
-200.0   150.0   16.666666666666668
-200.0   120.0   33.333333333333336
-150.0   150.0   33.333333333333336
-150.0   120.0   33.333333333333336
-150.0   120.0   16.666666666666668
-200.0   120.0   33.333333333333336
-150.0   150.0   33.333333333333336
-150.0   120.0   16.666666666666668
-200.0   150.0   16.666666666666668
-200.0   120.0   33.333333333333336
-150.0   120.0   33.333333333333336
-200.0   150.0   33.333333333333336
-200.0   120.0   50.0
-150.0   120.0   33.333333333333336
-150.0   150.0   33.333333333333336
-200.0   150.0   33.333333333333336
-150.0   150.0   50.0
-200.0   120.0   50.0
-200.0   150.0   50.0
-150.0   150.0   50.0
-200.0   150.0   33.333333333333336
-200.0   120.0   50.0
-150.0   150.0   50.0
-150.0   120.0   50.0
-150.0   120.0   33.333333333333336
-200.0   120.0   50.0
-150.0   150.0   50.0
-150.0   120.0   33.333333333333336
-200.0   150.0   33.333333333333336
-150.0   0.0   0.0
-100.0   0.0   0.0
-150.0   30.0   0.0
-150.0   0.0   16.666666666666668
-100.0   0.0   0.0
-100.0   30.0   0.0
-150.0   30.0   0.0
-100.0   30.0   16.666666666666668
-150.0   0.0   16.666666666666668
-150.0   30.0   16.666666666666668
-100.0   30.0   16.666666666666668
-150.0   30.0   0.0
-150.0   0.0   16.666666666666668
-100.0   30.0   16.666666666666668
-100.0   0.0   16.666666666666668
-100.0   0.0   0.0
-150.0   0.0   16.666666666666668
-100.0   30.0   16.666666666666668
-100.0   0.0   0.0
-150.0   30.0   0.0
-150.0   0.0   16.666666666666668
-100.0   0.0   16.666666666666668
-150.0   30.0   16.666666666666668
-150.0   0.0   33.333333333333336
-100.0   0.0   16.666666666666668
-100.0   30.0   16.666666666666668
-150.0   30.0   16.666666666666668
-100.0   30.0   33.333333333333336
-150.0   0.0   33.333333333333336
-150.0   30.0   33.333333333333336
-100.0   30.0   33.333333333333336
-150.0   30.0   16.666666666666668
-150.0   0.0   33.333333333333336
-100.0   30.0   33.333333333333336
-100.0   0.0   33.333333333333336
-100.0   0.0   16.666666666666668
-150.0   0.0   33.333333333333336
-100.0   30.0   33.333333333333336
-100.0   0.0   16.666666666666668
-150.0   30.0   16.666666666666668
-150.0   0.0   33.333333333333336
-100.0   0.0   33.333333333333336
-150.0   30.0   33.333333333333336
-150.0   0.0   50.0
-100.0   0.0   33.333333333333336
-100.0   30.0   33.333333333333336
-150.0   30.0   33.333333333333336
-100.0   30.0   50.0
-150.0   0.0   50.0
-150.0   30.0   50.0
-100.0   30.0   50.0
-150.0   30.0   33.333333333333336
-150.0   0.0   50.0
-100.0   30.0   50.0
-100.0   0.0   50.0
-100.0   0.0   33.333333333333336
-150.0   0.0   50.0
-100.0   30.0   50.0
-100.0   0.0   33.333333333333336
-150.0   30.0   33.333333333333336
-150.0   30.0   0.0
-100.0   30.0   0.0
-150.0   60.0   0.0
-150.0   30.0   16.666666666666668
-100.0   30.0   0.0
-100.0   60.0   0.0
-150.0   60.0   0.0
-100.0   60.0   16.666666666666668
-150.0   30.0   16.666666666666668
-150.0   60.0   16.666666666666668
-100.0   60.0   16.666666666666668
-150.0   60.0   0.0
-150.0   30.0   16.666666666666668
-100.0   60.0   16.666666666666668
-100.0   30.0   16.666666666666668
-100.0   30.0   0.0
-150.0   30.0   16.666666666666668
-100.0   60.0   16.666666666666668
-100.0   30.0   0.0
-150.0   60.0   0.0
-150.0   30.0   16.666666666666668
-100.0   30.0   16.666666666666668
-150.0   60.0   16.666666666666668
-150.0   30.0   33.333333333333336
-100.0   30.0   16.666666666666668
-100.0   60.0   16.666666666666668
-150.0   60.0   16.666666666666668
-100.0   60.0   33.333333333333336
-150.0   30.0   33.333333333333336
-150.0   60.0   33.333333333333336
-100.0   60.0   33.333333333333336
-150.0   60.0   16.666666666666668
-150.0   30.0   33.333333333333336
-100.0   60.0   33.333333333333336
-100.0   30.0   33.333333333333336
-100.0   30.0   16.666666666666668
-150.0   30.0   33.333333333333336
-100.0   60.0   33.333333333333336
-100.0   30.0   16.666666666666668
-150.0   60.0   16.666666666666668
-150.0   30.0   33.333333333333336
-100.0   30.0   33.333333333333336
-150.0   60.0   33.333333333333336
-150.0   30.0   50.0
-100.0   30.0   33.333333333333336
-100.0   60.0   33.333333333333336
-150.0   60.0   33.333333333333336
-100.0   60.0   50.0
-150.0   30.0   50.0
-150.0   60.0   50.0
-100.0   60.0   50.0
-150.0   60.0   33.333333333333336
-150.0   30.0   50.0
-100.0   60.0   50.0
-100.0   30.0   50.0
-100.0   30.0   33.333333333333336
-150.0   30.0   50.0
-100.0   60.0   50.0
-100.0   30.0   33.333333333333336
-150.0   60.0   33.333333333333336
-150.0   60.0   0.0
-100.0   60.0   0.0
-150.0   90.0   0.0
-150.0   60.0   16.666666666666668
-100.0   60.0   0.0
-100.0   90.0   0.0
-150.0   90.0   0.0
-100.0   90.0   16.666666666666668
-150.0   60.0   16.666666666666668
-150.0   90.0   16.666666666666668
-100.0   90.0   16.666666666666668
-150.0   90.0   0.0
-150.0   60.0   16.666666666666668
-100.0   90.0   16.666666666666668
-100.0   60.0   16.666666666666668
-100.0   60.0   0.0
-150.0   60.0   16.666666666666668
-100.0   90.0   16.666666666666668
-100.0   60.0   0.0
-150.0   90.0   0.0
-150.0   60.0   16.666666666666668
-100.0   60.0   16.666666666666668
-150.0   90.0   16.666666666666668
-150.0   60.0   33.333333333333336
-100.0   60.0   16.666666666666668
-100.0   90.0   16.666666666666668
-150.0   90.0   16.666666666666668
-100.0   90.0   33.333333333333336
-150.0   60.0   33.333333333333336
-150.0   90.0   33.333333333333336
-100.0   90.0   33.333333333333336
-150.0   90.0   16.666666666666668
-150.0   60.0   33.333333333333336
-100.0   90.0   33.333333333333336
-100.0   60.0   33.333333333333336
-100.0   60.0   16.666666666666668
-150.0   60.0   33.333333333333336
-100.0   90.0   33.333333333333336
-100.0   60.0   16.666666666666668
-150.0   90.0   16.666666666666668
-150.0   60.0   33.333333333333336
-100.0   60.0   33.333333333333336
-150.0   90.0   33.333333333333336
-150.0   60.0   50.0
-100.0   60.0   33.333333333333336
-100.0   90.0   33.333333333333336
-150.0   90.0   33.333333333333336
-100.0   90.0   50.0
-150.0   60.0   50.0
-150.0   90.0   50.0
-100.0   90.0   50.0
-150.0   90.0   33.333333333333336
-150.0   60.0   50.0
-100.0   90.0   50.0
-100.0   60.0   50.0
-100.0   60.0   33.333333333333336
-150.0   60.0   50.0
-100.0   90.0   50.0
-100.0   60.0   33.333333333333336
-150.0   90.0   33.333333333333336
-150.0   90.0   0.0
-100.0   90.0   0.0
-150.0   120.0   0.0
-150.0   90.0   16.666666666666668
-100.0   90.0   0.0
-100.0   120.0   0.0
-150.0   120.0   0.0
-100.0   120.0   16.666666666666668
-150.0   90.0   16.666666666666668
-150.0   120.0   16.666666666666668
-100.0   120.0   16.666666666666668
-150.0   120.0   0.0
-150.0   90.0   16.666666666666668
-100.0   120.0   16.666666666666668
-100.0   90.0   16.666666666666668
-100.0   90.0   0.0
-150.0   90.0   16.666666666666668
-100.0   120.0   16.666666666666668
-100.0   90.0   0.0
-150.0   120.0   0.0
-150.0   90.0   16.666666666666668
-100.0   90.0   16.666666666666668
-150.0   120.0   16.666666666666668
-150.0   90.0   33.333333333333336
-100.0   90.0   16.666666666666668
-100.0   120.0   16.666666666666668
-150.0   120.0   16.666666666666668
-100.0   120.0   33.333333333333336
-150.0   90.0   33.333333333333336
-150.0   120.0   33.333333333333336
-100.0   120.0   33.333333333333336
-150.0   120.0   16.666666666666668
-150.0   90.0   33.333333333333336
-100.0   120.0   33.333333333333336
-100.0   90.0   33.333333333333336
-100.0   90.0   16.666666666666668
-150.0   90.0   33.333333333333336
-100.0   120.0   33.333333333333336
-100.0   90.0   16.666666666666668
-150.0   120.0   16.666666666666668
-150.0   90.0   33.333333333333336
-100.0   90.0   33.333333333333336
-150.0   120.0   33.333333333333336
-150.0   90.0   50.0
-100.0   90.0   33.333333333333336
-100.0   120.0   33.333333333333336
-150.0   120.0   33.333333333333336
-100.0   120.0   50.0
-150.0   90.0   50.0
-150.0   120.0   50.0
-100.0   120.0   50.0
-150.0   120.0   33.333333333333336
-150.0   90.0   50.0
-100.0   120.0   50.0
-100.0   90.0   50.0
-100.0   90.0   33.333333333333336
-150.0   90.0   50.0
-100.0   120.0   50.0
-100.0   90.0   33.333333333333336
-150.0   120.0   33.333333333333336
-150.0   120.0   0.0
-100.0   120.0   0.0
-150.0   150.0   0.0
-150.0   120.0   16.666666666666668
-100.0   120.0   0.0
-100.0   150.0   0.0
-150.0   150.0   0.0
-100.0   150.0   16.666666666666668
-150.0   120.0   16.666666666666668
-150.0   150.0   16.666666666666668
-100.0   150.0   16.666666666666668
-150.0   150.0   0.0
-150.0   120.0   16.666666666666668
-100.0   150.0   16.666666666666668
-100.0   120.0   16.666666666666668
-100.0   120.0   0.0
-150.0   120.0   16.666666666666668
-100.0   150.0   16.666666666666668
-100.0   120.0   0.0
-150.0   150.0   0.0
-150.0   120.0   16.666666666666668
-100.0   120.0   16.666666666666668
-150.0   150.0   16.666666666666668
-150.0   120.0   33.333333333333336
-100.0   120.0   16.666666666666668
-100.0   150.0   16.666666666666668
-150.0   150.0   16.666666666666668
-100.0   150.0   33.333333333333336
-150.0   120.0   33.333333333333336
-150.0   150.0   33.333333333333336
-100.0   150.0   33.333333333333336
-150.0   150.0   16.666666666666668
-150.0   120.0   33.333333333333336
-100.0   150.0   33.333333333333336
-100.0   120.0   33.333333333333336
-100.0   120.0   16.666666666666668
-150.0   120.0   33.333333333333336
-100.0   150.0   33.333333333333336
-100.0   120.0   16.666666666666668
-150.0   150.0   16.666666666666668
-150.0   120.0   33.333333333333336
-100.0   120.0   33.333333333333336
-150.0   150.0   33.333333333333336
-150.0   120.0   50.0
-100.0   120.0   33.333333333333336
-100.0   150.0   33.333333333333336
-150.0   150.0   33.333333333333336
-100.0   150.0   50.0
-150.0   120.0   50.0
-150.0   150.0   50.0
-100.0   150.0   50.0
-150.0   150.0   33.333333333333336
-150.0   120.0   50.0
-100.0   150.0   50.0
-100.0   120.0   50.0
-100.0   120.0   33.333333333333336
-150.0   120.0   50.0
-100.0   150.0   50.0
-100.0   120.0   33.333333333333336
-150.0   150.0   33.333333333333336
-100.0   0.0   0.0
-50.0   0.0   0.0
-100.0   30.0   0.0
-100.0   0.0   16.666666666666668
-50.0   0.0   0.0
-50.0   30.0   0.0
-100.0   30.0   0.0
-50.0   30.0   16.666666666666668
-100.0   0.0   16.666666666666668
-100.0   30.0   16.666666666666668
-50.0   30.0   16.666666666666668
-100.0   30.0   0.0
-100.0   0.0   16.666666666666668
-50.0   30.0   16.666666666666668
-50.0   0.0   16.666666666666668
-50.0   0.0   0.0
-100.0   0.0   16.666666666666668
-50.0   30.0   16.666666666666668
-50.0   0.0   0.0
-100.0   30.0   0.0
-100.0   0.0   16.666666666666668
-50.0   0.0   16.666666666666668
-100.0   30.0   16.666666666666668
-100.0   0.0   33.333333333333336
-50.0   0.0   16.666666666666668
-50.0   30.0   16.666666666666668
-100.0   30.0   16.666666666666668
-50.0   30.0   33.333333333333336
-100.0   0.0   33.333333333333336
-100.0   30.0   33.333333333333336
-50.0   30.0   33.333333333333336
-100.0   30.0   16.666666666666668
-100.0   0.0   33.333333333333336
-50.0   30.0   33.333333333333336
-50.0   0.0   33.333333333333336
-50.0   0.0   16.666666666666668
-100.0   0.0   33.333333333333336
-50.0   30.0   33.333333333333336
-50.0   0.0   16.666666666666668
-100.0   30.0   16.666666666666668
-100.0   0.0   33.333333333333336
-50.0   0.0   33.333333333333336
-100.0   30.0   33.333333333333336
-100.0   0.0   50.0
-50.0   0.0   33.333333333333336
-50.0   30.0   33.333333333333336
-100.0   30.0   33.333333333333336
-50.0   30.0   50.0
-100.0   0.0   50.0
-100.0   30.0   50.0
-50.0   30.0   50.0
-100.0   30.0   33.333333333333336
-100.0   0.0   50.0
-50.0   30.0   50.0
-50.0   0.0   50.0
-50.0   0.0   33.333333333333336
-100.0   0.0   50.0
-50.0   30.0   50.0
-50.0   0.0   33.333333333333336
-100.0   30.0   33.333333333333336
-100.0   30.0   0.0
-50.0   30.0   0.0
-100.0   60.0   0.0
-100.0   30.0   16.666666666666668
-50.0   30.0   0.0
-50.0   60.0   0.0
-100.0   60.0   0.0
-50.0   60.0   16.666666666666668
-100.0   30.0   16.666666666666668
-100.0   60.0   16.666666666666668
-50.0   60.0   16.666666666666668
-100.0   60.0   0.0
-100.0   30.0   16.666666666666668
-50.0   60.0   16.666666666666668
-50.0   30.0   16.666666666666668
-50.0   30.0   0.0
-100.0   30.0   16.666666666666668
-50.0   60.0   16.666666666666668
-50.0   30.0   0.0
-100.0   60.0   0.0
-100.0   30.0   16.666666666666668
-50.0   30.0   16.666666666666668
-100.0   60.0   16.666666666666668
-100.0   30.0   33.333333333333336
-50.0   30.0   16.666666666666668
-50.0   60.0   16.666666666666668
-100.0   60.0   16.666666666666668
-50.0   60.0   33.333333333333336
-100.0   30.0   33.333333333333336
-100.0   60.0   33.333333333333336
-50.0   60.0   33.333333333333336
-100.0   60.0   16.666666666666668
-100.0   30.0   33.333333333333336
-50.0   60.0   33.333333333333336
-50.0   30.0   33.333333333333336
-50.0   30.0   16.666666666666668
-100.0   30.0   33.333333333333336
-50.0   60.0   33.333333333333336
-50.0   30.0   16.666666666666668
-100.0   60.0   16.666666666666668
-100.0   30.0   33.333333333333336
-50.0   30.0   33.333333333333336
-100.0   60.0   33.333333333333336
-100.0   30.0   50.0
-50.0   30.0   33.333333333333336
-50.0   60.0   33.333333333333336
-100.0   60.0   33.333333333333336
-50.0   60.0   50.0
-100.0   30.0   50.0
-100.0   60.0   50.0
-50.0   60.0   50.0
-100.0   60.0   33.333333333333336
-100.0   30.0   50.0
-50.0   60.0   50.0
-50.0   30.0   50.0
-50.0   30.0   33.333333333333336
-100.0   30.0   50.0
-50.0   60.0   50.0
-50.0   30.0   33.333333333333336
-100.0   60.0   33.333333333333336
-100.0   60.0   0.0
-50.0   60.0   0.0
-100.0   90.0   0.0
-100.0   60.0   16.666666666666668
-50.0   60.0   0.0
-50.0   90.0   0.0
-100.0   90.0   0.0
-50.0   90.0   16.666666666666668
-100.0   60.0   16.666666666666668
-100.0   90.0   16.666666666666668
-50.0   90.0   16.666666666666668
-100.0   90.0   0.0
-100.0   60.0   16.666666666666668
-50.0   90.0   16.666666666666668
-50.0   60.0   16.666666666666668
-50.0   60.0   0.0
-100.0   60.0   16.666666666666668
-50.0   90.0   16.666666666666668
-50.0   60.0   0.0
-100.0   90.0   0.0
-100.0   60.0   16.666666666666668
-50.0   60.0   16.666666666666668
-100.0   90.0   16.666666666666668
-100.0   60.0   33.333333333333336
-50.0   60.0   16.666666666666668
-50.0   90.0   16.666666666666668
-100.0   90.0   16.666666666666668
-50.0   90.0   33.333333333333336
-100.0   60.0   33.333333333333336
-100.0   90.0   33.333333333333336
-50.0   90.0   33.333333333333336
-100.0   90.0   16.666666666666668
-100.0   60.0   33.333333333333336
-50.0   90.0   33.333333333333336
-50.0   60.0   33.333333333333336
-50.0   60.0   16.666666666666668
-100.0   60.0   33.333333333333336
-50.0   90.0   33.333333333333336
-50.0   60.0   16.666666666666668
-100.0   90.0   16.666666666666668
-100.0   60.0   33.333333333333336
-50.0   60.0   33.333333333333336
-100.0   90.0   33.333333333333336
-100.0   60.0   50.0
-50.0   60.0   33.333333333333336
-50.0   90.0   33.333333333333336
-100.0   90.0   33.333333333333336
-50.0   90.0   50.0
-100.0   60.0   50.0
-100.0   90.0   50.0
-50.0   90.0   50.0
-100.0   90.0   33.333333333333336
-100.0   60.0   50.0
-50.0   90.0   50.0
-50.0   60.0   50.0
-50.0   60.0   33.333333333333336
-100.0   60.0   50.0
-50.0   90.0   50.0
-50.0   60.0   33.333333333333336
-100.0   90.0   33.333333333333336
-100.0   90.0   0.0
-50.0   90.0   0.0
-100.0   120.0   0.0
-100.0   90.0   16.666666666666668
-50.0   90.0   0.0
-50.0   120.0   0.0
-100.0   120.0   0.0
-50.0   120.0   16.666666666666668
-100.0   90.0   16.666666666666668
-100.0   120.0   16.666666666666668
-50.0   120.0   16.666666666666668
-100.0   120.0   0.0
-100.0   90.0   16.666666666666668
-50.0   120.0   16.666666666666668
-50.0   90.0   16.666666666666668
-50.0   90.0   0.0
-100.0   90.0   16.666666666666668
-50.0   120.0   16.666666666666668
-50.0   90.0   0.0
-100.0   120.0   0.0
-100.0   90.0   16.666666666666668
-50.0   90.0   16.666666666666668
-100.0   120.0   16.666666666666668
-100.0   90.0   33.333333333333336
-50.0   90.0   16.666666666666668
-50.0   120.0   16.666666666666668
-100.0   120.0   16.666666666666668
-50.0   120.0   33.333333333333336
-100.0   90.0   33.333333333333336
-100.0   120.0   33.333333333333336
-50.0   120.0   33.333333333333336
-100.0   120.0   16.666666666666668
-100.0   90.0   33.333333333333336
-50.0   120.0   33.333333333333336
-50.0   90.0   33.333333333333336
-50.0   90.0   16.666666666666668
-100.0   90.0   33.333333333333336
-50.0   120.0   33.333333333333336
-50.0   90.0   16.666666666666668
-100.0   120.0   16.666666666666668
-100.0   90.0   33.333333333333336
-50.0   90.0   33.333333333333336
-100.0   120.0   33.333333333333336
-100.0   90.0   50.0
-50.0   90.0   33.333333333333336
-50.0   120.0   33.333333333333336
-100.0   120.0   33.333333333333336
-50.0   120.0   50.0
-100.0   90.0   50.0
-100.0   120.0   50.0
-50.0   120.0   50.0
-100.0   120.0   33.333333333333336
-100.0   90.0   50.0
-50.0   120.0   50.0
-50.0   90.0   50.0
-50.0   90.0   33.333333333333336
-100.0   90.0   50.0
-50.0   120.0   50.0
-50.0   90.0   33.333333333333336
-100.0   120.0   33.333333333333336
-100.0   120.0   0.0
-50.0   120.0   0.0
-100.0   150.0   0.0
-100.0   120.0   16.666666666666668
-50.0   120.0   0.0
-50.0   150.0   0.0
-100.0   150.0   0.0
-50.0   150.0   16.666666666666668
-100.0   120.0   16.666666666666668
-100.0   150.0   16.666666666666668
-50.0   150.0   16.666666666666668
-100.0   150.0   0.0
-100.0   120.0   16.666666666666668
-50.0   150.0   16.666666666666668
-50.0   120.0   16.666666666666668
-50.0   120.0   0.0
-100.0   120.0   16.666666666666668
-50.0   150.0   16.666666666666668
-50.0   120.0   0.0
-100.0   150.0   0.0
-100.0   120.0   16.666666666666668
-50.0   120.0   16.666666666666668
-100.0   150.0   16.666666666666668
-100.0   120.0   33.333333333333336
-50.0   120.0   16.666666666666668
-50.0   150.0   16.666666666666668
-100.0   150.0   16.666666666666668
-50.0   150.0   33.333333333333336
-100.0   120.0   33.333333333333336
-100.0   150.0   33.333333333333336
-50.0   150.0   33.333333333333336
-100.0   150.0   16.666666666666668
-100.0   120.0   33.333333333333336
-50.0   150.0   33.333333333333336
-50.0   120.0   33.333333333333336
-50.0   120.0   16.666666666666668
-100.0   120.0   33.333333333333336
-50.0   150.0   33.333333333333336
-50.0   120.0   16.666666666666668
-100.0   150.0   16.666666666666668
-100.0   120.0   33.333333333333336
-50.0   120.0   33.333333333333336
-100.0   150.0   33.333333333333336
-100.0   120.0   50.0
-50.0   120.0   33.333333333333336
-50.0   150.0   33.333333333333336
-100.0   150.0   33.333333333333336
-50.0   150.0   50.0
-100.0   120.0   50.0
-100.0   150.0   50.0
-50.0   150.0   50.0
-100.0   150.0   33.333333333333336
-100.0   120.0   50.0
-50.0   150.0   50.0
-50.0   120.0   50.0
-50.0   120.0   33.333333333333336
-100.0   120.0   50.0
-50.0   150.0   50.0
-50.0   120.0   33.333333333333336
-100.0   150.0   33.333333333333336
-50.0   0.0   0.0
0.0   0.0   0.0
-50.0   30.0   0.0
-50.0   0.0   16.666666666666668
0.0   0.0   0.0
0.0   30.0   0.0
-50.0   30.0   0.0
0.0   30.0   16.666666666666668
-50.0   0.0   16.666666666666668
-50.0   30.0   16.666666666666668
0.0   30.0   16.666666666666668
-50.0   30.0   0.0
-50.0   0.0   16.666666666666668
0.0   30.0   16.666666666666668
0.0   0.0   16.666666666666668
0.0   0.0   0.0
-50.0   0.0   16.666666666666668
0.0   30.0   16.666666666666668
0.0   0.0   0.0
-50.0   30.0   0.0
-50.0   0.0   16.666666666666668
0.0   0.0   16.666666666666668
-50.0   30.0   16.666666666666668
-50.0   0.0   33.333333333333336
0.0   0.0   16.666666666666668
0.0   30.0   16.666666666666668
-50.0   30.0   16.666666666666668
0.0   30.0   33.333333333333336
-50.0   0.0   33.333333333333336
-50.0   30.0   33.333333333333336
0.0   30.0   33.333333333333336
-50.0   30.0   16.666666666666668
-50.0   0.0   33.333333333333336
0.0   30.0   33.333333333333336
0.0   0.0   33.333333333333336
0.0   0.0   16.666666666666668
-50.0   0.0   33.333333333333336
0.0   30.0   33.333333333333336
0.0   0.0   16.666666666666668
-50.0   30.0   16.666666666666668
-50.0   0.0   33.333333333333336
0.0   0.0   33.333333333333336
-50.0   30.0   33.333333333333336
-50.0   0.0   50.0
0.0   0.0   33.333333333333336
0.0   30.0   33.333333333333336
-50.0   30.0   33.333333333333336
0.0   30.0   50.0
-50.0   0.0   50.0
-50.0   30.0   50.0
0.0   30.0   50.0
-50.0   30.0   33.333333333333336
-50.0   0.0   50.0
0.0   30.0   50.0
0.0   0.0   50.0
0.0   0.0   33.333333333333336
-50.0   0.0   50.0
0.0   30.0   50.0
0.0   0.0   33.333333333333336
-50.0   30.0   33.333333333333336
-50.0   30.0   0.0
0.0   30.0   0.0
-50.0   60.0   0.0
-50.0   30.0   16.666666666666668
0.0   30.0   0.0
0.0   60.0   0.0
-50.0   60.0   0.0
0.0   60.0   16.666666666666668
-50.0   30.0   16.666666666666668
-50.0   60.0   16.666666666666668
0.0   60.0   16.666666666666668
-50.0   60.0   0.0
-50.0   30.0   16.666666666666668
0.0   60.0   16.666666666666668
0.0   30.0   16.666666666666668
0.0   30.0   0.0
-50.0   30.0   16.666666666666668
0.0   60.0   16.666666666666668
0.0   30.0   0.0
-50.0   60.0   0.0
-50.0   30.0   16.666666666666668
0.0   30.0   16.666666666666668
-50.0   60.0   16.666666666666668
-50.0   30.0   33.333333333333336
0.0   30.0   16.666666666666668
0.0   60.0   16.666666666666668
-50.0   60.0   16.666666666666668
0.0   60.0   33.333333333333336
-50.0   30.0   33.333333333333336
-50.0   60.0   33.333333333333336
0.0   60.0   33.333333333333336
-50.0   60.0   16.666666666666668
-50.0   30.0   33.333333333333336
0.0   60.0   33.333333333333336
0.0   30.0   33.333333333333336
0.0   30.0   16.666666666666668
-50.0   30.0   33.333333333333336
0.0   60.0   33.333333333333336
0.0   30.0   16.666666666666668
-50.0   60.0   16.666666666666668
-50.0   30.0   33.333333333333336
0.0   30.0   33.333333333333336
-50.0   60.0   33.333333333333336
-50.0   30.0   50.0
0.0   30.0   33.333333333333336
0.0   60.0   33.333333333333336
-50.0   60.0   33.333333333333336
0.0   60.0   50.0
-50.0   30.0   50.0
-50.0   60.0   50.0
0.0   60.0   50.0
-50.0   60.0   33.333333333333336
-50.0   30.0   50.0
0.0   60.0   50.0
0.0   30.0   50.0
0.0   30.0   33.333333333333336
-50.0   30.0   50.0
0.0   60.0   50.0
0.0   30.0   33.333333333333336
-50.0   60.0   33.333333333333336
-50.0   60.0   0.0
0.0   60.0   0.0
-50.0   90.0   0.0
-50.0   60.0   16.666666666666668
0.0   60.0   0.0
0.0   90.0   0.0
-50.0   90.0   0.0
0.0   90.0   16.666666666666668
-50.0   60.0   16.666666666666668
-50.0   90.0   16.666666666666668
0.0   90.0   16.666666666666668
-50.0   90.0   0.0
-50.0   60.0   16.666666666666668
0.0   90.0   16.666666666666668
0.0   60.0   16.666666666666668
0.0   60.0   0.0
-50.0   60.0   16.666666666666668
0.0   90.0   16.666666666666668
0.0   60.0   0.0
-50.0   90.0   0.0
-50.0   60.0   16.666666666666668
0.0   60.0   16.666666666666668
-50.0   90.0   16.666666666666668
-50.0   60.0   33.333333333333336
0.0   60.0   16.666666666666668
0.0   90.0   16.666666666666668
-50.0   90.0   16.666666666666668
0.0   90.0   33.333333333333336
-50.0   60.0   33.333333333333336
-50.0   90.0   33.333333333333336
0.0   90.0   33.333333333333336
-50.0   90.0   16.666666666666668
-50.0   60.0   33.333333333333336
0.0   90.0   33.333333333333336
0.0   60.0   33.333333333333336
0.0   60.0   16.666666666666668
-50.0   60.0   33.333333333333336
0.0   90.0   33.333333333333336
0.0   60.0   16.666666666666668
-50.0   90.0   16.666666666666668
-50.0   60.0   33.333333333333336
0.0   60.0   33.333333333333336
-50.0   90.0   33.333333333333336
-50.0   60.0   50.0
0.0   60.0   33.333333333333336
0.0   90.0   33.333333333333336
-50.0   90.0   33.333333333333336
0.0   90.0   50.0
-50.0   60.0   50.0
-50.0   90.0   50.0
0.0   90.0   50.0
-50.0   90.0   33.333333333333336
-50.0   60.0   50.0
0.0   90.0   50.0
0.0   60.0   50.0
0.0   60.0   33.333333333333336
-50.0   60.0   50.0
0.0   90.0   50.0
0.0   60.0   33.333333333333336
-50.0   90.0   33.333333333333336
-50.0   90.0   0.0
0.0   90.0   0.0
-50.0   120.0   0.0
-50.0   90.0   16.666666666666668
0.0   90.0   0.0
0.0   120.0   0.0
-50.0   120.0   0.0
0.0   120.0   16.666666666666668
-50.0   90.0   16.666666666666668
-50.0   120.0   16.666666666666668
0.0   120.0   16.666666666666668
-50.0   120.0   0.0
-50.0   90.0   16.666666666666668
0.0   120.0   16.666666666666668
0.0   90.0   16.666666666666668
0.0   90.0   0.0
-50.0   90.0   16.666666666666668
0.0   120.0   16.666666666666668
0.0   90.0   0.0
-50.0   120.0   0.0
-50.0   90.0   16.666666666666668
0.0   90.0   16.666666666666668
-50.0   120.0   16.666666666666668
-50.0   90.0   33.333333333333336
0.0   90.0   16.666666666666668
0.0   120.0   16.666666666666668
-50.0   120.0   16.666666666666668
0.0   120.0   33.333333333333336
-50.0   90.0   33.333333333333336
-50.0   120.0   33.333333333333336
0.0   120.0   33.333333333333336
-50.0   120.0   16.666666666666668
-50.0   90.0   33.333333333333336
0.0   120.0   33.333333333333336
0.0   90.0   33.333333333333336
0.0   90.0   16.666666666666668
-50.0   90.0   33.333333333333336
0.0   120.0   33.333333333333336
0.0   90.0   16.666666666666668
-50.0   120.0   16.666666666666668
-50.0   90.0   33.333333333333336
0.0   90.0   33.333333333333336
-50.0   120.0   33.333333333333336
-50.0   90.0   50.0
0.0   90.0   33.333333333333336
0.0   120.0   33.333333333333336
-50.0   120.0   33.333333333333336
0.0   120.0   50.0
-50.0   90.0   50.0
-50.0   120.0   50.0
0.0   120.0   50.0
-50.0   120.0   33.333333333333336
-50.0   90.0   50.0
0.0   120.0   50.0
0.0   90.0   50.0
0.0   90.0   33.333333333333336
-50.0   90.0   50.0
0.0   120.0   50.0
0.0   90.0   33.333333333333336
-50.0   120.0   33.333333333333336
-50.0   120.0   0.0
0.0   120.0   0.0
-50.0   150.0   0.0
-50.0   120.0   16.666666666666668
0.0   120.0   0.0
0.0   150.0   0.0
-50.0   150.0   0.0
0.0   150.0   16.666666666666668
-50.0   120.0   16.666666666666668
-50.0   150.0   16.666666666666668
0.0   150.0   16.666666666666668
-50.0   150.0   0.0
-50.0   120.0   16.666666666666668
0.0   150.0   16.666666666666668
0.0   120.0   16.666666666666668
0.0   120.0   0.0
-50.0   120.0   16.666666666666668
0.0   150.0   16.666666666666668
0.0   120.0   0.0
-50.0   150.0   0.0
-50.0   120.0   16.666666666666668
0.0   120.0   16.666666666666668
-50.0   150.0   16.666666666666668
-50.0   120.0   33.333333333333336
0.0   120.0   16.666666666666668
0.0   150.0   16.666666666666668
-50.0   150.0   16.666666666666668
0.0   150.0   33.333333333333336
-50.0   120.0   33.333333333333336
-50.0   150.0   33.333333333333336
0.0   150.0   33.333333333333336
-50.0   150.0   16.666666666666668
-50.0   120.0   33.333333333333336
0.0   150.0   33.333333333333336
0.0   120.0   33.333333333333336
0.0   120.0   16.666666666666668
-50.0   120.0   33.333333333333336
0.0   150.0   33.333333333333336
0.0   120.0   16.666666666666668
-50.0   150.0   16.666666666666668
-50.0   120.0   33.333333333333336
0.0   120.0   33.333333333333336
-50.0   150.0   33.333333333333336
-50.0   120.0   50.0
0.0   120.0   33.333333333333336
0.0   150.0   33.333333333333336
-50.0   150.0   33.333333333333336
0.0   150.0   50.0
-50.0   120.0   50.0
-50.0   150.0   50.0
0.0   150.0   50.0
-50.0   150.0   33.333333333333336
-50.0   120.0   50.0
0.0   150.0   50.0
0.0   120.0   50.0
0.0   120.0   33.333333333333336
-50.0   120.0   50.0
0.0   150.0   50.0
0.0   120.0   33.333333333333336
-50.0   150.0   33.333333333333336
0.0   0.0   0.0
50.0   0.0   0.0
0.0   30.0   0.0
0.0   0.0   16.666666666666668
50.0   0.0   0.0
50.0   30.0   0.0
0.0   30.0   0.0
50.0   30.0   16.666666666666668
0.0   0.0   16.666666666666668
0.0   30.0   16.666666666666668
50.0   30.0   16.666666666666668
0.0   30.0   0.0
0.0   0.0   16.666666666666668
50.0   30.0   16.666666666666668
50.0   0.0   16.666666666666668
50.0   0.0   0.0
0.0   0.0   16.666666666666668
50.0   30.0   16.666666666666668
50.0   0.0   0.0
0.0   30.0   0.0
0.0   0.0   16.666666666666668
50.0   0.0   16.666666666666668
0.0   30.0   16.666666666666668
0.0   0.0   33.333333333333336
50.0   0.0   16.666666666666668
50.0   30.0   16.666666666666668
0.0   30.0   16.666666666666668
50.0   30.0   33.333333333333336
0.0   0.0   33.333333333333336
0.0   30.0   33.333333333333336
50.0   30.0   33.333333333333336
0.0   30.0   16.666666666666668
0.0   0.0   33.333333333333336
50.0   30.0   33.333333333333336
50.0   0.0   33.333333333333336
50.0   0.0   16.666666666666668
0.0   0.0   33.333333333333336
50.0   30.0   33.333333333333336
50.0   0.0   16.666666666666668
0.0   30.0   16.666666666666668
0.0   0.0   33.333333333333336
50.0   0.0   33.333333333333336
0.0   30.0   33.333333333333336
0.0   0.0   50.0
50.0   0.0   33.333333333333336
50.0   30.0   33.333333333333336
0.0   30.0   33.333333333333336
50.0   30.0   50.0
0.0   0.0   50.0
0.0   30.0   50.0
50.0   30.0   50.0
0.0   30.0   33.333333333333336
0.0   0.0   50.0
50.0   30.0   50.0
50.0   0.0   50.0
50.0   0.0   33.333333333333336
0.0   0.0   50.0
50.0   30.0   50.0
50.0   0.0   33.333333333333336
0.0   30.0   33.333333333333336
0.0   30.0   0.0
50.0   30.0   0.0
0.0   60.0   0.0
0.0   30.0   16.666666666666668
50.0   30.0   0.0
50.0   60.0   0.0
0.0   60.0   0.0
50.0   60.0   16.666666666666668
0.0   30.0   16.666666666666668
0.0   60.0   16.666666666666668
50.0   60.0   16.666666666666668
0.0   60.0   0.0
0.0   30.0   16.666666666666668
50.0   60.0   16.666666666666668
50.0   30.0   16.666666666666668
50.0   30.0   0.0
0.0   30.0   16.666666666666668
50.0   60.0   16.666666666666668
50.0   30.0   0.0
0.0   60.0   0.0
0.0   30.0   16.666666666666668
50.0   30.0   16.666666666666668
0.0   60.0   16.666666666666668
0.0   30.0   33.333333333333336
50.0   30.0   16.666666666666668
50.0   60.0   16.666666666666668
0.0   60.0   16.666666666666668
50.0   60.0   33.333333333333336
0.0   30.0   33.333333333333336
0.0   60.0   33.333333333333336
50.0   60.0   33.333333333333336
0.0   60.0   16.666666666666668
0.0   30.0   33.333333333333336
50.0   60.0   33.333333333333336
50.0   30.0   33.333333333333336
50.0   30.0   16.666666666666668
0.0   30.0   33.333333333333336
50.0   60.0   33.333333333333336
50.0   30.0   16.666666666666668
0.0   60.0   16.666666666666668
0.0   30.0   33.333333333333336
50.0   30.0   33.333333333333336
0.0   60.0   33.333333333333336
0.0   30.0   50.0
50.0   30.0   33.333333333333336
50.0   60.0   33.333333333333336
0.0   60.0   33.333333333333336
50.0   60.0   50.0
0.0   30.0   50.0
0.0   60.0   50.0
50.0   60.0   50.0
0.0   60.0   33.333333333333336
0.0   30.0   50.0
50.0   60.0   50.0
50.0   30.0   50.0
50.0   30.0   33.333333333333336
0.0   30.0   50.0
50.0   60.0   50.0
50.0   30.0   33.333333333333336
0.0   60.0   33.333333333333336
0.0   60.0   0.0
50.0   60.0   0.0
0.0   90.0   0.0
0.0   60.0   16.666666666666668
50.0   60.0   0.0
50.0   90.0   0.0
0.0   90.0   0.0
50.0   90.0   16.666666666666668
0.0   60.0   16.666666666666668
0.0   90.0   16.666666666666668
50.0   90.0   16.666666666666668
0.0   90.0   0.0
0.0   60.0   16.666666666666668
50.0   90.0   16.666666666666668
50.0   60.0   16.666666666666668
50.0   60.0   0.0
0.0   60.0   16.666666666666668
50.0   90.0   16.666666666666668
50.0   60.0   0.0
0.0   90.0   0.0
0.0   60.0   16.666666666666668
50.0   60.0   16.666666666666668
0.0   90.0   16.666666666666668
0.0   60.0   33.333333333333336
50.0   60.0   16.666666666666668
50.0   90.0   16.666666666666668
0.0   90.0   16.666666666666668
50.0   90.0   33.333333333333336
0.0   60.0   33.333333333333336
0.0   90.0   33.333333333333336
50.0   90.0   33.333333333333336
0.0   90.0   16.666666666666668
0.0   60.0   33.333333333333336
50.0   90.0   33.333333333333336
50.0   60.0   33.333333333333336
50.0   60.0   16.666666666666668
0.0   60.0   33.333333333333336
50.0   90.0   33.333333333333336
50.0   60.0   16.666666666666668
0.0   90.0   16.666666666666668
0.0   60.0   33.333333333333336
50.0   60.0   33.333333333333336
0.0   90.0   33.333333333333336
0.0   60.0   50.0
50.0   60.0   33.333333333333336
50.0   90.0   33.333333333333336
0.0   90.0   33.333333333333336
50.0   90.0   50.0
0.0   60.0   50.0
0.0   90.0   50.0
50.0   90.0   50.0
0.0   90.0   33.333333333333336
0.0   60.0   50.0
50.0   90.0   50.0
50.0   60.0   50.0
50.0   60.0   33.333333333333336
0.0   60.0   50.0
50.0   90.0   50.0
50.0   60.0   33.333333333333336
0.0   90.0   33.333333333333336
0.0   90.0   0.0
50.0   90.0   0.0
0.0   120.0   0.0
0.0   90.0   16.666666666666668
50.0   90.0   0.0
50.0   120.0   0.0
0.0   120.0   0.0
50.0   120.0   16.666666666666668
0.0   90.0   16.666666666666668
0.0   120.0   16.666666666666668
50.0   120.0   16.666666666666668
0.0   120.0   0.0
0.0   90.0   16.666666666666668
50.0   120.0   16.666666666666668
50.0   90.0   16.666666666666668
50.0   90.0   0.0
0.0   90.0   16.666666666666668
50.0   120.0   16.666666666666668
50.0   90.0   0.0
0.0   120.0   0.0
0.0   90.0   16.666666666666668
50.0   90.0   16.666666666666668
0.0   120.0   16.666666666666668
0.0   90.0   33.333333333333336
50.0   90.0   16.666666666666668
50.0   120.0   16.666666666666668
0.0   120.0   16.666666666666668
50.0   120.0   33.333333333333336
0.0   90.0   33.333333333333336
0.0   120.0   33.333333333333336
50.0   120.0   33.333333333333336
0.0   120.0   16.666666666666668
0.0   90.0   33.333333333333336
50.0   120.0   33.333333333333336
50.0   90.0   33.333333333333336
50.0   90.0   16.666666666666668
0.0   90.0   33.333333333333336
50.0   120.0   33.333333333333336
50.0   90.0   16.666666666666668
0.0   120.0   16.666666666666668
0.0   90.0   33.333333333333336
50.0   90.0   33.333333333333336
0.0   120.0   33.333333333333336
0.0   90.0   50.0
50.0   90.0   33.333333333333336
50.0   120.0   33.333333333333336
0.0   120.0   33.333333333333336
50.0   120.0   50.0
0.0   90.0   50.0
0.0   120.0   50.0
50.0   120.0   50.0
0.0   120.0   33.333333333333336
0.0   90.0   50.0
50.0   120.0   50.0
50.0   90.0   50.0
50.0   90.0   33.333333333333336
0.0   90.0   50.0
50.0   120.0   50.0
50.0   90.0   33.333333333333336
0.0   120.0   33.333333333333336
0.0   120.0   0.0
50.0   120.0   0.0
0.0   150.0   0.0
0.0   120.0   16.666666666666668
50.0   120.0   0.0
50.0   150.0   0.0
0.0   150.0   0.0
50.0   150.0   16.666666666666668
0.0   120.0   16.666666666666668
0.0   150.0   16.666666666666668
50.0   150.0   16.666666666666668
0.0   150.0   0.0
0.0   120.0   16.666666666666668
50.0   150.0   16.666666666666668
50.0   120.0   16.666666666666668
50.0   120.0   0.0
0.0   120.0   16.666666666666668
50.0   150.0   16.666666666666668
50.0   120.0   0.0
0.0   150.0   0.0
0.0   120.0   16.666666666666668
50.0   120.0   16.666666666666668
0.0   150.0   16.666666666666668
0.0   120.0   33.333333333333336
50.0   120.0   16.666666666666668
50.0   150.0   16.666666666666668
0.0   150.0   16.666666666666668
50.0   150.0   33.333333333333336
0.0   120.0   33.333333333333336
0.0   150.0   33.333333333333336
50.0   150.0   33.333333333333336
0.0   150.0   16.666666666666668
0.0   120.0   33.333333333333336
50.0   150.0   33.333333333333336
50.0   120.0   33.333333333333336
50.0   120.0   16.666666666666668
0.0   120.0   33.333333333333336
50.0   150.0   33.333333333333336
50.0   120.0   16.666666666666668
0.0   150.0   16.666666666666668
0.0   120.0   33.333333333333336
50.0   120.0   33.333333333333336
0.0   150.0   33.333333333333336
0.0   120.0   50.0
50.0   120.0   33.333333333333336
50.0   150.0   33.333333333333336
0.0   150.0   33.333333333333336
50.0   150.0   50.0
0.0   120.0   50.0
0.0   150.0   50.0
50.0   150.0   50.0
0.0   150.0   33.333333333333336
0.0   120.0   50.0
50.0   150.0   50.0
50.0   120.0   50.0
50.0   120.0   33.333333333333336
0.0   120.0   50.0
50.0   150.0   50.0
50.0   120.0   33.333333333333336
0.0   150.0   33.333333333333336
50.0   0.0   0.0
100.0   0.0   0.0
50.0   30.0   0.0
50.0   0.0   16.666666666666668
100.0   0.0   0.0
100.0   30.0   0.0
50.0   30.0   0.0
100.0   30.0   16.666666666666668
50.0   0.0   16.666666666666668
50.0   30.0   16.666666666666668
100.0   30.0   16.666666666666668
50.0   30.0   0.0
50.0   0.0   16.666666666666668
100.0   30.0   16.666666666666668
100.0   0.0   16.666666666666668
100.0   0.0   0.0
50.0   0.0   16.666666666666668
100.0   30.0   16.666666666666668
100.0   0.0   0.0
50.0   30.0   0.0
50.0   0.0   16.666666666666668
100.0   0.0   16.666666666666668
50.0   30.0   16.666666666666668
50.0   0.0   33.333333333333336
100.0   0.0   16.666666666666668
100.0   30.0   16.666666666666668
50.0   30.0   16.666666666666668
100.0   30.0   33.333333333333336
50.0   0.0   33.333333333333336
50.0   30.0   33.333333333333336
100.0   30.0   33.333333333333336
50.0   30.0   16.666666666666668
50.0   0.0   33.333333333333336
100.0   30.0   33.333333333333336
100.0   0.0   33.333333333333336
100.0   0.0   16.666666666666668
50.0   0.0   33.333333333333336
100.0   30.0   33.333333333333336
100.0   0.0   16.666666666666668
50.0   30.0   16.666666666666668
50.0   0.0   33.333333333333336
100.0   0.0   33.333333333333336
50.0   30.0   33.333333333333336
50.0   0.0   50.0
100.0   0.0   33.333333333333336
100.0   30.0   33.333333333333336
50.0   30.0   33.333333333333336
100.0   30.0   50.0
50.0   0.0   50.0
50.0   30.0   50.0
100.0   30.0   50.0
50.0   30.0   33.333333333333336
50.0   0.0   50.0
100.0   30.0   50.0
100.0   0.0   50.0
100.0   0.0   33.333333333333336
50.0   0.0   50.0
100.0   30.0   50.0
100.0   0.0   33.333333333333336
50.0   30.0   33.333333333333336
50.0   30.0   0.0
100.0   30.0   0.0
50.0   60.0   0.0
50.0   30.0   16.666666666666668
100.0   30.0   0.0
100.0   60.0   0.0
50.0   60.0   0.0
100.0   60.0   16.666666666666668
50.0   30.0   16.666666666666668
50.0   60.0   16.666666666666668
100.0   60.0   16.666666666666668
50.0   60.0   0.0
50.0   30.0   16.666666666666668
100.0   60.0   16.666666666666668
100.0   30.0   16.666666666666668
100.0   30.0   0.0
50.0   30.0   16.666666666666668
100.0   60.0   16.666666666666668
100.0   30.0   0.0
50.0   60.0   0.0
50.0   30.0   16.666666666666668
100.0   30.0   16.666666666666668
50.0   60.0   16.666666666666668
50.0   30.0   33.333333333333336
100.0   30.0   16.666666666666668
100.0   60.0   16.666666666666668
50.0   60.0   16.666666666666668
100.0   60.0   33.333333333333336
50.0   30.0   33.333333333333336
50.0   60.0   33.333333333333336
100.0   60.0   33.333333333333336
50.0   60.0   16.666666666666668
50.0   30.0   33.333333333333336
100.0   60.0   33.333333333333336
100.0   30.0   33.333333333333336
100.0   30.0   16.666666666666668
50.0   30.0   33.333333333333336
100.0   60.0   33.333333333333336
100.0   30.0   16.666666666666668
50.0   60.0   16.666666666666668
50.0   30.0   33.333333333333336
100.0   30.0   33.333333333333336
50.0   60.0   33.333333333333336
50.0   30.0   50.0
100.0   30.0   33.333333333333336
100.0   60.0   33.333333333333336
50.0   60.0   33.333333333333336
100.0   60.0   50.0
50.0   30.0   50.0
50.0   60.0   50.0
100.0   60.0   50.0
50.0   60.0   33.333333333333336
50.0   30.0   50.0
100.0   60.0   50.0
100.0   30.0   50.0
100.0   30.0   33.333333333333336
50.0   30.0   50.0
100.0   60.0   50.0
100.0   30.0   33.333333333333336
50.0   60.0   33.333333333333336
50.0   60.0   0.0
100.0   60.0   0.0
50.0   90.0   0.0
50.0   60.0   16.666666666666668
100.0   60.0   0.0
100.0   90.0   0.0
50.0   90.0   0.0
100.0   90.0   16.666666666666668
50.0   60.0   16.666666666666668
50.0   90.0   16.666666666666668
100.0   90.0   16.666666666666668
50.0   90.0   0.0
50.0   60.0   16.666666666666668
100.0   90.0   16.666666666666668
100.0   60.0   16.666666666666668
100.0   60.0   0.0
50.0   60.0   16.666666666666668
100.0   90.0   16.666666666666668
100.0   60.0   0.0
50.0   90.0   0.0
50.0   60.0   16.666666666666668
100.0   60.0   16.666666666666668
50.0   90.0   16.666666666666668
50.0   60.0   33.333333333333336
100.0   60.0   16.666666666666668
100.0   90.0   16.666666666666668
50.0   90.0   16.666666666666668
100.0   90.0   33.333333333333336
50.0   60.0   33.333333333333336
50.0   90.0   33.333333333333336
100.0   90.0   33.333333333333336
50.0   90.0   16.666666666666668
50.0   60.0   33.333333333333336
100.0   90.0   33.333333333333336
100.0   60.0   33.333333333333336
100.0   60.0   16.666666666666668
50.0   60.0   33.333333333333336
100.0   90.0   33.333333333333336
100.0   60.0   16.666666666666668
50.0   90.0   16.666666666666668
50.0   60.0   33.333333333333336
100.0   60.0   33.333333333333336
50.0   90.0   33.333333333333336
50.0   60.0   50.0
100.0   60.0   33.333333333333336
100.0   90.0   33.333333333333336
50.0   90.0   33.333333333333336
100.0   90.0   50.0
50.0   60.0   50.0
50.0   90.0   50.0
100.0   90.0   50.0
50.0   90.0   33.333333333333336
50.0   60.0   50.0
100.0   90.0   50.0
100.0   60.0   50.0
100.0   60.0   33.333333333333336
50.0   60.0   50.0
100.0   90.0   50.0
100.0   60.0   33.333333333333336
50.0   90.0   33.333333333333336
50.0   90.0   0.0
100.0   90.0   0.0
50.0   120.0   0.0
50.0   90.0   16.666666666666668
100.0   90.0   0.0
100.0   120.0   0.0
50.0   120.0   0.0
100.0   120.0   16.666666666666668
50.0   90.0   16.666666666666668
50.0   120.0   16.666666666666668
100.0   120.0   16.666666666666668
50.0   120.0   0.0
50.0   90.0   16.666666666666668
100.0   120.0   16.666666666666668
100.0   90.0   16.666666666666668
100.0   90.0   0.0
50.0   90.0   16.666666666666668
100.0   120.0   16.666666666666668
100.0   90.0   0.0
50.0   120.0   0.0
50.0   90.0   16.666666666666668
100.0   90.0   16.666666666666668
50.0   120.0   16.666666666666668
50.0   90.0   33.333333333333336
100.0   90.0   16.666666666666668
100.0   120.0   16.666666666666668
50.0   120.0   16.666666666666668
100.0   120.0   33.333333333333336
50.0   90.0   33.333333333333336
50.0   120.0   33.333333333333336
100.0   120.0   33.333333333333336
50.0   120.0   16.666666666666668
50.0   90.0   33.333333333333336
100.0   120.0   33.333333333333336
100.0   90.0   33.333333333333336
100.0   90.0   16.666666666666668
50.0   90.0   33.333333333333336
100.0   120.0   33.333333333333336
100.0   90.0   16.666666666666668
50.0   120.0   16.666666666666668
50.0   90.0   33.333333333333336
100.0   90.0   33.333333333333336
50.0   120.0   33.333333333333336
50.0   90.0   50.0
100.0   90.0   33.333333333333336
100.0   120.0   33.333333333333336
50.0   120.0   33.333333333333336
100.0   120.0   50.0
50.0   90.0   50.0
50.0   120.0   50.0
100.0   120.0   50.0
50.0   120.0   33.333333333333336
50.0   90.0   50.0
100.0   120.0   50.0
100.0   90.0   50.0
100.0   90.0   33.333333333333336
50.0   90.0   50.0
100.0   120.0   50.0
100.0   90.0   33.333333333333336
50.0   120.0   33.333333333333336
50.0   120.0   0.0
100.0   120.0   0.0
50.0   150.0   0.0
50.0   120.0   16.666666666666668
100.0   120.0   0.0
100.0   150.0   0.0
50.0   150.0   0.0
100.0   150.0   16.666666666666668
50.0   120.0   16.666666666666668
50.0   150.0   16.666666666666668
100.0   150.0   16.666666666666668
50.0   150.0   0.0
50.0   120.0   16.666666666666668
100.0   150.0   16.666666666666668
100.0   120.0   16.666666666666668
100.0   120.0   0.0
50.0   120.0   16.666666666666668
100.0   150.0   16.666666666666668
100.0   120.0   0.0
50.0   150.0   0.0
50.0   120.0   16.666666666666668
100.0   120.0   16.666666666666668
50.0   150.0   16.666666666666668
50.0   120.0   33.333333333333336
100.0   120.0   16.666666666666668
100.0   150.0   16.666666666666668
50.0   150.0   16.666666666666668
100.0   150.0   33.333333333333336
50.0   120.0   33.333333333333336
50.0   150.0   33.333333333333336
100.0   150.0   33.333333333333336
50.0   150.0   16.666666666666668
50.0   120.0   33.333333333333336
100.0   150.0   33.333333333333336
100.0   120.0   33.333333333333336
100.0   120.0   16.666666666666668
50.0   120.0   33.333333333333336
100.0   150.0   33.333333333333336
100.0   120.0   16.666666666666668
50.0   150.0   16.666666666666668
50.0   120.0   33.333333333333336
100.0   120.0   33.333333333333336
50.0   150.0   33.333333333333336
50.0   120.0   50.0
100.0   120.0   33.333333333333336
100.0   150.0   33.333333333333336
50.0   150.0   33.333333333333336
100.0   150.0   50.0
50.0   120.0   50.0
50.0   150.0   50.0
100.0   150.0   50.0
50.0   150.0   33.333333333333336
50.0   120.0   50.0
100.0   150.0   50.0
100.0   120.0   50.0
100.0   120.0   33.333333333333336
50.0   120.0   50.0
100.0   150.0   50.0
100.0   120.0   33.333333333333336
50.0   150.0   33.333333333333336
100.0   0.0   0.0
150.0   0.0   0.0
100.0   30.0   0.0
100.0   0.0   16.666666666666668
150.0   0.0   0.0
150.0   30.0   0.0
100.0   30.0   0.0
150.0   30.0   16.666666666666668
100.0   0.0   16.666666666666668
100.0   30.0   16.666666666666668
150.0   30.0   16.666666666666668
100.0   30.0   0.0
100.0   0.0   16.666666666666668
150.0   30.0   16.666666666666668
150.0   0.0   16.666666666666668
150.0   0.0   0.0
100.0   0.0   16.666666666666668
150.0   30.0   16.666666666666668
150.0   0.0   0.0
100.0   30.0   0.0
100.0   0.0   16.666666666666668
150.0   0.0   16.666666666666668
100.0   30.0   16.666666666666668
100.0   0.0   33.333333333333336
150.0   0.0   16.666666666666668
150.0   30.0   16.666666666666668
100.0   30.0   16.666666666666668
150.0   30.0   33.333333333333336
100.0   0.0   33.333333333333336
100.0   30.0   33.333333333333336
150.0   30.0   33.333333333333336
100.0   30.0   16.666666666666668
100.0   0.0   33.333333333333336
150.0   30.0   33.333333333333336
150.0   0.0   33.333333333333336
150.0   0.0   16.666666666666668
100.0   0.0   33.333333333333336
150.0   30.0   33.333333333333336
150.0   0.0   16.666666666666668
100.0   30.0   16.666666666666668
100.0   0.0   33.333333333333336
150.0   0.0   33.333333333333336
100.0   30.0   33.333333333333336
100.0   0.0   50.0
150.0   0.0   33.333333333333336
150.0   30.0   33.333333333333336
100.0   30.0   33.333333333333336
150.0   30.0   50.0
100.0   0.0   50.0
100.0   30.0   50.0
150.0   30.0   50.0
100.0   30.0   33.333333333333336
100.0   0.0   50.0
150.0   30.0   50.0
150.0   0.0   50.0
150.0   0.0   33.333333333333336
100.0   0.0   50.0
150.0   30.0   50.0
150.0   0.0   33.333333333333336
100.0   30.0   33.333333333333336
100.0   30.0   0.0
150.0   30.0   0.0
100.0   60.0   0.0
100.0   30.0   16.666666666666668
150.0   30.0   0.0
150.0   60.0   0.0
100.0   60.0   0.0
150.0   60.0   16.666666666666668
100.0   30.0   16.666666666666668
100.0   60.0   16.666666666666668
150.0   60.0   16.666666666666668
100.0   60.0   0.0
100.0   30.0   16.666666666666668
150.0   60.0   16.666666666666668
150.0   30.0   16.666666666666668
150.0   30.0   0.0
100.0   30.0   16.666666666666668
150.0   60.0   16.666666666666668
150.0   30.0   0.0
100.0   60.0   0.0
100.0   30.0   16.666666666666668
150.0   30.0   16.666666666666668
100.0   60.0   16.666666666666668
100.0   30.0   33.333333333333336
150.0   30.0   16.666666666666668
150.0   60.0   16.666666666666668
100.0   60.0   16.666666666666668
150.0   60.0   33.333333333333336
100.0   30.0   33.333333333333336
100.0   60.0   33.333333333333336
150.0   60.0   33.333333333333336
100.0   60.0   16.666666666666668
100.0   30.0   33.333333333333336
150.0   60.0   33.333333333333336
150.0   30.0   33.333333333333336
150.0   30.0   16.666666666666668
100.0   30.0   33.333333333333336
150.0   60.0   33.333333333333336
150.0   30.0   16.666666666666668
100.0   60.0   16.666666666666668
100.0   30.0   33.333333333333336
150.0   30.0   33.333333333333336
100.0   60.0   33.333333333333336
100.0   30.0   50.0
150.0   30.0   33.333333333333336
150.0   60.0   33.333333333333336
100.0   60.0   33.333333333333336
150.0   60.0   50.0
100.0   30.0   50.0
100.0   60.0   50.0
150.0   60.0   50.0
100.0   60.0   33.333333333333336
100.0   30.0   50.0
150.0   60.0   50.0
150.0   30.0   50.0
150.0   30.0   33.333333333333336
100.0   30.0   50.0
150.0   60.0   50.0
150.0   30.0   33.333333333333336
100.0   60.0   33.333333333333336
100.0   60.0   0.0
150.0   60.0   0.0
100.0   90.0   0.0
100.0   60.0   16.666666666666668
150.0   60.0   0.0
150.0   90.0   0.0
100.0   90.0   0.0
150.0   90.0   16.666666666666668
100.0   60.0   16.666666666666668
100.0   90.0   16.666666666666668
150.0   90.0   16.666666666666668
100.0   90.0   0.0
100.0   60.0   16.666666666666668
150.0   90.0   16.666666666666668
150.0   60.0   16.666666666666668
150.0   60.0   0.0
100.0   60.0   16.666666666666668
150.0   90.0   16.666666666666668
150.0   60.0   0.0
100.0   90.0   0.0
100.0   60.0   16.666666666666668
150.0   60.0   16.666666666666668
100.0   90.0   16.666666666666668
100.0   60.0   33.333333333333336
150.0   60.0   16.666666666666668
150.0   90.0   16.666666666666668
100.0   90.0   16.666666666666668
150.0   90.0   33.333333333333336
100.0   60.0   33.333333333333336
100.0   90.0   33.333333333333336
150.0   90.0   33.333333333333336
100.0   90.0   16.666666666666668
100.0   60.0   33.333333333333336
150.0   90.0   33.333333333333336
150.0   60.0   33.333333333333336
150.0   60.0   16.666666666666668
100.0   60.0   33.333333333333336
150.0   90.0   33.333333333333336
150.0   60.0   16.666666666666668
100.0   90.0   16.666666666666668
100.0   60.0   33.333333333333336
150.0   60.0   33.333333333333336
100.0   90.0   33.333333333333336
100.0   60.0   50.0
150.0   60.0   33.333333333333336
150.0   90.0   33.333333333333336
100.0   90.0   33.333333333333336
150.0   90.0   50.0
100.0   60.0   50.0
100.0   90.0   50.0
150.0   90.0   50.0
100.0   90.0   33.333333333333336
100.0   60.0   50.0
150.0   90.0   50.0
150.0   60.0   50.0
150.0   60.0   33.333333333333336
100.0   60.0   50.0
150.0   90.0   50.0
150.0   60.0   33.333333333333336
100.0   90.0   33.333333333333336
100.0   90.0   0.0
150.0   90.0   0.0
100.0   120.0   0.0
100.0   90.0   16.666666666666668
150.0   90.0   0.0
150.0   120.0   0.0
100.0   120.0   0.0
150.0   120.0   16.666666666666668
100.0   90.0   16.666666666666668
100.0   120.0   16.666666666666668
150.0   120.0   16.666666666666668
100.0   120.0   0.0
100.0   90.0   16.666666666666668
150.0   120.0   16.666666666666668
150.0   90.0   16.666666666666668
150.0   90.0   0.0
100.0   90.0   16.666666666666668
150.0   120.0   16.666666666666668
150.0   90.0   0.0
100.0   120.0   0.0
100.0   90.0   16.666666666666668
150.0   90.0   16.666666666666668
100.0   120.0   16.666666666666668
100.0   90.0   33.333333333333336
150.0   90.0   16.666666666666668
150.0   120.0   16.666666666666668
100.0   120.0   16.666666666666668
150.0   120.0   33.333333333333336
100.0   90.0   33.333333333333336
100.0   120.0   33.333333333333336
150.0   120.0   33.333333333333336
100.0   120.0   16.666666666666668
100.0   90.0   33.333333333333336
150.0   120.0   33.333333333333336
150.0   90.0   33.333333333333336
150.0   90.0   16.666666666666668
100.0   90.0   33.333333333333336
150.0   120.0   33.333333333333336
150.0   90.0   16.666666666666668
100.0   120.0   16.666666666666668
100.0   90.0   33.333333333333336
150.0   90.0   33.333333333333336
100.0   120.0   33.333333333333336
100.0   90.0   50.0
150.0   90.0   33.333333333333336
150.0   120.0   33.333333333333336
100.0   120.0   33.333333333333336
150.0   120.0   50.0
100.0   90.0   50.0
100.0   120.0   50.0
150.0   120.0   50.0
100.0   120.0   33.333333333333336
100.0   90.0   50.0
150.0   120.0   50.0
150.0   90.0   50.0
150.0   90.0   33.333333333333336
100.0   90.0   50.0
150.0   120.0   50.0
150.0   90.0   33.333333333333336
100.0   120.0   33.333333333333336
100.0   120.0   0.0
150.0   120.0   0.0
100.0   150.0   0.0
100.0   120.0   16.666666666666668
150.0   120.0   0.0
150.0   150.0   0.0
100.0   150.0   0.0
150.0   150.0   16.666666666666668
100.0   120.0   16.666666666666668
100.0   150.0   16.666666666666668
150.0   150.0   16.666666666666668
100.0   150.0   0.0
100.0   120.0   16.666666666666668
150.0   150.0   16.666666666666668
150.0   120.0   16.666666666666668
150.0   120.0   0.0
100.0   120.0   16.666666666666668
150.0   150.0   16.666666666666668
150.0   120.0   0.0
100.0   150.0   0.0
100.0   120.0   16.666666666666668
150.0   120.0   16.666666666666668
100.0   150.0   16.666666666666668
100.0   120.0   33.333333333333336
150.0   120.0   16.666666666666668
150.0   150.0   16.666666666666668
100.0   150.0   16.666666666666668
150.0   150.0   33.333333333333336
100.0   120.0   33.333333333333336
100.0   150.0   33.333333333333336
150.0   150.0   33.333333333333336
100.0   150.0   16.666666666666668
100.0   120.0   33.333333333333336
150.0   150.0   33.333333333333336
150.0   120.0   33.333333333333336
150.0   120.0   16.666666666666668
100.0   120.0   33.333333333333336
150.0   150.0   33.333333333333336
150.0   120.0   16.666666666666668
100.0   150.0   16.666666666666668
100.0   120.0   33.333333333333336
150.0   120.0   33.333333333333336
100.0   150.0   33.333333333333336
100.0   120.0   50.0
150.0   120.0   33.333333333333336
150.0   150.0   33.333333333333336
100.0   150.0   33.333333333333336
150.0   150.0   50.0
100.0   120.0   50.0
100.0   150.0   50.0
150.0   150.0   50.0
100.0   150.0   33.333333333333336
100.0   120.0   50.0
150.0   150.0   50.0
150.0   120.0   50.0
150.0   120.0   33.333333333333336
100.0   120.0   50.0
150.0   150.0   50.0
150.0   120.0   33.333333333333336
100.0   150.0   33.333333333333336
150.0   0.0   0.0
200.0   0.0   0.0
150.0   30.0   0.0
150.0   0.0   16.666666666666668
200.0   0.0   0.0
200.0   30.0   0.0
150.0   30.0   0.0
200.0   30.0   16.666666666666668
150.0   0.0   16.666666666666668
150.0   30.0   16.666666666666668
200.0   30.0   16.666666666666668
150.0   30.0   0.0
150.0   0.0   16.666666666666668
200.0   30.0   16.666666666666668
200.0   0.0   16.666666666666668
200.0   0.0   0.0
150.0   0.0   16.666666666666668
200.0   30.0   16.666666666666668
200.0   0.0   0.0
150.0   30.0   0.0
150.0   0.0   16.666666666666668
200.0   0.0   16.666666666666668
150.0   30.0   16.666666666666668
150.0   0.0   33.333333333333336
200.0   0.0   16.666666666666668
200.0   30.0   16.666666666666668
150.0   30.0   16.666666666666668
200.0   30.0   33.333333333333336
150.0   0.0   33.333333333333336
150.0   30.0   33.333333333333336
200.0   30.0   33.333333333333336
150.0   30.0   16.666666666666668
150.0   0.0   33.333333333333336
200.0   30.0   33.333333333333336
200.0   0.0   33.333333333333336
200.0   0.0   16.666666666666668
150.0   0.0   33.333333333333336
200.0   30.0   33.333333333333336
200.0   0.0   16.666666666666668
150.0   30.0   16.666666666666668
150.0   0.0   33.333333333333336
200.0   0.0   33.333333333333336
150.0   30.0   33.333333333333336
150.0   0.0   50.0
200.0   0.0   33.333333333333336
200.0   30.0   33.333333333333336
150.0   30.0   33.333333333333336
200.0   30.0   50.0
150.0   0.0   50.0
150.0   30.0   50.0
200.0   30.0   50.0
150.0   30.0   33.333333333333336
150.0   0.0   50.0
200.0   30.0   50.0
200.0   0.0   50.0
200.0   0.0   33.333333333333336
150.0   0.0   50.0
200.0   30.0   50.0
200.0   0.0   33.333333333333336
150.0   30.0   33.333333333333336
150.0   30.0   0.0
200.0   30.0   0.0
150.0   60.0   0.0
150.0   30.0   16.666666666666668
200.0   30.0   0.0
200.0   60.0   0.0
150.0   60.0   0.0
200.0   60.0   16.666666666666668
150.0   30.0   16.666666666666668
150.0   60.0   16.666666666666668
200.0   60.0   16.666666666666668
150.0   60.0   0.0
150.0   30.0   16.666666666666668
200.0   60.0   16.666666666666668
200.0   30.0   16.666666666666668
200.0   30.0   0.0
150.0   30.0   16.666666666666668
200.0   60.0   16.666666666666668
200.0   30.0   0.0
150.0   60.0   0.0
150.0   30.0   16.666666666666668
200.0   30.0   16.666666666666668
150.0   60.0   16.666666666666668
150.0   30.0   33.333333333333336
200.0   30.0   16.666666666666668
200.0   60.0   16.666666666666668
150.0   60.0   16.666666666666668
200.0   60.0   33.333333333333336
150.0   30.0   33.333333333333336
150.0   60.0   33.333333333333336
200.0   60.0   33.333333333333336
150.0   60.0   16.666666666666668
150.0   30.0   33.333333333333336
200.0   60.0   33.333333333333336
200.0   30.0   33.333333333333336
200.0   30.0   16.666666666666668
150.0   30.0   33.333333333333336
200.0   60.0   33.333333333333336
200.0   30.0   16.666666666666668
150.0   60.0   16.666666666666668
150.0   30.0   33.333333333333336
200.0   30.0   33.333333333333336
150.0   60.0   33.333333333333336
150.0   30.0   50.0
200.0   30.0   33.333333333333336
200.0   60.0   33.333333333333336
150.0   60.0   33.333333333333336
200.0   60.0   50.0
150.0   30.0   50.0
150.0   60.0   50.0
200.0   60.0   50.0
150.0   60.0   33.333333333333336
150.0   30.0   50.0
200.0   60.0   50.0
200.0   30.0   50.0
200.0   30.0   33.333333333333336
150.0   30.0   50.0
200.0   60.0   50.0
200.0   30.0   33.333333333333336
150.0   60.0   33.333333333333336
150.0   60.0   0.0
200.0   60.0   0.0
150.0   90.0   0.0
150.0   60.0   16.666666666666668
200.0   60.0   0.0
200.0   90.0   0.0
150.0   90.0   0.0
200.0   90.0   16.666666666666668
150.0   60.0   16.666666666666668
150.0   90.0   16.666666666666668
200.0   90.0   16.666666666666668
150.0   90.0   0.0
150.0   60.0   16.666666666666668
200.0   90.0   16.666666666666668
200.0   60.0   16.666666666666668
200.0   60.0   0.0
150.0   60.0   16.666666666666668
200.0   90.0   16.666666666666668
200.0   60.0   0.0
150.0   90.0   0.0
150.0   60.0   16.666666666666668
200.0   60.0   16.666666666666668
150.0   90.0   16.666666666666668
150.0   60.0   33.333333333333336
200.0   60.0   16.666666666666668
200.0   90.0   16.666666666666668
150.0   90.0   16.666666666666668
200.0   90.0   33.333333333333336
150.0   60.0   33.333333333333336
150.0   90.0   33.333333333333336
200.0   90.0   33.333333333333336
150.0   90.0   16.666666666666668
150.0   60.0   33.333333333333336
200.0   90.0   33.333333333333336
200.0   60.0   33.333333333333336
200.0   60.0   16.666666666666668
150.0   60.0   33.333333333333336
200.0   90.0   33.333333333333336
200.0   60.0   16.666666666666668
150.0   90.0   16.666666666666668
150.0   60.0   33.333333333333336
200.0   60.0   33.333333333333336
150.0   90.0   33.333333333333336
150.0   60.0   50.0
200.0   60.0   33.333333333333336
200.0   90.0   33.333333333333336
150.0   90.0   33.333333333333336
200.0   90.0   50.0
150.0   60.0   50.0
150.0   90.0   50.0
200.0   90.0   50.0
150.0   90.0   33.333333333333336
150.0   60.0   50.0
200.0   90.0   50.0
200.0   60.0   50.0
200.0   60.0   33.333333333333336
150.0   60.0   50.0
200.0   90.0   50.0
200.0   60.0   33.333333333333336
150.0   90.0   33.333333333333336
150.0   90.0   0.0
200.0   90.0   0.0
150.0   120.0   0.0
150.0   90.0   16.666666666666668
200.0   90.0   0.0
200.0   120.0   0.0
150.0   120.0   0.0
200.0   120.0   16.666666666666668
150.0   90.0   16.666666666666668
150.0   120.0   16.666666666666668
200.0   120.0   16.666666666666668
150.0   120.0   0.0
150.0   90.0   16.666666666666668
200.0   120.0   16.666666666666668
200.0   90.0   16.666666666666668
200.0   90.0   0.0
150.0   90.0   16.666666666666668
200.0   120.0   16.666666666666668
200.0   90.0   0.0
150.0   120.0   0.0
150.0   90.0   16.666666666666668
200.0   90.0   16.666666666666668
150.0   120.0   16.666666666666668
150.0   90.0   33.333333333333336
200.0   90.0   16.666666666666668
200.0   120.0   16.666666666666668
150.0   120.0   16.666666666666668
200.0   120.0   33.333333333333336
150.0   90.0   33.333333333333336
150.0   120.0   33.333333333333336
200.0   120.0   33.333333333333336
150.0   120.0   16.666666666666668
150.0   90.0   33.333333333333336
200.0   120.0   33.333333333333336
200.0   90.0   33.333333333333336
200.0   90.0   16.666666666666668
150.0   90.0   33.333333333333336
200.0   120.0   33.333333333333336
200.0   90.0   16.666666666666668
150.0   120.0   16.666666666666668
150.0   90.0   33.333333333333336
200.0   90.0   33.333333333333336
150.0   120.0   33.333333333333336
150.0   90.0   50.0
200.0   90.0   33.333333333333336
200.0   120.0   33.333333333333336
150.0   120.0   33.333333333333336
200.0   120.0   50.0
150.0   90.0   50.0
150.0   120.0   50.0
200.0   120.0   50.0
150.0   120.0   33.333333333333336
150.0   90.0   50.0
200.0   120.0   50.0
200.0   90.0   50.0
200.0   90.0   33.333333333333336
150.0   90.0   50.0
200.0   120.0   50.0
200.0   90.0   33.333333333333336
150.0   120.0   33.333333333333336
150.0   120.0   0.0
200.0   120.0   0.0
150.0   150.0   0.0
150.0   120.0   16.666666666666668
200.0   120.0   0.0
200.0   150.0   0.0
150.0   150.0   0.0
200.0   150.0   16.666666666666668
150.0   120.0   16.666666666666668
150.0   150.0   16.666666666666668
200.0   150.0   16.666666666666668
150.0   150.0   0.0
150.0   120.0   16.666666666666668
200.0   150.0   16.666666666666668
200.0   120.0   16.666666666666668
200.0   120.0   0.0
150.0   120.0   16.666666666666668
200.0   150.0   16.666666666666668
200.0   120.0   0.0
150.0   150.0   0.0
150.0   120.0   16.666666666666668
200.0   120.0   16.666666666666668
150.0   150.0   16.666666666666668
150.0   120.0   33.333333333333336
200.0   120.0   16.666666666666668
200.0   150.0   16.666666666666668
150.0   150.0   16.666666666666668
200.0   150.0   33.333333333333336
150.0   120.0   33.333333333333336
150.0   150.0   33.333333333333336
200.0   150.0   33.333333333333336
150.0   150.0   16.666666666666668
150.0   120.0   33.333333333333336
200.0   150.0   33.333333333333336
200.0   120.0   33.333333333333336
200.0   120.0   16.666666666666668
150.0   120.0   33.333333333333336
200.0   150.0   33.333333333333336
200.0   120.0   16.666666666666668
150.0   150.0   16.666666666666668
150.0   120.0   33.333333333333336
200.0   120.0   33.333333333333336
150.0   150.0   33.333333333333336
150.0   120.0   50.0
200.0   120.0   33.333333333333336
200.0   150.0   33.333333333333336
150.0   150.0   33.333333333333336
200.0   150.0   50.0
150.0   120.0   50.0
150.0   150.0   50.0
200.0   150.0   50.0
150.0   150.0   33.333333333333336
150.0   120.0   50.0
200.0   150.0   50.0
200.0   120.0   50.0
200.0   120.0   33.333333333333336
150.0   120.0   50.0
200.0   150.0   50.0
200.0   120.0   33.333333333333336
150.0   150.0   33.333333333333336
200.0   0.0   0.0
250.0   0.0   0.0
200.0   30.0   0.0
200.0   0.0   16.666666666666668
250.0   0.0   0.0
250.0   30.0   0.0
200.0   30.0   0.0
250.0   30.0   16.666666666666668
200.0   0.0   16.666666666666668
200.0   30.0   16.666666666666668
250.0   30.0   16.666666666666668
200.0   30.0   0.0
200.0   0.0   16.666666666666668
250.0   30.0   16.666666666666668
250.0   0.0   16.666666666666668
250.0   0.0   0.0
200.0   0.0   16.666666666666668
250.0   30.0   16.666666666666668
250.0   0.0   0.0
200.0   30.0   0.0
200.0   0.0   16.666666666666668
250.0   0.0   16.666666666666668
200.0   30.0   16.666666666666668
200.0   0.0   33.333333333333336
250.0   0.0   16.666666666666668
250.0   30.0   16.666666666666668
200.0   30.0   16.666666666666668
250.0   30.0   33.333333333333336
200.0   0.0   33.333333333333336
200.0   30.0   33.333333333333336
250.0   30.0   33.333333333333336
200.0   30.0   16.666666666666668
200.0   0.0   33.333333333333336
250.0   30.0   33.333333333333336
250.0   0.0   33.333333333333336
250.0   0.0   16.666666666666668
200.0   0.0   33.333333333333336
250.0   30.0   33.333333333333336
250.0   0.0   16.666666666666668
200.0   30.0   16.666666666666668
200.0   0.0   33.333333333333336
250.0   0.0   33.333333333333336
200.0   30.0   33.333333333333336
200.0   0.0   50.0
250.0   0.0   33.333333333333336
250.0   30.0   33.333333333333336
200.0   30.0   33.333333333333336
250.0   30.0   50.0
200.0   0.0   50.0
200.0   30.0   50.0
250.0   30.0   50.0
200.0   30.0   33.333333333333336
200.0   0.0   50.0
250.0   30.0   50.0
250.0   0.0   50.0
250.0   0.0   33.333333333333336
200.0   0.0   50.0
250.0   30.0   50.0
250.0   0.0   33.333333333333336
200.0   30.0   33.333333333333336
200.0   30.0   0.0
250.0   30.0   0.0
200.0   60.0   0.0
200.0   30.0   16.666666666666668
250.0   30.0   0.0
250.0   60.0   0.0
200.0   60.0   0.0
250.0   60.0   16.666666666666668
200.0   30.0   16.666666666666668
200.0   60.0   16.666666666666668
250.0   60.0   16.666666666666668
200.0   60.0   0.0
200.0   30.0   16.666666666666668
250.0   60.0   16.666666666666668
250.0   30.0   16.666666666666668
250.0   30.0   0.0
200.0   30.0   16.666666666666668
250.0   60.0   16.666666666666668
250.0   30.0   0.0
200.0   60.0   0.0
200.0   30.0   16.666666666666668
250.0   30.0   16.666666666666668
200.0   60.0   16.666666666666668
200.0   30.0   33.333333333333336
250.0   30.0   16.666666666666668
250.0   60.0   16.666666666666668
200.0   60.0   16.666666666666668
250.0   60.0   33.333333333333336
200.0   30.0   33.333333333333336
200.0   60.0   33.333333333333336
250.0   60.0   33.333333333333336
200.0   60.0   16.666666666666668
200.0   30.0   33.333333333333336
250.0   60.0   33.333333333333336
250.0   30.0   33.333333333333336
250.0   30.0   16.666666666666668
200.0   30.0   33.333333333333336
250.0   60.0   33.333333333333336
250.0   30.0   16.666666666666668
200.0   60.0   16.666666666666668
200.0   30.0   33.333333333333336
250.0   30.0   33.333333333333336
200.0   60.0   33.333333333333336
200.0   30.0   50.0
250.0   30.0   33.333333333333336
250.0   60.0   33.333333333333336
200.0   60.0   33.333333333333336
250.0   60.0   50.0
200.0   30.0   50.0
200.0   60.0   50.0
250.0   60.0   50.0
200.0   60.0   33.333333333333336
200.0   30.0   50.0
250.0   60.0   50.0
250.0   30.0   50.0
250.0   30.0   33.333333333333336
200.0   30.0   50.0
250.0   60.0   50.0
250.0   30.0   33.333333333333336
200.0   60.0   33.333333333333336
200.0   60.0   0.0
250.0   60.0   0.0
200.0   90.0   0.0
200.0   60.0   16.666666666666668
250.0   60.0   0.0
250.0   90.0   0.0
200.0   90.0   0.0
250.0   90.0   16.666666666666668
200.0   60.0   16.666666666666668
200.0   90.0   16.666666666666668
250.0   90.0   16.666666666666668
200.0   90.0   0.0
200.0   60.0   16.666666666666668
250.0   90.0   16.666666666666668
250.0   60.0   16.666666666666668
250.0   60.0   0.0
200.0   60.0   16.666666666666668
250.0   90.0   16.666666666666668
250.0   60.0   0.0
200.0   90.0   0.0
200.0   60.0   16.666666666666668
250.0   60.0   16.666666666666668
200.0   90.0   16.666666666666668
200.0   60.0   33.333333333333336
250.0   60.0   16.666666666666668
250.0   90.0   16.666666666666668
200.0   90.0   16.666666666666668
250.0   90.0   33.333333333333336
200.0   60.0   33.333333333333336
200.0   90.0   33.333333333333336
250.0   90.0   33.333333333333336
200.0   90.0   16.666666666666668
200.0   60.0   33.333333333333336
250.0   90.0   33.333333333333336
250.0   60.0   33.333333333333336
250.0   60.0   16.666666666666668
200.0   60.0   33.333333333333336
250.0   90.0   33.333333333333336
250.0   60.0   16.666666666666668
200.0   90.0   16.666666666666668
200.0   60.0   33.333333333333336
250.0   60.0   33.333333333333336
200.0   90.0   33.333333333333336
200.0   60.0   50.0
250.0   60.0   33.333333333333336
250.0   90.0   33.333333333333336
200.0   90.0   33.333333333333336
250.0   90.0   50.0
200.0   60.0   50.0
200.0   90.0   50.0
250.0   90.0   50.0
200.0   90.0   33.333333333333336
200.0   60.0   50.0
250.0   90.0   50.0
250.0   60.0   50.0
250.0   60.0   33.333333333333336
200.0   60.0   50.0
250.0   90.0   50.0
250.0   60.0   33.333333333333336
200.0   90.0   33.333333333333336
200.0   90.0   0.0
250.0   90.0   0.0
200.0   120.0   0.0
200.0   90.0   16.666666666666668
250.0   90.0   0.0
250.0   120.0   0.0
200.0   120.0   0.0
250.0   120.0   16.666666666666668
200.0   90.0   16.666666666666668
200.0   120.0   16.666666666666668
250.0   120.0   16.666666666666668
200.0   120.0   0.0
200.0   90.0   16.666666666666668
250.0   120.0   16.666666666666668
250.0   90.0   16.666666666666668
250.0   90.0   0.0
200.0   90.0   16.666666666666668
250.0   120.0   16.666666666666668
250.0   90.0   0.0
200.0   120.0   0.0
200.0   90.0   16.666666666666668
250.0   90.0   16.666666666666668
200.0   120.0   16.666666666666668
200.0   90.0   33.333333333333336
250.0   90.0   16.666666666666668
250.0   120.0   16.666666666666668
200.0   120.0   16.666666666666668
250.0   120.0   33.333333333333336
200.0   90.0   33.333333333333336
200.0   120.0   33.333333333333336
250.0   120.0   33.333333333333336
200.0   120.0   16.666666666666668
200.0   90.0   33.333333333333336
250.0   120.0   33.333333333333336
250.0   90.0   33.333333333333336
250.0   90.0   16.666666666666668
200.0   90.0   33.333333333333336
250.0   120.0   33.333333333333336
250.0   90.0   16.666666666666668
200.0   120.0   16.666666666666668
200.0   90.0   33.333333333333336
250.0   90.0   33.333333333333336
200.0   120.0   33.333333333333336
200.0   90.0   50.0
250.0   90.0   33.333333333333336
250.0   120.0   33.333333333333336
200.0   120.0   33.333333333333336
250.0   120.0   50.0
200.0   90.0   50.0
200.0   120.0   50.0
250.0   120.0   50.0
200.0   120.0   33.333333333333336
200.0   90.0   50.0
250.0   120.0   50.0
250.0   90.0   50.0
250.0   90.0   33.333333333333336
200.0   90.0   50.0
250.0   120.0   50.0
250.0   90.0   33.333333333333336
200.0   120.0   33.333333333333336
200.0   120.0   0.0
250.0   120.0   0.0
200.0   150.0   0.0
200.0   120.0   16.666666666666668
250.0   120.0   0.0
250.0   150.0   0.0
200.0   150.0   0.0
250.0   150.0   16.666666666666668
200.0   120.0   16.666666666666668
200.0   150.0   16.666666666666668
250.0   150.0   16.666666666666668
200.0   150.0   0.0
200.0   120.0   16.666666666666668
250.0   150.0   16.666666666666668
250.0   120.0   16.666666666666668
250.0   120.0   0.0
200.0   120.0   16.666666666666668
250.0   150.0   16.666666666666668
250.0   120.0   0.0
200.0   150.0   0.0
200.0   120.0   16.666666666666668
250.0   120.0   16.666666666666668
200.0   150.0   16.666666666666668
200.0   120.0   33.333333333333336
250.0   120.0   16.666666666666668
250.0   150.0   16.666666666666668
200.0   150.0   16.666666666666668
250.0   150.0   33.333333333333336
200.0   120.0   33.333333333333336
200.0   150.0   33.333333333333336
250.0   150.0   33.333333333333336
200.0   150.0   16.666666666666668
200.0   120.0   33.333333333333336
250.0   150.0   33.333333333333336
250.0   120.0   33.333333333333336
250.0   120.0   16.666666666666668
200.0   120.0   33.333333333333336
250.0   150.0   33.333333333333336
250.0   120.0   16.666666666666668
200.0   150.0   16.666666666666668
200.0   120.0   33.333333333333336
250.0   120.0   33.333333333333336
200.0   150.0   33.333333333333336
200.0   120.0   50.0
250.0   120.0   33.333333333333336
250.0   150.0   33.333333333333336
200.0   150.0   33.333333333333336
250.0   150.0   50.0
200.0   120.0   50.0
200.0   150.0   50.0
250.0   150.0   50.0
200.0   150.0   33.333333333333336
200.0   120.0   50.0
250.0   150.0   50.0
250.0   120.0   50.0
250.0   120.0   33.333333333333336
200.0   120.0   50.0
250.0   150.0   50.0
250.0   120.0   33.333333333333336
200.0   150.0   33.333333333333336
250.0   0.0   0.0
300.0   0.0   0.0
250.0   30.0   0.0
250.0   0.0   16.666666666666668
300.0   0.0   0.0
300.0   30.0   0.0
250.0   30.0   0.0
300.0   30.0   16.666666666666668
250.0   0.0   16.666666666666668
250.0   30.0   16.666666666666668
300.0   30.0   16.666666666666668
250.0   30.0   0.0
250.0   0.0   16.666666666666668
300.0   30.0   16.666666666666668
300.0   0.0   16.666666666666668
300.0   0.0   0.0
250.0   0.0   16.666666666666668
300.0   30.0   16.666666666666668
300.0   0.0   0.0
250.0   30.0   0.0
250.0   0.0   16.666666666666668
300.0   0.0   16.666666666666668
250.0   30.0   16.666666666666668
250.0   0.0   33.333333333333336
300.0   0.0   16.666666666666668
300.0   30.0   16.666666666666668
250.0   30.0   16.666666666666668
300.0   30.0   33.333333333333336
250.0   0.0   33.333333333333336
250.0   30.0   33.333333333333336
300.0   30.0   33.333333333333336
250.0   30.0   16.666666666666668
250.0   0.0   33.333333333333336
300.0   30.0   33.333333333333336
300.0   0.0   33.333333333333336
300.0   0.0   16.666666666666668
250.0   0.0   33.333333333333336
300.0   30.0   33.333333333333336
300.0   0.0   16.666666666666668
250.0   30.0   16.666666666666668
250.0   0.0   33.333333333333336
300.0   0.0   33.333333333333336
250.0   30.0   33.333333333333336
250.0   0.0   50.0
300.0   0.0   33.333333333333336
300.0   30.0   33.333333333333336
250.0   30.0   33.333333333333336
300.0   30.0   50.0
250.0   0.0   50.0
250.0   30.0   50.0
300.0   30.0   50.0
250.0   30.0   33.333333333333336
250.0   0.0   50.0
300.0   30.0   50.0
300.0   0.0   50.0
300.0   0.0   33.333333333333336
250.0   0.0   50.0
300.0   30.0   50.0
300.0   0.0   33.333333333333336
250.0   30.0   33.333333333333336
250.0   30.0   0.0
300.0   30.0   0.0
250.0   60.0   0.0
250.0   30.0   16.666666666666668
300.0   30.0   0.0
300.0   60.0   0.0
250.0   60.0   0.0
300.0   60.0   16.666666666666668
250.0   30.0   16.666666666666668
250.0   60.0   16.666666666666668
300.0   60.0   16.666666666666668
250.0   60.0   0.0
250.0   30.0   16.666666666666668
300.0   60.0   16.666666666666668
300.0   30.0   16.666666666666668
300.0   30.0   0.0
250.0   30.0   16.666666666666668
300.0   60.0   16.666666666666668
300.0   30.0   0.0
250.0   60.0   0.0
250.0   30.0   16.666666666666668
300.0   30.0   16.666666666666668
250.0   60.0   16.666666666666668
250.0   30.0   33.333333333333336
300.0   30.0   16.666666666666668
300.0   60.0   16.666666666666668
250.0   60.0   16.666666666666668
300.0   60.0   33.333333333333336
250.0   30.0   33.333333333333336
250.0   60.0   33.333333333333336
300.0   60.0   33.333333333333336
250.0   60.0   16.666666666666668
250.0   30.0   33.333333333333336
300.0   60.0   33.333333333333336
300.0   30.0   33.333333333333336
300.0   30.0   16.666666666666668
250.0   30.0   33.333333333333336
300.0   60.0   33.333333333333336
300.0   30.0   16.666666666666668
250.0   60.0   16.666666666666668
250.0   30.0   33.333333333333336
300.0   30.0   33.333333333333336
250.0   60.0   33.333333333333336
250.0   30.0   50.0
300.0   30.0   33.333333333333336
300.0   60.0   33.333333333333336
250.0   60.0   33.333333333333336
300.0   60.0   50.0
250.0   30.0   50.0
250.0   60.0   50.0
300.0   60.0   50.0
250.0   60.0   33.333333333333336
250.0   30.0   50.0
300.0   60.0   50.0
300.0   30.0   50.0
300.0   30.0   33.333333333333336
250.0   30.0   50.0
300.0   60.0   50.0
300.0   30.0   33.333333333333336
250.0   60.0   33.333333333333336
250.0   60.0   0.0
300.0   60.0   0.0
250.0   90.0   0.0
250.0   60.0   16.666666666666668
300.0   60.0   0.0
300.0   90.0   0.0
250.0   90.0   0.0
300.0   90.0   16.666666666666668
250.0   60.0   16.666666666666668
250.0   90.0   16.666666666666668
300.0   90.0   16.666666666666668
250.0   90.0   0.0
250.0   60.0   16.666666666666668
300.0   90.0   16.666666666666668
300.0   60.0   16.666666666666668
300.0   60.0   0.0
250.0   60.0   16.666666666666668
300.0   90.0   16.666666666666668
300.0   60.0   0.0
250.0   90.0   0.0
250.0   60.0   16.666666666666668
300.0   60.0   16.666666666666668
250.0   90.0   16.666666666666668
250.0   60.0   33.333333333333336
300.0   60.0   16.666666666666668
300.0   90.0   16.666666666666668
250.0   90.0   16.666666666666668
300.0   90.0   33.333333333333336
250.0   60.0   33.333333333333336
250.0   90.0   33.333333333333336
300.0   90.0   33.333333333333336
250.0   90.0   16.666666666666668
250.0   60.0   33.333333333333336
300.0   90.0   33.333333333333336
300.0   60.0   33.333333333333336
300.0   60.0   16.666666666666668
250.0   60.0   33.333333333333336
300.0   90.0   33.333333333333336
300.0   60.0   16.666666666666668
250.0   90.0   16.666666666666668
250.0   60.0   33.333333333333336
300.0   60.0   33.333333333333336
250.0   90.0   33.333333333333336
250.0   60.0   50.0
300.0   60.0   33.333333333333336
300.0   90.0   33.333333333333336
250.0   90.0   33.333333333333336
300.0   90.0   50.0
250.0   60.0   50.0
250.0   90.0   50.0
300.0   90.0   50.0
250.0   90.0   33.333333333333336
250.0   60.0   50.0
300.0   90.0   50.0
300.0   60.0   50.0
300.0   60.0   33.333333333333336
250.0   60.0   50.0
300.0   90.0   50.0
300.0   60.0   33.333333333333336
250.0   90.0   33.333333333333336
250.0   90.0   0.0
300.0   90.0   0.0
250.0   120.0   0.0
250.0   90.0   16.666666666666668
300.0   90.0   0.0
300.0   120.0   0.0
250.0   120.0   0.0
300.0   120.0   16.666666666666668
250.0   90.0   16.666666666666668
250.0   120.0   16.666666666666668
300.0   120.0   16.666666666666668
250.0   120.0   0.0
250.0   90.0   16.666666666666668
300.0   120.0   16.666666666666668
300.0   90.0   16.666666666666668
300.0   90.0   0.0
250.0   90.0   16.666666666666668
300.0   120.0   16.666666666666668
300.0   90.0   0.0
250.0   120.0   0.0
250.0   90.0   16.666666666666668
300.0   90.0   16.666666666666668
250.0   120.0   16.666666666666668
250.0   90.0   33.333333333333336
300.0   90.0   16.666666666666668
300.0   120.0   16.666666666666668
250.0   120.0   16.666666666666668
300.0   120.0   33.333333333333336
250.0   90.0   33.333333333333336
250.0   120.0   33.333333333333336
300.0   120.0   33.333333333333336
250.0   120.0   16.666666666666668
250.0   90.0   33.333333333333336
300.0   120.0   33.333333333333336
300.0   90.0   33.333333333333336
300.0   90.0   16.666666666666668
250.0   90.0   33.333333333333336
300.0   120.0   33.333333333333336
300.0   90.0   16.666666666666668
250.0   120.0   16.666666666666668
250.0   90.0   33.333333333333336
300.0   90.0   33.333333333333336
250.0   120.0   33.333333333333336
250.0   90.0   50.0
300.0   90.0   33.333333333333336
300.0   120.0   33.333333333333336
250.0   120.0   33.333333333333336
300.0   120.0   50.0
250.0   90.0   50.0
250.0   120.0   50.0
300.0   120.0   50.0
250.0   120.0   33.333333333333336
250.0   90.0   50.0
300.0   120.0   50.0
300.0   90.0   50.0
300.0   90.0   33.333333333333336
250.0   90.0   50.0
300.0   120.0   50.0
300.0   90.0   33.333333333333336
250.0   120.0   33.333333333333336
250.0   120.0   0.0
300.0   120.0   0.0
250.0   150.0   0.0
250.0   120.0   16.666666666666668
300.0   120.0   0.0
300.0   150.0   0.0
250.0   150.0   0.0
300.0   150.0   16.666666666666668
250.0   120.0   16.666666666666668
250.0   150.0   16.666666666666668
300.0   150.0   16.666666666666668
250.0   150.0   0.0
250.0   120.0   16.666666666666668
300.0   150.0   16.666666666666668
300.0   120.0   16.666666666666668
300.0   120.0   0.0
250.0   120.0   16.666666666666668
300.0   150.0   16.666666666666668
300.0   120.0   0.0
250.0   150.0   0.0
250.0   120.0   16.666666666666668
300.0   120.0   16.666666666666668
250.0   150.0   16.666666666666668
250.0   120.0   33.333333333333336
300.0   120.0   16.666666666666668
300.0   150.0   16.666666666666668
250.0   150.0   16.666666666666668
300.0   150.0   33.333333333333336
250.0   120.0   33.333333333333336
250.0   150.0   33.333333333333336
300.0   150.0   33.333333333333336
250.0   150.0   16.666666666666668
250.0   120.0   33.333333333333336
300.0   150.0   33.333333333333336
300.0   120.0   33.333333333333336
300.0   120.0   16.666666666666668
250.0   120.0   33.333333333333336
300.0   150.0   33.333333333333336
300.0   120.0   16.666666666666668
250.0   150.0   16.666666666666668
250.0   120.0   33.333333333333336
300.0   120.0   33.333333333333336
250.0   150.0   33.333333333333336
250.0   120.0   50.0
300.0   120.0   33.333333333333336
300.0   150.0   33.333333333333336
250.0   150.0   33.333333333333336
300.0   150.0   50.0
250.0   120.0   50.0
250.0   150.0   50.0
300.0   150.0   50.0
250.0   150.0   33.333333333333336
250.0   120.0   50.0
300.0   150.0   50.0
300.0   120.0   50.0
300.0   120.0   33.333333333333336
250.0   120.0   50.0
300.0   150.0   50.0
300.0   120.0   33.333333333333336
250.0   150.0   33.333333333333336
300.0   0.0   0.0
350.0   0.0   0.0
300.0   30.0   0.0
300.0   0.0   16.666666666666668
350.0   0.0   0.0
350.0   30.0   0.0
300.0   30.0   0.0
350.0   30.0   16.666666666666668
300.0   0.0   16.666666666666668
300.0   30.0   16.666666666666668
350.0   30.0   16.666666666666668
300.0   30.0   0.0
300.0   0.0   16.666666666666668
350.0   30.0   16.666666666666668
350.0   0.0   16.666666666666668
350.0   0.0   0.0
300.0   0.0   16.666666666666668
350.0   30.0   16.666666666666668
350.0   0.0   0.0
300.0   30.0   0.0
300.0   0.0   16.666666666666668
350.0   0.0   16.666666666666668
300.0   30.0   16.666666666666668
300.0   0.0   33.333333333333336
350.0   0.0   16.666666666666668
350.0   30.0   16.666666666666668
300.0   30.0   16.666666666666668
350.0   30.0   33.333333333333336
300.0   0.0   33.333333333333336
300.0   30.0   33.333333333333336
350.0   30.0   33.333333333333336
300.0   30.0   16.666666666666668
300.0   0.0   33.333333333333336
350.0   30.0   33.333333333333336
350.0   0.0   33.333333333333336
350.0   0.0   16.666666666666668
300.0   0.0   33.333333333333336
350.0   30.0   33.333333333333336
350.0   0.0   16.666666666666668
300.0   30.0   16.666666666666668
300.0   0.0   33.333333333333336
350.0   0.0   33.333333333333336
300.0   30.0   33.333333333333336
300.0   0.0   50.0
350.0   0.0   33.333333333333336
350.0   30.0   33.333333333333336
300.0   30.0   33.333333333333336
350.0   30.0   50.0
300.0   0.0   50.0
300.0   30.0   50.0
350.0   30.0   50.0
300.0   30.0   33.333333333333336
300.0   0.0   50.0
350.0   30.0   50.0
350.0   0.0   50.0
350.0   0.0   33.333333333333336
300.0   0.0   50.0
350.0   30.0   50.0
350.0   0.0   33.333333333333336
300.0   30.0   33.333333333333336
300.0   30.0   0.0
350.0   30.0   0.0
300.0   60.0   0.0
300.0   30.0   16.666666666666668
350.0   30.0   0.0
350.0   60.0   0.0
300.0   60.0   0.0
350.0   60.0   16.666666666666668
300.0   30.0   16.666666666666668
300.0   60.0   16.666666666666668
350.0   60.0   16.666666666666668
300.0   60.0   0.0
300.0   30.0   16.666666666666668
350.0   60.0   16.666666666666668
350.0   30.0   16.666666666666668
350.0   30.0   0.0
300.0   30.0   16.666666666666668
350.0   60.0   16.666666666666668
350.0   30.0   0.0
300.0   60.0   0.0
300.0   30.0   16.666666666666668
350.0   30.0   16.666666666666668
300.0   60.0   16.666666666666668
300.0   30.0   33.333333333333336
350.0   30.0   16.666666666666668
350.0   60.0   16.666666666666668
300.0   60.0   16.666666666666668
350.0   60.0   33.333333333333336
300.0   30.0   33.333333333333336
300.0   60.0   33.333333333333336
350.0   60.0   33.333333333333336
300.0   60.0   16.666666666666668
300.0   30.0   33.333333333333336
350.0   60.0   33.333333333333336
350.0   30.0   33.333333333333336
350.0   30.0   16.666666666666668
300.0   30.0   33.333333333333336
350.0   60.0   33.333333333333336
350.0   30.0   16.666666666666668
300.0   60.0   16.666666666666668
300.0   30.0   33.333333333333336
350.0   30.0   33.333333333333336
300.0   60.0   33.333333333333336
300.0   30.0   50.0
350.0   30.0   33.333333333333336
350.0   60.0   33.333333333333336
300.0   60.0   33.333333333333336
350.0   60.0   50.0
300.0   30.0   50.0
300.0   60.0   50.0
350.0   60.0   50.0
300.0   60.0   33.333333333333336
300.0   30.0   50.0
350.0   60.0   50.0
350.0   30.0   50.0
350.0   30.0   33.333333333333336
300.0   30.0   50.0
350.0   60.0   50.0
350.0   30.0   33.333333333333336
300.0   60.0   33.333333333333336
300.0   60.0   0.0
350.0   60.0   0.0
300.0   90.0   0.0
300.0   60.0   16.666666666666668
350.0   60.0   0.0
350.0   90.0   0.0
300.0   90.0   0.0
350.0   90.0   16.666666666666668
300.0   60.0   16.666666666666668
300.0   90.0   16.666666666666668
350.0   90.0   16.666666666666668
300.0   90.0   0.0
300.0   60.0   16.666666666666668
350.0   90.0   16.666666666666668
350.0   60.0   16.666666666666668
350.0   60.0   0.0
300.0   60.0   16.666666666666668
350.0   90.0   16.666666666666668
350.0   60.0   0.0
300.0   90.0   0.0
300.0   60.0   16.666666666666668
350.0   60.0   16.666666666666668
300.0   90.0   16.666666666666668
300.0   60.0   33.333333333333336
350.0   60.0   16.666666666666668
350.0   90.0   16.666666666666668
300.0   90.0   16.666666666666668
350.0   90.0   33.333333333333336
300.0   60.0   33.333333333333336
300.0   90.0   33.333333333333336
350.0   90.0   33.333333333333336
300.0   90.0   16.666666666666668
300.0   60.0   33.333333333333336
350.0   90.0   33.333333333333336
350.0   60.0   33.333333333333336
350.0   60.0   16.666666666666668
300.0   60.0   33.333333333333336
350.0   90.0   33.333333333333336
350.0   60.0   16.666666666666668
300.0   90.0   16.666666666666668
300.0   60.0   33.333333333333336
350.0   60.0   33.333333333333336
300.0   90.0   33.333333333333336
300.0   60.0   50.0
350.0   60.0   33.333333333333336
350.0   90.0   33.333333333333336
300.0   90.0   33.333333333333336
350.0   90.0   50.0
300.0   60.0   50.0
300.0   90.0   50.0
350.0   90.0   50.0
300.0   90.0   33.333333333333336
300.0   60.0   50.0
350.0   90.0   50.0
350.0   60.0   50.0
350.0   60.0   33.333333333333336
300.0   60.0   50.0
350.0   90.0   50.0
350.0   60.0   33.333333333333336
300.0   90.0   33.333333333333336
300.0   90.0   0.0
350.0   90.0   0.0
300.0   120.0   0.0
300.0   90.0   16.666666666666668
350.0   90.0   0.0
350.0   120.0   0.0
300.0   120.0   0.0
350.0   120.0   16.666666666666668
300.0   90.0   16.666666666666668
300.0   120.0   16.666666666666668
350.0   120.0   16.666666666666668
300.0   120.0   0.0
300.0   90.0   16.666666666666668
350.0   120.0   16.666666666666668
350.0   90.0   16.666666666666668
350.0   90.0   0.0
300.0   90.0   16.666666666666668
350.0   120.0   16.666666666666668
350.0   90.0   0.0
300.0   120.0   0.0
300.0   90.0   16.666666666666668
350.0   90.0   16.666666666666668
300.0   120.0   16.666666666666668
300.0   90.0   33.333333333333336
350.0   90.0   16.666666666666668
350.0   120.0   16.666666666666668
300.0   120.0   16.666666666666668
350.0   120.0   33.333333333333336
300.0   90.0   33.333333333333336
300.0   120.0   33.333333333333336
350.0   120.0   33.333333333333336
300.0   120.0   16.666666666666668
300.0   90.0   33.333333333333336
350.0   120.0   33.333333333333336
350.0   90.0   33.333333333333336
350.0   90.0   16.666666666666668
300.0   90.0   33.333333333333336
350.0   120.0   33.333333333333336
350.0   90.0   16.666666666666668
300.0   120.0   16.666666666666668
300.0   90.0   33.333333333333336
350.0   90.0   33.333333333333336
300.0   120.0   33.333333333333336
300.0   90.0   50.0
350.0   90.0   33.333333333333336
350.0   120.0   33.333333333333336
300.0   120.0   33.333333333333336
350.0   120.0   50.0
300.0   90.0   50.0
300.0   120.0   50.0
350.0   120.0   50.0
300.0   120.0   33.333333333333336
300.0   90.0   50.0
350.0   120.0   50.0
350.0   90.0   50.0
350.0   90.0   33.333333333333336
300.0   90.0   50.0
350.0   120.0   50.0
350.0   90.0   33.333333333333336
300.0   120.0   33.333333333333336
300.0   120.0   0.0
350.0   120.0   0.0
300.0   150.0   0.0
300.0   120.0   16.666666666666668
350.0   120.0   0.0
350.0   150.0   0.0
300.0   150.0   0.0
350.0   150.0   16.666666666666668
300.0   120.0   16.666666666666668
300.0   150.0   16.666666666666668
350.0   150.0   16.666666666666668
300.0   150.0   0.0
300.0   120.0   16.666666666666668
350.0   150.0   16.666666666666668
350.0   120.0   16.666666666666668
350.0   120.0   0.0
300.0   120.0   16.666666666666668
350.0   150.0   16.666666666666668
350.0   120.0   0.0
300.0   150.0   0.0
300.0   120.0   16.666666666666668
350.0   120.0   16.666666666666668
300.0   150.0   16.666666666666668
300.0   120.0   33.333333333333336
350.0   120.0   16.666666666666668
350.0   150.0   16.666666666666668
300.0   150.0   16.666666666666668
350.0   150.0   33.333333333333336
300.0   120.0   33.333333333333336
300.0   150.0   33.333333333333336
350.0   150.0   33.333333333333336
300.0   150.0   16.666666666666668
300.0   120.0   33.333333333333336
350.0   150.0   33.333333333333336
350.0   120.0   33.333333333333336
350.0   120.0   16.666666666666668
300.0   120.0   33.333333333333336
350.0   150.0   33.333333333333336
350.0   120.0   16.666666666666668
300.0   150.0   16.666666666666668
300.0   120.0   33.333333333333336
350.0   120.0   33.333333333333336
300.0   150.0   33.333333333333336
300.0   120.0   50.0
350.0   120.0   33.333333333333336
350.0   150.0   33.333333333333336
300.0   150.0   33.333333333333336
350.0   150.0   50.0
300.0   120.0   50.0
300.0   150.0   50.0
350.0   150.0   50.0
300.0   150.0   33.333333333333336
300.0   120.0   50.0
350.0   150.0   50.0
350.0   120.0   50.0
350.0   120.0   33.333333333333336
300.0   120.0   50.0
350.0   150.0   50.0
350.0   120.0   33.333333333333336
300.0   150.0   33.333333333333336
350.0   0.0   0.0
400.0   0.0   0.0
350.0   30.0   0.0
350.0   0.0   16.666666666666668
400.0   0.0   0.0
400.0   30.0   0.0
350.0   30.0   0.0
400.0   30.0   16.666666666666668
350.0   0.0   16.666666666666668
350.0   30.0   16.666666666666668
400.0   30.0   16.666666666666668
350.0   30.0   0.0
350.0   0.0   16.666666666666668
400.0   30.0   16.666666666666668
400.0   0.0   16.666666666666668
400.0   0.0   0.0
350.0   0.0   16.666666666666668
400.0   30.0   16.666666666666668
400.0   0.0   0.0
350.0   30.0   0.0
350.0   0.0   16.666666666666668
400.0   0.0   16.666666666666668
350.0   30.0   16.666666666666668
350.0   0.0   33.333333333333336
400.0   0.0   16.666666666666668
400.0   30.0   16.666666666666668
350.0   30.0   16.666666666666668
400.0   30.0   33.333333333333336
350.0   0.0   33.333333333333336
350.0   30.0   33.333333333333336
400.0   30.0   33.333333333333336
350.0   30.0   16.666666666666668
350.0   0.0   33.333333333333336
400.0   30.0   33.333333333333336
400.0   0.0   33.333333333333336
400.0   0.0   16.666666666666668
350.0   0.0   33.333333333333336
400.0   30.0   33.333333333333336
400.0   0.0   16.666666666666668
350.0   30.0   16.666666666666668
350.0   0.0   33.333333333333336
400.0   0.0   33.333333333333336
350.0   30.0   33.333333333333336
350.0   0.0   50.0
400.0   0.0   33.333333333333336
400.0   30.0   33.333333333333336
350.0   30.0   33.333333333333336
400.0   30.0   50.0
350.0   0.0   50.0
350.0   30.0   50.0
400.0   30.0   50.0
350.0   30.0   33.333333333333336
350.0   0.0   50.0
400.0   30.0   50.0
400.0   0.0   50.0
400.0   0.0   33.333333333333336
350.0   0.0   50.0
400.0   30.0   50.0
400.0   0.0   33.333333333333336
350.0   30.0   33.333333333333336
350.0   30.0   0.0
400.0   30.0   0.0
350.0   60.0   0.0
350.0   30.0   16.666666666666668
400.0   30.0   0.0
400.0   60.0   0.0
350.0   60.0   0.0
400.0   60.0   16.666666666666668
350.0   30.0   16.666666666666668
350.0   60.0   16.666666666666668
400.0   60.0   16.666666666666668
350.0   60.0   0.0
350.0   30.0   16.666666666666668
400.0   60.0   16.666666666666668
400.0   30.0   16.666666666666668
400.0   30.0   0.0
350.0   30.0   16.666666666666668
400.0   60.0   16.666666666666668
400.0   30.0   0.0
350.0   60.0   0.0
350.0   30.0   16.666666666666668
400.0   30.0   16.666666666666668
350.0   60.0   16.666666666666668
350.0   30.0   33.333333333333336
400.0   30.0   16.666666666666668
400.0   60.0   16.666666666666668
350.0   60.0   16.666666666666668
400.0   60.0   33.333333333333336
350.0   30.0   33.333333333333336
350.0   60.0   33.333333333333336
400.0   60.0   33.333333333333336
350.0   60.0   16.666666666666668
350.0   30.0   33.333333333333336
400.0   60.0   33.333333333333336
400.0   30.0   33.333333333333336
400.0   30.0   16.666666666666668
350.0   30.0   33.333333333333336
400.0   60.0   33.333333333333336
400.0   30.0   16.666666666666668
350.0   60.0   16.666666666666668
350.0   30.0   33.333333333333336
400.0   30.0   33.333333333333336
350.0   60.0   33.333333333333336
350.0   30.0   50.0
400.0   30.0   33.333333333333336
400.0   60.0   33.333333333333336
350.0   60.0   33.333333333333336
400.0   60.0   50.0
350.0   30.0   50.0
350.0   60.0   50.0
400.0   60.0   50.0
350.0   60.0   33.333333333333336
350.0   30.0   50.0
400.0   60.0   50.0
400.0   30.0   50.0
400.0   30.0   33.333333333333336
350.0   30.0   50.0
400.0   60.0   50.0
400.0   30.0   33.333333333333336
350.0   60.0   33.333333333333336
350.0   60.0   0.0
400.0   60.0   0.0
350.0   90.0   0.0
350.0   60.0   16.666666666666668
400.0   60.0   0.0
400.0   90.0   0.0
350.0   90.0   0.0
400.0   90.0   16.666666666666668
350.0   60.0   16.666666666666668
350.0   90.0   16.666666666666668
400.0   90.0   16.666666666666668
350.0   90.0   0.0
350.0   60.0   16.666666666666668
400.0   90.0   16.666666666666668
400.0   60.0   16.666666666666668
400.0   60.0   0.0
350.0   60.0   16.666666666666668
400.0   90.0   16.666666666666668
400.0   60.0   0.0
350.0   90.0   0.0
350.0   60.0   16.666666666666668
400.0   60.0   16.666666666666668
350.0   90.0   16.666666666666668
350.0   60.0   33.333333333333336
400.0   60.0   16.666666666666668
400.0   90.0   16.666666666666668
350.0   90.0   16.666666666666668
400.0   90.0   33.333333333333336
350.0   60.0   33.333333333333336
350.0   90.0   33.333333333333336
400.0   90.0   33.333333333333336
350.0   90.0   16.666666666666668
350.0   60.0   33.333333333333336
400.0   90.0   33.333333333333336
400.0   60.0   33.333333333333336
400.0   60.0   16.666666666666668
350.0   60.0   33.333333333333336
400.0   90.0   33.333333333333336
400.0   60.0   16.666666666666668
350.0   90.0   16.666666666666668
350.0   60.0   33.333333333333336
400.0   60.0   33.333333333333336
350.0   90.0   33.333333333333336
350.0   60.0   50.0
400.0   60.0   33.333333333333336
400.0   90.0   33.333333333333336
350.0   90.0   33.333333333333336
400.0   90.0   50.0
350.0   60.0   50.0
350.0   90.0   50.0
400.0   90.0   50.0
350.0   90.0   33.333333333333336
350.0   60.0   50.0
400.0   90.0   50.0
400.0   60.0   50.0
400.0   60.0   33.333333333333336
350.0   60.0   50.0
400.0   90.0   50.0
400.0   60.0   33.333333333333336
350.0   90.0   33.333333333333336
350.0   90.0   0.0
400.0   90.0   0.0
350.0   120.0   0.0
350.0   90.0   16.666666666666668
400.0   90.0   0.0
400.0   120.0   0.0
350.0   120.0   0.0
400.0   120.0   16.666666666666668
350.0   90.0   16.666666666666668
350.0   120.0   16.666666666666668
400.0   120.0   16.666666666666668
350.0   120.0   0.0
350.0   90.0   16.666666666666668
400.0   120.0   16.666666666666668
400.0   90.0   16.666666666666668
400.0   90.0   0.0
350.0   90.0   16.666666666666668
400.0   120.0   16.666666666666668
400.0   90.0   0.0
350.0   120.0   0.0
350.0   90.0   16.666666666666668
400.0   90.0   16.666666666666668
350.0   120.0   16.666666666666668
350.0   90.0   33.333333333333336
400.0   90.0   16.666666666666668
400.0   120.0   16.666666666666668
350.0   120.0   16.666666666666668
400.0   120.0   33.333333333333336
350.0   90.0   33.333333333333336
350.0   120.0   33.333333333333336
400.0   120.0   33.333333333333336
350.0   120.0   16.666666666666668
350.0   90.0   33.333333333333336
400.0   120.0   33.333333333333336
400.0   90.0   33.333333333333336
400.0   90.0   16.666666666666668
350.0   90.0   33.333333333333336
400.0   120.0   33.333333333333336
400.0   90.0   16.666666666666668
350.0   120.0   16.666666666666668
350.0   90.0   33.333333333333336
400.0   90.0   33.333333333333336
350.0   120.0   33.333333333333336
350.0   90.0   50.0
400.0   90.0   33.333333333333336
400.0   120.0   33.333333333333336
350.0   120.0   33.333333333333336
400.0   120.0   50.0
350.0   90.0   50.0
350.0   120.0   50.0
400.0   120.0   50.0
350.0   120.0   33.333333333333336
350.0   90.0   50.0
400.0   120.0   50.0
400.0   90.0   50.0
400.0   90.0   33.333333333333336
350.0   90.0   50.0
400.0   120.0   50.0
400.0   90.0   33.333333333333336
350.0   120.0   33.333333333333336
350.0   120.0   0.0
400.0   120.0   0.0
350.0   150.0   0.0
350.0   120.0   16.666666666666668
400.0   120.0   0.0
400.0   150.0   0.0
350.0   150.0   0.0
400.0   150.0   16.666666666666668
350.0   120.0   16.666666666666668
350.0   150.0   16.666666666666668
400.0   150.0   16.666666666666668
350.0   150.0   0.0
350.0   120.0   16.666666666666668
400.0   150.0   16.666666666666668
400.0   120.0   16.666666666666668
400.0   120.0   0.0
350.0   120.0   16.666666666666668
400.0   150.0   16.666666666666668
400.0   120.0   0.0
350.0   150.0   0.0
350.0   120.0   16.666666666666668
400.0   120.0   16.666666666666668
350.0   150.0   16.666666666666668
350.0   120.0   33.333333333333336
400.0   120.0   16.666666666666668
400.0   150.0   16.666666666666668
350.0   150.0   16.666666666666668
400.0   150.0   33.333333333333336
350.0   120.0   33.333333333333336
350.0   150.0   33.333333333333336
400.0   150.0   33.333333333333336
350.0   150.0   16.666666666666668
350.0   120.0   33.333333333333336
400.0   150.0   33.333333333333336
400.0   120.0   33.333333333333336
400.0   120.0   16.666666666666668
350.0   120.0   33.333333333333336
400.0   150.0   33.333333333333336
400.0   120.0   16.666666666666668
350.0   150.0   16.666666666666668
350.0   120.0   33.333333333333336
400.0   120.0   33.333333333333336
350.0   150.0   33.333333333333336
350.0   120.0   50.0
400.0   120.0   33.333333333333336
400.0   150.0   33.333333333333336
350.0   150.0   33.333333333333336
400.0   150.0   50.0
350.0   120.0   50.0
350.0   150.0   50.0
400.0   150.0   50.0
350.0   150.0   33.333333333333336
350.0   120.0   50.0
400.0   150.0   50.0
400.0   120.0   50.0
400.0   120.0   33.333333333333336
350.0   120.0   50.0
400.0   150.0   50.0
400.0   120.0   33.333333333333336
350.0   150.0   33.333333333333336
400.0   0.0   0.0
450.0   0.0   0.0
400.0   30.0   0.0
400.0   0.0   16.666666666666668
450.0   0.0   0.0
450.0   30.0   0.0
400.0   30.0   0.0
450.0   30.0   16.666666666666668
400.0   0.0   16.666666666666668
400.0   30.0   16.666666666666668
450.0   30.0   16.666666666666668
400.0   30.0   0.0
400.0   0.0   16.666666666666668
450.0   30.0   16.666666666666668
450.0   0.0   16.666666666666668
450.0   0.0   0.0
400.0   0.0   16.666666666666668
450.0   30.0   16.666666666666668
450.0   0.0   0.0
400.0   30.0   0.0
400.0   0.0   16.666666666666668
450.0   0.0   16.666666666666668
400.0   30.0   16.666666666666668
400.0   0.0   33.333333333333336
450.0   0.0   16.666666666666668
450.0   30.0   16.666666666666668
400.0   30.0   16.666666666666668
450.0   30.0   33.333333333333336
400.0   0.0   33.333333333333336
400.0   30.0   33.333333333333336
450.0   30.0   33.333333333333336
400.0   30.0   16.666666666666668
400.0   0.0   33.333333333333336
450.0   30.0   33.333333333333336
450.0   0.0   33.333333333333336
450.0   0.0   16.666666666666668
400.0   0.0   33.333333333333336
450.0   30.0   33.333333333333336
450.0   0.0   16.666666666666668
400.0   30.0   16.666666666666668
400.0   0.0   33.333333333333336
450.0   0.0   33.333333333333336
400.0   30.0   33.333333333333336
400.0   0.0   50.0
450.0   0.0   33.333333333333336
450.0   30.0   33.333333333333336
400.0   30.0   33.333333333333336
450.0   30.0   50.0
400.0   0.0   50.0
400.0   30.0   50.0
450.0   30.0   50.0
400.0   30.0   33.333333333333336
400.0   0.0   50.0
450.0   30.0   50.0
450.0   0.0   50.0
450.0   0.0   33.333333333333336
400.0   0.0   50.0
450.0   30.0   50.0
450.0   0.0   33.333333333333336
400.0   30.0   33.333333333333336
400.0   30.0   0.0
450.0   30.0   0.0
400.0   60.0   0.0
400.0   30.0   16.666666666666668
450.0   30.0   0.0
450.0   60.0   0.0
400.0   60.0   0.0
450.0   60.0   16.666666666666668
400.0   30.0   16.666666666666668
400.0   60.0   16.666666666666668
450.0   60.0   16.666666666666668
400.0   60.0   0.0
400.0   30.0   16.666666666666668
450.0   60.0   16.666666666666668
450.0   30.0   16.666666666666668
450.0   30.0   0.0
400.0   30.0   16.666666666666668
450.0   60.0   16.666666666666668
450.0   30.0   0.0
400.0   60.0   0.0
400.0   30.0   16.666666666666668
450.0   30.0   16.666666666666668
400.0   60.0   16.666666666666668
400.0   30.0   33.333333333333336
450.0   30.0   16.666666666666668
450.0   60.0   16.666666666666668
400.0   60.0   16.666666666666668
450.0   60.0   33.333333333333336
400.0   30.0   33.333333333333336
400.0   60.0   33.333333333333336
450.0   60.0   33.333333333333336
400.0   60.0   16.666666666666668
400.0   30.0   33.333333333333336
450.0   60.0   33.333333333333336
450.0   30.0   33.333333333333336
450.0   30.0   16.666666666666668
400.0   30.0   33.333333333333336
450.0   60.0   33.333333333333336
450.0   30.0   16.666666666666668
400.0   60.0   16.666666666666668
400.0   30.0   33.333333333333336
450.0   30.0   33.333333333333336
400.0   60.0   33.333333333333336
400.0   30.0   50.0
450.0   30.0   33.333333333333336
450.0   60.0   33.333333333333336
400.0   60.0   33.333333333333336
450.0   60.0   50.0
400.0   30.0   50.0
400.0   60.0   50.0
450.0   60.0   50.0
400.0   60.0   33.333333333333336
400.0   30.0   50.0
450.0   60.0   50.0
450.0   30.0   50.0
450.0   30.0   33.333333333333336
400.0   30.0   50.0
450.0   60.0   50.0
450.0   30.0   33.333333333333336
400.0   60.0   33.333333333333336
400.0   60.0   0.0
450.0   60.0   0.0
400.0   90.0   0.0
400.0   60.0   16.666666666666668
450.0   60.0   0.0
450.0   90.0   0.0
400.0   90.0   0.0
450.0   90.0   16.666666666666668
400.0   60.0   16.666666666666668
400.0   90.0   16.666666666666668
450.0   90.0   16.666666666666668
400.0   90.0   0.0
400.0   60.0   16.666666666666668
450.0   90.0   16.666666666666668
450.0   60.0   16.666666666666668
450.0   60.0   0.0
400.0   60.0   16.666666666666668
450.0   90.0   16.666666666666668
450.0   60.0   0.0
400.0   90.0   0.0
400.0   60.0   16.666666666666668
450.0   60.0   16.666666666666668
400.0   90.0   16.666666666666668
400.0   60.0   33.333333333333336
450.0   60.0   16.666666666666668
450.0   90.0   16.666666666666668
400.0   90.0   16.666666666666668
450.0   90.0   33.333333333333336
400.0   60.0   33.333333333333336
400.0   90.0   33.333333333333336
450.0   90.0   33.333333333333336
400.0   90.0   16.666666666666668
400.0   60.0   33.333333333333336
450.0   90.0   33.333333333333336
450.0   60.0   33.333333333333336
450.0   60.0   16.666666666666668
400.0   60.0   33.333333333333336
450.0   90.0   33.333333333333336
450.0   60.0   16.666666666666668
400.0   90.0   16.666666666666668
400.0   60.0   33.333333333333336
450.0   60.0   33.333333333333336
400.0   90.0   33.333333333333336
400.0   60.0   50.0
450.0   60.0   33.333333333333336
450.0   90.0   33.333333333333336
400.0   90.0   33.333333333333336
450.0   90.0   50.0
400.0   60.0   50.0
400.0   90.0   50.0
450.0   90.0   50.0
400.0   90.0   33.333333333333336
400.0   60.0   50.0
450.0   90.0   50.0
450.0   60.0   50.0
450.0   60.0   33.333333333333336
400.0   60.0   50.0
450.0   90.0   50.0
450.0   60.0   33.333333333333336
400.0   90.0   33.333333333333336
400.0   90.0   0.0
450.0   90.0   0.0
400.0   120.0   0.0
400.0   90.0   16.666666666666668
450.0   90.0   0.0
450.0   120.0   0.0
400.0   120.0   0.0
450.0   120.0   16.666666666666668
400.0   90.0   16.666666666666668
400.0   120.0   16.666666666666668
450.0   120.0   16.666666666666668
400.0   120.0   0.0
400.0   90.0   16.666666666666668
450.0   120.0   16.666666666666668
450.0   90.0   16.666666666666668
450.0   90.0   0.0
400.0   90.0   16.666666666666668
450.0   120.0   16.666666666666668
450.0   90.0   0.0
400.0   120.0   0.0
400.0   90.0   16.666666666666668
450.0   90.0   16.666666666666668
400.0   120.0   16.666666666666668
400.0   90.0   33.333333333333336
450.0   90.0   16.666666666666668
450.0   120.0   16.666666666666668
400.0   120.0   16.666666666666668
450.0   120.0   33.333333333333336
400.0   90.0   33.333333333333336
400.0   120.0   33.333333333333336
450.0   120.0   33.333333333333336
400.0   120.0   16.666666666666668
400.0   90.0   33.333333333333336
450.0   120.0   33.333333333333336
450.0   90.0   33.333333333333336
450.0   90.0   16.666666666666668
400.0   90.0   33.333333333333336
450.0   120.0   33.333333333333336
450.0   90.0   16.666666666666668
400.0   120.0   16.666666666666668
400.0   90.0   33.333333333333336
450.0   90.0   33.333333333333336
400.0   120.0   33.333333333333336
400.0   90.0   50.0
450.0   90.0   33.333333333333336
450.0   120.0   33.333333333333336
400.0   120.0   33.333333333333336
450.0   120.0   50.0
400.0   90.0   50.0
400.0   120.0   50.0
450.0   120.0   50.0
400.0   120.0   33.333333333333336
400.0   90.0   50.0
450.0   120.0   50.0
450.0   90.0   50.0
450.0   90.0   33.333333333333336
400.0   90.0   50.0
450.0   120.0   50.0
450.0   90.0   33.333333333333336
400.0   120.0   33.333333333333336
400.0   120.0   0.0
450.0   120.0   0.0
400.0   150.0   0.0
400.0   120.0   16.666666666666668
450.0   120.0   0.0
450.0   150.0   0.0
400.0   150.0   0.0
450.0   150.0   16.666666666666668
400.0   120.0   16.666666666666668
400.0   150.0   16.666666666666668
450.0   150.0   16.666666666666668
400.0   150.0   0.0
400.0   120.0   16.666666666666668
450.0   150.0   16.666666666666668
450.0   120.0   16.666666666666668
450.0   120.0   0.0
400.0   120.0   16.666666666666668
450.0   150.0   16.666666666666668
450.0   120.0   0.0
400.0   150.0   0.0
400.0   120.0   16.666666666666668
450.0   120.0   16.666666666666668
400.0   150.0   16.666666666666668
400.0   120.0   33.333333333333336
450.0   120.0   16.666666666666668
450.0   150.0   16.666666666666668
400.0   150.0   16.666666666666668
450.0   150.0   33.333333333333336
400.0   120.0   33.333333333333336
400.0   150.0   33.333333333333336
450.0   150.0   33.333333333333336
400.0   150.0   16.666666666666668
400.0   120.0   33.333333333333336
450.0   150.0   33.333333333333336
450.0   120.0   33.333333333333336
450.0   120.0   16.666666666666668
400.0   120.0   33.333333333333336
450.0   150.0   33.333333333333336
450.0   120.0   16.666666666666668
400.0   150.0   16.666666666666668
400.0   120.0   33.333333333333336
450.0   120.0   33.333333333333336
400.0   150.0   33.333333333333336
400.0   120.0   50.0
450.0   120.0   33.333333333333336
450.0   150.0   33.333333333333336
400.0   150.0   33.333333333333336
450.0   150.0   50.0
400.0   120.0   50.0
400.0   150.0   50.0
450.0   150.0   50.0
400.0   150.0   33.333333333333336
400.0   120.0   50.0
450.0   150.0   50.0
450.0   120.0   50.0
450.0   120.0   33.333333333333336
400.0   120.0   50.0
450.0   150.0   50.0
450.0   120.0   33.333333333333336
400.0   150.0   33.333333333333336
450.0   0.0   0.0
500.0   0.0   0.0
450.0   30.0   0.0
450.0   0.0   16.666666666666668
500.0   0.0   0.0
500.0   30.0   0.0
450.0   30.0   0.0
500.0   30.0   16.666666666666668
450.0   0.0   16.666666666666668
450.0   30.0   16.666666666666668
500.0   30.0   16.666666666666668
450.0   30.0   0.0
450.0   0.0   16.666666666666668
500.0   30.0   16.666666666666668
500.0   0.0   16.666666666666668
500.0   0.0   0.0
450.0   0.0   16.666666666666668
500.0   30.0   16.666666666666668
500.0   0.0   0.0
450.0   30.0   0.0
450.0   0.0   16.666666666666668
500.0   0.0   16.666666666666668
450.0   30.0   16.666666666666668
450.0   0.0   33.333333333333336
500.0   0.0   16.666666666666668
500.0   30.0   16.666666666666668
450.0   30.0   16.666666666666668
500.0   30.0   33.333333333333336
450.0   0.0   33.333333333333336
450.0   30.0   33.333333333333336
500.0   30.0   33.333333333333336
450.0   30.0   16.666666666666668
450.0   0.0   33.333333333333336
500.0   30.0   33.333333333333336
500.0   0.0   33.333333333333336
500.0   0.0   16.666666666666668
450.0   0.0   33.333333333333336
500.0   30.0   33.333333333333336
500.0   0.0   16.666666666666668
450.0   30.0   16.666666666666668
450.0   0.0   33.333333333333336
500.0   0.0   33.333333333333336
450.0   30.0   33.333333333333336
450.0   0.0   50.0
500.0   0.0   33.333333333333336
500.0   30.0   33.333333333333336
450.0   30.0   33.333333333333336
500.0   30.0   50.0
450.0   0.0   50.0
450.0   30.0   50.0
500.0   30.0   50.0
450.0   30.0   33.333333333333336
450.0   0.0   50.0
500.0   30.0   50.0
500.0   0.0   50.0
500.0   0.0   33.333333333333336
450.0   0.0   50.0
500.0   30.0   50.0
500.0   0.0   33.333333333333336
450.0   30.0   33.333333333333336
450.0   30.0   0.0
500.0   30.0   0.0
450.0   60.0   0.0
450.0   30.0   16.666666666666668
500.0   30.0   0.0
500.0   60.0   0.0
450.0   60.0   0.0
500.0   60.0   16.666666666666668
450.0   30.0   16.666666666666668
450.0   60.0   16.666666666666668
500.0   60.0   16.666666666666668
450.0   60.0   0.0
450.0   30.0   16.666666666666668
500.0   60.0   16.666666666666668
500.0   30.0   16.666666666666668
500.0   30.0   0.0
450.0   30.0   16.666666666666668
500.0   60.0   16.666666666666668
500.0   30.0   0.0
450.0   60.0   0.0
450.0   30.0   16.666666666666668
500.0   30.0   16.666666666666668
450.0   60.0   16.666666666666668
450.0   30.0   33.333333333333336
500.0   30.0   16.666666666666668
500.0   60.0   16.666666666666668
450.0   60.0   16.666666666666668
500.0   60.0   33.333333333333336
450.0   30.0   33.333333333333336
450.0   60.0   33.333333333333336
500.0   60.0   33.333333333333336
450.0   60.0   16.666666666666668
450.0   30.0   33.333333333333336
500.0   60.0   33.333333333333336
500.0   30.0   33.333333333333336
500.0   30.0   16.666666666666668
450.0   30.0   33.333333333333336
500.0   60.0   33.333333333333336
500.0   30.0   16.666666666666668
450.0   60.0   16.666666666666668
450.0   30.0   33.333333333333336
500.0   30.0   33.333333333333336
450.0   60.0   33.333333333333336
450.0   30.0   50.0
500.0   30.0   33.333333333333336
500.0   60.0   33.333333333333336
450.0   60.0   33.333333333333336
500.0   60.0   50.0
450.0   30.0   50.0
450.0   60.0   50.0
500.0   60.0   50.0
450.0   60.0   33.333333333333336
450.0   30.0   50.0
500.0   60.0   50.0
500.0   30.0   50.0
500.0   30.0   33.333333333333336
450.0   30.0   50.0
500.0   60.0   50.0
500.0   30.0   33.333333333333336
450.0   60.0   33.333333333333336
450.0   60.0   0.0
500.0   60.0   0.0
450.0   90.0   0.0
450.0   60.0   16.666666666666668
500.0   60.0   0.0
500.0   90.0   0.0
450.0   90.0   0.0
500.0   90.0   16.666666666666668
450.0   60.0   16.666666666666668
450.0   90.0   16.666666666666668
500.0   90.0   16.666666666666668
450.0   90.0   0.0
450.0   60.0   16.666666666666668
500.0   90.0   16.666666666666668
500.0   60.0   16.666666666666668
500.0   60.0   0.0
450.0   60.0   16.666666666666668
500.0   90.0   16.666666666666668
500.0   60.0   0.0
450.0   90.0   0.0
450.0   60.0   16.666666666666668
500.0   60.0   16.666666666666668
450.0   90.0   16.666666666666668
450.0   60.0   33.333333333333336
500.0   60.0   16.666666666666668
500.0   90.0   16.666666666666668
450.0   90.0   16.666666666666668
500.0   90.0   33.333333333333336
450.0   60.0   33.333333333333336
450.0   90.0   33.333333333333336
500.0   90.0   33.333333333333336
450.0   90.0   16.666666666666668
450.0   60.0   33.333333333333336
500.0   90.0   33.333333333333336
500.0   60.0   33.333333333333336
500.0   60.0   16.666666666666668
450.0   60.0   33.333333333333336
500.0   90.0   33.333333333333336
500.0   60.0   16.666666666666668
450.0   90.0   16.666666666666668
450.0   60.0   33.333333333333336
500.0   60.0   33.333333333333336
450.0   90.0   33.333333333333336
450.0   60.0   50.0
500.0   60.0   33.333333333333336
500.0   90.0   33.333333333333336
450.0   90.0   33.333333333333336
500.0   90.0   50.0
450.0   60.0   50.0
450.0   90.0   50.0
500.0   90.0   50.0
450.0   90.0   33.333333333333336
450.0   60.0   50.0
500.0   90.0   50.0
500.0   60.0   50.0
500.0   60.0   33.333333333333336
450.0   60.0   50.0
500.0   90.0   50.0
500.0   60.0   33.333333333333336
450.0   90.0   33.333333333333336
450.0   90.0   0.0
500.0   90.0   0.0
450.0   120.0   0.0
450.0   90.0   16.666666666666668
500.0   90.0   0.0
500.0   120.0   0.0
450.0   120.0   0.0
500.0   120.0   16.666666666666668
450.0   90.0   16.666666666666668
450.0   120.0   16.666666666666668
500.0   120.0   16.666666666666668
450.0   120.0   0.0
450.0   90.0   16.666666666666668
500.0   120.0   16.666666666666668
500.0   90.0   16.666666666666668
500.0   90.0   0.0
450.0   90.0   16.666666666666668
500.0   120.0   16.666666666666668
500.0   90.0   0.0
450.0   120.0   0.0
450.0   90.0   16.666666666666668
500.0   90.0   16.666666666666668
450.0   120.0   16.666666666666668
450.0   90.0   33.333333333333336
500.0   90.0   16.666666666666668
500.0   120.0   16.666666666666668
450.0   120.0   16.666666666666668
500.0   120.0   33.333333333333336
450.0   90.0   33.333333333333336
450.0   120.0   33.333333333333336
500.0   120.0   33.333333333333336
450.0   120.0   16.666666666666668
450.0   90.0   33.333333333333336
500.0   120.0   33.333333333333336
500.0   90.0   33.333333333333336
500.0   90.0   16.666666666666668
450.0   90.0   33.333333333333336
500.0   120.0   33.333333333333336
500.0   90.0   16.666666666666668
450.0   120.0   16.666666666666668
450.0   90.0   33.333333333333336
500.0   90.0   33.333333333333336
450.0   120.0   33.333333333333336
450.0   90.0   50.0
500.0   90.0   33.333333333333336
500.0   120.0   33.333333333333336
450.0   120.0   33.333333333333336
500.0   120.0   50.0
450.0   90.0   50.0
450.0   120.0   50.0
500.0   120.0   50.0
450.0   120.0   33.333333333333336
450.0   90.0   50.0
500.0   120.0   50.0
500.0   90.0   50.0
500.0   90.0   33.333333333333336
450.0   90.0   50.0
500.0   120.0   50.0
500.0   90.0   33.333333333333336
450.0   120.0   33.333333333333336
450.0   120.0   0.0
500.0   120.0   0.0
450.0   150.0   0.0
450.0   120.0   16.666666666666668
500.0   120.0   0.0
500.0   150.0   0.0
450.0   150.0   0.0
500.0   150.0   16.666666666666668
450.0   120.0   16.666666666666668
450.0   150.0   16.666666666666668
500.0   150.0   16.666666666666668
450.0   150.0   0.0
450.0   120.0   16.666666666666668
500.0   150.0   16.666666666666668
500.0   120.0   16.666666666666668
500.0   120.0   0.0
450.0   120.0   16.666666666666668
500.0   150.0   16.666666666666668
500.0   120.0   0.0
450.0   150.0   0.0
450.0   120.0   16.666666666666668
500.0   120.0   16.666666666666668
450.0   150.0   16.666666666666668
450.0   120.0   33.333333333333336
500.0   120.0   16.666666666666668
500.0   150.0   16.666666666666668
450.0   150.0   16.666666666666668
500.0   150.0   33.333333333333336
450.0   120.0   33.333333333333336
450.0   150.0   33.333333333333336
500.0   150.0   33.333333333333336
450.0   150.0   16.666666666666668
450.0   120.0   33.333333333333336
500.0   150.0   33.333333333333336
500.0   120.0   33.333333333333336
500.0   120.0   16.666666666666668
450.0   120.0   33.333333333333336
500.0   150.0   33.333333333333336
500.0   120.0   16.666666666666668
450.0   150.0   16.666666666666668
450.0   120.0   33.333333333333336
500.0   120.0   33.333333333333336
450.0   150.0   33.333333333333336
450.0   120.0   50.0
500.0   120.0   33.333333333333336
500.0   150.0   33.333333333333336
450.0   150.0   33.333333333333336
500.0   150.0   50.0
450.0   120.0   50.0
450.0   150.0   50.0
500.0   150.0   50.0
450.0   150.0   33.333333333333336
450.0   120.0   50.0
500.0   150.0   50.0
500.0   120.0   50.0
500.0   120.0   33.333333333333336
450.0   120.0   50.0
500.0   150.0   50.0
500.0   120.0   33.333333333333336
450.0   150.0   33.333333333333336
             </DataArray>   
          </Points>  
          <Cells>  
             <DataArray type="Int32" Name="connectivity" format="ascii">   
0   1   2   3
4   5   6   7
8   9   10   11
12   13   14   15
16   17   18   19
20   21   22   23
24   25   26   27
28   29   30   31
32   33   34   35
36   37   38   39
40   41   42   43
44   45   46   47
48   49   50   51
52   53   54   55
56   57   58   59
60   61   62   63
64   65   66   67
68   69   70   71
72   73   74   75
76   77   78   79
80   81   82   83
84   85   86   87
88   89   90   91
92   93   94   95
96   97   98   99
100   101   102   103
104   105   106   107
108   109   110   111
112   113   114   115
116   117   118   119
120   121   122   123
124   125   126   127
128   129   130   131
132   133   134   135
136   137   138   139
140   141   142   143
144   145   146   147
148   149   150   151
152   153   154   155
156   157   158   159
160   161   162   163
164   165   166   167
168   169   170   171
172   173   174   175
176   177   178   179
180   181   182   183
184   185   186   187
188   189   190   191
192   193   194   195
196   197   198   199
200   201   202   203
204   205   206   207
208   209   210   211
212   213   214   215
216   217   218   219
220   221   222   223
224   225   226   227
228   229   230   231
232   233   234   235
236   237   238   239
240   241   242   243
244   245   246   247
248   249   250   251
252   253   254   255
256   257   258   259
260   261   262   263
264   265   266   267
268   269   270   271
272   273   274   275
276   277   278   279
280   281   282   283
284   285   286   287
288   289   290   291
292   293   294   295
296   297   298   299
300   301   302   303
304   305   306   307
308   309   310   311
312   313   314   315
316   317   318   319
320   321   322   323
324   325   326   327
328   329   330   331
332   333   334   335
336   337   338   339
340   341   342   343
344   345   346   347
348   349   350   351
352   353   354   355
356   357   358   359
360   361   362   363
364   365   366   367
368   369   370   371
372   373   374   375
376   377   378   379
380   381   382   383
384   385   386   387
388   389   390   391
392   393   394   395
396   397   398   399
400   401   402   403
404   405   406   407
408   409   410   411
412   413   414   415
416   417   418   419
420   421   422   423
424   425   426   427
428   429   430   431
432   433   434   435
436   437   438   439
440   441   442   443
444   445   446   447
448   449   450   451
452   453   454   455
456   457   458   459
460   461   462   463
464   465   466   467
468   469   470   471
472   473   474   475
476   477   478   479
480   481   482   483
484   485   486   487
488   489   490   491
492   493   494   495
496   497   498   499
500   501   502   503
504   505   506   507
508   509   510   511
512   513   514   515
516   517   518   519
520   521   522   523
524   525   526   527
528   529   530   531
532   533   534   535
536   537   538   539
540   541   542   543
544   545   546   547
548   549   550   551
552   553   554   555
556   557   558   559
560   561   562   563
564   565   566   567
568   569   570   571
572   573   574   575
576   577   578   579
580   581   582   583
584   585   586   587
588   589   590   591
592   593   594   595
596   597   598   599
600   601   602   603
604   605   606   607
608   609   610   611
612   613   614   615
616   617   618   619
620   621   622   623
624   625   626   627
628   629   630   631
632   633   634   635
636   637   638   639
640   641   642   643
644   645   646   647
648   649   650   651
652   653   654   655
656   657   658   659
660   661   662   663
664   665   666   667
668   669   670   671
672   673   674   675
676   677   678   679
680   681   682   683
684   685   686   687
688   689   690   691
692   693   694   695
696   697   698   699
700   701   702   703
704   705   706   707
708   709   710   711
712   713   714   715
716   717   718   719
720   721   722   723
724   725   726   727
728   729   730   731
732   733   734   735
736   737   738   739
740   741   742   743
744   745   746   747
748   749   750   751
752   753   754   755
756   757   758   759
760   761   762   763
764   765   766   767
768   769   770   771
772   773   774   775
776   777   778   779
780   781   782   783
784   785   786   787
788   789   790   791
792   793   794   795
796   797   798   799
800   801   802   803
804   805   806   807
808   809   810   811
812   813   814   815
816   817   818   819
820   821   822   823
824   825   826   827
828   829   830   831
832   833   834   835
836   837   838   839
840   841   842   843
844   845   846   847
848   849   850   851
852   853   854   855
856   857   858   859
860   861   862   863
864   865   866   867
868   869   870   871
872   873   874   875
876   877   878   879
880   881   882   883
884   885   886   887
888   889   890   891
892   893   894   895
896   897   898   899
900   901   902   903
904   905   906   907
908   909   910   911
912   913   914   915
916   917   918   919
920   921   922   923
924   925   926   927
928   929   930   931
932   933   934   935
936   937   938   939
940   941   942   943
944   945   946   947
948   949   950   951
952   953   954   955
956   957   958   959
960   961   962   963
964   965   966   967
968   969   970   971
972   973   974   975
976   977   978   979
980   981   982   983
984   985   986   987
988   989   990   991
992   993   994   995
996   997   998   999
1000   1001   1002   1003
1004   1005   1006   1007
1008   1009   1010   1011
1012   1013   1014   1015
1016   1017   1018   1019
1020   1021   1022   1023
1024   1025   1026   1027
1028   1029   1030   1031
1032   1033   1034   1035
1036   1037   1038   1039
1040   1041   1042   1043
1044   1045   1046   1047
1048   1049   1050   1051
1052   1053   1054   1055
1056   1057   1058   1059
1060   1061   1062   1063
1064   1065   1066   1067
1068   1069   1070   1071
1072   1073   1074   1075
1076   1077   1078   1079
1080   1081   1082   1083
1084   1085   1086   1087
1088   1089   1090   1091
1092   1093   1094   1095
1096   1097   1098   1099
1100   1101   1102   1103
1104   1105   1106   1107
1108   1109   1110   1111
1112   1113   1114   1115
1116   1117   1118   1119
1120   1121   1122   1123
1124   1125   1126   1127
1128   1129   1130   1131
1132   1133   1134   1135
1136   1137   1138   1139
1140   1141   1142   1143
1144   1145   1146   1147
1148   1149   1150   1151
1152   1153   1154   1155
1156   1157   1158   1159
1160   1161   1162   1163
1164   1165   1166   1167
1168   1169   1170   1171
1172   1173   1174   1175
1176   1177   1178   1179
1180   1181   1182   1183
1184   1185   1186   1187
1188   1189   1190   1191
1192   1193   1194   1195
1196   1197   1198   1199
1200   1201   1202   1203
1204   1205   1206   1207
1208   1209   1210   1211
1212   1213   1214   1215
1216   1217   1218   1219
1220   1221   1222   1223
1224   1225   1226   1227
1228   1229   1230   1231
1232   1233   1234   1235
1236   1237   1238   1239
1240   1241   1242   1243
1244   1245   1246   1247
1248   1249   1250   1251
1252   1253   1254   1255
1256   1257   1258   1259
1260   1261   1262   1263
1264   1265   1266   1267
1268   1269   1270   1271
1272   1273   1274   1275
1276   1277   1278   1279
1280   1281   1282   1283
1284   1285   1286   1287
1288   1289   1290   1291
1292   1293   1294   1295
1296   1297   1298   1299
1300   1301   1302   1303
1304   1305   1306   1307
1308   1309   1310   1311
1312   1313   1314   1315
1316   1317   1318   1319
1320   1321   1322   1323
1324   1325   1326   1327
1328   1329   1330   1331
1332   1333   1334   1335
1336   1337   1338   1339
1340   1341   1342   1343
1344   1345   1346   1347
1348   1349   1350   1351
1352   1353   1354   1355
1356   1357   1358   1359
1360   1361   1362   1363
1364   1365   1366   1367
1368   1369   1370   1371
1372   1373   1374   1375
1376   1377   1378   1379
1380   1381   1382   1383
1384   1385   1386   1387
1388   1389   1390   1391
1392   1393   1394   1395
1396   1397   1398   1399
1400   1401   1402   1403
1404   1405   1406   1407
1408   1409   1410   1411
1412   1413   1414   1415
1416   1417   1418   1419
1420   1421   1422   1423
1424   1425   1426   1427
1428   1429   1430   1431
1432   1433   1434   1435
1436   1437   1438   1439
1440   1441   1442   1443
1444   1445   1446   1447
1448   1449   1450   1451
1452   1453   1454   1455
1456   1457   1458   1459
1460   1461   1462   1463
1464   1465   1466   1467
1468   1469   1470   1471
1472   1473   1474   1475
1476   1477   1478   1479
1480   1481   1482   1483
1484   1485   1486   1487
1488   1489   1490   1491
1492   1493   1494   1495
1496   1497   1498   1499
1500   1501   1502   1503
1504   1505   1506   1507
1508   1509   1510   1511
1512   1513   1514   1515
1516   1517   1518   1519
1520   1521   1522   1523
1524   1525   1526   1527
1528   1529   1530   1531
1532   1533   1534   1535
1536   1537   1538   1539
1540   1541   1542   1543
1544   1545   1546   1547
1548   1549   1550   1551
1552   1553   1554   1555
1556   1557   1558   1559
1560   1561   1562   1563
1564   1565   1566   1567
1568   1569   1570   1571
1572   1573   1574   1575
1576   1577   1578   1579
1580   1581   1582   1583
1584   1585   1586   1587
1588   1589   1590   1591
1592   1593   1594   1595
1596   1597   1598   1599
1600   1601   1602   1603
1604   1605   1606   1607
1608   1609   1610   1611
1612   1613   1614   1615
1616   1617   1618   1619
1620   1621   1622   1623
1624   1625   1626   1627
1628   1629   1630   1631
1632   1633   1634   1635
1636   1637   1638   1639
1640   1641   1642   1643
1644   1645   1646   1647
1648   1649   1650   1651
1652   1653   1654   1655
1656   1657   1658   1659
1660   1661   1662   1663
1664   1665   1666   1667
1668   1669   1670   1671
1672   1673   1674   1675
1676   1677   1678   1679
1680   1681   1682   1683
1684   1685   1686   1687
1688   1689   1690   1691
1692   1693   1694   1695
1696   1697   1698   1699
1700   1701   1702   1703
1704   1705   1706   1707
1708   1709   1710   1711
1712   1713   1714   1715
1716   1717   1718   1719
1720   1721   1722   1723
1724   1725   1726   1727
1728   1729   1730   1731
1732   1733   1734   1735
1736   1737   1738   1739
1740   1741   1742   1743
1744   1745   1746   1747
1748   1749   1750   1751
1752   1753   1754   1755
1756   1757   1758   1759
1760   1761   1762   1763
1764   1765   1766   1767
1768   1769   1770   1771
1772   1773   1774   1775
1776   1777   1778   1779
1780   1781   1782   1783
1784   1785   1786   1787
1788   1789   1790   1791
1792   1793   1794   1795
1796   1797   1798   1799
1800   1801   1802   1803
1804   1805   1806   1807
1808   1809   1810   1811
1812   1813   1814   1815
1816   1817   1818   1819
1820   1821   1822   1823
1824   1825   1826   1827
1828   1829   1830   1831
1832   1833   1834   1835
1836   1837   1838   1839
1840   1841   1842   1843
1844   1845   1846   1847
1848   1849   1850   1851
1852   1853   1854   1855
1856   1857   1858   1859
1860   1861   1862   1863
1864   1865   1866   1867
1868   1869   1870   1871
1872   1873   1874   1875
1876   1877   1878   1879
1880   1881   1882   1883
1884   1885   1886   1887
1888   1889   1890   1891
1892   1893   1894   1895
1896   1897   1898   1899
1900   1901   1902   1903
1904   1905   1906   1907
1908   1909   1910   1911
1912   1913   1914   1915
1916   1917   1918   1919
1920   1921   1922   1923
1924   1925   1926   1927
1928   1929   1930   1931
1932   1933   1934   1935
1936   1937   1938   1939
1940   1941   1942   1943
1944   1945   1946   1947
1948   1949   1950   1951
1952   1953   1954   1955
1956   1957   1958   1959
1960   1961   1962   1963
1964   1965   1966   1967
1968   1969   1970   1971
1972   1973   1974   1975
1976   1977   1978   1979
1980   1981   1982   1983
1984   1985   1986   1987
1988   1989   1990   1991
1992   1993   1994   1995
1996   1997   1998   1999
2000   2001   2002   2003
2004   2005   2006   2007
2008   2009   2010   2011
2012   2013   2014   2015
2016   2017   2018   2019
2020   2021   2022   2023
2024   2025   2026   2027
2028   2029   2030   2031
2032   2033   2034   2035
2036   2037   2038   2039
2040   2041   2042   2043
2044   2045   2046   2047
2048   2049   2050   2051
2052   2053   2054   2055
2056   2057   2058   2059
2060   2061   2062   2063
2064   2065   2066   2067
2068   2069   2070   2071
2072   2073   2074   2075
2076   2077   2078   2079
2080   2081   2082   2083
2084   2085   2086   2087
2088   2089   2090   2091
2092   2093   2094   2095
2096   2097   2098   2099
2100   2101   2102   2103
2104   2105   2106   2107
2108   2109   2110   2111
2112   2113   2114   2115
2116   2117   2118   2119
2120   2121   2122   2123
2124   2125   2126   2127
2128   2129   2130   2131
2132   2133   2134   2135
2136   2137   2138   2139
2140   2141   2142   2143
2144   2145   2146   2147
2148   2149   2150   2151
2152   2153   2154   2155
2156   2157   2158   2159
2160   2161   2162   2163
2164   2165   2166   2167
2168   2169   2170   2171
2172   2173   2174   2175
2176   2177   2178   2179
2180   2181   2182   2183
2184   2185   2186   2187
2188   2189   2190   2191
2192   2193   2194   2195
2196   2197   2198   2199
2200   2201   2202   2203
2204   2205   2206   2207
2208   2209   2210   2211
2212   2213   2214   2215
2216   2217   2218   2219
2220   2221   2222   2223
2224   2225   2226   2227
2228   2229   2230   2231
2232   2233   2234   2235
2236   2237   2238   2239
2240   2241   2242   2243
2244   2245   2246   2247
2248   2249   2250   2251
2252   2253   2254   2255
2256   2257   2258   2259
2260   2261   2262   2263
2264   2265   2266   2267
2268   2269   2270   2271
2272   2273   2274   2275
2276   2277   2278   2279
2280   2281   2282   2283
2284   2285   2286   2287
2288   2289   2290   2291
2292   2293   2294   2295
2296   2297   2298   2299
2300   2301   2302   2303
2304   2305   2306   2307
2308   2309   2310   2311
2312   2313   2314   2315
2316   2317   2318   2319
2320   2321   2322   2323
2324   2325   2326   2327
2328   2329   2330   2331
2332   2333   2334   2335
2336   2337   2338   2339
2340   2341   2342   2343
2344   2345   2346   2347
2348   2349   2350   2351
2352   2353   2354   2355
2356   2357   2358   2359
2360   2361   2362   2363
2364   2365   2366   2367
2368   2369   2370   2371
2372   2373   2374   2375
2376   2377   2378   2379
2380   2381   2382   2383
2384   2385   2386   2387
2388   2389   2390   2391
2392   2393   2394   2395
2396   2397   2398   2399
2400   2401   2402   2403
2404   2405   2406   2407
2408   2409   2410   2411
2412   2413   2414   2415
2416   2417   2418   2419
2420   2421   2422   2423
2424   2425   2426   2427
2428   2429   2430   2431
2432   2433   2434   2435
2436   2437   2438   2439
2440   2441   2442   2443
2444   2445   2446   2447
2448   2449   2450   2451
2452   2453   2454   2455
2456   2457   2458   2459
2460   2461   2462   2463
2464   2465   2466   2467
2468   2469   2470   2471
2472   2473   2474   2475
2476   2477   2478   2479
2480   2481   2482   2483
2484   2485   2486   2487
2488   2489   2490   2491
2492   2493   2494   2495
2496   2497   2498   2499
2500   2501   2502   2503
2504   2505   2506   2507
2508   2509   2510   2511
2512   2513   2514   2515
2516   2517   2518   2519
2520   2521   2522   2523
2524   2525   2526   2527
2528   2529   2530   2531
2532   2533   2534   2535
2536   2537   2538   2539
2540   2541   2542   2543
2544   2545   2546   2547
2548   2549   2550   2551
2552   2553   2554   2555
2556   2557   2558   2559
2560   2561   2562   2563
2564   2565   2566   2567
2568   2569   2570   2571
2572   2573   2574   2575
2576   2577   2578   2579
2580   2581   2582   2583
2584   2585   2586   2587
2588   2589   2590   2591
2592   2593   2594   2595
2596   2597   2598   2599
2600   2601   2602   2603
2604   2605   2606   2607
2608   2609   2610   2611
2612   2613   2614   2615
2616   2617   2618   2619
2620   2621   2622   2623
2624   2625   2626   2627
2628   2629   2630   2631
2632   2633   2634   2635
2636   2637   2638   2639
2640   2641   2642   2643
2644   2645   2646   2647
2648   2649   2650   2651
2652   2653   2654   2655
2656   2657   2658   2659
2660   2661   2662   2663
2664   2665   2666   2667
2668   2669   2670   2671
2672   2673   2674   2675
2676   2677   2678   2679
2680   2681   2682   2683
2684   2685   2686   2687
2688   2689   2690   2691
2692   2693   2694   2695
2696   2697   2698   2699
2700   2701   2702   2703
2704   2705   2706   2707
2708   2709   2710   2711
2712   2713   2714   2715
2716   2717   2718   2719
2720   2721   2722   2723
2724   2725   2726   2727
2728   2729   2730   2731
2732   2733   2734   2735
2736   2737   2738   2739
2740   2741   2742   2743
2744   2745   2746   2747
2748   2749   2750   2751
2752   2753   2754   2755
2756   2757   2758   2759
2760   2761   2762   2763
2764   2765   2766   2767
2768   2769   2770   2771
2772   2773   2774   2775
2776   2777   2778   2779
2780   2781   2782   2783
2784   2785   2786   2787
2788   2789   2790   2791
2792   2793   2794   2795
2796   2797   2798   2799
2800   2801   2802   2803
2804   2805   2806   2807
2808   2809   2810   2811
2812   2813   2814   2815
2816   2817   2818   2819
2820   2821   2822   2823
2824   2825   2826   2827
2828   2829   2830   2831
2832   2833   2834   2835
2836   2837   2838   2839
2840   2841   2842   2843
2844   2845   2846   2847
2848   2849   2850   2851
2852   2853   2854   2855
2856   2857   2858   2859
2860   2861   2862   2863
2864   2865   2866   2867
2868   2869   2870   2871
2872   2873   2874   2875
2876   2877   2878   2879
2880   2881   2882   2883
2884   2885   2886   2887
2888   2889   2890   2891
2892   2893   2894   2895
2896   2897   2898   2899
2900   2901   2902   2903
2904   2905   2906   2907
2908   2909   2910   2911
2912   2913   2914   2915
2916   2917   2918   2919
2920   2921   2922   2923
2924   2925   2926   2927
2928   2929   2930   2931
2932   2933   2934   2935
2936   2937   2938   2939
2940   2941   2942   2943
2944   2945   2946   2947
2948   2949   2950   2951
2952   2953   2954   2955
2956   2957   2958   2959
2960   2961   2962   2963
2964   2965   2966   2967
2968   2969   2970   2971
2972   2973   2974   2975
2976   2977   2978   2979
2980   2981   2982   2983
2984   2985   2986   2987
2988   2989   2990   2991
2992   2993   2994   2995
2996   2997   2998   2999
3000   3001   3002   3003
3004   3005   3006   3007
3008   3009   3010   3011
3012   3013   3014   3015
3016   3017   3018   3019
3020   3021   3022   3023
3024   3025   3026   3027
3028   3029   3030   3031
3032   3033   3034   3035
3036   3037   3038   3039
3040   3041   3042   3043
3044   3045   3046   3047
3048   3049   3050   3051
3052   3053   3054   3055
3056   3057   3058   3059
3060   3061   3062   3063
3064   3065   3066   3067
3068   3069   3070   3071
3072   3073   3074   3075
3076   3077   3078   3079
3080   3081   3082   3083
3084   3085   3086   3087
3088   3089   3090   3091
3092   3093   3094   3095
3096   3097   3098   3099
3100   3101   3102   3103
3104   3105   3106   3107
3108   3109   3110   3111
3112   3113   3114   3115
3116   3117   3118   3119
3120   3121   3122   3123
3124   3125   3126   3127
3128   3129   3130   3131
3132   3133   3134   3135
3136   3137   3138   3139
3140   3141   3142   3143
3144   3145   3146   3147
3148   3149   3150   3151
3152   3153   3154   3155
3156   3157   3158   3159
3160   3161   3162   3163
3164   3165   3166   3167
3168   3169   3170   3171
3172   3173   3174   3175
3176   3177   3178   3179
3180   3181   3182   3183
3184   3185   3186   3187
3188   3189   3190   3191
3192   3193   3194   3195
3196   3197   3198   3199
3200   3201   3202   3203
3204   3205   3206   3207
3208   3209   3210   3211
3212   3213   3214   3215
3216   3217   3218   3219
3220   3221   3222   3223
3224   3225   3226   3227
3228   3229   3230   3231
3232   3233   3234   3235
3236   3237   3238   3239
3240   3241   3242   3243
3244   3245   3246   3247
3248   3249   3250   3251
3252   3253   3254   3255
3256   3257   3258   3259
3260   3261   3262   3263
3264   3265   3266   3267
3268   3269   3270   3271
3272   3273   3274   3275
3276   3277   3278   3279
3280   3281   3282   3283
3284   3285   3286   3287
3288   3289   3290   3291
3292   3293   3294   3295
3296   3297   3298   3299
3300   3301   3302   3303
3304   3305   3306   3307
3308   3309   3310   3311
3312   3313   3314   3315
3316   3317   3318   3319
3320   3321   3322   3323
3324   3325   3326   3327
3328   3329   3330   3331
3332   3333   3334   3335
3336   3337   3338   3339
3340   3341   3342   3343
3344   3345   3346   3347
3348   3349   3350   3351
3352   3353   3354   3355
3356   3357   3358   3359
3360   3361   3362   3363
3364   3365   3366   3367
3368   3369   3370   3371
3372   3373   3374   3375
3376   3377   3378   3379
3380   3381   3382   3383
3384   3385   3386   3387
3388   3389   3390   3391
3392   3393   3394   3395
3396   3397   3398   3399
3400   3401   3402   3403
3404   3405   3406   3407
3408   3409   3410   3411
3412   3413   3414   3415
3416   3417   3418   3419
3420   3421   3422   3423
3424   3425   3426   3427
3428   3429   3430   3431
3432   3433   3434   3435
3436   3437   3438   3439
3440   3441   3442   3443
3444   3445   3446   3447
3448   3449   3450   3451
3452   3453   3454   3455
3456   3457   3458   3459
3460   3461   3462   3463
3464   3465   3466   3467
3468   3469   3470   3471
3472   3473   3474   3475
3476   3477   3478   3479
3480   3481   3482   3483
3484   3485   3486   3487
3488   3489   3490   3491
3492   3493   3494   3495
3496   3497   3498   3499
3500   3501   3502   3503
3504   3505   3506   3507
3508   3509   3510   3511
3512   3513   3514   3515
3516   3517   3518   3519
3520   3521   3522   3523
3524   3525   3526   3527
3528   3529   3530   3531
3532   3533   3534   3535
3536   3537   3538   3539
3540   3541   3542   3543
3544   3545   3546   3547
3548   3549   3550   3551
3552   3553   3554   3555
3556   3557   3558   3559
3560   3561   3562   3563
3564   3565   3566   3567
3568   3569   3570   3571
3572   3573   3574   3575
3576   3577   3578   3579
3580   3581   3582   3583
3584   3585   3586   3587
3588   3589   3590   3591
3592   3593   3594   3595
3596   3597   3598   3599
3600   3601   3602   3603
3604   3605   3606   3607
3608   3609   3610   3611
3612   3613   3614   3615
3616   3617   3618   3619
3620   3621   3622   3623
3624   3625   3626   3627
3628   3629   3630   3631
3632   3633   3634   3635
3636   3637   3638   3639
3640   3641   3642   3643
3644   3645   3646   3647
3648   3649   3650   3651
3652   3653   3654   3655
3656   3657   3658   3659
3660   3661   3662   3663
3664   3665   3666   3667
3668   3669   3670   3671
3672   3673   3674   3675
3676   3677   3678   3679
3680   3681   3682   3683
3684   3685   3686   3687
3688   3689   3690   3691
3692   3693   3694   3695
3696   3697   3698   3699
3700   3701   3702   3703
3704   3705   3706   3707
3708   3709   3710   3711
3712   3713   3714   3715
3716   3717   3718   3719
3720   3721   3722   3723
3724   3725   3726   3727
3728   3729   3730   3731
3732   3733   3734   3735
3736   3737   3738   3739
3740   3741   3742   3743
3744   3745   3746   3747
3748   3749   3750   3751
3752   3753   3754   3755
3756   3757   3758   3759
3760   3761   3762   3763
3764   3765   3766   3767
3768   3769   3770   3771
3772   3773   3774   3775
3776   3777   3778   3779
3780   3781   3782   3783
3784   3785   3786   3787
3788   3789   3790   3791
3792   3793   3794   3795
3796   3797   3798   3799
3800   3801   3802   3803
3804   3805   3806   3807
3808   3809   3810   3811
3812   3813   3814   3815
3816   3817   3818   3819
3820   3821   3822   3823
3824   3825   3826   3827
3828   3829   3830   3831
3832   3833   3834   3835
3836   3837   3838   3839
3840   3841   3842   3843
3844   3845   3846   3847
3848   3849   3850   3851
3852   3853   3854   3855
3856   3857   3858   3859
3860   3861   3862   3863
3864   3865   3866   3867
3868   3869   3870   3871
3872   3873   3874   3875
3876   3877   3878   3879
3880   3881   3882   3883
3884   3885   3886   3887
3888   3889   3890   3891
3892   3893   3894   3895
3896   3897   3898   3899
3900   3901   3902   3903
3904   3905   3906   3907
3908   3909   3910   3911
3912   3913   3914   3915
3916   3917   3918   3919
3920   3921   3922   3923
3924   3925   3926   3927
3928   3929   3930   3931
3932   3933   3934   3935
3936   3937   3938   3939
3940   3941   3942   3943
3944   3945   3946   3947
3948   3949   3950   3951
3952   3953   3954   3955
3956   3957   3958   3959
3960   3961   3962   3963
3964   3965   3966   3967
3968   3969   3970   3971
3972   3973   3974   3975
3976   3977   3978   3979
3980   3981   3982   3983
3984   3985   3986   3987
3988   3989   3990   3991
3992   3993   3994   3995
3996   3997   3998   3999
4000   4001   4002   4003
4004   4005   4006   4007
4008   4009   4010   4011
4012   4013   4014   4015
4016   4017   4018   4019
4020   4021   4022   4023
4024   4025   4026   4027
4028   4029   4030   4031
4032   4033   4034   4035
4036   4037   4038   4039
4040   4041   4042   4043
4044   4045   4046   4047
4048   4049   4050   4051
4052   4053   4054   4055
4056   4057   4058   4059
4060   4061   4062   4063
4064   4065   4066   4067
4068   4069   4070   4071
4072   4073   4074   4075
4076   4077   4078   4079
4080   4081   4082   4083
4084   4085   4086   4087
4088   4089   4090   4091
4092   4093   4094   4095
4096   4097   4098   4099
4100   4101   4102   4103
4104   4105   4106   4107
4108   4109   4110   4111
4112   4113   4114   4115
4116   4117   4118   4119
4120   4121   4122   4123
4124   4125   4126   4127
4128   4129   4130   4131
4132   4133   4134   4135
4136   4137   4138   4139
4140   4141   4142   4143
4144   4145   4146   4147
4148   4149   4150   4151
4152   4153   4154   4155
4156   4157   4158   4159
4160   4161   4162   4163
4164   4165   4166   4167
4168   4169   4170   4171
4172   4173   4174   4175
4176   4177   4178   4179
4180   4181   4182   4183
4184   4185   4186   4187
4188   4189   4190   4191
4192   4193   4194   4195
4196   4197   4198   4199
4200   4201   4202   4203
4204   4205   4206   4207
4208   4209   4210   4211
4212   4213   4214   4215
4216   4217   4218   4219
4220   4221   4222   4223
4224   4225   4226   4227
4228   4229   4230   4231
4232   4233   4234   4235
4236   4237   4238   4239
4240   4241   4242   4243
4244   4245   4246   4247
4248   4249   4250   4251
4252   4253   4254   4255
4256   4257   4258   4259
4260   4261   4262   4263
4264   4265   4266   4267
4268   4269   4270   4271
4272   4273   4274   4275
4276   4277   4278   4279
4280   4281   4282   4283
4284   4285   4286   4287
4288   4289   4290   4291
4292   4293   4294   4295
4296   4297   4298   4299
4300   4301   4302   4303
4304   4305   4306   4307
4308   4309   4310   4311
4312   4313   4314   4315
4316   4317   4318   4319
4320   4321   4322   4323
4324   4325   4326   4327
4328   4329   4330   4331
4332   4333   4334   4335
4336   4337   4338   4339
4340   4341   4342   4343
4344   4345   4346   4347
4348   4349   4350   4351
4352   4353   4354   4355
4356   4357   4358   4359
4360   4361   4362   4363
4364   4365   4366   4367
4368   4369   4370   4371
4372   4373   4374   4375
4376   4377   4378   4379
4380   4381   4382   4383
4384   4385   4386   4387
4388   4389   4390   4391
4392   4393   4394   4395
4396   4397   4398   4399
4400   4401   4402   4403
4404   4405   4406   4407
4408   4409   4410   4411
4412   4413   4414   4415
4416   4417   4418   4419
4420   4421   4422   4423
4424   4425   4426   4427
4428   4429   4430   4431
4432   4433   4434   4435
4436   4437   4438   4439
4440   4441   4442   4443
4444   4445   4446   4447
4448   4449   4450   4451
4452   4453   4454   4455
4456   4457   4458   4459
4460   4461   4462   4463
4464   4465   4466   4467
4468   4469   4470   4471
4472   4473   4474   4475
4476   4477   4478   4479
4480   4481   4482   4483
4484   4485   4486   4487
4488   4489   4490   4491
4492   4493   4494   4495
4496   4497   4498   4499
4500   4501   4502   4503
4504   4505   4506   4507
4508   4509   4510   4511
4512   4513   4514   4515
4516   4517   4518   4519
4520   4521   4522   4523
4524   4525   4526   4527
4528   4529   4530   4531
4532   4533   4534   4535
4536   4537   4538   4539
4540   4541   4542   4543
4544   4545   4546   4547
4548   4549   4550   4551
4552   4553   4554   4555
4556   4557   4558   4559
4560   4561   4562   4563
4564   4565   4566   4567
4568   4569   4570   4571
4572   4573   4574   4575
4576   4577   4578   4579
4580   4581   4582   4583
4584   4585   4586   4587
4588   4589   4590   4591
4592   4593   4594   4595
4596   4597   4598   4599
4600   4601   4602   4603
4604   4605   4606   4607
4608   4609   4610   4611
4612   4613   4614   4615
4616   4617   4618   4619
4620   4621   4622   4623
4624   4625   4626   4627
4628   4629   4630   4631
4632   4633   4634   4635
4636   4637   4638   4639
4640   4641   4642   4643
4644   4645   4646   4647
4648   4649   4650   4651
4652   4653   4654   4655
4656   4657   4658   4659
4660   4661   4662   4663
4664   4665   4666   4667
4668   4669   4670   4671
4672   4673   4674   4675
4676   4677   4678   4679
4680   4681   4682   4683
4684   4685   4686   4687
4688   4689   4690   4691
4692   4693   4694   4695
4696   4697   4698   4699
4700   4701   4702   4703
4704   4705   4706   4707
4708   4709   4710   4711
4712   4713   4714   4715
4716   4717   4718   4719
4720   4721   4722   4723
4724   4725   4726   4727
4728   4729   4730   4731
4732   4733   4734   4735
4736   4737   4738   4739
4740   4741   4742   4743
4744   4745   4746   4747
4748   4749   4750   4751
4752   4753   4754   4755
4756   4757   4758   4759
4760   4761   4762   4763
4764   4765   4766   4767
4768   4769   4770   4771
4772   4773   4774   4775
4776   4777   4778   4779
4780   4781   4782   4783
4784   4785   4786   4787
4788   4789   4790   4791
4792   4793   4794   4795
4796   4797   4798   4799
4800   4801   4802   4803
4804   4805   4806   4807
4808   4809   4810   4811
4812   4813   4814   4815
4816   4817   4818   4819
4820   4821   4822   4823
4824   4825   4826   4827
4828   4829   4830   4831
4832   4833   4834   4835
4836   4837   4838   4839
4840   4841   4842   4843
4844   4845   4846   4847
4848   4849   4850   4851
4852   4853   4854   4855
4856   4857   4858   4859
4860   4861   4862   4863
4864   4865   4866   4867
4868   4869   4870   4871
4872   4873   4874   4875
4876   4877   4878   4879
4880   4881   4882   4883
4884   4885   4886   4887
4888   4889   4890   4891
4892   4893   4894   4895
4896   4897   4898   4899
4900   4901   4902   4903
4904   4905   4906   4907
4908   4909   4910   4911
4912   4913   4914   4915
4916   4917   4918   4919
4920   4921   4922   4923
4924   4925   4926   4927
4928   4929   4930   4931
4932   4933   4934   4935
4936   4937   4938   4939
4940   4941   4942   4943
4944   4945   4946   4947
4948   4949   4950   4951
4952   4953   4954   4955
4956   4957   4958   4959
4960   4961   4962   4963
4964   4965   4966   4967
4968   4969   4970   4971
4972   4973   4974   4975
4976   4977   4978   4979
4980   4981   4982   4983
4984   4985   4986   4987
4988   4989   4990   4991
4992   4993   4994   4995
4996   4997   4998   4999
5000   5001   5002   5003
5004   5005   5006   5007
5008   5009   5010   5011
5012   5013   5014   5015
5016   5017   5018   5019
5020   5021   5022   5023
5024   5025   5026   5027
5028   5029   5030   5031
5032   5033   5034   5035
5036   5037   5038   5039
5040   5041   5042   5043
5044   5045   5046   5047
5048   5049   5050   5051
5052   5053   5054   5055
5056   5057   5058   5059
5060   5061   5062   5063
5064   5065   5066   5067
5068   5069   5070   5071
5072   5073   5074   5075
5076   5077   5078   5079
5080   5081   5082   5083
5084   5085   5086   5087
5088   5089   5090   5091
5092   5093   5094   5095
5096   5097   5098   5099
5100   5101   5102   5103
5104   5105   5106   5107
5108   5109   5110   5111
5112   5113   5114   5115
5116   5117   5118   5119
5120   5121   5122   5123
5124   5125   5126   5127
5128   5129   5130   5131
5132   5133   5134   5135
5136   5137   5138   5139
5140   5141   5142   5143
5144   5145   5146   5147
5148   5149   5150   5151
5152   5153   5154   5155
5156   5157   5158   5159
5160   5161   5162   5163
5164   5165   5166   5167
5168   5169   5170   5171
5172   5173   5174   5175
5176   5177   5178   5179
5180   5181   5182   5183
5184   5185   5186   5187
5188   5189   5190   5191
5192   5193   5194   5195
5196   5197   5198   5199
5200   5201   5202   5203
5204   5205   5206   5207
5208   5209   5210   5211
5212   5213   5214   5215
5216   5217   5218   5219
5220   5221   5222   5223
5224   5225   5226   5227
5228   5229   5230   5231
5232   5233   5234   5235
5236   5237   5238   5239
5240   5241   5242   5243
5244   5245   5246   5247
5248   5249   5250   5251
5252   5253   5254   5255
5256   5257   5258   5259
5260   5261   5262   5263
5264   5265   5266   5267
5268   5269   5270   5271
5272   5273   5274   5275
5276   5277   5278   5279
5280   5281   5282   5283
5284   5285   5286   5287
5288   5289   5290   5291
5292   5293   5294   5295
5296   5297   5298   5299
5300   5301   5302   5303
5304   5305   5306   5307
5308   5309   5310   5311
5312   5313   5314   5315
5316   5317   5318   5319
5320   5321   5322   5323
5324   5325   5326   5327
5328   5329   5330   5331
5332   5333   5334   5335
5336   5337   5338   5339
5340   5341   5342   5343
5344   5345   5346   5347
5348   5349   5350   5351
5352   5353   5354   5355
5356   5357   5358   5359
5360   5361   5362   5363
5364   5365   5366   5367
5368   5369   5370   5371
5372   5373   5374   5375
5376   5377   5378   5379
5380   5381   5382   5383
5384   5385   5386   5387
5388   5389   5390   5391
5392   5393   5394   5395
5396   5397   5398   5399
5400   5401   5402   5403
5404   5405   5406   5407
5408   5409   5410   5411
5412   5413   5414   5415
5416   5417   5418   5419
5420   5421   5422   5423
5424   5425   5426   5427
5428   5429   5430   5431
5432   5433   5434   5435
5436   5437   5438   5439
5440   5441   5442   5443
5444   5445   5446   5447
5448   5449   5450   5451
5452   5453   5454   5455
5456   5457   5458   5459
5460   5461   5462   5463
5464   5465   5466   5467
5468   5469   5470   5471
5472   5473   5474   5475
5476   5477   5478   5479
5480   5481   5482   5483
5484   5485   5486   5487
5488   5489   5490   5491
5492   5493   5494   5495
5496   5497   5498   5499
5500   5501   5502   5503
5504   5505   5506   5507
5508   5509   5510   5511
5512   5513   5514   5515
5516   5517   5518   5519
5520   5521   5522   5523
5524   5525   5526   5527
5528   5529   5530   5531
5532   5533   5534   5535
5536   5537   5538   5539
5540   5541   5542   5543
5544   5545   5546   5547
5548   5549   5550   5551
5552   5553   5554   5555
5556   5557   5558   5559
5560   5561   5562   5563
5564   5565   5566   5567
5568   5569   5570   5571
5572   5573   5574   5575
5576   5577   5578   5579
5580   5581   5582   5583
5584   5585   5586   5587
5588   5589   5590   5591
5592   5593   5594   5595
5596   5597   5598   5599
5600   5601   5602   5603
5604   5605   5606   5607
5608   5609   5610   5611
5612   5613   5614   5615
5616   5617   5618   5619
5620   5621   5622   5623
5624   5625   5626   5627
5628   5629   5630   5631
5632   5633   5634   5635
5636   5637   5638   5639
5640   5641   5642   5643
5644   5645   5646   5647
5648   5649   5650   5651
5652   5653   5654   5655
5656   5657   5658   5659
5660   5661   5662   5663
5664   5665   5666   5667
5668   5669   5670   5671
5672   5673   5674   5675
5676   5677   5678   5679
5680   5681   5682   5683
5684   5685   5686   5687
5688   5689   5690   5691
5692   5693   5694   5695
5696   5697   5698   5699
5700   5701   5702   5703
5704   5705   5706   5707
5708   5709   5710   5711
5712   5713   5714   5715
5716   5717   5718   5719
5720   5721   5722   5723
5724   5725   5726   5727
5728   5729   5730   5731
5732   5733   5734   5735
5736   5737   5738   5739
5740   5741   5742   5743
5744   5745   5746   5747
5748   5749   5750   5751
5752   5753   5754   5755
5756   5757   5758   5759
5760   5761   5762   5763
5764   5765   5766   5767
5768   5769   5770   5771
5772   5773   5774   5775
5776   5777   5778   5779
5780   5781   5782   5783
5784   5785   5786   5787
5788   5789   5790   5791
5792   5793   5794   5795
5796   5797   5798   5799
5800   5801   5802   5803
5804   5805   5806   5807
5808   5809   5810   5811
5812   5813   5814   5815
5816   5817   5818   5819
5820   5821   5822   5823
5824   5825   5826   5827
5828   5829   5830   5831
5832   5833   5834   5835
5836   5837   5838   5839
5840   5841   5842   5843
5844   5845   5846   5847
5848   5849   5850   5851
5852   5853   5854   5855
5856   5857   5858   5859
5860   5861   5862   5863
5864   5865   5866   5867
5868   5869   5870   5871
5872   5873   5874   5875
5876   5877   5878   5879
5880   5881   5882   5883
5884   5885   5886   5887
5888   5889   5890   5891
5892   5893   5894   5895
5896   5897   5898   5899
5900   5901   5902   5903
5904   5905   5906   5907
5908   5909   5910   5911
5912   5913   5914   5915
5916   5917   5918   5919
5920   5921   5922   5923
5924   5925   5926   5927
5928   5929   5930   5931
5932   5933   5934   5935
5936   5937   5938   5939
5940   5941   5942   5943
5944   5945   5946   5947
5948   5949   5950   5951
5952   5953   5954   5955
5956   5957   5958   5959
5960   5961   5962   5963
5964   5965   5966   5967
5968   5969   5970   5971
5972   5973   5974   5975
5976   5977   5978   5979
5980   5981   5982   5983
5984   5985   5986   5987
5988   5989   5990   5991
5992   5993   5994   5995
5996   5997   5998   5999
              </DataArray>   
              <DataArray type="Int32" Name="offsets" format="ascii">   
4
8
12
16
20
24
28
32
36
40
44
48
52
56
60
64
68
72
76
80
84
88
92
96
100
104
108
112
116
120
124
128
132
136
140
144
148
152
156
160
164
168
172
176
180
184
188
192
196
200
204
208
212
216
220
224
228
232
236
240
244
248
252
256
260
264
268
272
276
280
284
288
292
296
300
304
308
312
316
320
324
328
332
336
340
344
348
352
356
360
364
368
372
376
380
384
388
392
396
400
404
408
412
416
420
424
428
432
436
440
444
448
452
456
460
464
468
472
476
480
484
488
492
496
500
504
508
512
516
520
524
528
532
536
540
544
548
552
556
560
564
568
572
576
580
584
588
592
596
600
604
608
612
616
620
624
628
632
636
640
644
648
652
656
660
664
668
672
676
680
684
688
692
696
700
704
708
712
716
720
724
728
732
736
740
744
748
752
756
760
764
768
772
776
780
784
788
792
796
800
804
808
812
816
820
824
828
832
836
840
844
848
852
856
860
864
868
872
876
880
884
888
892
896
900
904
908
912
916
920
924
928
932
936
940
944
948
952
956
960
964
968
972
976
980
984
988
992
996
1000
1004
1008
1012
1016
1020
1024
1028
1032
1036
1040
1044
1048
1052
1056
1060
1064
1068
1072
1076
1080
1084
1088
1092
1096
1100
1104
1108
1112
1116
1120
1124
1128
1132
1136
1140
1144
1148
1152
1156
1160
1164
1168
1172
1176
1180
1184
1188
1192
1196
1200
1204
1208
1212
1216
1220
1224
1228
1232
1236
1240
1244
1248
1252
1256
1260
1264
1268
1272
1276
1280
1284
1288
1292
1296
1300
1304
1308
1312
1316
1320
1324
1328
1332
1336
1340
1344
1348
1352
1356
1360
1364
1368
1372
1376
1380
1384
1388
1392
1396
1400
1404
1408
1412
1416
1420
1424
1428
1432
1436
1440
1444
1448
1452
1456
1460
1464
1468
1472
1476
1480
1484
1488
1492
1496
1500
1504
1508
1512
1516
1520
1524
1528
1532
1536
1540
1544
1548
1552
1556
1560
1564
1568
1572
1576
1580
1584
1588
1592
1596
1600
1604
1608
1612
1616
1620
1624
1628
1632
1636
1640
1644
1648
1652
1656
1660
1664
1668
1672
1676
1680
1684
1688
1692
1696
1700
1704
1708
1712
1716
1720
1724
1728
1732
1736
1740
1744
1748
1752
1756
1760
1764
1768
1772
1776
1780
1784
1788
1792
1796
1800
1804
1808
1812
1816
1820
1824
1828
1832
1836
1840
1844
1848
1852
1856
1860
1864
1868
1872
1876
1880
1884
1888
1892
1896
1900
1904
1908
1912
1916
1920
1924
1928
1932
1936
1940
1944
1948
1952
1956
1960
1964
1968
1972
1976
1980
1984
1988
1992
1996
2000
2004
2008
2012
2016
2020
2024
2028
2032
2036
2040
2044
2048
2052
2056
2060
2064
2068
2072
2076
2080
2084
2088
2092
2096
2100
2104
2108
2112
2116
2120
2124
2128
2132
2136
2140
2144
2148
2152
2156
2160
2164
2168
2172
2176
2180
2184
2188
2192
2196
2200
2204
2208
2212
2216
2220
2224
2228
2232
2236
2240
2244
2248
2252
2256
2260
2264
2268
2272
2276
2280
2284
2288
2292
2296
2300
2304
2308
2312
2316
2320
2324
2328
2332
2336
2340
2344
2348
2352
2356
2360
2364
2368
2372
2376
2380
2384
2388
2392
2396
2400
2404
2408
2412
2416
2420
2424
2428
2432
2436
2440
2444
2448
2452
2456
2460
2464
2468
2472
2476
2480
2484
2488
2492
2496
2500
2504
2508
2512
2516
2520
2524
2528
2532
2536
2540
2544
2548
2552
2556
2560
2564
2568
2572
2576
2580
2584
2588
2592
2596
2600
2604
2608
2612
2616
2620
2624
2628
2632
2636
2640
2644
2648
2652
2656
2660
2664
2668
2672
2676
2680
2684
2688
2692
2696
2700
2704
2708
2712
2716
2720
2724
2728
2732
2736
2740
2744
2748
2752
2756
2760
2764
2768
2772
2776
2780
2784
2788
2792
2796
2800
2804
2808
2812
2816
2820
2824
2828
2832
2836
2840
2844
2848
2852
2856
2860
2864
2868
2872
2876
2880
2884
2888
2892
2896
2900
2904
2908
2912
2916
2920
2924
2928
2932
2936
2940
2944
2948
2952
2956
2960
2964
2968
2972
2976
2980
2984
2988
2992
2996
3000
3004
3008
3012
3016
3020
3024
3028
3032
3036
3040
3044
3048
3052
3056
3060
3064
3068
3072
3076
3080
3084
3088
3092
3096
3100
3104
3108
3112
3116
3120
3124
3128
3132
3136
3140
3144
3148
3152
3156
3160
3164
3168
3172
3176
3180
3184
3188
3192
3196
3200
3204
3208
3212
3216
3220
3224
3228
3232
3236
3240
3244
3248
3252
3256
3260
3264
3268
3272
3276
3280
3284
3288
3292
3296
3300
3304
3308
3312
3316
3320
3324
3328
3332
3336
3340
3344
3348
3352
3356
3360
3364
3368
3372
3376
3380
3384
3388
3392
3396
3400
3404
3408
3412
3416
3420
3424
3428
3432
3436
3440
3444
3448
3452
3456
3460
3464
3468
3472
3476
3480
3484
3488
3492
3496
3500
3504
3508
3512
3516
3520
3524
3528
3532
3536
3540
3544
3548
3552
3556
3560
3564
3568
3572
3576
3580
3584
3588
3592
3596
3600
3604
3608
3612
3616
3620
3624
3628
3632
3636
3640
3644
3648
3652
3656
3660
3664
3668
3672
3676
3680
3684
3688
3692
3696
3700
3704
3708
3712
3716
3720
3724
3728
3732
3736
3740
3744
3748
3752
3756
3760
3764
3768
3772
3776
3780
3784
3788
3792
3796
3800
3804
3808
3812
3816
3820
3824
3828
3832
3836
3840
3844
3848
3852
3856
3860
3864
3868
3872
3876
3880
3884
3888
3892
3896
3900
3904
3908
3912
3916
3920
3924
3928
3932
3936
3940
3944
3948
3952
3956
3960
3964
3968
3972
3976
3980
3984
3988
3992
3996
4000
4004
4008
4012
4016
4020
4024
4028
4032
4036
4040
4044
4048
4052
4056
4060
4064
4068
4072
4076
4080
4084
4088
4092
4096
4100
4104
4108
4112
4116
4120
4124
4128
4132
4136
4140
4144
4148
4152
4156
4160
4164
4168
4172
4176
4180
4184
4188
4192
4196
4200
4204
4208
4212
4216
4220
4224
4228
4232
4236
4240
4244
4248
4252
4256
4260
4264
4268
4272
4276
4280
4284
4288
4292
4296
4300
4304
4308
4312
4316
4320
4324
4328
4332
4336
4340
4344
4348
4352
4356
4360
4364
4368
4372
4376
4380
4384
4388
4392
4396
4400
4404
4408
4412
4416
4420
4424
4428
4432
4436
4440
4444
4448
4452
4456
4460
4464
4468
4472
4476
4480
4484
4488
4492
4496
4500
4504
4508
4512
4516
4520
4524
4528
4532
4536
4540
4544
4548
4552
4556
4560
4564
4568
4572
4576
4580
4584
4588
4592
4596
4600
4604
4608
4612
4616
4620
4624
4628
4632
4636
4640
4644
4648
4652
4656
4660
4664
4668
4672
4676
4680
4684
4688
4692
4696
4700
4704
4708
4712
4716
4720
4724
4728
4732
4736
4740
4744
4748
4752
4756
4760
4764
4768
4772
4776
4780
4784
4788
4792
4796
4800
4804
4808
4812
4816
4820
4824
4828
4832
4836
4840
4844
4848
4852
4856
4860
4864
4868
4872
4876
4880
4884
4888
4892
4896
4900
4904
4908
4912
4916
4920
4924
4928
4932
4936
4940
4944
4948
4952
4956
4960
4964
4968
4972
4976
4980
4984
4988
4992
4996
5000
5004
5008
5012
5016
5020
5024
5028
5032
5036
5040
5044
5048
5052
5056
5060
5064
5068
5072
5076
5080
5084
5088
5092
5096
5100
5104
5108
5112
5116
5120
5124
5128
5132
5136
5140
5144
5148
5152
5156
5160
5164
5168
5172
5176
5180
5184
5188
5192
5196
5200
5204
5208
5212
5216
5220
5224
5228
5232
5236
5240
5244
5248
5252
5256
5260
5264
5268
5272
5276
5280
5284
5288
5292
5296
5300
5304
5308
5312
5316
5320
5324
5328
5332
5336
5340
5344
5348
5352
5356
5360
5364
5368
5372
5376
5380
5384
5388
5392
5396
5400
5404
5408
5412
5416
5420
5424
5428
5432
5436
5440
5444
5448
5452
5456
5460
5464
5468
5472
5476
5480
5484
5488
5492
5496
5500
5504
5508
5512
5516
5520
5524
5528
5532
5536
5540
5544
5548
5552
5556
5560
5564
5568
5572
5576
5580
5584
5588
5592
5596
5600
5604
5608
5612
5616
5620
5624
5628
5632
5636
5640
5644
5648
5652
5656
5660
5664
5668
5672
5676
5680
5684
5688
5692
5696
5700
5704
5708
5712
5716
5720
5724
5728
5732
5736
5740
5744
5748
5752
5756
5760
5764
5768
5772
5776
5780
5784
5788
5792
5796
5800
5804
5808
5812
5816
5820
5824
5828
5832
5836
5840
5844
5848
5852
5856
5860
5864
5868
5872
5876
5880
5884
5888
5892
5896
5900
5904
5908
5912
5916
5920
5924
5928
5932
5936
5940
5944
5948
5952
5956
5960
5964
5968
5972
5976
5980
5984
5988
5992
5996
6000
              </DataArray>   
              <DataArray type="UInt8" Name="types" format="ascii">   
10
10
10
10
10
10
10
10
10
10
10
10
10
10
10
10
10
10
10
10
10
10
10
10
10
10
10
10
10
10
10
10
10
10
10
10
10
10
10
10
10
10
10
10
10
10
10
10
10
10
10
10
10
10
10
10
10
10
10
10
10
10
10
10
10
10
10
10
10
10
10
10
10
10
10
10
10
10
10
10
10
10
10
10
10
10
10
10
10
10
10
10
10
10
10
10
10
10
10
10
10
10
10
10
10
10
10
10
10
10
10
10
10
10
10
10
10
10
10
10
10
10
10
10
10
10
10
10
10
10
10
10
10
10
10
10
10
10
10
10
10
10
10
10
10
10
10
10
10
10
10
10
10
10
10
10
10
10
10
10
10
10
10
10
10
10
10
10
10
10
10
10
10
10
10
10
10
10
10
10
10
10
10
10
10
10
10
10
10
10
10
10
10
10
10
10
10
10
10
10
10
10
10
10
10
10
10
10
10
10
10
10
10
10
10
10
10
10
10
10
10
10
10
10
10
10
10
10
10
10
10
10
10
10
10
10
10
10
10
10
10
10
10
10
10
10
10
10
10
10
10
10
10
10
10
10
10
10
10
10
10
10
10
10
10
10
10
10
10
10
10
10
10
10
10
10
10
10
10
10
10
10
10
10
10
10
10
10
10
10
10
10
10
10
10
10
10
10
10
10
10
10
10
10
10
10
10
10
10
10
10
10
10
10
10
10
10
10
10
10
10
10
10
10
10
10
10
10
10
10
10
10
10
10
10
10
10
10
10
10
10
10
10
10
10
10
10
10
10
10
10
10
10
10
10
10
10
10
10
10
10
10
10
10
10
10
10
10
10
10
10
10
10
10
10
10
10
10
10
10
10
10
10
10
10
10
10
10
10
10
10
10
10
10
10
10
10
10
10
10
10
10
10
10
10
10
10
10
10
10
10
10
10
10
10
10
10
10
10
10
10
10
10
10
10
10
10
10
10
10
10
10
10
10
10
10
10
10
10
10
10
10
10
10
10
10
10
10
10
10
10
10
10
10
10
10
10
10
10
10
10
10
10
10
10
10
10
10
10
10
10
10
10
10
10
10
10
10
10
10
10
10
10
10
10
10
10
10
10
10
10
10
10
10
10
10
10
10
10
10
10
10
10
10
10
10
10
10
10
10
10
10
10
10
10
10
10
10
10
10
10
10
10
10
10
10
10
10
10
10
10
10
10
10
10
10
10
10
10
10
10
10
10
10
10
10
10
10
10
10
10
10
10
10
10
10
10
10
10
10
10
10
10
10
10
10
10
10
10
10
10
10
10
10
10
10
10
10
10
10
10
10
10
10
10
10
10
10
10
10
10
10
10
10
10
10
10
10
10
10
10
10
10
10
10
10
10
10
10
10
10
10
10
10
10
10
10
10
10
10
10
10
10
10
10
10
10
10
10
10
10
10
10
10
10
10
10
10
10
10
10
10
10
10
10
10
10
10
10
10
10
10
10
10
10
10
10
10
10
10
10
10
10
10
10
10
10
10
10
10
10
10
10
10
10
10
10
10
10
10
10
10
10
10
10
10
10
10
10
10
10
10
10
10
10
10
10
10
10
10
10
10
10
10
10
10
10
10
10
10
10
10
10
10
10
10
10
10
10
10
10
10
10
10
10
10
10
10
10
10
10
10
10
10
10
10
10
10
10
10
10
10
10
10
10
10
10
10
10
10
10
10
10
10
10
10
10
10
10
10
10
10
10
10
10
10
10
10
10
10
10
10
10
10
10
10
10
10
10
10
10
10
10
10
10
10
10
10
10
10
10
10
10
10
10
10
10
10
10
10
10
10
10
10
10
10
10
10
10
10
10
10
10
10
10
10
10
10
10
10
10
10
10
10
10
10
10
10
10
10
10
10
10
10
10
10
10
10
10
10
10
10
10
10
10
10
10
10
10
10
10
10
10
10
10
10
10
10
10
10
10
10
10
10
10
10
10
10
10
10
10
10
10
10
10
10
10
10
10
10
10
10
10
10
10
10
10
10
10
10
10
10
10
10
10
10
10
10
10
10
10
10
10
10
10
10
10
10
10
10
10
10
10
10
10
10
10
10
10
10
10
10
10
10
10
10
10
10
10
10
10
10
10
10
10
10
10
10
10
10
10
10
10
10
10
10
10
10
10
10
10
10
10
10
10
10
10
10
10
10
10
10
10
10
10
10
10
10
10
10
10
10
10
10
10
10
10
10
10
10
10
10
10
10
10
10
10
10
10
10
10
10
10
10
10
10
10
10
10
10
10
10
10
10
10
10
10
10
10
10
10
10
10
10
10
10
10
10
10
10
10
10
10
10
10
10
10
10
10
10
10
10
10
10
10
10
10
10
10
10
10
10
10
10
10
10
10
10
10
10
10
10
10
10
10
10
10
10
10
10
10
10
10
10
10
10
10
10
10
10
10
10
10
10
10
10
10
10
10
10
10
10
10
10
10
10
10
10
10
10
10
10
10
10
10
10
10
10
10
10
10
10
10
10
10
10
10
10
10
10
10
10
10
10
10
10
10
10
10
10
10
10
10
10
10
10
10
10
10
10
10
10
10
10
10
10
10
10
10
10
10
10
10
10
10
10
10
10
10
10
10
10
10
10
10
10
10
10
10
10
10
10
10
10
10
10
10
10
10
10
10
10
10
10
10
10
10
10
10
10
10
10
10
10
10
10
10
10
10
10
10
10
10
10
10
10
10
10
10
10
10
10
10
10
10
10
10
10
10
10
10
10
10
10
10
10
10
10
10
10
10
10
10
10
10
10
10
10
10
10
10
10
10
10
10
10
10
10
10
10
10
10
10
10
10
10
10
10
10
10
10
10
10
10
10
10
10
10
10
10
10
10
10
10
10
10
10
10
10
10
10
10
10
10
10
10
10
10
10
10
10
10
10
10
10
10
10
10
10
10
10
10
10
10
10
10
10
10
10
10
10
10
10
10
10
10
10
10
10
10
10
10
10
10
10
10
10
10
10
10
10
10
10
10
10
10
10
10
10
10
10
10
10
10
10
10
10
10
10
10
10
10
10
10
10
10
10
10
10
10
10
10
10
10
10
10
10
10
10
10
10
10
10
10
10
10
10
10
10
10
10
10
10
10
10
10
10
10
10
10
10
10
10
10
10
10
10
10
10
10
10
10
10
10
10
10
10
10
10
10
10
10
10
10
10
10
10
10
10
10
10
10
10
10
10
10
10
10
10
10
10
10
10
10
10
10
10
10
10
10
10
10
10
10
10
10
10
10
10
10
10
10
10
10
10
10
10
10
10
10
10
10
10
10
10
10
10
10
10
10
10
10
10
10
10
10
10
10
10
10
10
10
10
10
10
10
10
10
10
10
10
10
10
10
10
10
10
10
10
10
10
10
10
10
10
10
10
10
10
10
              </DataArray>   
          </Cells>  
          <PointData>  
             <DataArray type="Float64" NumberOfComponents="3" Name="Strains" format="ascii">   
-0.00010063189759968291   0.0   -6.602799002685991e-05
-0.00010063189759968291   0.0   -6.602799002685991e-05
-0.00010063189759968291   0.0   -6.602799002685991e-05
-0.00010063189759968291   0.0   -6.602799002685991e-05
-6.40356981843311e-05   1.1150327294092802e-05   1.655872041848668e-06
-6.40356981843311e-05   1.1150327294092802e-05   1.655872041848668e-06
-6.40356981843311e-05   1.1150327294092802e-05   1.655872041848668e-06
-6.40356981843311e-05   1.1150327294092802e-05   1.655872041848668e-06
-6.27706196754913e-05   0.0   -6.231517048247846e-05
-6.27706196754913e-05   0.0   -6.231517048247846e-05
-6.27706196754913e-05   0.0   -6.231517048247846e-05
-6.27706196754913e-05   0.0   -6.231517048247846e-05
-0.00010531770089546815   1.3379890609271032e-05   5.686971852539985e-07
-0.00010531770089546815   1.3379890609271032e-05   5.686971852539985e-07
-0.00010531770089546815   1.3379890609271032e-05   5.686971852539985e-07
-0.00010531770089546815   1.3379890609271032e-05   5.686971852539985e-07
-8.170125863758696e-05   3.094016286984539e-06   -3.2620515317842755e-05
-8.170125863758696e-05   3.094016286984539e-06   -3.2620515317842755e-05
-8.170125863758696e-05   3.094016286984539e-06   -3.2620515317842755e-05
-8.170125863758696e-05   3.094016286984539e-06   -3.2620515317842755e-05
-0.00010531770089546834   0.0   -7.03431048480411e-05
-0.00010531770089546834   0.0   -7.03431048480411e-05
-0.00010531770089546834   0.0   -7.03431048480411e-05
-0.00010531770089546834   0.0   -7.03431048480411e-05
-6.27706196754913e-05   1.3379890609271046e-05   8.596631550816618e-06
-6.27706196754913e-05   1.3379890609271046e-05   8.596631550816618e-06
-6.27706196754913e-05   1.3379890609271046e-05   8.596631550816618e-06
-6.27706196754913e-05   1.3379890609271046e-05   8.596631550816618e-06
-6.294909331254723e-05   0.0   -6.384081701998484e-05
-6.294909331254723e-05   0.0   -6.384081701998484e-05
-6.294909331254723e-05   0.0   -6.384081701998484e-05
-6.294909331254723e-05   0.0   -6.384081701998484e-05
-0.00010860916001977863   1.4334244199164188e-05   3.658747639235919e-06
-0.00010860916001977863   1.4334244199164188e-05   3.658747639235919e-06
-0.00010860916001977863   1.4334244199164188e-05   3.658747639235919e-06
-0.00010860916001977863   1.4334244199164188e-05   3.658747639235919e-06
-8.413339710400764e-05   5.41857319004688e-06   -3.1784787948245306e-05
-8.413339710400764e-05   5.41857319004688e-06   -3.1784787948245306e-05
-8.413339710400764e-05   5.41857319004688e-06   -3.1784787948245306e-05
-8.413339710400764e-05   5.41857319004688e-06   -3.1784787948245306e-05
-0.00010860916001977882   0.0   -7.244136353948337e-05
-0.00010860916001977882   0.0   -7.244136353948337e-05
-0.00010860916001977882   0.0   -7.244136353948337e-05
-0.00010860916001977882   0.0   -7.244136353948337e-05
-6.294909331254713e-05   1.4334244199164188e-05   1.2259294158734432e-05
-6.294909331254713e-05   1.4334244199164188e-05   1.2259294158734432e-05
-6.294909331254713e-05   1.4334244199164188e-05   1.2259294158734432e-05
-6.294909331254713e-05   1.4334244199164188e-05   1.2259294158734432e-05
-6.291763973707518e-05   0.0   -6.423261878089157e-05
-6.291763973707518e-05   0.0   -6.423261878089157e-05
-6.291763973707518e-05   0.0   -6.423261878089157e-05
-6.291763973707518e-05   0.0   -6.423261878089157e-05
-0.00011569843139316516   1.6328730152992508e-05   1.3938129220796513e-05
-0.00011569843139316516   1.6328730152992508e-05   1.3938129220796513e-05
-0.00011569843139316516   1.6328730152992508e-05   1.3938129220796513e-05
-0.00011569843139316516   1.6328730152992508e-05   1.3938129220796513e-05
-8.576339987842685e-05   6.840620632159816e-06   -3.026072425793438e-05
-8.576339987842685e-05   6.840620632159816e-06   -3.026072425793438e-05
-8.576339987842685e-05   6.840620632159816e-06   -3.026072425793438e-05
-8.576339987842685e-05   6.840620632159816e-06   -3.026072425793438e-05
-6.403569818433121e-05   0.0   -5.9337793650404224e-05
-6.403569818433121e-05   0.0   -5.9337793650404224e-05
-6.403569818433121e-05   0.0   -5.9337793650404224e-05
-6.403569818433121e-05   0.0   -5.9337793650404224e-05
-2.9160527126996026e-05   4.0899343375233875e-06   1.2414520476684124e-06
-2.9160527126996026e-05   4.0899343375233875e-06   1.2414520476684124e-06
-2.9160527126996026e-05   4.0899343375233875e-06   1.2414520476684124e-06
-2.9160527126996026e-05   4.0899343375233875e-06   1.2414520476684124e-06
-2.8047595072742087e-05   0.0   -5.882193404067626e-05
-2.8047595072742087e-05   0.0   -5.882193404067626e-05
-2.8047595072742087e-05   0.0   -5.882193404067626e-05
-2.8047595072742087e-05   0.0   -5.882193404067626e-05
-6.27706196754913e-05   5.822060736336831e-06   -4.44346281122989e-06
-6.27706196754913e-05   5.822060736336831e-06   -4.44346281122989e-06
-6.27706196754913e-05   5.822060736336831e-06   -4.44346281122989e-06
-6.27706196754913e-05   5.822060736336831e-06   -4.44346281122989e-06
-4.604164662853659e-05   4.298830081065467e-07   -2.9089777919215998e-05
-4.604164662853659e-05   4.298830081065467e-07   -2.9089777919215998e-05
-4.604164662853659e-05   4.298830081065467e-07   -2.9089777919215998e-05
-4.604164662853659e-05   4.298830081065467e-07   -2.9089777919215998e-05
-6.277061967549124e-05   0.0   -6.231517048247841e-05
-6.277061967549124e-05   0.0   -6.231517048247841e-05
-6.277061967549124e-05   0.0   -6.231517048247841e-05
-6.277061967549124e-05   0.0   -6.231517048247841e-05
-2.8047595072742087e-05   5.822060736336817e-06   -9.50226369427783e-07
-2.8047595072742087e-05   5.822060736336817e-06   -9.50226369427783e-07
-2.8047595072742087e-05   5.822060736336817e-06   -9.50226369427783e-07
-2.8047595072742087e-05   5.822060736336817e-06   -9.50226369427783e-07
-2.742313063519477e-05   0.0   -5.9560607740321236e-05
-2.742313063519477e-05   0.0   -5.9560607740321236e-05
-2.742313063519477e-05   0.0   -5.9560607740321236e-05
-2.742313063519477e-05   0.0   -5.9560607740321236e-05
-6.294909331254723e-05   7.133682132772496e-06   -4.630879224397499e-06
-6.294909331254723e-05   7.133682132772496e-06   -4.630879224397499e-06
-6.294909331254723e-05   7.133682132772496e-06   -4.630879224397499e-06
-6.294909331254723e-05   7.133682132772496e-06   -4.630879224397499e-06
-4.509687515534305e-05   2.295468951797605e-06   -3.148164824448613e-05
-4.509687515534305e-05   2.295468951797605e-06   -3.148164824448613e-05
-4.509687515534305e-05   2.295468951797605e-06   -3.148164824448613e-05
-4.509687515534305e-05   2.295468951797605e-06   -3.148164824448613e-05
-6.294909331254723e-05   0.0   -6.384081701998484e-05
-6.294909331254723e-05   0.0   -6.384081701998484e-05
-6.294909331254723e-05   0.0   -6.384081701998484e-05
-6.294909331254723e-05   0.0   -6.384081701998484e-05
-2.742313063519482e-05   7.133682132772496e-06   -3.506699447340016e-07
-2.742313063519482e-05   7.133682132772496e-06   -3.506699447340016e-07
-2.742313063519482e-05   7.133682132772496e-06   -3.506699447340016e-07
-2.742313063519482e-05   7.133682132772496e-06   -3.506699447340016e-07
-2.685474628138628e-05   0.0   -5.9252302013963766e-05
-2.685474628138628e-05   0.0   -5.9252302013963766e-05
-2.685474628138628e-05   0.0   -5.9252302013963766e-05
-2.685474628138628e-05   0.0   -5.9252302013963766e-05
-6.291763973707502e-05   8.300527944879571e-06   -4.127796354743375e-06
-6.291763973707502e-05   8.300527944879571e-06   -4.127796354743375e-06
-6.291763973707502e-05   8.300527944879571e-06   -4.127796354743375e-06
-6.291763973707502e-05   8.300527944879571e-06   -4.127796354743375e-06
-4.4901919796966744e-05   3.8237625050175145e-06   -3.1467936991006846e-05
-4.4901919796966744e-05   3.8237625050175145e-06   -3.1467936991006846e-05
-4.4901919796966744e-05   3.8237625050175145e-06   -3.1467936991006846e-05
-4.4901919796966744e-05   3.8237625050175145e-06   -3.1467936991006846e-05
-2.9160527126996077e-05   0.0   -5.688383304789019e-05
-2.9160527126996077e-05   0.0   -5.688383304789019e-05
-2.9160527126996077e-05   0.0   -5.688383304789019e-05
-2.9160527126996077e-05   0.0   -5.688383304789019e-05
3.79119671361041e-06   -5.236549873281635e-07   -2.2784863059428917e-06
3.79119671361041e-06   -5.236549873281635e-07   -2.2784863059428917e-06
3.79119671361041e-06   -5.236549873281635e-07   -2.2784863059428917e-06
3.79119671361041e-06   -5.236549873281635e-07   -2.2784863059428917e-06
4.500907538902717e-06   0.0   -5.820271880977837e-05
4.500907538902717e-06   0.0   -5.820271880977837e-05
4.500907538902717e-06   0.0   -5.820271880977837e-05
4.500907538902717e-06   0.0   -5.820271880977837e-05
-2.8047595072742087e-05   1.0320253848296546e-06   -4.574429687934919e-06
-2.8047595072742087e-05   1.0320253848296546e-06   -4.574429687934919e-06
-2.8047595072742087e-05   1.0320253848296546e-06   -4.574429687934919e-06
-2.8047595072742087e-05   1.0320253848296546e-06   -4.574429687934919e-06
-1.232980979404665e-05   -1.0990714682403198e-06   -2.9492080373918636e-05
-1.232980979404665e-05   -1.0990714682403198e-06   -2.9492080373918636e-05
-1.232980979404665e-05   -1.0990714682403198e-06   -2.9492080373918636e-05
-1.232980979404665e-05   -1.0990714682403198e-06   -2.9492080373918636e-05
-2.8047595072742134e-05   0.0   -5.8821934040676365e-05
-2.8047595072742134e-05   0.0   -5.8821934040676365e-05
-2.8047595072742134e-05   0.0   -5.8821934040676365e-05
-2.8047595072742134e-05   0.0   -5.8821934040676365e-05
4.500907538902725e-06   1.0320253848296546e-06   -3.955214457037123e-06
4.500907538902725e-06   1.0320253848296546e-06   -3.955214457037123e-06
4.500907538902725e-06   1.0320253848296546e-06   -3.955214457037123e-06
4.500907538902725e-06   1.0320253848296546e-06   -3.955214457037123e-06
5.060864738227889e-06   0.0   -5.8119562344592316e-05
5.060864738227889e-06   0.0   -5.8119562344592316e-05
5.060864738227889e-06   0.0   -5.8119562344592316e-05
5.060864738227889e-06   0.0   -5.8119562344592316e-05
-2.7423130635194724e-05   2.4017423262148675e-06   -5.420615451283475e-06
-2.7423130635194724e-05   2.4017423262148675e-06   -5.420615451283475e-06
-2.7423130635194724e-05   2.4017423262148675e-06   -5.420615451283475e-06
-2.7423130635194724e-05   2.4017423262148675e-06   -5.420615451283475e-06
-1.14933651672571e-05   5.853097467366304e-07   -3.088036501682596e-05
-1.14933651672571e-05   5.853097467366304e-07   -3.088036501682596e-05
-1.14933651672571e-05   5.853097467366304e-07   -3.088036501682596e-05
-1.14933651672571e-05   5.853097467366304e-07   -3.088036501682596e-05
-2.742313063519482e-05   0.0   -5.9560607740321344e-05
-2.742313063519482e-05   0.0   -5.9560607740321344e-05
-2.742313063519482e-05   0.0   -5.9560607740321344e-05
-2.742313063519482e-05   0.0   -5.9560607740321344e-05
5.0608647382278975e-06   2.401742326214881e-06   -3.979570055554563e-06
5.0608647382278975e-06   2.401742326214881e-06   -3.979570055554563e-06
5.0608647382278975e-06   2.401742326214881e-06   -3.979570055554563e-06
5.0608647382278975e-06   2.401742326214881e-06   -3.979570055554563e-06
5.814770956455694e-06   0.0   -5.685931613003166e-05
5.814770956455694e-06   0.0   -5.685931613003166e-05
5.814770956455694e-06   0.0   -5.685931613003166e-05
5.814770956455694e-06   0.0   -5.685931613003166e-05
-2.685474628138626e-05   3.988309806553421e-06   -4.803106617560471e-06
-2.685474628138626e-05   3.988309806553421e-06   -4.803106617560471e-06
-2.685474628138626e-05   3.988309806553421e-06   -4.803106617560471e-06
-2.685474628138626e-05   3.988309806553421e-06   -4.803106617560471e-06
-1.0804179839369539e-05   2.2510763419079837e-06   -3.0511710608801043e-05
-1.0804179839369539e-05   2.2510763419079837e-06   -3.0511710608801043e-05
-1.0804179839369539e-05   2.2510763419079837e-06   -3.0511710608801043e-05
-1.0804179839369539e-05   2.2510763419079837e-06   -3.0511710608801043e-05
3.7911967136104165e-06   0.0   -5.719802604028709e-05
3.7911967136104165e-06   0.0   -5.719802604028709e-05
3.7911967136104165e-06   0.0   -5.719802604028709e-05
3.7911967136104165e-06   0.0   -5.719802604028709e-05
3.955856125895109e-05   -4.639807544520072e-06   -3.696363247644149e-07
3.955856125895109e-05   -4.639807544520072e-06   -3.696363247644149e-07
3.955856125895109e-05   -4.639807544520072e-06   -3.696363247644149e-07
3.955856125895109e-05   -4.639807544520072e-06   -3.696363247644149e-07
3.962647778345108e-05   0.0   -6.030164446849292e-05
3.962647778345108e-05   0.0   -6.030164446849292e-05
3.962647778345108e-05   0.0   -6.030164446849292e-05
3.962647778345108e-05   0.0   -6.030164446849292e-05
4.500907538902725e-06   -3.4982094311905695e-06   3.398982644686654e-07
4.500907538902725e-06   -3.4982094311905695e-06   3.398982644686654e-07
4.500907538902725e-06   -3.4982094311905695e-06   3.398982644686654e-07
4.500907538902725e-06   -3.4982094311905695e-06   3.398982644686654e-07
2.170883724853075e-05   -2.586348690171523e-06   -2.888710102952277e-05
2.170883724853075e-05   -2.586348690171523e-06   -2.888710102952277e-05
2.170883724853075e-05   -2.586348690171523e-06   -2.888710102952277e-05
2.170883724853075e-05   -2.586348690171523e-06   -2.888710102952277e-05
4.5009075389027326e-06   0.0   -5.820271880977857e-05
4.5009075389027326e-06   0.0   -5.820271880977857e-05
4.5009075389027326e-06   0.0   -5.820271880977857e-05
4.5009075389027326e-06   0.0   -5.820271880977857e-05
3.962647778345101e-05   -3.4982094311905695e-06   -1.7590273942456799e-06
3.962647778345101e-05   -3.4982094311905695e-06   -1.7590273942456799e-06
3.962647778345101e-05   -3.4982094311905695e-06   -1.7590273942456799e-06
3.962647778345101e-05   -3.4982094311905695e-06   -1.7590273942456799e-06
3.9454673289148926e-05   0.0   -5.9440542378528036e-05
3.9454673289148926e-05   0.0   -5.9440542378528036e-05
3.9454673289148926e-05   0.0   -5.9440542378528036e-05
3.9454673289148926e-05   0.0   -5.9440542378528036e-05
5.0608647382278975e-06   -2.2016333898927144e-06   -7.965480930573736e-07
5.0608647382278975e-06   -2.2016333898927144e-06   -7.965480930573736e-07
5.0608647382278975e-06   -2.2016333898927144e-06   -7.965480930573736e-07
5.0608647382278975e-06   -2.2016333898927144e-06   -7.965480930573736e-07
2.197779041402583e-05   -1.0315196406245609e-06   -2.9693492468948124e-05
2.197779041402583e-05   -1.0315196406245609e-06   -2.9693492468948124e-05
2.197779041402583e-05   -1.0315196406245609e-06   -2.9693492468948124e-05
2.197779041402583e-05   -1.0315196406245609e-06   -2.9693492468948124e-05
5.0608647382278975e-06   0.0   -5.811956234459242e-05
5.0608647382278975e-06   0.0   -5.811956234459242e-05
5.0608647382278975e-06   0.0   -5.811956234459242e-05
5.0608647382278975e-06   0.0   -5.811956234459242e-05
3.945467328914886e-05   -2.201633389892701e-06   -2.1175281269929913e-06
3.945467328914886e-05   -2.201633389892701e-06   -2.1175281269929913e-06
3.945467328914886e-05   -2.201633389892701e-06   -2.1175281269929913e-06
3.945467328914886e-05   -2.201633389892701e-06   -2.1175281269929913e-06
4.021678334215953e-05   0.0   -5.713483452680277e-05
4.021678334215953e-05   0.0   -5.713483452680277e-05
4.021678334215953e-05   0.0   -5.713483452680277e-05
4.021678334215953e-05   0.0   -5.713483452680277e-05
5.8147709564557045e-06   -4.5919732795168464e-07   4.773711794746083e-07
5.8147709564557045e-06   -4.5919732795168464e-07   4.773711794746083e-07
5.8147709564557045e-06   -4.5919732795168464e-07   4.773711794746083e-07
5.8147709564557045e-06   -4.5919732795168464e-07   4.773711794746083e-07
2.2638824040193716e-05   8.206065148247009e-07   -2.8330599599087877e-05
2.2638824040193716e-05   8.206065148247009e-07   -2.8330599599087877e-05
2.2638824040193716e-05   8.206065148247009e-07   -2.8330599599087877e-05
2.2638824040193716e-05   8.206065148247009e-07   -2.8330599599087877e-05
3.9558561258951224e-05   0.0   -5.998191056699914e-05
3.9558561258951224e-05   0.0   -5.998191056699914e-05
3.9558561258951224e-05   0.0   -5.998191056699914e-05
3.9558561258951224e-05   0.0   -5.998191056699914e-05
8.92962776571281e-05   -1.1760259147572714e-05   1.5858127941418984e-05
8.92962776571281e-05   -1.1760259147572714e-05   1.5858127941418984e-05
8.92962776571281e-05   -1.1760259147572714e-05   1.5858127941418984e-05
8.92962776571281e-05   -1.1760259147572714e-05   1.5858127941418984e-05
8.386046499695343e-05   0.0   -6.63060785384213e-05
8.386046499695343e-05   0.0   -6.63060785384213e-05
8.386046499695343e-05   0.0   -6.63060785384213e-05
8.386046499695343e-05   0.0   -6.63060785384213e-05
3.962647778345101e-05   -1.000739011654729e-05   1.3421667554010963e-05
3.962647778345101e-05   -1.000739011654729e-05   1.3421667554010963e-05
3.962647778345101e-05   -1.000739011654729e-05   1.3421667554010963e-05
3.962647778345101e-05   -1.000739011654729e-05   1.3421667554010963e-05
6.170951312795233e-05   -5.2701399761851384e-06   -2.6225741437708356e-05
6.170951312795233e-05   -5.2701399761851384e-06   -2.6225741437708356e-05
6.170951312795233e-05   -5.2701399761851384e-06   -2.6225741437708356e-05
6.170951312795233e-05   -5.2701399761851384e-06   -2.6225741437708356e-05
3.9626477783451044e-05   0.0   -6.0301644468492865e-05
3.9626477783451044e-05   0.0   -6.0301644468492865e-05
3.9626477783451044e-05   0.0   -6.0301644468492865e-05
3.9626477783451044e-05   0.0   -6.0301644468492865e-05
8.386046499695343e-05   -1.0007390116547317e-05   7.4172334840826135e-06
8.386046499695343e-05   -1.0007390116547317e-05   7.4172334840826135e-06
8.386046499695343e-05   -1.0007390116547317e-05   7.4172334840826135e-06
8.386046499695343e-05   -1.0007390116547317e-05   7.4172334840826135e-06
8.135285038237554e-05   0.0   -6.492751596793505e-05
8.135285038237554e-05   0.0   -6.492751596793505e-05
8.135285038237554e-05   0.0   -6.492751596793505e-05
8.135285038237554e-05   0.0   -6.492751596793505e-05
3.945467328914886e-05   -9.144955982345009e-06   1.0389752776849602e-05
3.945467328914886e-05   -9.144955982345009e-06   1.0389752776849602e-05
3.945467328914886e-05   -9.144955982345009e-06   1.0389752776849602e-05
3.945467328914886e-05   -9.144955982345009e-06   1.0389752776849602e-05
6.0489664082913276e-05   -3.854892916201787e-06   -2.7842603052443555e-05
6.0489664082913276e-05   -3.854892916201787e-06   -2.7842603052443555e-05
6.0489664082913276e-05   -3.854892916201787e-06   -2.7842603052443555e-05
6.0489664082913276e-05   -3.854892916201787e-06   -2.7842603052443555e-05
3.9454673289148926e-05   0.0   -5.9440542378528036e-05
3.9454673289148926e-05   0.0   -5.9440542378528036e-05
3.9454673289148926e-05   0.0   -5.9440542378528036e-05
3.9454673289148926e-05   0.0   -5.9440542378528036e-05
8.13528503823754e-05   -9.144955982345009e-06   4.90277918744261e-06
8.13528503823754e-05   -9.144955982345009e-06   4.90277918744261e-06
8.13528503823754e-05   -9.144955982345009e-06   4.90277918744261e-06
8.13528503823754e-05   -9.144955982345009e-06   4.90277918744261e-06
7.762117838159932e-05   0.0   -6.14003460126552e-05
7.762117838159932e-05   0.0   -6.14003460126552e-05
7.762117838159932e-05   0.0   -6.14003460126552e-05
7.762117838159932e-05   0.0   -6.14003460126552e-05
4.0216783342159424e-05   -7.109185809754033e-06   5.205823872263572e-06
4.0216783342159424e-05   -7.109185809754033e-06   5.205823872263572e-06
4.0216783342159424e-05   -7.109185809754033e-06   5.205823872263572e-06
4.0216783342159424e-05   -7.109185809754033e-06   5.205823872263572e-06
5.853792583537402e-05   -1.633169695105972e-06   -2.8615023285216233e-05
5.853792583537402e-05   -1.633169695105972e-06   -2.8615023285216233e-05
5.853792583537402e-05   -1.633169695105972e-06   -2.8615023285216233e-05
5.853792583537402e-05   -1.633169695105972e-06   -2.8615023285216233e-05
-8.732498610904173e-05   1.115032729409279e-05   -5.728523075408682e-05
-8.732498610904173e-05   1.115032729409279e-05   -5.728523075408682e-05
-8.732498610904173e-05   1.115032729409279e-05   -5.728523075408682e-05
-8.732498610904173e-05   1.115032729409279e-05   -5.728523075408682e-05
-5.592981583852216e-05   1.002805566860317e-05   -5.633309945181234e-06
-5.592981583852216e-05   1.002805566860317e-05   -5.633309945181234e-06
-5.592981583852216e-05   1.002805566860317e-05   -5.633309945181234e-06
-5.592981583852216e-05   1.002805566860317e-05   -5.633309945181234e-06
-5.733802157194074e-05   1.3379890609271019e-05   -4.810932599373096e-05
-5.733802157194074e-05   1.3379890609271019e-05   -4.810932599373096e-05
-5.733802157194074e-05   1.3379890609271019e-05   -4.810932599373096e-05
-5.733802157194074e-05   1.3379890609271019e-05   -4.810932599373096e-05
-8.827235720686344e-05   1.2035256989492596e-05   4.254680236340539e-06
-8.827235720686344e-05   1.2035256989492596e-05   4.254680236340539e-06
-8.827235720686344e-05   1.2035256989492596e-05   4.254680236340539e-06
-8.827235720686344e-05   1.2035256989492596e-05   4.254680236340539e-06
-6.935606293817871e-05   1.1646582634443299e-05   -2.7039272265104664e-05
-6.935606293817871e-05   1.1646582634443299e-05   -2.7039272265104664e-05
-6.935606293817871e-05   1.1646582634443299e-05   -2.7039272265104664e-05
-6.935606293817871e-05   1.1646582634443299e-05   -2.7039272265104664e-05
-8.827235720686345e-05   1.3379890609271019e-05   -4.7302545821863946e-05
-8.827235720686345e-05   1.3379890609271019e-05   -4.7302545821863946e-05
-8.827235720686345e-05   1.3379890609271019e-05   -4.7302545821863946e-05
-8.827235720686345e-05   1.3379890609271019e-05   -4.7302545821863946e-05
-5.733802157194094e-05   1.2035256989492704e-05   3.4479000644736997e-06
-5.733802157194094e-05   1.2035256989492704e-05   3.4479000644736997e-06
-5.733802157194094e-05   1.2035256989492704e-05   3.4479000644736997e-06
-5.733802157194094e-05   1.2035256989492704e-05   3.4479000644736997e-06
-5.763408526893155e-05   1.433424419916416e-05   -4.3252266559982446e-05
-5.763408526893155e-05   1.433424419916416e-05   -4.3252266559982446e-05
-5.763408526893155e-05   1.433424419916416e-05   -4.3252266559982446e-05
-5.763408526893155e-05   1.433424419916416e-05   -4.3252266559982446e-05
-8.88953733701593e-05   1.2941135353879889e-05   9.685745582567527e-06
-8.88953733701593e-05   1.2941135353879889e-05   9.685745582567527e-06
-8.88953733701593e-05   1.2941135353879889e-05   9.685745582567527e-06
-8.88953733701593e-05   1.2941135353879889e-05   9.685745582567527e-06
-7.139672849427037e-05   1.2908709167932093e-05   -1.945920683234527e-05
-7.139672849427037e-05   1.2908709167932093e-05   -1.945920683234527e-05
-7.139672849427037e-05   1.2908709167932093e-05   -1.945920683234527e-05
-7.139672849427037e-05   1.2908709167932093e-05   -1.945920683234527e-05
-8.889537337015915e-05   1.4334244199164166e-05   -4.2416401252811856e-05
-8.889537337015915e-05   1.4334244199164166e-05   -4.2416401252811856e-05
-8.889537337015915e-05   1.4334244199164166e-05   -4.2416401252811856e-05
-8.889537337015915e-05   1.4334244199164166e-05   -4.2416401252811856e-05
-5.7634085268931656e-05   1.2941135353879889e-05   8.849880275396828e-06
-5.7634085268931656e-05   1.2941135353879889e-05   8.849880275396828e-06
-5.7634085268931656e-05   1.2941135353879889e-05   8.849880275396828e-06
-5.7634085268931656e-05   1.2941135353879889e-05   8.849880275396828e-06
-5.7307845743702134e-05   1.632873015299248e-05   -3.195599738067584e-05
-5.7307845743702134e-05   1.632873015299248e-05   -3.195599738067584e-05
-5.7307845743702134e-05   1.632873015299248e-05   -3.195599738067584e-05
-5.7307845743702134e-05   1.632873015299248e-05   -3.195599738067584e-05
-8.643291993210273e-05   1.3661093701862069e-05   1.8186374804003106e-05
-8.643291993210273e-05   1.3661093701862069e-05   1.8186374804003106e-05
-8.643291993210273e-05   1.3661093701862069e-05   1.8186374804003106e-05
-8.643291993210273e-05   1.3661093701862069e-05   1.8186374804003106e-05
-6.954124708250149e-05   1.4158594640554769e-05   -1.0264913841881218e-05
-6.954124708250149e-05   1.4158594640554769e-05   -1.0264913841881218e-05
-6.954124708250149e-05   1.4158594640554769e-05   -1.0264913841881218e-05
-6.954124708250149e-05   1.4158594640554769e-05   -1.0264913841881218e-05
-5.592981583852216e-05   4.089934337523378e-06   -6.0826974326074875e-05
-5.592981583852216e-05   4.089934337523378e-06   -6.0826974326074875e-05
-5.592981583852216e-05   4.089934337523378e-06   -6.0826974326074875e-05
-5.592981583852216e-05   4.089934337523378e-06   -6.0826974326074875e-05
-2.6500709736983963e-05   4.666184983907274e-06   -1.143271376901413e-05
-2.6500709736983963e-05   4.666184983907274e-06   -1.143271376901413e-05
-2.6500709736983963e-05   4.666184983907274e-06   -1.143271376901413e-05
-2.6500709736983963e-05   4.666184983907274e-06   -1.143271376901413e-05
-2.7134914587118053e-05   5.822060736336817e-06   -6.073548489428989e-05
-2.7134914587118053e-05   5.822060736336817e-06   -6.073548489428989e-05
-2.7134914587118053e-05   5.822060736336817e-06   -6.073548489428989e-05
-2.7134914587118053e-05   5.822060736336817e-06   -6.073548489428989e-05
-5.733802157194074e-05   6.511953172149559e-06   -1.0810908714406145e-05
-5.733802157194074e-05   6.511953172149559e-06   -1.0810908714406145e-05
-5.733802157194074e-05   6.511953172149559e-06   -1.0810908714406145e-05
-5.733802157194074e-05   6.511953172149559e-06   -1.0810908714406145e-05
-4.160843844011313e-05   5.243553250342637e-06   -3.626584064770155e-05
-4.160843844011313e-05   5.243553250342637e-06   -3.626584064770155e-05
-4.160843844011313e-05   5.243553250342637e-06   -3.626584064770155e-05
-4.160843844011313e-05   5.243553250342637e-06   -3.626584064770155e-05
-5.7338021571940684e-05   5.822060736336816e-06   -6.114942035577732e-05
-5.7338021571940684e-05   5.822060736336816e-06   -6.114942035577732e-05
-5.7338021571940684e-05   5.822060736336816e-06   -6.114942035577732e-05
-5.7338021571940684e-05   5.822060736336816e-06   -6.114942035577732e-05
-2.7134914587118006e-05   6.511953172149559e-06   -1.0396973252918419e-05
-2.7134914587118006e-05   6.511953172149559e-06   -1.0396973252918419e-05
-2.7134914587118006e-05   6.511953172149559e-06   -1.0396973252918419e-05
-2.7134914587118006e-05   6.511953172149559e-06   -1.0396973252918419e-05
-2.733531624852709e-05   7.133682132772482e-06   -5.959885241004929e-05
-2.733531624852709e-05   7.133682132772482e-06   -5.959885241004929e-05
-2.733531624852709e-05   7.133682132772482e-06   -5.959885241004929e-05
-2.733531624852709e-05   7.133682132772482e-06   -5.959885241004929e-05
-5.763408526893155e-05   8.039661354547728e-06   -9.644491575773473e-06
-5.763408526893155e-05   8.039661354547728e-06   -9.644491575773473e-06
-5.763408526893155e-05   8.039661354547728e-06   -9.644491575773473e-06
-5.763408526893155e-05   8.039661354547728e-06   -9.644491575773473e-06
-4.1935199872932316e-05   6.654819619045899e-06   -3.497839552780443e-05
-4.1935199872932316e-05   6.654819619045899e-06   -3.497839552780443e-05
-4.1935199872932316e-05   6.654819619045899e-06   -3.497839552780443e-05
-4.1935199872932316e-05   6.654819619045899e-06   -3.497839552780443e-05
-5.763408526893155e-05   7.133682132772479e-06   -6.0142439943114336e-05
-5.763408526893155e-05   7.133682132772479e-06   -6.0142439943114336e-05
-5.763408526893155e-05   7.133682132772479e-06   -6.0142439943114336e-05
-5.763408526893155e-05   7.133682132772479e-06   -6.0142439943114336e-05
-2.7335316248527137e-05   8.039661354547728e-06   -9.100904042708432e-06
-2.7335316248527137e-05   8.039661354547728e-06   -9.100904042708432e-06
-2.7335316248527137e-05   8.039661354547728e-06   -9.100904042708432e-06
-2.7335316248527137e-05   8.039661354547728e-06   -9.100904042708432e-06
-2.727018124915481e-05   8.300527944879585e-06   -5.898947838046313e-05
-2.727018124915481e-05   8.300527944879585e-06   -5.898947838046313e-05
-2.727018124915481e-05   8.300527944879585e-06   -5.898947838046313e-05
-2.727018124915481e-05   8.300527944879585e-06   -5.898947838046313e-05
-5.730784574370209e-05   9.68333239079308e-06   -9.756386890432268e-06
-5.730784574370209e-05   9.68333239079308e-06   -9.756386890432268e-06
-5.730784574370209e-05   9.68333239079308e-06   -9.756386890432268e-06
-5.730784574370209e-05   9.68333239079308e-06   -9.756386890432268e-06
-4.218366786987497e-05   7.932169148901393e-06   -3.391265206834264e-05
-4.218366786987497e-05   7.932169148901393e-06   -3.391265206834264e-05
-4.218366786987497e-05   7.932169148901393e-06   -3.391265206834264e-05
-4.218366786987497e-05   7.932169148901393e-06   -3.391265206834264e-05
-2.650070973698392e-05   -5.236549873281597e-07   -6.368696929945892e-05
-2.650070973698392e-05   -5.236549873281597e-07   -6.368696929945892e-05
-2.650070973698392e-05   -5.236549873281597e-07   -6.368696929945892e-05
-2.650070973698392e-05   -5.236549873281597e-07   -6.368696929945892e-05
2.557349156721326e-06   -1.3878206930889462e-07   -1.5025947392471913e-05
2.557349156721326e-06   -1.3878206930889462e-07   -1.5025947392471913e-05
2.557349156721326e-06   -1.3878206930889462e-07   -1.5025947392471913e-05
2.557349156721326e-06   -1.3878206930889462e-07   -1.5025947392471913e-05
2.4363188356308444e-06   1.0320253848296546e-06   -6.404183181571863e-05
2.4363188356308444e-06   1.0320253848296546e-06   -6.404183181571863e-05
2.4363188356308444e-06   1.0320253848296546e-06   -6.404183181571863e-05
2.4363188356308444e-06   1.0320253848296546e-06   -6.404183181571863e-05
-2.7134914587118002e-05   1.5617860466267896e-06   -1.5074299174882145e-05
-2.7134914587118002e-05   1.5617860466267896e-06   -1.5074299174882145e-05
-2.7134914587118002e-05   1.5617860466267896e-06   -1.5074299174882145e-05
-2.7134914587118002e-05   1.5617860466267896e-06   -1.5074299174882145e-05
-1.2233806065157348e-05   5.184959198698913e-07   -3.928350596876245e-05
-1.2233806065157348e-05   5.184959198698913e-07   -3.928350596876245e-05
-1.2233806065157348e-05   5.184959198698913e-07   -3.928350596876245e-05
-1.2233806065157348e-05   5.184959198698913e-07   -3.928350596876245e-05
-2.7134914587118006e-05   1.0320253848296527e-06   -6.435968821279694e-05
-2.7134914587118006e-05   1.0320253848296527e-06   -6.435968821279694e-05
-2.7134914587118006e-05   1.0320253848296527e-06   -6.435968821279694e-05
-2.7134914587118006e-05   1.0320253848296527e-06   -6.435968821279694e-05
2.4363188356308486e-06   1.5617860466267896e-06   -1.4756442777803794e-05
2.4363188356308486e-06   1.5617860466267896e-06   -1.4756442777803794e-05
2.4363188356308486e-06   1.5617860466267896e-06   -1.4756442777803794e-05
2.4363188356308486e-06   1.5617860466267896e-06   -1.4756442777803794e-05
2.2719870463952174e-06   2.4017423262148675e-06   -6.417584279455279e-05
2.2719870463952174e-06   2.4017423262148675e-06   -6.417584279455279e-05
2.2719870463952174e-06   2.4017423262148675e-06   -6.417584279455279e-05
2.2719870463952174e-06   2.4017423262148675e-06   -6.417584279455279e-05
-2.7335316248527042e-05   3.2233341962913608e-06   -1.5323292425061544e-05
-2.7335316248527042e-05   3.2233341962913608e-06   -1.5323292425061544e-05
-2.7335316248527042e-05   3.2233341962913608e-06   -1.5323292425061544e-05
-2.7335316248527042e-05   3.2233341962913608e-06   -1.5323292425061544e-05
-1.2463717389472492e-05   1.95968175714542e-06   -3.935109905999829e-05
-1.2463717389472492e-05   1.95968175714542e-06   -3.935109905999829e-05
-1.2463717389472492e-05   1.95968175714542e-06   -3.935109905999829e-05
-1.2463717389472492e-05   1.95968175714542e-06   -3.935109905999829e-05
-2.7335316248527042e-05   2.4017423262148662e-06   -6.466879791659866e-05
-2.7335316248527042e-05   2.4017423262148662e-06   -6.466879791659866e-05
-2.7335316248527042e-05   2.4017423262148662e-06   -6.466879791659866e-05
-2.7335316248527042e-05   2.4017423262148662e-06   -6.466879791659866e-05
2.2719870463952174e-06   3.2233341962913608e-06   -1.4830337303015751e-05
2.2719870463952174e-06   3.2233341962913608e-06   -1.4830337303015751e-05
2.2719870463952174e-06   3.2233341962913608e-06   -1.4830337303015751e-05
2.2719870463952174e-06   3.2233341962913608e-06   -1.4830337303015751e-05
1.94263834240307e-06   3.988309806553421e-06   -6.406536440568788e-05
1.94263834240307e-06   3.988309806553421e-06   -6.406536440568788e-05
1.94263834240307e-06   3.988309806553421e-06   -6.406536440568788e-05
1.94263834240307e-06   3.988309806553421e-06   -6.406536440568788e-05
-2.7270181249154785e-05   4.954544814086742e-06   -1.5957072757611523e-05
-2.7270181249154785e-05   4.954544814086742e-06   -1.5957072757611523e-05
-2.7270181249154785e-05   4.954544814086742e-06   -1.5957072757611523e-05
-2.7270181249154785e-05   4.954544814086742e-06   -1.5957072757611523e-05
-1.2603578020852339e-05   3.440218069338582e-06   -3.949281542459996e-05
-1.2603578020852339e-05   3.440218069338582e-06   -3.949281542459996e-05
-1.2603578020852339e-05   3.440218069338582e-06   -3.949281542459996e-05
-1.2603578020852339e-05   3.440218069338582e-06   -3.949281542459996e-05
2.557349156721326e-06   -4.639807544520078e-06   -5.876331104075685e-05
2.557349156721326e-06   -4.639807544520078e-06   -5.876331104075685e-05
2.557349156721326e-06   -4.639807544520078e-06   -5.876331104075685e-05
2.557349156721326e-06   -4.639807544520078e-06   -5.876331104075685e-05
3.250217408887344e-05   -4.770261890123164e-06   -8.933542094531838e-06
3.250217408887344e-05   -4.770261890123164e-06   -8.933542094531838e-06
3.250217408887344e-05   -4.770261890123164e-06   -8.933542094531838e-06
3.250217408887344e-05   -4.770261890123164e-06   -8.933542094531838e-06
3.276681397255418e-05   -3.4982094311905695e-06   -5.958293807848381e-05
3.276681397255418e-05   -3.4982094311905695e-06   -5.958293807848381e-05
3.276681397255418e-05   -3.4982094311905695e-06   -5.958293807848381e-05
3.276681397255418e-05   -3.4982094311905695e-06   -5.958293807848381e-05
2.4363188356308486e-06   -3.2252410716421785e-06   -9.195893866007277e-06
2.4363188356308486e-06   -3.2252410716421785e-06   -9.195893866007277e-06
2.4363188356308486e-06   -3.2252410716421785e-06   -9.195893866007277e-06
2.4363188356308486e-06   -3.2252410716421785e-06   -9.195893866007277e-06
1.7341184414241523e-05   -3.8606500459715935e-06   -3.365609111242741e-05
1.7341184414241523e-05   -3.8606500459715935e-06   -3.365609111242741e-05
1.7341184414241523e-05   -3.8606500459715935e-06   -3.365609111242741e-05
1.7341184414241523e-05   -3.8606500459715935e-06   -3.365609111242741e-05
2.4363188356308444e-06   -3.4982094311905716e-06   -5.974671909421286e-05
2.4363188356308444e-06   -3.4982094311905716e-06   -5.974671909421286e-05
2.4363188356308444e-06   -3.4982094311905716e-06   -5.974671909421286e-05
2.4363188356308444e-06   -3.4982094311905716e-06   -5.974671909421286e-05
3.276681397255418e-05   -3.2252410716421243e-06   -9.032112850278077e-06
3.276681397255418e-05   -3.2252410716421243e-06   -9.032112850278077e-06
3.276681397255418e-05   -3.2252410716421243e-06   -9.032112850278077e-06
3.276681397255418e-05   -3.2252410716421243e-06   -9.032112850278077e-06
3.260296748787303e-05   -2.2016333898927144e-06   -6.069888834411465e-05
3.260296748787303e-05   -2.2016333898927144e-06   -6.069888834411465e-05
3.260296748787303e-05   -2.2016333898927144e-06   -6.069888834411465e-05
3.260296748787303e-05   -2.2016333898927144e-06   -6.069888834411465e-05
2.2719870463952174e-06   -1.7117459099909977e-06   -1.0441186762925995e-05
2.2719870463952174e-06   -1.7117459099909977e-06   -1.0441186762925995e-05
2.2719870463952174e-06   -1.7117459099909977e-06   -1.0441186762925995e-05
2.2719870463952174e-06   -1.7117459099909977e-06   -1.0441186762925995e-05
1.7153762314938282e-05   -2.627060099866192e-06   -3.4694957029905957e-05
1.7153762314938282e-05   -2.627060099866192e-06   -3.4694957029905957e-05
1.7153762314938282e-05   -2.627060099866192e-06   -3.4694957029905957e-05
1.7153762314938282e-05   -2.627060099866192e-06   -3.4694957029905957e-05
2.2719870463952174e-06   -2.2016333898926996e-06   -6.099282083205561e-05
2.2719870463952174e-06   -2.2016333898926996e-06   -6.099282083205561e-05
2.2719870463952174e-06   -2.2016333898926996e-06   -6.099282083205561e-05
2.2719870463952174e-06   -2.2016333898926996e-06   -6.099282083205561e-05
3.260296748787303e-05   -1.7117459099909435e-06   -1.014725427498503e-05
3.260296748787303e-05   -1.7117459099909435e-06   -1.014725427498503e-05
3.260296748787303e-05   -1.7117459099909435e-06   -1.014725427498503e-05
3.260296748787303e-05   -1.7117459099909435e-06   -1.014725427498503e-05
3.164810136051783e-05   -4.5919732795168464e-07   -6.080614418271468e-05
3.164810136051783e-05   -4.5919732795168464e-07   -6.080614418271468e-05
3.164810136051783e-05   -4.5919732795168464e-07   -6.080614418271468e-05
3.164810136051783e-05   -4.5919732795168464e-07   -6.080614418271468e-05
1.9426383424030706e-06   1.603498551653172e-07   -1.1668767462393669e-05
1.9426383424030706e-06   1.603498551653172e-07   -1.1668767462393669e-05
1.9426383424030706e-06   1.603498551653172e-07   -1.1668767462393669e-05
1.9426383424030706e-06   1.603498551653172e-07   -1.1668767462393669e-05
1.696414612084795e-05   -1.186245699447521e-06   -3.5896656427034064e-05
1.696414612084795e-05   -1.186245699447521e-06   -3.5896656427034064e-05
1.696414612084795e-05   -1.186245699447521e-06   -3.5896656427034064e-05
1.696414612084795e-05   -1.186245699447521e-06   -3.5896656427034064e-05
3.250217408887344e-05   -1.17602591475727e-05   -3.5557663893391744e-05
3.250217408887344e-05   -1.17602591475727e-05   -3.5557663893391744e-05
3.250217408887344e-05   -1.17602591475727e-05   -3.5557663893391744e-05
3.250217408887344e-05   -1.17602591475727e-05   -3.5557663893391744e-05
6.205889136144401e-05   -8.867058020845854e-06   1.5439452236928745e-05
6.205889136144401e-05   -8.867058020845854e-06   1.5439452236928745e-05
6.205889136144401e-05   -8.867058020845854e-06   1.5439452236928745e-05
6.205889136144401e-05   -8.867058020845854e-06   1.5439452236928745e-05
6.441408385189278e-05   -1.0007390116547303e-05   -4.322477657726039e-05
6.441408385189278e-05   -1.0007390116547303e-05   -4.322477657726039e-05
6.441408385189278e-05   -1.0007390116547303e-05   -4.322477657726039e-05
6.441408385189278e-05   -1.0007390116547303e-05   -4.322477657726039e-05
3.276681397255424e-05   -8.044945861602549e-06   8.343206668670402e-06
3.276681397255424e-05   -8.044945861602549e-06   8.343206668670402e-06
3.276681397255424e-05   -8.044945861602549e-06   8.343206668670402e-06
3.276681397255424e-05   -8.044945861602549e-06   8.343206668670402e-06
4.57062643780458e-05   -9.629016889902331e-06   -1.2272101390169068e-05
4.57062643780458e-05   -9.629016889902331e-06   -1.2272101390169068e-05
4.57062643780458e-05   -9.629016889902331e-06   -1.2272101390169068e-05
4.57062643780458e-05   -9.629016889902331e-06   -1.2272101390169068e-05
3.276681397255416e-05   -1.0007390116547284e-05   -4.4402243130227064e-05
3.276681397255416e-05   -1.0007390116547284e-05   -4.4402243130227064e-05
3.276681397255416e-05   -1.0007390116547284e-05   -4.4402243130227064e-05
3.276681397255416e-05   -1.0007390116547284e-05   -4.4402243130227064e-05
6.441408385189267e-05   -8.044945861602603e-06   9.520673221637295e-06
6.441408385189267e-05   -8.044945861602603e-06   9.520673221637295e-06
6.441408385189267e-05   -8.044945861602603e-06   9.520673221637295e-06
6.441408385189267e-05   -8.044945861602603e-06   9.520673221637295e-06
6.416871754747253e-05   -9.144955982344995e-06   -4.700900214337579e-05
6.416871754747253e-05   -9.144955982344995e-06   -4.700900214337579e-05
6.416871754747253e-05   -9.144955982344995e-06   -4.700900214337579e-05
6.416871754747253e-05   -9.144955982344995e-06   -4.700900214337579e-05
3.260296748787303e-05   -7.173947154184748e-06   4.417975992394022e-06
3.260296748787303e-05   -7.173947154184748e-06   4.417975992394022e-06
3.260296748787303e-05   -7.173947154184748e-06   4.417975992394022e-06
3.260296748787303e-05   -7.173947154184748e-06   4.417975992394022e-06
4.7299860699875516e-05   -8.504291504464771e-06   -1.9278639417442104e-05
4.7299860699875516e-05   -8.504291504464771e-06   -1.9278639417442104e-05
4.7299860699875516e-05   -8.504291504464771e-06   -1.9278639417442104e-05
4.7299860699875516e-05   -8.504291504464771e-06   -1.9278639417442104e-05
3.2602967487872976e-05   -9.144955982345e-06   -4.819160744027195e-05
3.2602967487872976e-05   -9.144955982345e-06   -4.819160744027195e-05
3.2602967487872976e-05   -9.144955982345e-06   -4.819160744027195e-05
3.2602967487872976e-05   -9.144955982345e-06   -4.819160744027195e-05
6.416871754747253e-05   -7.173947154184748e-06   5.600581289290059e-06
6.416871754747253e-05   -7.173947154184748e-06   5.600581289290059e-06
6.416871754747253e-05   -7.173947154184748e-06   5.600581289290059e-06
6.416871754747253e-05   -7.173947154184748e-06   5.600581289290059e-06
6.377572157767178e-05   -7.109185809754047e-06   -5.4716374620663317e-05
6.377572157767178e-05   -7.109185809754047e-06   -5.4716374620663317e-05
6.377572157767178e-05   -7.109185809754047e-06   -5.4716374620663317e-05
6.377572157767178e-05   -7.109185809754047e-06   -5.4716374620663317e-05
3.164810136051786e-05   -5.299521688934949e-06   -2.2561393978981048e-06
3.164810136051786e-05   -5.299521688934949e-06   -2.2561393978981048e-06
3.164810136051786e-05   -5.299521688934949e-06   -2.2561393978981048e-06
3.164810136051786e-05   -5.299521688934949e-06   -2.2561393978981048e-06
4.594245350587909e-05   -7.323012916116172e-06   -2.4865964903858094e-05
4.594245350587909e-05   -7.323012916116172e-06   -2.4865964903858094e-05
4.594245350587909e-05   -7.323012916116172e-06   -2.4865964903858094e-05
4.594245350587909e-05   -7.323012916116172e-06   -2.4865964903858094e-05
-6.957255501999777e-05   1.0028055668603185e-05   -4.8013786074845043e-05
-6.957255501999777e-05   1.0028055668603185e-05   -4.8013786074845043e-05
-6.957255501999777e-05   1.0028055668603185e-05   -4.8013786074845043e-05
-6.957255501999777e-05   1.0028055668603185e-05   -4.8013786074845043e-05
-4.5608681216068785e-05   7.663326988746285e-06   -9.492833609544264e-06
-4.5608681216068785e-05   7.663326988746285e-06   -9.492833609544264e-06
-4.5608681216068785e-05   7.663326988746285e-06   -9.492833609544264e-06
-4.5608681216068785e-05   7.663326988746285e-06   -9.492833609544264e-06
-4.582996411908197e-05   1.203525698949265e-05   -3.9865509207331505e-05
-4.582996411908197e-05   1.203525698949265e-05   -3.9865509207331505e-05
-4.582996411908197e-05   1.203525698949265e-05   -3.9865509207331505e-05
-4.582996411908197e-05   1.203525698949265e-05   -3.9865509207331505e-05
-6.85206686465495e-05   9.269952634665389e-06   -3.884857153227091e-07
-6.85206686465495e-05   9.269952634665389e-06   -3.884857153227091e-07
-6.85206686465495e-05   9.269952634665389e-06   -3.884857153227091e-07
-6.85206686465495e-05   9.269952634665389e-06   -3.884857153227091e-07
-5.4956235985025744e-05   1.0196821539436329e-05   -2.3551994827391708e-05
-5.4956235985025744e-05   1.0196821539436329e-05   -2.3551994827391708e-05
-5.4956235985025744e-05   1.0196821539436329e-05   -2.3551994827391708e-05
-5.4956235985025744e-05   1.0196821539436329e-05   -2.3551994827391708e-05
-6.852066864654951e-05   1.2035256989492669e-05   -3.820632659443522e-05
-6.852066864654951e-05   1.2035256989492669e-05   -3.820632659443522e-05
-6.852066864654951e-05   1.2035256989492669e-05   -3.820632659443522e-05
-6.852066864654951e-05   1.2035256989492669e-05   -3.820632659443522e-05
-4.582996411908197e-05   9.269952634665389e-06   -2.0476683282189955e-06
-4.582996411908197e-05   9.269952634665389e-06   -2.0476683282189955e-06
-4.582996411908197e-05   9.269952634665389e-06   -2.0476683282189955e-06
-4.582996411908197e-05   9.269952634665389e-06   -2.0476683282189955e-06
-4.578438040646526e-05   1.2941135353879889e-05   -3.410509023492824e-05
-4.578438040646526e-05   1.2941135353879889e-05   -3.410509023492824e-05
-4.578438040646526e-05   1.2941135353879889e-05   -3.410509023492824e-05
-4.578438040646526e-05   1.2941135353879889e-05   -3.410509023492824e-05
-6.749492512308667e-05   9.97575785912253e-06   3.858377456295253e-06
-6.749492512308667e-05   9.97575785912253e-06   3.858377456295253e-06
-6.749492512308667e-05   9.97575785912253e-06   3.858377456295253e-06
-6.749492512308667e-05   9.97575785912253e-06   3.858377456295253e-06
-5.543255554972766e-05   1.11282015357763e-05   -1.6937038038628688e-05
-5.543255554972766e-05   1.11282015357763e-05   -1.6937038038628688e-05
-5.543255554972766e-05   1.11282015357763e-05   -1.6937038038628688e-05
-5.543255554972766e-05   1.11282015357763e-05   -1.6937038038628688e-05
-6.749492512308667e-05   1.2941135353879913e-05   -3.232586373807378e-05
-6.749492512308667e-05   1.2941135353879913e-05   -3.232586373807378e-05
-6.749492512308667e-05   1.2941135353879913e-05   -3.232586373807378e-05
-6.749492512308667e-05   1.2941135353879913e-05   -3.232586373807378e-05
-4.5784380406465355e-05   9.975757859122638e-06   2.07915095944116e-06
-4.5784380406465355e-05   9.975757859122638e-06   2.07915095944116e-06
-4.5784380406465355e-05   9.975757859122638e-06   2.07915095944116e-06
-4.5784380406465355e-05   9.975757859122638e-06   2.07915095944116e-06
-4.5831665550788976e-05   1.3661093701862069e-05   -2.6037955884343272e-05
-4.5831665550788976e-05   1.3661093701862069e-05   -2.6037955884343272e-05
-4.5831665550788976e-05   1.3661093701862069e-05   -2.6037955884343272e-05
-4.5831665550788976e-05   1.3661093701862069e-05   -2.6037955884343272e-05
-6.615489951096637e-05   1.067022751878512e-05   9.628620425798325e-06
-6.615489951096637e-05   1.067022751878512e-05   9.628620425798325e-06
-6.615489951096637e-05   1.067022751878512e-05   9.628620425798325e-06
-6.615489951096637e-05   1.067022751878512e-05   9.628620425798325e-06
-5.417103981892213e-05   1.1618105744825354e-05   -1.0913205996565436e-05
-5.417103981892213e-05   1.1618105744825354e-05   -1.0913205996565436e-05
-5.417103981892213e-05   1.1618105744825354e-05   -1.0913205996565436e-05
-5.417103981892213e-05   1.1618105744825354e-05   -1.0913205996565436e-05
-4.5608681216068785e-05   4.666184983907302e-06   -5.55777774944224e-05
-4.5608681216068785e-05   4.666184983907302e-06   -5.55777774944224e-05
-4.5608681216068785e-05   4.666184983907302e-06   -5.55777774944224e-05
-4.5608681216068785e-05   4.666184983907302e-06   -5.55777774944224e-05
-2.3210481427372614e-05   3.820840633134148e-06   -1.875465112372602e-05
-2.3210481427372614e-05   3.820840633134148e-06   -1.875465112372602e-05
-2.3210481427372614e-05   3.820840633134148e-06   -1.875465112372602e-05
-2.3210481427372614e-05   3.820840633134148e-06   -1.875465112372602e-05
-2.3493102534941658e-05   6.511953172149559e-06   -5.4790965521241066e-05
-2.3493102534941658e-05   6.511953172149559e-06   -5.4790965521241066e-05
-2.3493102534941658e-05   6.511953172149559e-06   -5.4790965521241066e-05
-2.3493102534941658e-05   6.511953172149559e-06   -5.4790965521241066e-05
-4.5829964119081985e-05   5.400873947099933e-06   -1.6896215345977455e-05
-4.5829964119081985e-05   5.400873947099933e-06   -1.6896215345977455e-05
-4.5829964119081985e-05   5.400873947099933e-06   -1.6896215345977455e-05
-4.5829964119081985e-05   5.400873947099933e-06   -1.6896215345977455e-05
-3.423996466115596e-05   5.381059015820491e-06   -3.62009921504198e-05
-3.423996466115596e-05   5.381059015820491e-06   -3.62009921504198e-05
-3.423996466115596e-05   5.381059015820491e-06   -3.62009921504198e-05
-3.423996466115596e-05   5.381059015820491e-06   -3.62009921504198e-05
-4.582996411908193e-05   6.511953172149575e-06   -5.412431798621116e-05
-4.582996411908193e-05   6.511953172149575e-06   -5.412431798621116e-05
-4.582996411908193e-05   6.511953172149575e-06   -5.412431798621116e-05
-4.582996411908193e-05   6.511953172149575e-06   -5.412431798621116e-05
-2.34931025349417e-05   5.400873947099933e-06   -1.7562862881007212e-05
-2.34931025349417e-05   5.400873947099933e-06   -1.7562862881007212e-05
-2.34931025349417e-05   5.400873947099933e-06   -1.7562862881007212e-05
-2.34931025349417e-05   5.400873947099933e-06   -1.7562862881007212e-05
-2.3676622441328374e-05   8.039661354547728e-06   -5.3340555729598435e-05
-2.3676622441328374e-05   8.039661354547728e-06   -5.3340555729598435e-05
-2.3676622441328374e-05   8.039661354547728e-06   -5.3340555729598435e-05
-2.3676622441328374e-05   8.039661354547728e-06   -5.3340555729598435e-05
-4.578438040646527e-05   6.804505282047876e-06   -1.575319881087035e-05
-4.578438040646527e-05   6.804505282047876e-06   -1.575319881087035e-05
-4.578438040646527e-05   6.804505282047876e-06   -1.575319881087035e-05
-4.578438040646527e-05   6.804505282047876e-06   -1.575319881087035e-05
-3.430399322511263e-05   6.680886768602352e-06   -3.4813006338390635e-05
-3.430399322511263e-05   6.680886768602352e-06   -3.4813006338390635e-05
-3.430399322511263e-05   6.680886768602352e-06   -3.4813006338390635e-05
-3.430399322511263e-05   6.680886768602352e-06   -3.4813006338390635e-05
-4.578438040646526e-05   8.03966135454773e-06   -5.259946208609854e-05
-4.578438040646526e-05   8.03966135454773e-06   -5.259946208609854e-05
-4.578438040646526e-05   8.03966135454773e-06   -5.259946208609854e-05
-4.578438040646526e-05   8.03966135454773e-06   -5.259946208609854e-05
-2.3676622441328414e-05   6.804505282047876e-06   -1.649429245437005e-05
-2.3676622441328414e-05   6.804505282047876e-06   -1.649429245437005e-05
-2.3676622441328414e-05   6.804505282047876e-06   -1.649429245437005e-05
-2.3676622441328414e-05   6.804505282047876e-06   -1.649429245437005e-05
-2.391383070270584e-05   9.68333239079308e-06   -5.321162512418441e-05
-2.391383070270584e-05   9.68333239079308e-06   -5.321162512418441e-05
-2.391383070270584e-05   9.68333239079308e-06   -5.321162512418441e-05
-2.391383070270584e-05   9.68333239079308e-06   -5.321162512418441e-05
-4.5831665550788955e-05   8.297516697319796e-06   -1.5850410961295355e-05
-4.5831665550788955e-05   8.297516697319796e-06   -1.5850410961295355e-05
-4.5831665550788955e-05   8.297516697319796e-06   -1.5850410961295355e-05
-4.5831665550788955e-05   8.297516697319796e-06   -1.5850410961295355e-05
-3.471119242834586e-05   7.968268990266763e-06   -3.4186984207801454e-05
-3.471119242834586e-05   7.968268990266763e-06   -3.4186984207801454e-05
-3.471119242834586e-05   7.968268990266763e-06   -3.4186984207801454e-05
-3.471119242834586e-05   7.968268990266763e-06   -3.4186984207801454e-05
-2.321048142737258e-05   -1.3878206930892413e-07   -5.9909141479155673e-05
-2.321048142737258e-05   -1.3878206930892413e-07   -5.9909141479155673e-05
-2.321048142737258e-05   -1.3878206930892413e-07   -5.9909141479155673e-05
-2.321048142737258e-05   -1.3878206930892413e-07   -5.9909141479155673e-05
-1.0636091957097821e-06   2.0335722828335612e-07   -2.2792404181162302e-05
-1.0636091957097821e-06   2.0335722828335612e-07   -2.2792404181162302e-05
-1.0636091957097821e-06   2.0335722828335612e-07   -2.2792404181162302e-05
-1.0636091957097821e-06   2.0335722828335612e-07   -2.2792404181162302e-05
-1.2904650669424765e-06   1.5617860466267896e-06   -5.935021282803591e-05
-1.2904650669424765e-06   1.5617860466267896e-06   -5.935021282803591e-05
-1.2904650669424765e-06   1.5617860466267896e-06   -5.935021282803591e-05
-1.2904650669424765e-06   1.5617860466267896e-06   -5.935021282803591e-05
-2.3493102534941617e-05   1.7585837385747632e-06   -2.2463895663206028e-05
-2.3493102534941617e-05   1.7585837385747632e-06   -2.2463895663206028e-05
-2.3493102534941617e-05   1.7585837385747632e-06   -2.2463895663206028e-05
-2.3493102534941617e-05   1.7585837385747632e-06   -2.2463895663206028e-05
-1.2195496597116533e-05   1.0245629478115447e-06   -4.085282641845664e-05
-1.2195496597116533e-05   1.0245629478115447e-06   -4.085282641845664e-05
-1.2195496597116533e-05   1.0245629478115447e-06   -4.085282641845664e-05
-1.2195496597116533e-05   1.0245629478115447e-06   -4.085282641845664e-05
-2.3493102534941658e-05   1.5617860466268004e-06   -5.946829144320466e-05
-2.3493102534941658e-05   1.5617860466268004e-06   -5.946829144320466e-05
-2.3493102534941658e-05   1.5617860466268004e-06   -5.946829144320466e-05
-2.3493102534941658e-05   1.5617860466268004e-06   -5.946829144320466e-05
-1.2904650669424765e-06   1.7585837385747632e-06   -2.2345817048037222e-05
-1.2904650669424765e-06   1.7585837385747632e-06   -2.2345817048037222e-05
-1.2904650669424765e-06   1.7585837385747632e-06   -2.2345817048037222e-05
-1.2904650669424765e-06   1.7585837385747632e-06   -2.2345817048037222e-05
-1.4546357141514666e-06   3.2233341962913608e-06   -5.95114447355464e-05
-1.4546357141514666e-06   3.2233341962913608e-06   -5.95114447355464e-05
-1.4546357141514666e-06   3.2233341962913608e-06   -5.95114447355464e-05
-1.4546357141514666e-06   3.2233341962913608e-06   -5.95114447355464e-05
-2.3676622441328377e-05   3.3091664903002298e-06   -2.2526299566656834e-05
-2.3676622441328377e-05   3.3091664903002298e-06   -2.2526299566656834e-05
-2.3676622441328377e-05   3.3091664903002298e-06   -2.2526299566656834e-05
-2.3676622441328377e-05   3.3091664903002298e-06   -2.2526299566656834e-05
-1.2488087807570935e-05   2.396095386242032e-06   -4.062601462715101e-05
-1.2488087807570935e-05   2.396095386242032e-06   -4.062601462715101e-05
-1.2488087807570935e-05   2.396095386242032e-06   -4.062601462715101e-05
-1.2488087807570935e-05   2.396095386242032e-06   -4.062601462715101e-05
-2.3676622441328374e-05   3.2233341962913574e-06   -5.956294411195171e-05
-2.3676622441328374e-05   3.2233341962913574e-06   -5.956294411195171e-05
-2.3676622441328374e-05   3.2233341962913574e-06   -5.956294411195171e-05
-2.3676622441328374e-05   3.2233341962913574e-06   -5.956294411195171e-05
-1.4546357141514666e-06   3.3091664903001214e-06   -2.24748001902513e-05
-1.4546357141514666e-06   3.3091664903001214e-06   -2.24748001902513e-05
-1.4546357141514666e-06   3.3091664903001214e-06   -2.24748001902513e-05
-1.4546357141514666e-06   3.3091664903001214e-06   -2.24748001902513e-05
-1.7121746819524312e-06   4.954544814086796e-06   -6.0277237709922566e-05
-1.7121746819524312e-06   4.954544814086796e-06   -6.0277237709922566e-05
-1.7121746819524312e-06   4.954544814086796e-06   -6.0277237709922566e-05
-1.7121746819524312e-06   4.954544814086796e-06   -6.0277237709922566e-05
-2.3913830702705865e-05   4.895804729068741e-06   -2.323923362432289e-05
-2.3913830702705865e-05   4.895804729068741e-06   -2.323923362432289e-05
-2.3913830702705865e-05   4.895804729068741e-06   -2.323923362432289e-05
-2.3913830702705865e-05   4.895804729068741e-06   -2.323923362432289e-05
-1.2798879481112959e-05   3.783919616526417e-06   -4.109702125945183e-05
-1.2798879481112959e-05   3.783919616526417e-06   -4.109702125945183e-05
-1.2798879481112959e-05   3.783919616526417e-06   -4.109702125945183e-05
-1.2798879481112959e-05   3.783919616526417e-06   -4.109702125945183e-05
-1.0636091957097838e-06   -4.7702618901231666e-06   -5.353317999529832e-05
-1.0636091957097838e-06   -4.7702618901231666e-06   -5.353317999529832e-05
-1.0636091957097838e-06   -4.7702618901231666e-06   -5.353317999529832e-05
-1.0636091957097838e-06   -4.7702618901231666e-06   -5.353317999529832e-05
2.097237058949521e-05   -3.199112201533825e-06   -1.5863857206803173e-05
2.097237058949521e-05   -3.199112201533825e-06   -1.5863857206803173e-05
2.097237058949521e-05   -3.199112201533825e-06   -1.5863857206803173e-05
2.097237058949521e-05   -3.199112201533825e-06   -1.5863857206803173e-05
2.0955569561375187e-05   -3.2252410716421243e-06   -5.291871564963905e-05
2.0955569561375187e-05   -3.2252410716421243e-06   -5.291871564963905e-05
2.0955569561375187e-05   -3.2252410716421243e-06   -5.291871564963905e-05
2.0955569561375187e-05   -3.2252410716421243e-06   -5.291871564963905e-05
-1.2904650669424767e-06   -1.7736606273084437e-06   -1.6712939535709827e-05
-1.2904650669424767e-06   -1.7736606273084437e-06   -1.6712939535709827e-05
-1.2904650669424767e-06   -1.7736606273084437e-06   -1.6712939535709827e-05
-1.2904650669424767e-06   -1.7736606273084437e-06   -1.6712939535709827e-05
9.817918134822079e-06   -3.129969948359359e-06   -3.441312594602021e-05
9.817918134822079e-06   -3.129969948359359e-06   -3.441312594602021e-05
9.817918134822079e-06   -3.129969948359359e-06   -3.441312594602021e-05
9.817918134822079e-06   -3.129969948359359e-06   -3.441312594602021e-05
-1.2904650669424765e-06   -3.2252410716421374e-06   -5.3789663916239256e-05
-1.2904650669424765e-06   -3.2252410716421374e-06   -5.3789663916239256e-05
-1.2904650669424765e-06   -3.2252410716421374e-06   -5.3789663916239256e-05
-1.2904650669424765e-06   -3.2252410716421374e-06   -5.3789663916239256e-05
2.0955569561375214e-05   -1.7736606273085521e-06   -1.5841991269109656e-05
2.0955569561375214e-05   -1.7736606273085521e-06   -1.5841991269109656e-05
2.0955569561375214e-05   -1.7736606273085521e-06   -1.5841991269109656e-05
2.0955569561375214e-05   -1.7736606273085521e-06   -1.5841991269109656e-05
2.1053668194730236e-05   -1.7117459099909435e-06   -5.431897411765945e-05
2.1053668194730236e-05   -1.7117459099909435e-06   -5.431897411765945e-05
2.1053668194730236e-05   -1.7117459099909435e-06   -5.431897411765945e-05
2.1053668194730236e-05   -1.7117459099909435e-06   -5.431897411765945e-05
-1.4546357141514696e-06   -3.72879113662186e-07   -1.760845434732059e-05
-1.4546357141514696e-06   -3.72879113662186e-07   -1.760845434732059e-05
-1.4546357141514696e-06   -3.72879113662186e-07   -1.760845434732059e-05
-1.4546357141514696e-06   -3.72879113662186e-07   -1.760845434732059e-05
9.515963369357448e-06   -1.8939236738432395e-06   -3.498015941706014e-05
9.515963369357448e-06   -1.8939236738432395e-06   -3.498015941706014e-05
9.515963369357448e-06   -1.8939236738432395e-06   -3.498015941706014e-05
9.515963369357448e-06   -1.8939236738432395e-06   -3.498015941706014e-05
-1.4546357141514666e-06   -1.711745909990968e-06   -5.512229419545671e-05
-1.4546357141514666e-06   -1.711745909990968e-06   -5.512229419545671e-05
-1.4546357141514666e-06   -1.711745909990968e-06   -5.512229419545671e-05
-1.4546357141514666e-06   -1.711745909990968e-06   -5.512229419545671e-05
2.1053668194730276e-05   -3.72879113662186e-07   -1.6805134269523017e-05
2.1053668194730276e-05   -3.72879113662186e-07   -1.6805134269523017e-05
2.1053668194730276e-05   -3.72879113662186e-07   -1.6805134269523017e-05
2.1053668194730276e-05   -3.72879113662186e-07   -1.6805134269523017e-05
2.089122435604679e-05   1.603498551653172e-07   -5.590585380525881e-05
2.089122435604679e-05   1.603498551653172e-07   -5.590585380525881e-05
2.089122435604679e-05   1.603498551653172e-07   -5.590585380525881e-05
2.089122435604679e-05   1.603498551653172e-07   -5.590585380525881e-05
-1.712174681952434e-06   1.2650492117753567e-06   -1.889634168922629e-05
-1.712174681952434e-06   1.2650492117753567e-06   -1.889634168922629e-05
-1.712174681952434e-06   1.2650492117753567e-06   -1.889634168922629e-05
-1.712174681952434e-06   1.2650492117753567e-06   -1.889634168922629e-05
9.409637526657558e-06   -5.712843847748895e-07   -3.6330895212312455e-05
9.409637526657558e-06   -5.712843847748895e-07   -3.6330895212312455e-05
9.409637526657558e-06   -5.712843847748895e-07   -3.6330895212312455e-05
9.409637526657558e-06   -5.712843847748895e-07   -3.6330895212312455e-05
2.0972370589495182e-05   -8.867058020845842e-06   -2.9953416526720222e-05
2.0972370589495182e-05   -8.867058020845842e-06   -2.9953416526720222e-05
2.0972370589495182e-05   -8.867058020845842e-06   -2.9953416526720222e-05
2.0972370589495182e-05   -8.867058020845842e-06   -2.9953416526720222e-05
4.160938303183977e-05   -5.802786453508392e-06   6.280167150923203e-06
4.160938303183977e-05   -5.802786453508392e-06   6.280167150923203e-06
4.160938303183977e-05   -5.802786453508392e-06   6.280167150923203e-06
4.160938303183977e-05   -5.802786453508392e-06   6.280167150923203e-06
4.301035302191878e-05   -8.044945861602549e-06   -3.37053402429062e-05
4.301035302191878e-05   -8.044945861602549e-06   -3.37053402429062e-05
4.301035302191878e-05   -8.044945861602549e-06   -3.37053402429062e-05
4.301035302191878e-05   -8.044945861602549e-06   -3.37053402429062e-05
2.095556956137519e-05   -4.981519381962174e-06   1.214576303548942e-06
2.095556956137519e-05   -4.981519381962174e-06   1.214576303548942e-06
2.095556956137519e-05   -4.981519381962174e-06   1.214576303548942e-06
2.095556956137519e-05   -4.981519381962174e-06   1.214576303548942e-06
3.028477351675363e-05   -6.842082013175344e-06   -1.3217759376687202e-05
3.028477351675363e-05   -6.842082013175344e-06   -1.3217759376687202e-05
3.028477351675363e-05   -6.842082013175344e-06   -1.3217759376687202e-05
3.028477351675363e-05   -6.842082013175344e-06   -1.3217759376687202e-05
2.095556956137516e-05   -8.044945861602584e-06   -3.5543396130690365e-05
2.095556956137516e-05   -8.044945861602584e-06   -3.5543396130690365e-05
2.095556956137516e-05   -8.044945861602584e-06   -3.5543396130690365e-05
2.095556956137516e-05   -8.044945861602584e-06   -3.5543396130690365e-05
4.301035302191878e-05   -4.981519381962174e-06   3.0526321913331616e-06
4.301035302191878e-05   -4.981519381962174e-06   3.0526321913331616e-06
4.301035302191878e-05   -4.981519381962174e-06   3.0526321913331616e-06
4.301035302191878e-05   -4.981519381962174e-06   3.0526321913331616e-06
4.408683225681336e-05   -7.173947154184748e-06   -3.80155714563797e-05
4.408683225681336e-05   -7.173947154184748e-06   -3.80155714563797e-05
4.408683225681336e-05   -7.173947154184748e-06   -3.80155714563797e-05
4.408683225681336e-05   -7.173947154184748e-06   -3.80155714563797e-05
2.105366819473019e-05   -4.276993164350129e-06   -1.3651370801419404e-06
2.105366819473019e-05   -4.276993164350129e-06   -1.3651370801419404e-06
2.105366819473019e-05   -4.276993164350129e-06   -1.3651370801419404e-06
2.105366819473019e-05   -4.276993164350129e-06   -1.3651370801419404e-06
3.1312535939086846e-05   -6.312189918169858e-06   -1.7242131935111106e-05
3.1312535939086846e-05   -6.312189918169858e-06   -1.7242131935111106e-05
3.1312535939086846e-05   -6.312189918169858e-06   -1.7242131935111106e-05
3.1312535939086846e-05   -6.312189918169858e-06   -1.7242131935111106e-05
2.1053668194730236e-05   -7.173947154184751e-06   -3.9753743850280454e-05
2.1053668194730236e-05   -7.173947154184751e-06   -3.9753743850280454e-05
2.1053668194730236e-05   -7.173947154184751e-06   -3.9753743850280454e-05
2.1053668194730236e-05   -7.173947154184751e-06   -3.9753743850280454e-05
4.408683225681328e-05   -4.276993164350129e-06   3.730353137590967e-07
4.408683225681328e-05   -4.276993164350129e-06   3.730353137590967e-07
4.408683225681328e-05   -4.276993164350129e-06   3.730353137590967e-07
4.408683225681328e-05   -4.276993164350129e-06   3.730353137590967e-07
4.523369173398158e-05   -5.299521688934949e-06   -4.5348371399889284e-05
4.523369173398158e-05   -5.299521688934949e-06   -4.5348371399889284e-05
4.523369173398158e-05   -5.299521688934949e-06   -4.5348371399889284e-05
4.523369173398158e-05   -5.299521688934949e-06   -4.5348371399889284e-05
2.0891224356046694e-05   -2.7718839376947866e-06   -6.294175087408606e-06
2.0891224356046694e-05   -2.7718839376947866e-06   -6.294175087408606e-06
2.0891224356046694e-05   -2.7718839376947866e-06   -6.294175087408606e-06
2.0891224356046694e-05   -2.7718839376947866e-06   -6.294175087408606e-06
3.11777240162398e-05   -5.4379353014662765e-06   -2.1838710369467476e-05
3.11777240162398e-05   -5.4379353014662765e-06   -2.1838710369467476e-05
3.11777240162398e-05   -5.4379353014662765e-06   -2.1838710369467476e-05
3.11777240162398e-05   -5.4379353014662765e-06   -2.1838710369467476e-05
-5.00031082940717e-05   7.663326988746299e-06   -3.803748522499342e-05
-5.00031082940717e-05   7.663326988746299e-06   -3.803748522499342e-05
-5.00031082940717e-05   7.663326988746299e-06   -3.803748522499342e-05
-5.00031082940717e-05   7.663326988746299e-06   -3.803748522499342e-05
-3.4044445628068004e-05   4.875606638450516e-06   -1.3112346325164592e-05
-3.4044445628068004e-05   4.875606638450516e-06   -1.3112346325164592e-05
-3.4044445628068004e-05   4.875606638450516e-06   -1.3112346325164592e-05
-3.4044445628068004e-05   4.875606638450516e-06   -1.3112346325164592e-05
-3.392057173269794e-05   9.269952634665389e-06   -3.231428620090746e-05
-3.392057173269794e-05   9.269952634665389e-06   -3.231428620090746e-05
-3.392057173269794e-05   9.269952634665389e-06   -3.231428620090746e-05
-3.392057173269794e-05   9.269952634665389e-06   -3.231428620090746e-05
-4.85081271129578e-05   6.205619680093601e-06   -6.163094127731219e-06
-4.85081271129578e-05   6.205619680093601e-06   -6.163094127731219e-06
-4.85081271129578e-05   6.205619680093601e-06   -6.163094127731219e-06
-4.85081271129578e-05   6.205619680093601e-06   -6.163094127731219e-06
-3.985340106710132e-05   7.37919748098996e-06   -2.1291784218029812e-05
-3.985340106710132e-05   7.37919748098996e-06   -2.1291784218029812e-05
-3.985340106710132e-05   7.37919748098996e-06   -2.1291784218029812e-05
-3.985340106710132e-05   7.37919748098996e-06   -2.1291784218029812e-05
-4.8508127112957804e-05   9.269952634665368e-06   -3.0475686428164332e-05
-4.8508127112957804e-05   9.269952634665368e-06   -3.0475686428164332e-05
-4.8508127112957804e-05   9.269952634665368e-06   -3.0475686428164332e-05
-4.8508127112957804e-05   9.269952634665368e-06   -3.0475686428164332e-05
-3.3920571732697996e-05   6.2056196800937095e-06   -8.00169390047434e-06
-3.3920571732697996e-05   6.2056196800937095e-06   -8.00169390047434e-06
-3.3920571732697996e-05   6.2056196800937095e-06   -8.00169390047434e-06
-3.3920571732697996e-05   6.2056196800937095e-06   -8.00169390047434e-06
-3.366335954372546e-05   9.97575785912253e-06   -2.817788693968695e-05
-3.366335954372546e-05   9.97575785912253e-06   -2.817788693968695e-05
-3.366335954372546e-05   9.97575785912253e-06   -2.817788693968695e-05
-3.366335954372546e-05   9.97575785912253e-06   -2.817788693968695e-05
-4.739049145232507e-05   6.825249197700035e-06   -3.409028561833895e-06
-4.739049145232507e-05   6.825249197700035e-06   -3.409028561833895e-06
-4.739049145232507e-05   6.825249197700035e-06   -3.409028561833895e-06
-4.739049145232507e-05   6.825249197700035e-06   -3.409028561833895e-06
-3.985585425698505e-05   8.121329622412412e-06   -1.674440547556156e-05
-3.985585425698505e-05   8.121329622412412e-06   -1.674440547556156e-05
-3.985585425698505e-05   8.121329622412412e-06   -1.674440547556156e-05
-3.985585425698505e-05   8.121329622412412e-06   -1.674440547556156e-05
-4.739049145232509e-05   9.975757859122575e-06   -2.628758174283327e-05
-4.739049145232509e-05   9.975757859122575e-06   -2.628758174283327e-05
-4.739049145232509e-05   9.975757859122575e-06   -2.628758174283327e-05
-4.739049145232509e-05   9.975757859122575e-06   -2.628758174283327e-05
-3.3663359543725514e-05   6.825249197700035e-06   -5.2993337586873334e-06
-3.3663359543725514e-05   6.825249197700035e-06   -5.2993337586873334e-06
-3.3663359543725514e-05   6.825249197700035e-06   -5.2993337586873334e-06
-3.3663359543725514e-05   6.825249197700035e-06   -5.2993337586873334e-06
-3.3560333342559987e-05   1.0670227518785012e-05   -2.2451821010445005e-05
-3.3560333342559987e-05   1.0670227518785012e-05   -2.2451821010445005e-05
-3.3560333342559987e-05   1.0670227518785012e-05   -2.2451821010445005e-05
-3.3560333342559987e-05   1.0670227518785012e-05   -2.2451821010445005e-05
-4.592804519958466e-05   7.604333766321903e-06   5.683360740577417e-10
-4.592804519958466e-05   7.604333766321903e-06   5.683360740577417e-10
-4.592804519958466e-05   7.604333766321903e-06   5.683360740577417e-10
-4.592804519958466e-05   7.604333766321903e-06   5.683360740577417e-10
-3.8676812257648844e-05   8.523348466517116e-06   -1.2636228720602739e-05
-3.8676812257648844e-05   8.523348466517116e-06   -1.2636228720602739e-05
-3.8676812257648844e-05   8.523348466517116e-06   -1.2636228720602739e-05
-3.8676812257648844e-05   8.523348466517116e-06   -1.2636228720602739e-05
-3.404444562806795e-05   3.82084063313416e-06   -4.8464728338888674e-05
-3.404444562806795e-05   3.82084063313416e-06   -4.8464728338888674e-05
-3.404444562806795e-05   3.82084063313416e-06   -4.8464728338888674e-05
-3.404444562806795e-05   3.82084063313416e-06   -4.8464728338888674e-05
-1.9580171995606667e-05   2.5203158787987e-06   -2.5137920470721156e-05
-1.9580171995606667e-05   2.5203158787987e-06   -2.5137920470721156e-05
-1.9580171995606667e-05   2.5203158787987e-06   -2.5137920470721156e-05
-1.9580171995606667e-05   2.5203158787987e-06   -2.5137920470721156e-05
-1.9589659096034618e-05   5.400873947099933e-06   -4.804871240437407e-05
-1.9589659096034618e-05   5.400873947099933e-06   -4.804871240437407e-05
-1.9589659096034618e-05   5.400873947099933e-06   -4.804871240437407e-05
-1.9589659096034618e-05   5.400873947099933e-06   -4.804871240437407e-05
-3.392057173269795e-05   3.92440863758621e-06   -2.3277978824226954e-05
-3.392057173269795e-05   3.92440863758621e-06   -2.3277978824226954e-05
-3.392057173269795e-05   3.92440863758621e-06   -2.3277978824226954e-05
-3.392057173269795e-05   3.92440863758621e-06   -2.3277978824226954e-05
-2.653679424998e-05   4.1790424797922415e-06   -3.5737054934080546e-05
-2.653679424998e-05   4.1790424797922415e-06   -3.5737054934080546e-05
-2.653679424998e-05   4.1790424797922415e-06   -3.5737054934080546e-05
-2.653679424998e-05   4.1790424797922415e-06   -3.5737054934080546e-05
-3.3920571732697915e-05   5.400873947099931e-06   -4.716283321866562e-05
-3.3920571732697915e-05   5.400873947099931e-06   -4.716283321866562e-05
-3.3920571732697915e-05   5.400873947099931e-06   -4.716283321866562e-05
-3.3920571732697915e-05   5.400873947099931e-06   -4.716283321866562e-05
-1.958965909603455e-05   3.92440863758621e-06   -2.4163858009935106e-05
-1.958965909603455e-05   3.92440863758621e-06   -2.4163858009935106e-05
-1.958965909603455e-05   3.92440863758621e-06   -2.4163858009935106e-05
-1.958965909603455e-05   3.92440863758621e-06   -2.4163858009935106e-05
-1.9575119208024882e-05   6.804505282047876e-06   -4.6971751268042494e-05
-1.9575119208024882e-05   6.804505282047876e-06   -4.6971751268042494e-05
-1.9575119208024882e-05   6.804505282047876e-06   -4.6971751268042494e-05
-1.9575119208024882e-05   6.804505282047876e-06   -4.6971751268042494e-05
-3.366335954372547e-05   5.2019810186405965e-06   -2.2529836150497122e-05
-3.366335954372547e-05   5.2019810186405965e-06   -2.2529836150497122e-05
-3.366335954372547e-05   5.2019810186405965e-06   -2.2529836150497122e-05
-3.366335954372547e-05   5.2019810186405965e-06   -2.2529836150497122e-05
-2.6413097224770565e-05   5.3320683356745035e-06   -3.469165907230861e-05
-2.6413097224770565e-05   5.3320683356745035e-06   -3.469165907230861e-05
-2.6413097224770565e-05   5.3320683356745035e-06   -3.469165907230861e-05
-2.6413097224770565e-05   5.3320683356745035e-06   -3.469165907230861e-05
-3.366335954372546e-05   6.804505282047912e-06   -4.601023670999804e-05
-3.366335954372546e-05   6.804505282047912e-06   -4.601023670999804e-05
-3.366335954372546e-05   6.804505282047912e-06   -4.601023670999804e-05
-3.366335954372546e-05   6.804505282047912e-06   -4.601023670999804e-05
-1.9575119208024882e-05   5.2019810186405965e-06   -2.3491350708541305e-05
-1.9575119208024882e-05   5.2019810186405965e-06   -2.3491350708541305e-05
-1.9575119208024882e-05   5.2019810186405965e-06   -2.3491350708541305e-05
-1.9575119208024882e-05   5.2019810186405965e-06   -2.3491350708541305e-05
-1.9590696602430748e-05   8.297516697319796e-06   -4.7161059212523005e-05
-1.9590696602430748e-05   8.297516697319796e-06   -4.7161059212523005e-05
-1.9590696602430748e-05   8.297516697319796e-06   -4.7161059212523005e-05
-1.9590696602430748e-05   8.297516697319796e-06   -4.7161059212523005e-05
-3.356033334255995e-05   6.58963915593563e-06   -2.2853604787476968e-05
-3.356033334255995e-05   6.58963915593563e-06   -2.2853604787476968e-05
-3.356033334255995e-05   6.58963915593563e-06   -2.2853604787476968e-05
-3.356033334255995e-05   6.58963915593563e-06   -2.2853604787476968e-05
-2.6584076505365297e-05   6.472682327266291e-06   -3.441052541893329e-05
-2.6584076505365297e-05   6.472682327266291e-06   -3.441052541893329e-05
-2.6584076505365297e-05   6.472682327266291e-06   -3.441052541893329e-05
-2.6584076505365297e-05   6.472682327266291e-06   -3.441052541893329e-05
-1.958017199560668e-05   2.0335722828343267e-07   -5.348807982748173e-05
-1.958017199560668e-05   2.0335722828343267e-07   -5.348807982748173e-05
-1.958017199560668e-05   2.0335722828343267e-07   -5.348807982748173e-05
-1.958017199560668e-05   2.0335722828343267e-07   -5.348807982748173e-05
-5.317235840505916e-06   4.3366821579442476e-07   -2.9578332976473915e-05
-5.317235840505916e-06   4.3366821579442476e-07   -2.9578332976473915e-05
-5.317235840505916e-06   4.3366821579442476e-07   -2.9578332976473915e-05
-5.317235840505916e-06   4.3366821579442476e-07   -2.9578332976473915e-05
-5.327290054605527e-06   1.7585837385747632e-06   -5.289770394133523e-05
-5.327290054605527e-06   1.7585837385747632e-06   -5.289770394133523e-05
-5.327290054605527e-06   1.7585837385747632e-06   -5.289770394133523e-05
-5.327290054605527e-06   1.7585837385747632e-06   -5.289770394133523e-05
-1.9589659096034547e-05   1.845319147304389e-06   -2.9179130117524448e-05
-1.9589659096034547e-05   1.845319147304389e-06   -2.9179130117524448e-05
-1.9589659096034547e-05   1.845319147304389e-06   -2.9179130117524448e-05
-1.9589659096034547e-05   1.845319147304389e-06   -2.9179130117524448e-05
-1.237087175689692e-05   1.2427857546368519e-06   -4.0848922313820064e-05
-1.237087175689692e-05   1.2427857546368519e-06   -4.0848922313820064e-05
-1.237087175689692e-05   1.2427857546368519e-06   -4.0848922313820064e-05
-1.237087175689692e-05   1.2427857546368519e-06   -4.0848922313820064e-05
-1.9589659096034577e-05   1.758583738574804e-06   -5.294974518657293e-05
-1.9589659096034577e-05   1.758583738574804e-06   -5.294974518657293e-05
-1.9589659096034577e-05   1.758583738574804e-06   -5.294974518657293e-05
-1.9589659096034577e-05   1.758583738574804e-06   -5.294974518657293e-05
-5.327290054605527e-06   1.845319147304389e-06   -2.9127088872286748e-05
-5.327290054605527e-06   1.845319147304389e-06   -2.9127088872286748e-05
-5.327290054605527e-06   1.845319147304389e-06   -2.9127088872286748e-05
-5.327290054605527e-06   1.845319147304389e-06   -2.9127088872286748e-05
-5.3084712444259665e-06   3.3091664903002298e-06   -5.3032369087401324e-05
-5.3084712444259665e-06   3.3091664903002298e-06   -5.3032369087401324e-05
-5.3084712444259665e-06   3.3091664903002298e-06   -5.3032369087401324e-05
-5.3084712444259665e-06   3.3091664903002298e-06   -5.3032369087401324e-05
-1.9575119208024882e-05   3.2614819785129357e-06   -2.922601177433076e-05
-1.9575119208024882e-05   3.2614819785129357e-06   -2.922601177433076e-05
-1.9575119208024882e-05   3.2614819785129357e-06   -2.922601177433076e-05
-1.9575119208024882e-05   3.2614819785129357e-06   -2.922601177433076e-05
-1.2453609223665782e-05   2.477644234401364e-06   -4.0624892435129e-05
-1.2453609223665782e-05   2.477644234401364e-06   -4.0624892435129e-05
-1.2453609223665782e-05   2.477644234401364e-06   -4.0624892435129e-05
-1.2453609223665782e-05   2.477644234401364e-06   -4.0624892435129e-05
-1.9575119208024882e-05   3.3091664903002344e-06   -5.300375838032895e-05
-1.9575119208024882e-05   3.3091664903002344e-06   -5.300375838032895e-05
-1.9575119208024882e-05   3.3091664903002344e-06   -5.300375838032895e-05
-1.9575119208024882e-05   3.3091664903002344e-06   -5.300375838032895e-05
-5.3084712444259665e-06   3.2614819785129357e-06   -2.9254622481403e-05
-5.3084712444259665e-06   3.2614819785129357e-06   -2.9254622481403e-05
-5.3084712444259665e-06   3.2614819785129357e-06   -2.9254622481403e-05
-5.3084712444259665e-06   3.2614819785129357e-06   -2.9254622481403e-05
-5.316783583622063e-06   4.89580472906885e-06   -5.383443227104822e-05
-5.316783583622063e-06   4.89580472906885e-06   -5.383443227104822e-05
-5.316783583622063e-06   4.89580472906885e-06   -5.383443227104822e-05
-5.316783583622063e-06   4.89580472906885e-06   -5.383443227104822e-05
-1.9590696602430758e-05   4.702405043099304e-06   -2.9928537428118666e-05
-1.9590696602430758e-05   4.702405043099304e-06   -2.9928537428118666e-05
-1.9590696602430758e-05   4.702405043099304e-06   -2.9928537428118666e-05
-1.9590696602430758e-05   4.702405043099304e-06   -2.9928537428118666e-05
-1.2560597668507765e-05   3.7287192359858074e-06   -4.1061157500388964e-05
-1.2560597668507765e-05   3.7287192359858074e-06   -4.1061157500388964e-05
-1.2560597668507765e-05   3.7287192359858074e-06   -4.1061157500388964e-05
-1.2560597668507765e-05   3.7287192359858074e-06   -4.1061157500388964e-05
-5.317235840505907e-06   -3.199112201533884e-06   -4.736403607376961e-05
-5.317235840505907e-06   -3.199112201533884e-06   -4.736403607376961e-05
-5.317235840505907e-06   -3.199112201533884e-06   -4.736403607376961e-05
-5.317235840505907e-06   -3.199112201533884e-06   -4.736403607376961e-05
8.738622512054217e-06   -1.4747326976145012e-06   -2.290297778381777e-05
8.738622512054217e-06   -1.4747326976145012e-06   -2.290297778381777e-05
8.738622512054217e-06   -1.4747326976145012e-06   -2.290297778381777e-05
8.738622512054217e-06   -1.4747326976145012e-06   -2.290297778381777e-05
8.853405500238806e-06   -1.7736606273084437e-06   -4.628772722571877e-05
8.853405500238806e-06   -1.7736606273084437e-06   -4.628772722571877e-05
8.853405500238806e-06   -1.7736606273084437e-06   -4.628772722571877e-05
8.853405500238806e-06   -1.7736606273084437e-06   -4.628772722571877e-05
-5.327290054605518e-06   -1.451619551602265e-07   -2.3630333837600524e-05
-5.327290054605518e-06   -1.451619551602265e-07   -2.3630333837600524e-05
-5.327290054605518e-06   -1.451619551602265e-07   -2.3630333837600524e-05
-5.327290054605518e-06   -1.451619551602265e-07   -2.3630333837600524e-05
1.7450502034121805e-06   -1.525477300894822e-06   -3.458937839352264e-05
1.7450502034121805e-06   -1.525477300894822e-06   -3.458937839352264e-05
1.7450502034121805e-06   -1.525477300894822e-06   -3.458937839352264e-05
1.7450502034121805e-06   -1.525477300894822e-06   -3.458937839352264e-05
-5.327290054605527e-06   -1.7736606273084236e-06   -4.726482642900779e-05
-5.327290054605527e-06   -1.7736606273084236e-06   -4.726482642900779e-05
-5.327290054605527e-06   -1.7736606273084236e-06   -4.726482642900779e-05
-5.327290054605527e-06   -1.7736606273084236e-06   -4.726482642900779e-05
8.853405500238806e-06   -1.451619551601181e-07   -2.265323463431152e-05
8.853405500238806e-06   -1.451619551601181e-07   -2.265323463431152e-05
8.853405500238806e-06   -1.451619551601181e-07   -2.265323463431152e-05
8.853405500238806e-06   -1.451619551601181e-07   -2.265323463431152e-05
9.123814965516865e-06   -3.72879113662186e-07   -4.726190142730779e-05
9.123814965516865e-06   -3.72879113662186e-07   -4.726190142730779e-05
9.123814965516865e-06   -3.72879113662186e-07   -4.726190142730779e-05
9.123814965516865e-06   -3.72879113662186e-07   -4.726190142730779e-05
-5.308471244425957e-06   1.1339905816087686e-06   -2.41122128945656e-05
-5.308471244425957e-06   1.1339905816087686e-06   -2.41122128945656e-05
-5.308471244425957e-06   1.1339905816087686e-06   -2.41122128945656e-05
-5.308471244425957e-06   1.1339905816087686e-06   -2.41122128945656e-05
1.6637589012012414e-06   -4.1943360725078295e-07   -3.480054195729522e-05
1.6637589012012414e-06   -4.1943360725078295e-07   -3.480054195729522e-05
1.6637589012012414e-06   -4.1943360725078295e-07   -3.480054195729522e-05
1.6637589012012414e-06   -4.1943360725078295e-07   -3.480054195729522e-05
-5.3084712444259665e-06   -3.728791136621738e-07   -4.816602324447041e-05
-5.3084712444259665e-06   -3.728791136621738e-07   -4.816602324447041e-05
-5.3084712444259665e-06   -3.728791136621738e-07   -4.816602324447041e-05
-5.3084712444259665e-06   -3.728791136621738e-07   -4.816602324447041e-05
9.123814965516879e-06   1.133990581608877e-06   -2.320809107740293e-05
9.123814965516879e-06   1.133990581608877e-06   -2.320809107740293e-05
9.123814965516879e-06   1.133990581608877e-06   -2.320809107740293e-05
9.123814965516879e-06   1.133990581608877e-06   -2.320809107740293e-05
9.256128898371802e-06   1.2650492117753567e-06   -4.865523921031235e-05
9.256128898371802e-06   1.2650492117753567e-06   -4.865523921031235e-05
9.256128898371802e-06   1.2650492117753567e-06   -4.865523921031235e-05
9.256128898371802e-06   1.2650492117753567e-06   -4.865523921031235e-05
-5.316783583622063e-06   2.6001443361561545e-06   -2.5168108814950974e-05
-5.316783583622063e-06   2.6001443361561545e-06   -2.5168108814950974e-05
-5.316783583622063e-06   2.6001443361561545e-06   -2.5168108814950974e-05
-5.316783583622063e-06   2.6001443361561545e-06   -2.5168108814950974e-05
1.7127195972415602e-06   7.637084934420616e-07   -3.57820859440952e-05
1.7127195972415602e-06   7.637084934420616e-07   -3.57820859440952e-05
1.7127195972415602e-06   7.637084934420616e-07   -3.57820859440952e-05
1.7127195972415602e-06   7.637084934420616e-07   -3.57820859440952e-05
8.738622512054203e-06   -5.802786453508406e-06   -2.6023946954093987e-05
8.738622512054203e-06   -5.802786453508406e-06   -2.6023946954093987e-05
8.738622512054203e-06   -5.802786453508406e-06   -2.6023946954093987e-05
8.738622512054203e-06   -5.802786453508406e-06   -2.6023946954093987e-05
2.1223911099119066e-05   -2.710283931681612e-06   -3.3596311292229727e-06
2.1223911099119066e-05   -2.710283931681612e-06   -3.3596311292229727e-06
2.1223911099119066e-05   -2.710283931681612e-06   -3.3596311292229727e-06
2.1223911099119066e-05   -2.710283931681612e-06   -3.3596311292229727e-06
2.2706257286826144e-05   -4.981519381962174e-06   -2.7328139828666868e-05
2.2706257286826144e-05   -4.981519381962174e-06   -2.7328139828666868e-05
2.2706257286826144e-05   -4.981519381962174e-06   -2.7328139828666868e-05
2.2706257286826144e-05   -4.981519381962174e-06   -2.7328139828666868e-05
8.853405500238808e-06   -1.8098196746398716e-06   -6.143073342081281e-06
8.853405500238808e-06   -1.8098196746398716e-06   -6.143073342081281e-06
8.853405500238808e-06   -1.8098196746398716e-06   -6.143073342081281e-06
8.853405500238808e-06   -1.8098196746398716e-06   -6.143073342081281e-06
1.4724737119586298e-05   -3.7075837025074814e-06   -1.4789967624273184e-05
1.4724737119586298e-05   -3.7075837025074814e-06   -1.4789967624273184e-05
1.4724737119586298e-05   -3.7075837025074814e-06   -1.4789967624273184e-05
1.4724737119586298e-05   -3.7075837025074814e-06   -1.4789967624273184e-05
8.853405500238806e-06   -4.981519381962152e-06   -2.9231159653060092e-05
8.853405500238806e-06   -4.981519381962152e-06   -2.9231159653060092e-05
8.853405500238806e-06   -4.981519381962152e-06   -2.9231159653060092e-05
8.853405500238806e-06   -4.981519381962152e-06   -2.9231159653060092e-05
2.270625728682609e-05   -1.8098196746398716e-06   -4.2400535176879755e-06
2.270625728682609e-05   -1.8098196746398716e-06   -4.2400535176879755e-06
2.270625728682609e-05   -1.8098196746398716e-06   -4.2400535176879755e-06
2.270625728682609e-05   -1.8098196746398716e-06   -4.2400535176879755e-06
2.3847193683158586e-05   -4.276993164350129e-06   -2.9968564780900875e-05
2.3847193683158586e-05   -4.276993164350129e-06   -2.9968564780900875e-05
2.3847193683158586e-05   -4.276993164350129e-06   -2.9968564780900875e-05
2.3847193683158586e-05   -4.276993164350129e-06   -2.9968564780900875e-05
9.12381496551688e-06   -1.1880940693074138e-06   -7.282939708523563e-06
9.12381496551688e-06   -1.1880940693074138e-06   -7.282939708523563e-06
9.12381496551688e-06   -1.1880940693074138e-06   -7.282939708523563e-06
9.12381496551688e-06   -1.1880940693074138e-06   -7.282939708523563e-06
1.5630824922461003e-05   -3.2452197984743705e-06   -1.6893680865930153e-05
1.5630824922461003e-05   -3.2452197984743705e-06   -1.6893680865930153e-05
1.5630824922461003e-05   -3.2452197984743705e-06   -1.6893680865930153e-05
1.5630824922461003e-05   -3.2452197984743705e-06   -1.6893680865930153e-05
9.123814965516865e-06   -4.2769931643501e-06   -3.182190423792647e-05
9.123814965516865e-06   -4.2769931643501e-06   -3.182190423792647e-05
9.123814965516865e-06   -4.2769931643501e-06   -3.182190423792647e-05
9.123814965516865e-06   -4.2769931643501e-06   -3.182190423792647e-05
2.384719368315856e-05   -1.1880940693075222e-06   -5.429600251497858e-06
2.384719368315856e-05   -1.1880940693075222e-06   -5.429600251497858e-06
2.384719368315856e-05   -1.1880940693075222e-06   -5.429600251497858e-06
2.384719368315856e-05   -1.1880940693075222e-06   -5.429600251497858e-06
2.5363367568858008e-05   -2.7718839376947866e-06   -3.503220251930292e-05
2.5363367568858008e-05   -2.7718839376947866e-06   -3.503220251930292e-05
2.5363367568858008e-05   -2.7718839376947866e-06   -3.503220251930292e-05
2.5363367568858008e-05   -2.7718839376947866e-06   -3.503220251930292e-05
9.256128898371825e-06   3.4265567568471725e-08   -9.870494438316989e-06
9.256128898371825e-06   3.4265567568471725e-08   -9.870494438316989e-06
9.256128898371825e-06   3.4265567568471725e-08   -9.870494438316989e-06
9.256128898371825e-06   3.4265567568471725e-08   -9.870494438316989e-06
1.5932286976997215e-05   -2.5571752016407753e-06   -1.944256010783397e-05
1.5932286976997215e-05   -2.5571752016407753e-06   -1.944256010783397e-05
1.5932286976997215e-05   -2.5571752016407753e-06   -1.944256010783397e-05
1.5932286976997215e-05   -2.5571752016407753e-06   -1.944256010783397e-05
-3.0272910760695455e-05   4.8756066384505175e-06   -2.8367707718516557e-05
-3.0272910760695455e-05   4.8756066384505175e-06   -2.8367707718516557e-05
-3.0272910760695455e-05   4.8756066384505175e-06   -2.8367707718516557e-05
-3.0272910760695455e-05   4.8756066384505175e-06   -2.8367707718516557e-05
-2.2351634859484986e-05   1.9866917272009545e-06   -1.6898930163248996e-05
-2.2351634859484986e-05   1.9866917272009545e-06   -1.6898930163248996e-05
-2.2351634859484986e-05   1.9866917272009545e-06   -1.6898930163248996e-05
-2.2351634859484986e-05   1.9866917272009545e-06   -1.6898930163248996e-05
-2.202281929699216e-05   6.2056196800937095e-06   -2.502543737537108e-05
-2.202281929699216e-05   6.2056196800937095e-06   -2.502543737537108e-05
-2.202281929699216e-05   6.2056196800937095e-06   -2.502543737537108e-05
-2.202281929699216e-05   6.2056196800937095e-06   -2.502543737537108e-05
-2.8628121829196794e-05   3.0934447339400154e-06   -1.2149294854003987e-05
-2.8628121829196794e-05   3.0934447339400154e-06   -1.2149294854003987e-05
-2.8628121829196794e-05   3.0934447339400154e-06   -1.2149294854003987e-05
-2.8628121829196794e-05   3.0934447339400154e-06   -1.2149294854003987e-05
-2.4724979725432298e-05   4.373379269082727e-06   -1.9422492414698377e-05
-2.4724979725432298e-05   4.373379269082727e-06   -1.9422492414698377e-05
-2.4724979725432298e-05   4.373379269082727e-06   -1.9422492414698377e-05
-2.4724979725432298e-05   4.373379269082727e-06   -1.9422492414698377e-05
-2.8628121829196794e-05   6.205619680093687e-06   -2.31581324076788e-05
-2.8628121829196794e-05   6.205619680093687e-06   -2.31581324076788e-05
-2.8628121829196794e-05   6.205619680093687e-06   -2.31581324076788e-05
-2.8628121829196794e-05   6.205619680093687e-06   -2.31581324076788e-05
-2.2022819296992215e-05   3.0934447339400154e-06   -1.4016599821696377e-05
-2.2022819296992215e-05   3.0934447339400154e-06   -1.4016599821696377e-05
-2.2022819296992215e-05   3.0934447339400154e-06   -1.4016599821696377e-05
-2.2022819296992215e-05   3.0934447339400154e-06   -1.4016599821696377e-05
-2.1553543280526687e-05   6.825249197699927e-06   -2.2346387622828494e-05
-2.1553543280526687e-05   6.825249197699927e-06   -2.2346387622828494e-05
-2.1553543280526687e-05   6.825249197699927e-06   -2.2346387622828494e-05
-2.1553543280526687e-05   6.825249197699927e-06   -2.2346387622828494e-05
-2.7316073713848753e-05   3.652604498214111e-06   -1.0838583414266869e-05
-2.7316073713848753e-05   3.652604498214111e-06   -1.0838583414266869e-05
-2.7316073713848753e-05   3.652604498214111e-06   -1.0838583414266869e-05
-2.7316073713848753e-05   3.652604498214111e-06   -1.0838583414266869e-05
-2.429115521933525e-05   4.970562494253624e-06   -1.6670889036079985e-05
-2.429115521933525e-05   4.970562494253624e-06   -1.6670889036079985e-05
-2.429115521933525e-05   4.970562494253624e-06   -1.6670889036079985e-05
-2.429115521933525e-05   4.970562494253624e-06   -1.6670889036079985e-05
-2.7316073713848713e-05   6.825249197699921e-06   -2.044280080313709e-05
-2.7316073713848713e-05   6.825249197699921e-06   -2.044280080313709e-05
-2.7316073713848713e-05   6.825249197699921e-06   -2.044280080313709e-05
-2.7316073713848713e-05   6.825249197699921e-06   -2.044280080313709e-05
-2.155354328052674e-05   3.652604498214111e-06   -1.2742170233958489e-05
-2.155354328052674e-05   3.652604498214111e-06   -1.2742170233958489e-05
-2.155354328052674e-05   3.652604498214111e-06   -1.2742170233958489e-05
-2.155354328052674e-05   3.652604498214111e-06   -1.2742170233958489e-05
-2.1233779058951063e-05   7.604333766321903e-06   -1.8909467442172105e-05
-2.1233779058951063e-05   7.604333766321903e-06   -1.8909467442172105e-05
-2.1233779058951063e-05   7.604333766321903e-06   -1.8909467442172105e-05
-2.1233779058951063e-05   7.604333766321903e-06   -1.8909467442172105e-05
-2.564535437382889e-05   4.538325487085529e-06   -9.717236949833901e-06
-2.564535437382889e-05   4.538325487085529e-06   -9.717236949833901e-06
-2.564535437382889e-05   4.538325487085529e-06   -9.717236949833901e-06
-2.564535437382889e-05   4.538325487085529e-06   -9.717236949833901e-06
-2.3156036272393732e-05   5.3845411883534505e-06   -1.4373829872986498e-05
-2.3156036272393732e-05   5.3845411883534505e-06   -1.4373829872986498e-05
-2.3156036272393732e-05   5.3845411883534505e-06   -1.4373829872986498e-05
-2.3156036272393732e-05   5.3845411883534505e-06   -1.4373829872986498e-05
-2.2351634859484986e-05   2.520315878798643e-06   -4.1346315958221656e-05
-2.2351634859484986e-05   2.520315878798643e-06   -4.1346315958221656e-05
-2.2351634859484986e-05   2.520315878798643e-06   -4.1346315958221656e-05
-2.2351634859484986e-05   2.520315878798643e-06   -4.1346315958221656e-05
-1.5915618072551933e-05   1.1404452929537207e-06   -3.1447543664840075e-05
-1.5915618072551933e-05   1.1404452929537207e-06   -3.1447543664840075e-05
-1.5915618072551933e-05   1.1404452929537207e-06   -3.1447543664840075e-05
-1.5915618072551933e-05   1.1404452929537207e-06   -3.1447543664840075e-05
-1.570027960570407e-05   3.92440863758621e-06   -4.1210670652920534e-05
-1.570027960570407e-05   3.92440863758621e-06   -4.1210670652920534e-05
-1.570027960570407e-05   3.92440863758621e-06   -4.1210670652920534e-05
-1.570027960570407e-05   3.92440863758621e-06   -4.1210670652920534e-05
-2.202281929699224e-05   2.409494714591216e-06   -2.976415614697642e-05
-2.202281929699224e-05   2.409494714591216e-06   -2.976415614697642e-05
-2.202281929699224e-05   2.409494714591216e-06   -2.976415614697642e-05
-2.202281929699224e-05   2.409494714591216e-06   -2.976415614697642e-05
-1.88123796184222e-05   2.742128862130407e-06   -3.5314469433117535e-05
-1.88123796184222e-05   2.742128862130407e-06   -3.5314469433117535e-05
-1.88123796184222e-05   2.742128862130407e-06   -3.5314469433117535e-05
-1.88123796184222e-05   2.742128862130407e-06   -3.5314469433117535e-05
-2.2022819296992134e-05   3.924408637586175e-06   -4.0301722299123256e-05
-2.2022819296992134e-05   3.924408637586175e-06   -4.0301722299123256e-05
-2.2022819296992134e-05   3.924408637586175e-06   -4.0301722299123256e-05
-2.2022819296992134e-05   3.924408637586175e-06   -4.0301722299123256e-05
-1.5700279605704098e-05   2.409494714591216e-06   -3.067310450077348e-05
-1.5700279605704098e-05   2.409494714591216e-06   -3.067310450077348e-05
-1.5700279605704098e-05   2.409494714591216e-06   -3.067310450077348e-05
-1.5700279605704098e-05   2.409494714591216e-06   -3.067310450077348e-05
-1.546246367006943e-05   5.201981018640705e-06   -4.0544385736815966e-05
-1.546246367006943e-05   5.201981018640705e-06   -4.0544385736815966e-05
-1.546246367006943e-05   5.201981018640705e-06   -4.0544385736815966e-05
-1.546246367006943e-05   5.201981018640705e-06   -4.0544385736815966e-05
-2.1553543280526772e-05   3.5894881483446855e-06   -2.9425090663876008e-05
-2.1553543280526772e-05   3.5894881483446855e-06   -2.9425090663876008e-05
-2.1553543280526772e-05   3.5894881483446855e-06   -2.9425090663876008e-05
-2.1553543280526772e-05   3.5894881483446855e-06   -2.9425090663876008e-05
-1.8529229388421376e-05   3.7681639213991546e-06   -3.457281928121738e-05
-1.8529229388421376e-05   3.7681639213991546e-06   -3.457281928121738e-05
-1.8529229388421376e-05   3.7681639213991546e-06   -3.457281928121738e-05
-1.8529229388421376e-05   3.7681639213991546e-06   -3.457281928121738e-05
-2.1553543280526687e-05   5.201981018640653e-06   -3.95768900146382e-05
-2.1553543280526687e-05   5.201981018640653e-06   -3.95768900146382e-05
-2.1553543280526687e-05   5.201981018640653e-06   -3.95768900146382e-05
-2.1553543280526687e-05   5.201981018640653e-06   -3.95768900146382e-05
-1.5462463670069416e-05   3.5894881483449024e-06   -3.03925863860535e-05
-1.5462463670069416e-05   3.5894881483449024e-06   -3.03925863860535e-05
-1.5462463670069416e-05   3.5894881483449024e-06   -3.03925863860535e-05
-1.5462463670069416e-05   3.5894881483449024e-06   -3.03925863860535e-05
-1.5250953546555007e-05   6.58963915593563e-06   -4.093750321792632e-05
-1.5250953546555007e-05   6.58963915593563e-06   -4.093750321792632e-05
-1.5250953546555007e-05   6.58963915593563e-06   -4.093750321792632e-05
-1.5250953546555007e-05   6.58963915593563e-06   -4.093750321792632e-05
-2.1233779058951083e-05   4.900640983133931e-06   -2.9952728460251675e-05
-2.1233779058951083e-05   4.900640983133931e-06   -2.9952728460251675e-05
-2.1233779058951083e-05   4.900640983133931e-06   -2.9952728460251675e-05
-2.1233779058951083e-05   4.900640983133931e-06   -2.9952728460251675e-05
-1.8418598643613744e-05   4.807383056972762e-06   -3.458874106345068e-05
-1.8418598643613744e-05   4.807383056972762e-06   -3.458874106345068e-05
-1.8418598643613744e-05   4.807383056972762e-06   -3.458874106345068e-05
-1.8418598643613744e-05   4.807383056972762e-06   -3.458874106345068e-05
-1.591561807255188e-05   4.3366821579446754e-07   -4.675283740798763e-05
-1.591561807255188e-05   4.3366821579446754e-07   -4.675283740798763e-05
-1.591561807255188e-05   4.3366821579446754e-07   -4.675283740798763e-05
-1.591561807255188e-05   4.3366821579446754e-07   -4.675283740798763e-05
-9.644128233341044e-06   6.535145441995474e-07   -3.6168446545593305e-05
-9.644128233341044e-06   6.535145441995474e-07   -3.6168446545593305e-05
-9.644128233341044e-06   6.535145441995474e-07   -3.6168446545593305e-05
-9.644128233341044e-06   6.535145441995474e-07   -3.6168446545593305e-05
-9.434255931018796e-06   1.845319147304389e-06   -4.616551115625917e-05
-9.434255931018796e-06   1.845319147304389e-06   -4.616551115625917e-05
-9.434255931018796e-06   1.845319147304389e-06   -4.616551115625917e-05
-9.434255931018796e-06   1.845319147304389e-06   -4.616551115625917e-05
-1.5700279605704077e-05   1.9460384877224065e-06   -3.5782569969367375e-05
-1.5700279605704077e-05   1.9460384877224065e-06   -3.5782569969367375e-05
-1.5700279605704077e-05   1.9460384877224065e-06   -3.5782569969367375e-05
-1.5700279605704077e-05   1.9460384877224065e-06   -3.5782569969367375e-05
-1.259236129041204e-05   1.3995552486188029e-06   -4.063454388472627e-05
-1.259236129041204e-05   1.3995552486188029e-06   -4.063454388472627e-05
-1.259236129041204e-05   1.3995552486188029e-06   -4.063454388472627e-05
-1.259236129041204e-05   1.3995552486188029e-06   -4.063454388472627e-05
-1.5700279605704043e-05   1.8453191473043479e-06   -4.622594276050974e-05
-1.5700279605704043e-05   1.8453191473043479e-06   -4.622594276050974e-05
-1.5700279605704043e-05   1.8453191473043479e-06   -4.622594276050974e-05
-1.5700279605704043e-05   1.8453191473043479e-06   -4.622594276050974e-05
-9.434255931018779e-06   1.9460384877224065e-06   -3.572213836511675e-05
-9.434255931018779e-06   1.9460384877224065e-06   -3.572213836511675e-05
-9.434255931018779e-06   1.9460384877224065e-06   -3.572213836511675e-05
-9.434255931018779e-06   1.9460384877224065e-06   -3.572213836511675e-05
-9.198144525268276e-06   3.2614819785129357e-06   -4.628600394855143e-05
-9.198144525268276e-06   3.2614819785129357e-06   -4.628600394855143e-05
-9.198144525268276e-06   3.2614819785129357e-06   -4.628600394855143e-05
-9.198144525268276e-06   3.2614819785129357e-06   -4.628600394855143e-05
-1.546246367006941e-05   3.249886735269287e-06   -3.583851489460309e-05
-1.546246367006941e-05   3.249886735269287e-06   -3.583851489460309e-05
-1.546246367006941e-05   3.249886735269287e-06   -3.583851489460309e-05
-1.546246367006941e-05   3.249886735269287e-06   -3.583851489460309e-05
-1.2451616657836746e-05   2.5100289960703574e-06   -4.0412678604804774e-05
-1.2451616657836746e-05   2.5100289960703574e-06   -4.0412678604804774e-05
-1.2451616657836746e-05   2.5100289960703574e-06   -4.0412678604804774e-05
-1.2451616657836746e-05   2.5100289960703574e-06   -4.0412678604804774e-05
-1.546246367006939e-05   3.2614819785128307e-06   -4.627904680260507e-05
-1.546246367006939e-05   3.2614819785128307e-06   -4.627904680260507e-05
-1.546246367006939e-05   3.2614819785128307e-06   -4.627904680260507e-05
-1.546246367006939e-05   3.2614819785128307e-06   -4.627904680260507e-05
-9.198144525268246e-06   3.249886735269287e-06   -3.584547204054918e-05
-9.198144525268246e-06   3.249886735269287e-06   -3.584547204054918e-05
-9.198144525268246e-06   3.249886735269287e-06   -3.584547204054918e-05
-9.198144525268246e-06   3.249886735269287e-06   -3.584547204054918e-05
-8.986013351680947e-06   4.702405043099304e-06   -4.706510591461562e-05
-8.986013351680947e-06   4.702405043099304e-06   -4.706510591461562e-05
-8.986013351680947e-06   4.702405043099304e-06   -4.706510591461562e-05
-8.986013351680947e-06   4.702405043099304e-06   -4.706510591461562e-05
-1.5250953546555062e-05   4.5734107416357025e-06   -3.654614234228047e-05
-1.5250953546555062e-05   4.5734107416357025e-06   -3.654614234228047e-05
-1.5250953546555062e-05   4.5734107416357025e-06   -3.654614234228047e-05
-1.5250953546555062e-05   4.5734107416357025e-06   -3.654614234228047e-05
-1.2335252255954579e-05   3.635265764906923e-06   -4.084275750724397e-05
-1.2335252255954579e-05   3.635265764906923e-06   -4.084275750724397e-05
-1.2335252255954579e-05   3.635265764906923e-06   -4.084275750724397e-05
-1.2335252255954579e-05   3.635265764906923e-06   -4.084275750724397e-05
-9.644128233341012e-06   -1.4747326976143743e-06   -4.0980202120640134e-05
-9.644128233341012e-06   -1.4747326976143743e-06   -4.0980202120640134e-05
-9.644128233341012e-06   -1.4747326976143743e-06   -4.0980202120640134e-05
-9.644128233341012e-06   -1.4747326976143743e-06   -4.0980202120640134e-05
-3.5618548764751126e-06   2.7917324859662307e-07   -2.9790736291470526e-05
-3.5618548764751126e-06   2.7917324859662307e-07   -2.9790736291470526e-05
-3.5618548764751126e-06   2.7917324859662307e-07   -2.9790736291470526e-05
-3.5618548764751126e-06   2.7917324859662307e-07   -2.9790736291470526e-05
-3.248300456809545e-06   -1.451619551601181e-07   -3.9662954702760086e-05
-3.248300456809545e-06   -1.451619551601181e-07   -3.9662954702760086e-05
-3.248300456809545e-06   -1.451619551601181e-07   -3.9662954702760086e-05
-3.248300456809545e-06   -1.451619551601181e-07   -3.9662954702760086e-05
-9.434255931018779e-06   1.5311737428611721e-06   -3.0358830331223805e-05
-9.434255931018779e-06   1.5311737428611721e-06   -3.0358830331223805e-05
-9.434255931018779e-06   1.5311737428611721e-06   -3.0358830331223805e-05
-9.434255931018779e-06   1.5311737428611721e-06   -3.0358830331223805e-05
-6.406830370387437e-06   1.7835892549044122e-07   -3.459285070852077e-05
-6.406830370387437e-06   1.7835892549044122e-07   -3.459285070852077e-05
-6.406830370387437e-06   1.7835892549044122e-07   -3.459285070852077e-05
-6.406830370387437e-06   1.7835892549044122e-07   -3.459285070852077e-05
-9.434255931018763e-06   -1.4516195516020922e-07   -4.0668756121572795e-05
-9.434255931018763e-06   -1.4516195516020922e-07   -4.0668756121572795e-05
-9.434255931018763e-06   -1.4516195516020922e-07   -4.0668756121572795e-05
-9.434255931018763e-06   -1.4516195516020922e-07   -4.0668756121572795e-05
-3.2483004568095313e-06   1.531173742861389e-06   -2.9353028912411177e-05
-3.2483004568095313e-06   1.531173742861389e-06   -2.9353028912411177e-05
-3.2483004568095313e-06   1.531173742861389e-06   -2.9353028912411177e-05
-3.2483004568095313e-06   1.531173742861389e-06   -2.9353028912411177e-05
-2.7827995566030294e-06   1.133990581608877e-06   -4.0197377882228826e-05
-2.7827995566030294e-06   1.133990581608877e-06   -4.0197377882228826e-05
-2.7827995566030294e-06   1.133990581608877e-06   -4.0197377882228826e-05
-2.7827995566030294e-06   1.133990581608877e-06   -4.0197377882228826e-05
-9.198144525268261e-06   2.7110180474171526e-06   -3.0451352747271646e-05
-9.198144525268261e-06   2.7110180474171526e-06   -3.0451352747271646e-05
-9.198144525268261e-06   2.7110180474171526e-06   -3.0451352747271646e-05
-9.198144525268261e-06   2.7110180474171526e-06   -3.0451352747271646e-05
-6.217235970516082e-06   1.1891968090811493e-06   -3.45064409288569e-05
-6.217235970516082e-06   1.1891968090811493e-06   -3.45064409288569e-05
-6.217235970516082e-06   1.1891968090811493e-06   -3.45064409288569e-05
-6.217235970516082e-06   1.1891968090811493e-06   -3.45064409288569e-05
-9.198144525268246e-06   1.13399058160879e-06   -4.1143594361713704e-05
-9.198144525268246e-06   1.13399058160879e-06   -4.1143594361713704e-05
-9.198144525268246e-06   1.13399058160879e-06   -4.1143594361713704e-05
-9.198144525268246e-06   1.13399058160879e-06   -4.1143594361713704e-05
-2.782799556603043e-06   2.7110180474171526e-06   -2.9505136267786642e-05
-2.782799556603043e-06   2.7110180474171526e-06   -2.9505136267786642e-05
-2.782799556603043e-06   2.7110180474171526e-06   -2.9505136267786642e-05
-2.782799556603043e-06   2.7110180474171526e-06   -2.9505136267786642e-05
-2.4577811078598644e-06   2.6001443361561545e-06   -4.132164247299492e-05
-2.4577811078598644e-06   2.6001443361561545e-06   -4.132164247299492e-05
-2.4577811078598644e-06   2.6001443361561545e-06   -4.132164247299492e-05
-2.4577811078598644e-06   2.6001443361561545e-06   -4.132164247299492e-05
-8.986013351680947e-06   4.045136030941549e-06   -3.130825041683091e-05
-8.986013351680947e-06   4.045136030941549e-06   -3.130825041683091e-05
-8.986013351680947e-06   4.045136030941549e-06   -3.130825041683091e-05
-8.986013351680947e-06   4.045136030941549e-06   -3.130825041683091e-05
-6.018758910269902e-06   2.2486831819977862e-06   -3.5175802776483067e-05
-6.018758910269902e-06   2.2486831819977862e-06   -3.5175802776483067e-05
-6.018758910269902e-06   2.2486831819977862e-06   -3.5175802776483067e-05
-6.018758910269902e-06   2.2486831819977862e-06   -3.5175802776483067e-05
-3.5618548764751126e-06   -2.710283931681592e-06   -2.2240013411415076e-05
-3.5618548764751126e-06   -2.710283931681592e-06   -2.2240013411415076e-05
-3.5618548764751126e-06   -2.710283931681592e-06   -2.2240013411415076e-05
-3.5618548764751126e-06   -2.710283931681592e-06   -2.2240013411415076e-05
9.375208205558803e-07   3.86938241101354e-07   -1.2882720612693624e-05
9.375208205558803e-07   3.86938241101354e-07   -1.2882720612693624e-05
9.375208205558803e-07   3.86938241101354e-07   -1.2882720612693624e-05
9.375208205558803e-07   3.86938241101354e-07   -1.2882720612693624e-05
2.5917466397887355e-06   -1.80981967463998e-06   -2.124101556164851e-05
2.5917466397887355e-06   -1.80981967463998e-06   -2.124101556164851e-05
2.5917466397887355e-06   -1.80981967463998e-06   -2.124101556164851e-05
2.5917466397887355e-06   -1.80981967463998e-06   -2.124101556164851e-05
-3.2483004568095346e-06   1.3764767401620859e-06   -1.3419381582865594e-05
-3.2483004568095346e-06   1.3764767401620859e-06   -1.3419381582865594e-05
-3.2483004568095346e-06   1.3764767401620859e-06   -1.3419381582865594e-05
-3.2483004568095346e-06   1.3764767401620859e-06   -1.3419381582865594e-05
-7.989752984358424e-07   -5.555503169876828e-07   -1.6342373945865836e-05
-7.989752984358424e-07   -5.555503169876828e-07   -1.6342373945865836e-05
-7.989752984358424e-07   -5.555503169876828e-07   -1.6342373945865836e-05
-7.989752984358424e-07   -5.555503169876828e-07   -1.6342373945865836e-05
-3.2483004568095177e-06   -1.8098196746398993e-06   -2.315279341052936e-05
-3.2483004568095177e-06   -1.8098196746398993e-06   -2.315279341052936e-05
-3.2483004568095177e-06   -1.8098196746398993e-06   -2.315279341052936e-05
-3.2483004568095177e-06   -1.8098196746398993e-06   -2.315279341052936e-05
2.5917466397887355e-06   1.3764767401620859e-06   -1.1507603733984582e-05
2.5917466397887355e-06   1.3764767401620859e-06   -1.1507603733984582e-05
2.5917466397887355e-06   1.3764767401620859e-06   -1.1507603733984582e-05
2.5917466397887355e-06   1.3764767401620859e-06   -1.1507603733984582e-05
3.897912041208744e-06   -1.1880940693075222e-06   -2.2399562841933258e-05
3.897912041208744e-06   -1.1880940693075222e-06   -2.2399562841933258e-05
3.897912041208744e-06   -1.1880940693075222e-06   -2.2399562841933258e-05
3.897912041208744e-06   -1.1880940693075222e-06   -2.2399562841933258e-05
-2.7827995566030353e-06   1.9330120497192647e-06   -1.3137707183662818e-05
-2.7827995566030353e-06   1.9330120497192647e-06   -1.3137707183662818e-05
-2.7827995566030353e-06   1.9330120497192647e-06   -1.3137707183662818e-05
-2.7827995566030353e-06   1.9330120497192647e-06   -1.3137707183662818e-05
4.059458848908417e-08   -8.178916561423291e-08   -1.6634483362949455e-05
4.059458848908417e-08   -8.178916561423291e-08   -1.6634483362949455e-05
4.059458848908417e-08   -8.178916561423291e-08   -1.6634483362949455e-05
4.059458848908417e-08   -8.178916561423291e-08   -1.6634483362949455e-05
-2.7827995566030294e-06   -1.1880940693074104e-06   -2.427222651334919e-05
-2.7827995566030294e-06   -1.1880940693074104e-06   -2.427222651334919e-05
-2.7827995566030294e-06   -1.1880940693074104e-06   -2.427222651334919e-05
-2.7827995566030294e-06   -1.1880940693074104e-06   -2.427222651334919e-05
3.897912041208717e-06   1.9330120497192647e-06   -1.1265043512246752e-05
3.897912041208717e-06   1.9330120497192647e-06   -1.1265043512246752e-05
3.897912041208717e-06   1.9330120497192647e-06   -1.1265043512246752e-05
3.897912041208717e-06   1.9330120497192647e-06   -1.1265043512246752e-05
5.545989978988003e-06   3.4265567568580145e-08   -2.5093612049278296e-05
5.545989978988003e-06   3.4265567568580145e-08   -2.5093612049278296e-05
5.545989978988003e-06   3.4265567568580145e-08   -2.5093612049278296e-05
5.545989978988003e-06   3.4265567568580145e-08   -2.5093612049278296e-05
-2.457781107859868e-06   2.9200541037544686e-06   -1.3485466692909562e-05
-2.457781107859868e-06   2.9200541037544686e-06   -1.3485466692909562e-05
-2.457781107859868e-06   2.9200541037544686e-06   -1.3485466692909562e-05
-2.457781107859868e-06   2.9200541037544686e-06   -1.3485466692909562e-05
7.622208974244702e-07   4.5908200743444323e-07   -1.7375553443925267e-05
7.622208974244702e-07   4.5908200743444323e-07   -1.7375553443925267e-05
7.622208974244702e-07   4.5908200743444323e-07   -1.7375553443925267e-05
7.622208974244702e-07   4.5908200743444323e-07   -1.7375553443925267e-05
-1.0549584455373092e-05   1.9866917272008825e-06   -1.8911035349763626e-05
-1.0549584455373092e-05   1.9866917272008825e-06   -1.8911035349763626e-05
-1.0549584455373092e-05   1.9866917272008825e-06   -1.8911035349763626e-05
-1.0549584455373092e-05   1.9866917272008825e-06   -1.8911035349763626e-05
-1.068839398347203e-05   -9.235425299564028e-07   -2.088852511755604e-05
-1.068839398347203e-05   -9.235425299564028e-07   -2.088852511755604e-05
-1.068839398347203e-05   -9.235425299564028e-07   -2.088852511755604e-05
-1.068839398347203e-05   -9.235425299564028e-07   -2.088852511755604e-05
-1.01528559163251e-05   3.0934447339400154e-06   -1.7768221639482846e-05
-1.01528559163251e-05   3.0934447339400154e-06   -1.7768221639482846e-05
-1.01528559163251e-05   3.0934447339400154e-06   -1.7768221639482846e-05
-1.01528559163251e-05   3.0934447339400154e-06   -1.7768221639482846e-05
-8.707134280444341e-06   -2.8163948306110173e-08   -1.8304792489936216e-05
-8.707134280444341e-06   -2.8163948306110173e-08   -1.8304792489936216e-05
-8.707134280444341e-06   -2.8163948306110173e-08   -1.8304792489936216e-05
-8.707134280444341e-06   -2.8163948306110173e-08   -1.8304792489936216e-05
-9.58632156694045e-06   1.3676946032797899e-06   -1.7676995476728283e-05
-9.58632156694045e-06   1.3676946032797899e-06   -1.7676995476728283e-05
-9.58632156694045e-06   1.3676946032797899e-06   -1.7676995476728283e-05
-9.58632156694045e-06   1.3676946032797899e-06   -1.7676995476728283e-05
-8.707134280444345e-06   3.0934447339399536e-06   -1.5895256430135084e-05
-8.707134280444345e-06   3.0934447339399536e-06   -1.5895256430135084e-05
-8.707134280444345e-06   3.0934447339399536e-06   -1.5895256430135084e-05
-8.707134280444345e-06   3.0934447339399536e-06   -1.5895256430135084e-05
-1.0152855916325127e-05   -2.8163948306110173e-08   -2.017775769928414e-05
-1.0152855916325127e-05   -2.8163948306110173e-08   -2.017775769928414e-05
-1.0152855916325127e-05   -2.8163948306110173e-08   -2.017775769928414e-05
-1.0152855916325127e-05   -2.8163948306110173e-08   -2.017775769928414e-05
-9.47734126467882e-06   3.652604498214111e-06   -1.6489067764298903e-05
-9.47734126467882e-06   3.652604498214111e-06   -1.6489067764298903e-05
-9.47734126467882e-06   3.652604498214111e-06   -1.6489067764298903e-05
-9.47734126467882e-06   3.652604498214111e-06   -1.6489067764298903e-05
-7.1834241523155325e-06   4.783077856658144e-07   -1.8407684924042086e-05
-7.1834241523155325e-06   4.783077856658144e-07   -1.8407684924042086e-05
-7.1834241523155325e-06   4.783077856658144e-07   -1.8407684924042086e-05
-7.1834241523155325e-06   4.783077856658144e-07   -1.8407684924042086e-05
-8.713946486476352e-06   1.827372709591957e-06   -1.6666253321463828e-05
-8.713946486476352e-06   1.827372709591957e-06   -1.6666253321463828e-05
-8.713946486476352e-06   1.827372709591957e-06   -1.6666253321463828e-05
-8.713946486476352e-06   1.827372709591957e-06   -1.6666253321463828e-05
-7.1834241523154995e-06   3.652604498214044e-06   -1.458448973677012e-05
-7.1834241523154995e-06   3.652604498214044e-06   -1.458448973677012e-05
-7.1834241523154995e-06   3.652604498214044e-06   -1.458448973677012e-05
-7.1834241523154995e-06   3.652604498214044e-06   -1.458448973677012e-05
-9.477341264678847e-06   4.783077856658144e-07   -2.031226295157103e-05
-9.477341264678847e-06   4.783077856658144e-07   -2.031226295157103e-05
-9.477341264678847e-06   4.783077856658144e-07   -2.031226295157103e-05
-9.477341264678847e-06   4.783077856658144e-07   -2.031226295157103e-05
-8.950381999185106e-06   4.538325487085746e-06   -1.529958276418335e-05
-8.950381999185106e-06   4.538325487085746e-06   -1.529958276418335e-05
-8.950381999185106e-06   4.538325487085746e-06   -1.529958276418335e-05
-8.950381999185106e-06   4.538325487085746e-06   -1.529958276418335e-05
-5.302131651313158e-06   1.488443513099737e-06   -1.9550070826245274e-05
-5.302131651313158e-06   1.488443513099737e-06   -1.9550070826245274e-05
-5.302131651313158e-06   1.488443513099737e-06   -1.9550070826245274e-05
-5.302131651313158e-06   1.488443513099737e-06   -1.9550070826245274e-05
-7.623490520966259e-06   2.2678525954059753e-06   -1.614878482620631e-05
-7.623490520966259e-06   2.2678525954059753e-06   -1.614878482620631e-05
-7.623490520966259e-06   2.2678525954059753e-06   -1.614878482620631e-05
-7.623490520966259e-06   2.2678525954059753e-06   -1.614878482620631e-05
-1.0688393983472003e-05   1.1404452929537607e-06   -3.437786705414185e-05
-1.0688393983472003e-05   1.1404452929537607e-06   -3.437786705414185e-05
-1.0688393983472003e-05   1.1404452929537607e-06   -3.437786705414185e-05
-1.0688393983472003e-05   1.1404452929537607e-06   -3.437786705414185e-05
-1.2312892007421716e-05   -2.0016697793029392e-07   -3.78897311232553e-05
-1.2312892007421716e-05   -2.0016697793029392e-07   -3.78897311232553e-05
-1.2312892007421716e-05   -2.0016697793029392e-07   -3.78897311232553e-05
-1.2312892007421716e-05   -2.0016697793029392e-07   -3.78897311232553e-05
-1.1880134216622735e-05   2.409494714591216e-06   -3.4403743143385495e-05
-1.1880134216622735e-05   2.409494714591216e-06   -3.4403743143385495e-05
-1.1880134216622735e-05   2.409494714591216e-06   -3.4403743143385495e-05
-1.1880134216622735e-05   2.409494714591216e-06   -3.4403743143385495e-05
-1.0152855916325126e-05   9.295527502201518e-07   -3.6394575131925514e-05
-1.0152855916325126e-05   9.295527502201518e-07   -3.6394575131925514e-05
-1.0152855916325126e-05   9.295527502201518e-07   -3.6394575131925514e-05
-1.0152855916325126e-05   9.295527502201518e-07   -3.6394575131925514e-05
-1.112742503369752e-05   1.3177425228748114e-06   -3.500320713323166e-05
-1.112742503369752e-05   1.3177425228748114e-06   -3.500320713323166e-05
-1.112742503369752e-05   1.3177425228748114e-06   -3.500320713323166e-05
-1.112742503369752e-05   1.3177425228748114e-06   -3.500320713323166e-05
-1.01528559163251e-05   2.4094947145911897e-06   -3.351577796476262e-05
-1.01528559163251e-05   2.4094947145911897e-06   -3.351577796476262e-05
-1.01528559163251e-05   2.4094947145911897e-06   -3.351577796476262e-05
-1.01528559163251e-05   2.4094947145911897e-06   -3.351577796476262e-05
-1.1880134216622721e-05   9.295527502201518e-07   -3.728254031054828e-05
-1.1880134216622721e-05   9.295527502201518e-07   -3.728254031054828e-05
-1.1880134216622721e-05   9.295527502201518e-07   -3.728254031054828e-05
-1.1880134216622721e-05   9.295527502201518e-07   -3.728254031054828e-05
-1.1430051272611039e-05   3.5894881483446855e-06   -3.411536143175988e-05
-1.1430051272611039e-05   3.5894881483446855e-06   -3.411536143175988e-05
-1.1430051272611039e-05   3.5894881483446855e-06   -3.411536143175988e-05
-1.1430051272611039e-05   3.5894881483446855e-06   -3.411536143175988e-05
-9.477341264678852e-06   2.0171994191062192e-06   -3.6426504874103455e-05
-9.477341264678852e-06   2.0171994191062192e-06   -3.6426504874103455e-05
-9.477341264678852e-06   2.0171994191062192e-06   -3.6426504874103455e-05
-9.477341264678852e-06   2.0171994191062192e-06   -3.6426504874103455e-05
-1.0693771539774017e-05   2.228499501486566e-06   -3.452590113170662e-05
-1.0693771539774017e-05   2.228499501486566e-06   -3.452590113170662e-05
-1.0693771539774017e-05   2.228499501486566e-06   -3.452590113170662e-05
-1.0693771539774017e-05   2.228499501486566e-06   -3.452590113170662e-05
-9.47734126467882e-06   3.589488148344723e-06   -3.3171988194216585e-05
-9.47734126467882e-06   3.589488148344723e-06   -3.3171988194216585e-05
-9.47734126467882e-06   3.589488148344723e-06   -3.3171988194216585e-05
-9.47734126467882e-06   3.589488148344723e-06   -3.3171988194216585e-05
-1.1430051272611025e-05   2.0171994191062192e-06   -3.7369878111646426e-05
-1.1430051272611025e-05   2.0171994191062192e-06   -3.7369878111646426e-05
-1.1430051272611025e-05   2.0171994191062192e-06   -3.7369878111646426e-05
-1.1430051272611025e-05   2.0171994191062192e-06   -3.7369878111646426e-05
-1.1006135776399072e-05   4.900640983133931e-06   -3.468036225852248e-05
-1.1006135776399072e-05   4.900640983133931e-06   -3.468036225852248e-05
-1.1006135776399072e-05   4.900640983133931e-06   -3.468036225852248e-05
-1.1006135776399072e-05   4.900640983133931e-06   -3.468036225852248e-05
-8.950381999185128e-06   3.2591527306953093e-06   -3.712172560241603e-05
-8.950381999185128e-06   3.2591527306953093e-06   -3.712172560241603e-05
-8.950381999185128e-06   3.2591527306953093e-06   -3.712172560241603e-05
-8.950381999185128e-06   3.2591527306953093e-06   -3.712172560241603e-05
-1.031221579964246e-05   3.183856398550301e-06   -3.4806824802366236e-05
-1.031221579964246e-05   3.183856398550301e-06   -3.4806824802366236e-05
-1.031221579964246e-05   3.183856398550301e-06   -3.4806824802366236e-05
-1.031221579964246e-05   3.183856398550301e-06   -3.4806824802366236e-05
-1.2312892007421676e-05   6.535145441996432e-07   -4.003504509446864e-05
-1.2312892007421676e-05   6.535145441996432e-07   -4.003504509446864e-05
-1.2312892007421676e-05   6.535145441996432e-07   -4.003504509446864e-05
-1.2312892007421676e-05   6.535145441996432e-07   -4.003504509446864e-05
-1.402381128914613e-05   9.367109804611293e-07   -4.271665936891921e-05
-1.402381128914613e-05   9.367109804611293e-07   -4.271665936891921e-05
-1.402381128914613e-05   9.367109804611293e-07   -4.271665936891921e-05
-1.402381128914613e-05   9.367109804611293e-07   -4.271665936891921e-05
-1.3598501268285858e-05   1.9460384877224065e-06   -3.941822637369252e-05
-1.3598501268285858e-05   1.9460384877224065e-06   -3.941822637369252e-05
-1.3598501268285858e-05   1.9460384877224065e-06   -3.941822637369252e-05
-1.3598501268285858e-05   1.9460384877224065e-06   -3.941822637369252e-05
-1.1880134216622713e-05   2.104342218200994e-06   -4.2377153698084795e-05
-1.1880134216622713e-05   2.104342218200994e-06   -4.2377153698084795e-05
-1.1880134216622713e-05   2.104342218200994e-06   -4.2377153698084795e-05
-1.1880134216622713e-05   2.104342218200994e-06   -4.2377153698084795e-05
-1.2875854008743248e-05   1.5920070357447295e-06   -4.0410219601744e-05
-1.2875854008743248e-05   1.5920070357447295e-06   -4.0410219601744e-05
-1.2875854008743248e-05   1.5920070357447295e-06   -4.0410219601744e-05
-1.2875854008743248e-05   1.5920070357447295e-06   -4.0410219601744e-05
-1.1880134216622694e-05   1.94603848772236e-06   -3.9513208611979605e-05
-1.1880134216622694e-05   1.94603848772236e-06   -3.9513208611979605e-05
-1.1880134216622694e-05   1.94603848772236e-06   -3.9513208611979605e-05
-1.1880134216622694e-05   1.94603848772236e-06   -3.9513208611979605e-05
-1.3598501268285858e-05   2.104342218200994e-06   -4.228217145979779e-05
-1.3598501268285858e-05   2.104342218200994e-06   -4.228217145979779e-05
-1.3598501268285858e-05   2.104342218200994e-06   -4.228217145979779e-05
-1.3598501268285858e-05   2.104342218200994e-06   -4.228217145979779e-05
-1.3151187624613823e-05   3.249886735269287e-06   -3.95326343526275e-05
-1.3151187624613823e-05   3.249886735269287e-06   -3.95326343526275e-05
-1.3151187624613823e-05   3.249886735269287e-06   -3.95326343526275e-05
-1.3151187624613823e-05   3.249886735269287e-06   -3.95326343526275e-05
-1.1430051272611025e-05   3.2976460480726565e-06   -4.2429850526980384e-05
-1.1430051272611025e-05   3.2976460480726565e-06   -4.2429850526980384e-05
-1.1430051272611025e-05   3.2976460480726565e-06   -4.2429850526980384e-05
-1.1430051272611025e-05   3.2976460480726565e-06   -4.2429850526980384e-05
-1.2518917777910925e-05   2.590821320101787e-06   -4.019097818136553e-05
-1.2518917777910925e-05   2.590821320101787e-06   -4.019097818136553e-05
-1.2518917777910925e-05   2.590821320101787e-06   -4.019097818136553e-05
-1.2518917777910925e-05   2.590821320101787e-06   -4.019097818136553e-05
-1.1430051272611025e-05   3.2498867352693428e-06   -3.9561289940309306e-05
-1.1430051272611025e-05   3.2498867352693428e-06   -3.9561289940309306e-05
-1.1430051272611025e-05   3.2498867352693428e-06   -3.9561289940309306e-05
-1.1430051272611025e-05   3.2498867352693428e-06   -3.9561289940309306e-05
-1.31511876246138e-05   3.2976460480726565e-06   -4.24011949392985e-05
-1.31511876246138e-05   3.2976460480726565e-06   -4.24011949392985e-05
-1.31511876246138e-05   3.2976460480726565e-06   -4.24011949392985e-05
-1.31511876246138e-05   3.2976460480726565e-06   -4.24011949392985e-05
-1.2729305893780464e-05   4.573410741635486e-06   -4.0299946172899295e-05
-1.2729305893780464e-05   4.573410741635486e-06   -4.0299946172899295e-05
-1.2729305893780464e-05   4.573410741635486e-06   -4.0299946172899295e-05
-1.2729305893780464e-05   4.573410741635486e-06   -4.0299946172899295e-05
-1.1006135776399082e-05   4.507462514920842e-06   -4.3132327432505866e-05
-1.1006135776399082e-05   4.507462514920842e-06   -4.3132327432505866e-05
-1.1006135776399082e-05   4.507462514920842e-06   -4.3132327432505866e-05
-1.1006135776399082e-05   4.507462514920842e-06   -4.3132327432505866e-05
-1.2190381803238668e-05   3.6036108225253986e-06   -4.0616273039002085e-05
-1.2190381803238668e-05   3.6036108225253986e-06   -4.0616273039002085e-05
-1.2190381803238668e-05   3.6036108225253986e-06   -4.0616273039002085e-05
-1.2190381803238668e-05   3.6036108225253986e-06   -4.0616273039002085e-05
-1.4023811289146102e-05   2.7917324859660237e-07   -3.4539760546315585e-05
-1.4023811289146102e-05   2.7917324859660237e-07   -3.4539760546315585e-05
-1.4023811289146102e-05   2.7917324859660237e-07   -3.4539760546315585e-05
-1.4023811289146102e-05   2.7917324859660237e-07   -3.4539760546315585e-05
-1.583024086086065e-05   2.0820134130959764e-06   -3.646877240047366e-05
-1.583024086086065e-05   2.0820134130959764e-06   -3.646877240047366e-05
-1.583024086086065e-05   2.0820134130959764e-06   -3.646877240047366e-05
-1.583024086086065e-05   2.0820134130959764e-06   -3.646877240047366e-05
-1.5315654752135808e-05   1.5311737428611721e-06   -3.30214794360842e-05
-1.5315654752135808e-05   1.5311737428611721e-06   -3.30214794360842e-05
-1.5315654752135808e-05   1.5311737428611721e-06   -3.30214794360842e-05
-1.5315654752135808e-05   1.5311737428611721e-06   -3.30214794360842e-05
-1.359850126828586e-05   3.2535719157206645e-06   -3.691684081288277e-05
-1.359850126828586e-05   3.2535719157206645e-06   -3.691684081288277e-05
-1.359850126828586e-05   3.2535719157206645e-06   -3.691684081288277e-05
-1.359850126828586e-05   3.2535719157206645e-06   -3.691684081288277e-05
-1.4578507987281476e-05   1.9170048838113886e-06   -3.448155606207849e-05
-1.4578507987281476e-05   1.9170048838113886e-06   -3.448155606207849e-05
-1.4578507987281476e-05   1.9170048838113886e-06   -3.448155606207849e-05
-1.4578507987281476e-05   1.9170048838113886e-06   -3.448155606207849e-05
-1.3598501268285836e-05   1.5311737428612363e-06   -3.4054918339799655e-05
-1.3598501268285836e-05   1.5311737428612363e-06   -3.4054918339799655e-05
-1.3598501268285836e-05   1.5311737428612363e-06   -3.4054918339799655e-05
-1.3598501268285836e-05   1.5311737428612363e-06   -3.4054918339799655e-05
-1.5315654752135808e-05   3.2535719157206645e-06   -3.5883401909167414e-05
-1.5315654752135808e-05   3.2535719157206645e-06   -3.5883401909167414e-05
-1.5315654752135808e-05   3.2535719157206645e-06   -3.5883401909167414e-05
-1.5315654752135808e-05   3.2535719157206645e-06   -3.5883401909167414e-05
-1.465071755988303e-05   2.7110180474171526e-06   -3.316450249068884e-05
-1.465071755988303e-05   2.7110180474171526e-06   -3.316450249068884e-05
-1.465071755988303e-05   2.7110180474171526e-06   -3.316450249068884e-05
-1.465071755988303e-05   2.7110180474171526e-06   -3.316450249068884e-05
-1.31511876246138e-05   4.334372328518646e-06   -3.6637731618131714e-05
-1.31511876246138e-05   4.334372328518646e-06   -3.6637731618131714e-05
-1.31511876246138e-05   4.334372328518646e-06   -3.6637731618131714e-05
-1.31511876246138e-05   4.334372328518646e-06   -3.6637731618131714e-05
-1.4118622893561627e-05   2.8464798790565557e-06   -3.4132604033541736e-05
-1.4118622893561627e-05   2.8464798790565557e-06   -3.4132604033541736e-05
-1.4118622893561627e-05   2.8464798790565557e-06   -3.4132604033541736e-05
-1.4118622893561627e-05   2.8464798790565557e-06   -3.4132604033541736e-05
-1.3151187624613777e-05   2.711018047417229e-06   -3.4138515059349735e-05
-1.3151187624613777e-05   2.711018047417229e-06   -3.4138515059349735e-05
-1.3151187624613777e-05   2.711018047417229e-06   -3.4138515059349735e-05
-1.3151187624613777e-05   2.711018047417229e-06   -3.4138515059349735e-05
-1.4650717559883044e-05   4.334372328518863e-06   -3.5663719049470804e-05
-1.4650717559883044e-05   4.334372328518863e-06   -3.5663719049470804e-05
-1.4650717559883044e-05   4.334372328518863e-06   -3.5663719049470804e-05
-1.4650717559883044e-05   4.334372328518863e-06   -3.5663719049470804e-05
-1.4128330651244853e-05   4.045136030941549e-06   -3.40843503682562e-05
-1.4128330651244853e-05   4.045136030941549e-06   -3.40843503682562e-05
-1.4128330651244853e-05   4.045136030941549e-06   -3.40843503682562e-05
-1.4128330651244853e-05   4.045136030941549e-06   -3.40843503682562e-05
-1.2729305893780462e-05   5.545648194800164e-06   -3.73163655956788e-05
-1.2729305893780462e-05   5.545648194800164e-06   -3.73163655956788e-05
-1.2729305893780462e-05   5.545648194800164e-06   -3.73163655956788e-05
-1.2729305893780462e-05   5.545648194800164e-06   -3.73163655956788e-05
-1.3774111594057238e-05   3.796415548779769e-06   -3.4525483174271595e-05
-1.3774111594057238e-05   3.796415548779769e-06   -3.4525483174271595e-05
-1.3774111594057238e-05   3.796415548779769e-06   -3.4525483174271595e-05
-1.3774111594057238e-05   3.796415548779769e-06   -3.4525483174271595e-05
-1.5830240860860583e-05   3.86938241101361e-07   -1.8408374072508894e-05
-1.5830240860860583e-05   3.86938241101361e-07   -1.8408374072508894e-05
-1.5830240860860583e-05   3.86938241101361e-07   -1.8408374072508894e-05
-1.5830240860860583e-05   3.86938241101361e-07   -1.8408374072508894e-05
-1.9170844989436245e-05   3.498565097832893e-06   -2.2109071506096157e-05
-1.9170844989436245e-05   3.498565097832893e-06   -2.2109071506096157e-05
-1.9170844989436245e-05   3.498565097832893e-06   -2.2109071506096157e-05
-1.9170844989436245e-05   3.498565097832893e-06   -2.2109071506096157e-05
-1.734358902666269e-05   1.3764767401620859e-06   -1.5177317493124246e-05
-1.734358902666269e-05   1.3764767401620859e-06   -1.5177317493124246e-05
-1.734358902666269e-05   1.3764767401620859e-06   -1.5177317493124246e-05
-1.734358902666269e-05   1.3764767401620859e-06   -1.5177317493124246e-05
-1.5315654752135788e-05   4.560667762519783e-06   -2.046772256408355e-05
-1.5315654752135788e-05   4.560667762519783e-06   -2.046772256408355e-05
-1.5315654752135788e-05   4.560667762519783e-06   -2.046772256408355e-05
-1.5315654752135788e-05   4.560667762519783e-06   -2.046772256408355e-05
-1.6230500424070653e-05   2.5842143076435994e-06   -1.7757107704599958e-05
-1.6230500424070653e-05   2.5842143076435994e-06   -1.7757107704599958e-05
-1.6230500424070653e-05   2.5842143076435994e-06   -1.7757107704599958e-05
-1.6230500424070653e-05   2.5842143076435994e-06   -1.7757107704599958e-05
-1.5315654752135754e-05   1.3764767401621458e-06   -1.708783210653867e-05
-1.5315654752135754e-05   1.3764767401621458e-06   -1.708783210653867e-05
-1.5315654752135754e-05   1.3764767401621458e-06   -1.708783210653867e-05
-1.5315654752135754e-05   1.3764767401621458e-06   -1.708783210653867e-05
-1.734358902666269e-05   4.560667762519783e-06   -1.8557207950669046e-05
-1.734358902666269e-05   4.560667762519783e-06   -1.8557207950669046e-05
-1.734358902666269e-05   4.560667762519783e-06   -1.8557207950669046e-05
-1.734358902666269e-05   4.560667762519783e-06   -1.8557207950669046e-05
-1.5857371887560657e-05   1.9330120497192647e-06   -1.492869491068259e-05
-1.5857371887560657e-05   1.9330120497192647e-06   -1.492869491068259e-05
-1.5857371887560657e-05   1.9330120497192647e-06   -1.492869491068259e-05
-1.5857371887560657e-05   1.9330120497192647e-06   -1.492869491068259e-05
-1.4650717559883034e-05   5.046976209523678e-06   -1.880816395269429e-05
-1.4650717559883034e-05   5.046976209523678e-06   -1.880816395269429e-05
-1.4650717559883034e-05   5.046976209523678e-06   -1.880816395269429e-05
-1.4650717559883034e-05   5.046976209523678e-06   -1.880816395269429e-05
-1.5450392272951985e-05   3.0759113723304206e-06   -1.6292733861930316e-05
-1.5450392272951985e-05   3.0759113723304206e-06   -1.6292733861930316e-05
-1.5450392272951985e-05   3.0759113723304206e-06   -1.6292733861930316e-05
-1.5450392272951985e-05   3.0759113723304206e-06   -1.6292733861930316e-05
-1.4650717559883003e-05   1.933012049719422e-06   -1.6797073406564934e-05
-1.4650717559883003e-05   1.933012049719422e-06   -1.6797073406564934e-05
-1.4650717559883003e-05   1.933012049719422e-06   -1.6797073406564934e-05
-1.4650717559883003e-05   1.933012049719422e-06   -1.6797073406564934e-05
-1.5857371887560684e-05   5.046976209523678e-06   -1.693978545681189e-05
-1.5857371887560684e-05   5.046976209523678e-06   -1.693978545681189e-05
-1.5857371887560684e-05   5.046976209523678e-06   -1.693978545681189e-05
-1.5857371887560684e-05   5.046976209523678e-06   -1.693978545681189e-05
-1.4039715163476296e-05   2.9200541037542518e-06   -1.540023694658111e-05
-1.4039715163476296e-05   2.9200541037542518e-06   -1.540023694658111e-05
-1.4039715163476296e-05   2.9200541037542518e-06   -1.540023694658111e-05
-1.4039715163476296e-05   2.9200541037542518e-06   -1.540023694658111e-05
-1.4128330651244848e-05   5.800595294796346e-06   -1.698086918159187e-05
-1.4128330651244848e-05   5.800595294796346e-06   -1.698086918159187e-05
-1.4128330651244848e-05   5.800595294796346e-06   -1.698086918159187e-05
-1.4128330651244848e-05   5.800595294796346e-06   -1.698086918159187e-05
-1.4303060930929612e-05   3.4734650413076936e-06   -1.529337389669078e-05
-1.4303060930929612e-05   3.4734650413076936e-06   -1.529337389669078e-05
-1.4303060930929612e-05   3.4734650413076936e-06   -1.529337389669078e-05
-1.4303060930929612e-05   3.4734650413076936e-06   -1.529337389669078e-05
9.334845137105646e-06   -9.235425299562781e-07   -9.577850979267718e-06
9.334845137105646e-06   -9.235425299562781e-07   -9.577850979267718e-06
9.334845137105646e-06   -9.235425299562781e-07   -9.577850979267718e-06
9.334845137105646e-06   -9.235425299562781e-07   -9.577850979267718e-06
9.572427686022024e-07   -3.8859186137617935e-06   -2.5317947243723524e-05
9.572427686022024e-07   -3.8859186137617935e-06   -2.5317947243723524e-05
9.572427686022024e-07   -3.8859186137617935e-06   -2.5317947243723524e-05
9.572427686022024e-07   -3.8859186137617935e-06   -2.5317947243723524e-05
1.691492045941868e-06   -2.8163948306110173e-08   -1.0580860009455628e-05
1.691492045941868e-06   -2.8163948306110173e-08   -1.0580860009455628e-05
1.691492045941868e-06   -2.8163948306110173e-08   -1.0580860009455628e-05
1.691492045941868e-06   -2.8163948306110173e-08   -1.0580860009455628e-05
1.1385474375437132e-05   -3.1933150166254913e-06   -2.4838406584289357e-05
1.1385474375437132e-05   -3.1933150166254913e-06   -2.4838406584289357e-05
1.1385474375437132e-05   -3.1933150166254913e-06   -2.4838406584289357e-05
1.1385474375437132e-05   -3.1933150166254913e-06   -2.4838406584289357e-05
5.624611156541472e-06   -1.6212567782258967e-06   -1.6180202829169717e-05
5.624611156541472e-06   -1.6212567782258967e-06   -1.6180202829169717e-05
5.624611156541472e-06   -1.6212567782258967e-06   -1.6180202829169717e-05
5.624611156541472e-06   -1.6212567782258967e-06   -1.6180202829169717e-05
1.1385474375437139e-05   -2.8163948306061032e-08   -8.681769368463978e-06
1.1385474375437139e-05   -2.8163948306061032e-08   -8.681769368463978e-06
1.1385474375437139e-05   -2.8163948306061032e-08   -8.681769368463978e-06
1.1385474375437139e-05   -2.8163948306061032e-08   -8.681769368463978e-06
1.691492045941841e-06   -3.1933150166254913e-06   -2.6737497225281116e-05
1.691492045941841e-06   -3.1933150166254913e-06   -2.6737497225281116e-05
1.691492045941841e-06   -3.1933150166254913e-06   -2.6737497225281116e-05
1.691492045941841e-06   -3.1933150166254913e-06   -2.6737497225281116e-05
2.5570215312310178e-06   4.783077856658144e-07   -1.0661725520669718e-05
2.5570215312310178e-06   4.783077856658144e-07   -1.0661725520669718e-05
2.5570215312310178e-06   4.783077856658144e-07   -1.0661725520669718e-05
2.5570215312310178e-06   4.783077856658144e-07   -1.0661725520669718e-05
1.3118881401462274e-05   -2.731614750362118e-06   -2.6338871782771505e-05
1.3118881401462274e-05   -2.731614750362118e-06   -2.6338871782771505e-05
1.3118881401462274e-05   -2.731614750362118e-06   -2.6338871782771505e-05
1.3118881401462274e-05   -2.731614750362118e-06   -2.6338871782771505e-05
6.9254415011780416e-06   -1.297651396614313e-06   -1.6876849961213857e-05
6.9254415011780416e-06   -1.297651396614313e-06   -1.6876849961213857e-05
6.9254415011780416e-06   -1.297651396614313e-06   -1.6876849961213857e-05
6.9254415011780416e-06   -1.297651396614313e-06   -1.6876849961213857e-05
1.3118881401462292e-05   4.783077856658454e-07   -8.735771999052633e-06
1.3118881401462292e-05   4.783077856658454e-07   -8.735771999052633e-06
1.3118881401462292e-05   4.783077856658454e-07   -8.735771999052633e-06
1.3118881401462292e-05   4.783077856658454e-07   -8.735771999052633e-06
2.5570215312310178e-06   -2.731614750362335e-06   -2.8264825304388157e-05
2.5570215312310178e-06   -2.731614750362335e-06   -2.8264825304388157e-05
2.5570215312310178e-06   -2.731614750362335e-06   -2.8264825304388157e-05
2.5570215312310178e-06   -2.731614750362335e-06   -2.8264825304388157e-05
3.269591310316167e-06   1.488443513099737e-06   -1.1681983077822637e-05
3.269591310316167e-06   1.488443513099737e-06   -1.1681983077822637e-05
3.269591310316167e-06   1.488443513099737e-06   -1.1681983077822637e-05
3.269591310316167e-06   1.488443513099737e-06   -1.1681983077822637e-05
1.5201130966774434e-05   -1.5682001386018406e-06   -2.973389631423203e-05
1.5201130966774434e-05   -1.5682001386018406e-06   -2.973389631423203e-05
1.5201130966774434e-05   -1.5682001386018406e-06   -2.973389631423203e-05
1.5201130966774434e-05   -1.5682001386018406e-06   -2.973389631423203e-05
7.960482292918921e-06   -8.224834080082163e-07   -1.8113578562829204e-05
7.960482292918921e-06   -8.224834080082163e-07   -1.8113578562829204e-05
7.960482292918921e-06   -8.224834080082163e-07   -1.8113578562829204e-05
7.960482292918921e-06   -8.224834080082163e-07   -1.8113578562829204e-05
9.572427686022295e-07   -2.001669779303863e-07   -2.7552115272719887e-05
9.572427686022295e-07   -2.001669779303863e-07   -2.7552115272719887e-05
9.572427686022295e-07   -2.001669779303863e-07   -2.7552115272719887e-05
9.572427686022295e-07   -2.001669779303863e-07   -2.7552115272719887e-05
-8.820292969325083e-06   -1.5372647864852953e-06   -4.46502668543982e-05
-8.820292969325083e-06   -1.5372647864852953e-06   -4.46502668543982e-05
-8.820292969325083e-06   -1.5372647864852953e-06   -4.46502668543982e-05
-8.820292969325083e-06   -1.5372647864852953e-06   -4.46502668543982e-05
-8.176180826481051e-06   9.295527502201518e-07   -2.770805225225546e-05
-8.176180826481051e-06   9.295527502201518e-07   -2.770805225225546e-05
-8.176180826481051e-06   9.295527502201518e-07   -2.770805225225546e-05
-8.176180826481051e-06   9.295527502201518e-07   -2.770805225225546e-05
1.6914920459418543e-06   -5.877386000439997e-07   -4.324379889613522e-05
1.6914920459418543e-06   -5.877386000439997e-07   -4.324379889613522e-05
1.6914920459418543e-06   -5.877386000439997e-07   -4.324379889613522e-05
1.6914920459418543e-06   -5.877386000439997e-07   -4.324379889613522e-05
-3.50402010076354e-06   -5.8168286179091644e-08   -3.4902354173278554e-05
-3.50402010076354e-06   -5.8168286179091644e-08   -3.4902354173278554e-05
-3.50402010076354e-06   -5.8168286179091644e-08   -3.4902354173278554e-05
-3.50402010076354e-06   -5.8168286179091644e-08   -3.4902354173278554e-05
1.691492045941868e-06   9.295527502201587e-07   -2.679767744209684e-05
1.691492045941868e-06   9.295527502201587e-07   -2.679767744209684e-05
1.691492045941868e-06   9.295527502201587e-07   -2.679767744209684e-05
1.691492045941868e-06   9.295527502201587e-07   -2.679767744209684e-05
-8.176180826481079e-06   -5.877386000437829e-07   -4.415417370629384e-05
-8.176180826481079e-06   -5.877386000437829e-07   -4.415417370629384e-05
-8.176180826481079e-06   -5.877386000437829e-07   -4.415417370629384e-05
-8.176180826481079e-06   -5.877386000437829e-07   -4.415417370629384e-05
-7.528396965775409e-06   2.0171994191062192e-06   -2.7749841336911253e-05
-7.528396965775409e-06   2.0171994191062192e-06   -2.7749841336911253e-05
-7.528396965775409e-06   2.0171994191062192e-06   -2.7749841336911253e-05
-7.528396965775409e-06   2.0171994191062192e-06   -2.7749841336911253e-05
2.5570215312310093e-06   3.9407626292362573e-07   -4.358499827154588e-05
2.5570215312310093e-06   3.9407626292362573e-07   -4.358499827154588e-05
2.5570215312310093e-06   3.9407626292362573e-07   -4.358499827154588e-05
2.5570215312310093e-06   3.9407626292362573e-07   -4.358499827154588e-05
-2.9334862590399962e-06   7.216667254374143e-07   -3.463070623193579e-05
-2.9334862590399962e-06   7.216667254374143e-07   -3.463070623193579e-05
-2.9334862590399962e-06   7.216667254374143e-07   -3.463070623193579e-05
-2.9334862590399962e-06   7.216667254374143e-07   -3.463070623193579e-05
2.5570215312310178e-06   2.0171994191062527e-06   -2.677596744320198e-05
2.5570215312310178e-06   2.0171994191062527e-06   -2.677596744320198e-05
2.5570215312310178e-06   2.0171994191062527e-06   -2.677596744320198e-05
2.5570215312310178e-06   2.0171994191062527e-06   -2.677596744320198e-05
-7.528396965775409e-06   3.9407626292362573e-07   -4.455887216525548e-05
-7.528396965775409e-06   3.9407626292362573e-07   -4.455887216525548e-05
-7.528396965775409e-06   3.9407626292362573e-07   -4.455887216525548e-05
-7.528396965775409e-06   3.9407626292362573e-07   -4.455887216525548e-05
-6.909439453410467e-06   3.2591527306953093e-06   -2.8445138485204196e-05
-6.909439453410467e-06   3.2591527306953093e-06   -2.8445138485204196e-05
-6.909439453410467e-06   3.2591527306953093e-06   -2.8445138485204196e-05
-6.909439453410467e-06   3.2591527306953093e-06   -2.8445138485204196e-05
3.2695913103161843e-06   1.5567697046912563e-06   -4.4388759942479844e-05
3.2695913103161843e-06   1.5567697046912563e-06   -4.4388759942479844e-05
3.2695913103161843e-06   1.5567697046912563e-06   -4.4388759942479844e-05
3.2695913103161843e-06   1.5567697046912563e-06   -4.4388759942479844e-05
-2.2982081248341078e-06   1.5860867725219288e-06   -3.5126684457927526e-05
-2.2982081248341078e-06   1.5860867725219288e-06   -3.5126684457927526e-05
-2.2982081248341078e-06   1.5860867725219288e-06   -3.5126684457927526e-05
-2.2982081248341078e-06   1.5860867725219288e-06   -3.5126684457927526e-05
-8.82029296932511e-06   9.367109804609802e-07   -3.335122006527377e-05
-8.82029296932511e-06   9.367109804609802e-07   -3.335122006527377e-05
-8.82029296932511e-06   9.367109804609802e-07   -3.335122006527377e-05
-8.82029296932511e-06   9.367109804609802e-07   -3.335122006527377e-05
-1.851301208635215e-05   1.1808060545253577e-06   -4.935929488254678e-05
-1.851301208635215e-05   1.1808060545253577e-06   -4.935929488254678e-05
-1.851301208635215e-05   1.1808060545253577e-06   -4.935929488254678e-05
-1.851301208635215e-05   1.1808060545253577e-06   -4.935929488254678e-05
-1.7864314182360372e-05   2.104342218200994e-06   -3.275403538934409e-05
-1.7864314182360372e-05   2.104342218200994e-06   -3.275403538934409e-05
-1.7864314182360372e-05   2.104342218200994e-06   -3.275403538934409e-05
-1.7864314182360372e-05   2.104342218200994e-06   -3.275403538934409e-05
-8.176180826481084e-06   2.1853926356143766e-06   -4.89495545662577e-05
-8.176180826481084e-06   2.1853926356143766e-06   -4.89495545662577e-05
-8.176180826481084e-06   2.1853926356143766e-06   -4.89495545662577e-05
-8.176180826481084e-06   2.1853926356143766e-06   -4.89495545662577e-05
-1.326618483170156e-05   1.8067395399913415e-06   -4.0239022700182966e-05
-1.326618483170156e-05   1.8067395399913415e-06   -4.0239022700182966e-05
-1.326618483170156e-05   1.8067395399913415e-06   -4.0239022700182966e-05
-1.326618483170156e-05   1.8067395399913415e-06   -4.0239022700182966e-05
-8.176180826481079e-06   2.1043422182010034e-06   -3.280266563979216e-05
-8.176180826481079e-06   2.1043422182010034e-06   -3.280266563979216e-05
-8.176180826481079e-06   2.1043422182010034e-06   -3.280266563979216e-05
-8.176180826481079e-06   2.1043422182010034e-06   -3.280266563979216e-05
-1.7864314182360345e-05   2.1853926356143766e-06   -4.89009243158096e-05
-1.7864314182360345e-05   2.1853926356143766e-06   -4.89009243158096e-05
-1.7864314182360345e-05   2.1853926356143766e-06   -4.89009243158096e-05
-1.7864314182360345e-05   2.1853926356143766e-06   -4.89009243158096e-05
-1.7205205468911435e-05   3.2976460480724397e-06   -3.283900909513719e-05
-1.7205205468911435e-05   3.2976460480724397e-06   -3.283900909513719e-05
-1.7205205468911435e-05   3.2976460480724397e-06   -3.283900909513719e-05
-1.7205205468911435e-05   3.2976460480724397e-06   -3.283900909513719e-05
-7.52839696577541e-06   3.2489871432525227e-06   -4.893782792413876e-05
-7.52839696577541e-06   3.2489871432525227e-06   -4.893782792413876e-05
-7.52839696577541e-06   3.2489871432525227e-06   -4.893782792413876e-05
-7.52839696577541e-06   3.2489871432525227e-06   -4.893782792413876e-05
-1.2695334655158727e-05   2.6836009966329545e-06   -3.9987033420528614e-05
-1.2695334655158727e-05   2.6836009966329545e-06   -3.9987033420528614e-05
-1.2695334655158727e-05   2.6836009966329545e-06   -3.9987033420528614e-05
-1.2695334655158727e-05   2.6836009966329545e-06   -3.9987033420528614e-05
-7.528396965775409e-06   3.297646048072506e-06   -3.280981375224535e-05
-7.528396965775409e-06   3.297646048072506e-06   -3.280981375224535e-05
-7.528396965775409e-06   3.297646048072506e-06   -3.280981375224535e-05
-7.528396965775409e-06   3.297646048072506e-06   -3.280981375224535e-05
-1.7205205468911405e-05   3.2489871432525227e-06   -4.896702326703047e-05
-1.7205205468911405e-05   3.2489871432525227e-06   -4.896702326703047e-05
-1.7205205468911405e-05   3.2489871432525227e-06   -4.896702326703047e-05
-1.7205205468911405e-05   3.2489871432525227e-06   -4.896702326703047e-05
-1.657670377903607e-05   4.507462514920842e-06   -3.3576746600273146e-05
-1.657670377903607e-05   4.507462514920842e-06   -3.3576746600273146e-05
-1.657670377903607e-05   4.507462514920842e-06   -3.3576746600273146e-05
-1.657670377903607e-05   4.507462514920842e-06   -3.3576746600273146e-05
-6.909439453410486e-06   4.330963787517331e-06   -4.958295457320721e-05
-6.909439453410486e-06   4.330963787517331e-06   -4.958295457320721e-05
-6.909439453410486e-06   4.330963787517331e-06   -4.958295457320721e-05
-6.909439453410486e-06   4.330963787517331e-06   -4.958295457320721e-05
-1.2164270475137974e-05   3.573777193507455e-06   -4.037059091392213e-05
-1.2164270475137974e-05   3.573777193507455e-06   -4.037059091392213e-05
-1.2164270475137974e-05   3.573777193507455e-06   -4.037059091392213e-05
-1.2164270475137974e-05   3.573777193507455e-06   -4.037059091392213e-05
-1.8513012086352183e-05   2.0820134130959455e-06   -2.803858015108893e-05
-1.8513012086352183e-05   2.0820134130959455e-06   -2.803858015108893e-05
-1.8513012086352183e-05   2.0820134130959455e-06   -2.803858015108893e-05
-1.8513012086352183e-05   2.0820134130959455e-06   -2.803858015108893e-05
-2.8090101842367896e-05   3.818858088819885e-06   -4.295828960568086e-05
-2.8090101842367896e-05   3.818858088819885e-06   -4.295828960568086e-05
-2.8090101842367896e-05   3.818858088819885e-06   -4.295828960568086e-05
-2.8090101842367896e-05   3.818858088819885e-06   -4.295828960568086e-05
-2.7348919866389612e-05   3.2535719157206645e-06   -2.6406155364568735e-05
-2.7348919866389612e-05   3.2535719157206645e-06   -2.6406155364568735e-05
-2.7348919866389612e-05   3.2535719157206645e-06   -2.6406155364568735e-05
-2.7348919866389612e-05   3.2535719157206645e-06   -2.6406155364568735e-05
-1.7864314182360345e-05   4.891154212154688e-06   -4.319638088247809e-05
-1.7864314182360345e-05   4.891154212154688e-06   -4.319638088247809e-05
-1.7864314182360345e-05   4.891154212154688e-06   -4.319638088247809e-05
-1.7864314182360345e-05   4.891154212154688e-06   -4.319638088247809e-05
-2.279510289907909e-05   3.6507492162534978e-06   -3.4234156690406e-05
-2.279510289907909e-05   3.6507492162534978e-06   -3.4234156690406e-05
-2.279510289907909e-05   3.6507492162534978e-06   -3.4234156690406e-05
-2.279510289907909e-05   3.6507492162534978e-06   -3.4234156690406e-05
-1.7864314182360372e-05   3.253571915720635e-06   -2.7388704742429388e-05
-1.7864314182360372e-05   3.253571915720635e-06   -2.7388704742429388e-05
-1.7864314182360372e-05   3.253571915720635e-06   -2.7388704742429388e-05
-1.7864314182360372e-05   3.253571915720635e-06   -2.7388704742429388e-05
-2.7348919866389646e-05   4.891154212154905e-06   -4.221383150461791e-05
-2.7348919866389646e-05   4.891154212154905e-06   -4.221383150461791e-05
-2.7348919866389646e-05   4.891154212154905e-06   -4.221383150461791e-05
-2.7348919866389646e-05   4.891154212154905e-06   -4.221383150461791e-05
-2.6461552202755604e-05   4.334372328518863e-06   -2.6161940765975994e-05
-2.6461552202755604e-05   4.334372328518863e-06   -2.6161940765975994e-05
-2.6461552202755604e-05   4.334372328518863e-06   -2.6161940765975994e-05
-2.6461552202755604e-05   4.334372328518863e-06   -2.6161940765975994e-05
-1.7205205468911435e-05   5.857047341842857e-06   -4.250279033037723e-05
-1.7205205468911435e-05   5.857047341842857e-06   -4.250279033037723e-05
-1.7205205468911435e-05   5.857047341842857e-06   -4.250279033037723e-05
-1.7205205468911435e-05   5.857047341842857e-06   -4.250279033037723e-05
-2.2048134897744826e-05   4.497391283571307e-06   -3.361544764735914e-05
-2.2048134897744826e-05   4.497391283571307e-06   -3.361544764735914e-05
-2.2048134897744826e-05   4.497391283571307e-06   -3.361544764735914e-05
-2.2048134897744826e-05   4.497391283571307e-06   -3.361544764735914e-05
-1.7205205468911435e-05   4.334372328518833e-06   -2.7075545773970282e-05
-1.7205205468911435e-05   4.334372328518833e-06   -2.7075545773970282e-05
-1.7205205468911435e-05   4.334372328518833e-06   -2.7075545773970282e-05
-1.7205205468911435e-05   4.334372328518833e-06   -2.7075545773970282e-05
-2.6461552202755604e-05   5.857047341842857e-06   -4.1589185322382736e-05
-2.6461552202755604e-05   5.857047341842857e-06   -4.1589185322382736e-05
-2.6461552202755604e-05   5.857047341842857e-06   -4.1589185322382736e-05
-2.6461552202755604e-05   5.857047341842857e-06   -4.1589185322382736e-05
-2.5722248653295296e-05   5.545648194800164e-06   -2.688594356156735e-05
-2.5722248653295296e-05   5.545648194800164e-06   -2.688594356156735e-05
-2.5722248653295296e-05   5.545648194800164e-06   -2.688594356156735e-05
-2.5722248653295296e-05   5.545648194800164e-06   -2.688594356156735e-05
-1.6576703779036068e-05   6.937768637883205e-06   -4.296379061784943e-05
-1.6576703779036068e-05   6.937768637883205e-06   -4.296379061784943e-05
-1.6576703779036068e-05   6.937768637883205e-06   -4.296379061784943e-05
-1.6576703779036068e-05   6.937768637883205e-06   -4.296379061784943e-05
-2.1547826928328854e-05   5.331622847621481e-06   -3.371489789487101e-05
-2.1547826928328854e-05   5.331622847621481e-06   -3.371489789487101e-05
-2.1547826928328854e-05   5.331622847621481e-06   -3.371489789487101e-05
-2.1547826928328854e-05   5.331622847621481e-06   -3.371489789487101e-05
-2.8090101842367896e-05   3.4985650978330113e-06   -1.4503748565315982e-05
-2.8090101842367896e-05   3.4985650978330113e-06   -1.4503748565315982e-05
-2.8090101842367896e-05   3.4985650978330113e-06   -1.4503748565315982e-05
-2.8090101842367896e-05   3.4985650978330113e-06   -1.4503748565315982e-05
-3.900479075555181e-05   6.565499300351324e-06   -3.08547362324451e-05
-3.900479075555181e-05   6.565499300351324e-06   -3.08547362324451e-05
-3.900479075555181e-05   6.565499300351324e-06   -3.08547362324451e-05
-3.900479075555181e-05   6.565499300351324e-06   -3.08547362324451e-05
-3.696824711746862e-05   4.560667762519783e-06   -9.119630545584962e-06
-3.696824711746862e-05   4.560667762519783e-06   -9.119630545584962e-06
-3.696824711746862e-05   4.560667762519783e-06   -9.119630545584962e-06
-3.696824711746862e-05   4.560667762519783e-06   -9.119630545584962e-06
-2.734891986638961e-05   7.678743552353264e-06   -2.7022688104616675e-05
-2.734891986638961e-05   7.678743552353264e-06   -2.7022688104616675e-05
-2.734891986638961e-05   7.678743552353264e-06   -2.7022688104616675e-05
-2.734891986638961e-05   7.678743552353264e-06   -2.7022688104616675e-05
-3.15164250332029e-05   5.703188539076193e-06   -1.8891513151961725e-05
-3.15164250332029e-05   5.703188539076193e-06   -1.8891513151961725e-05
-3.15164250332029e-05   5.703188539076193e-06   -1.8891513151961725e-05
-3.15164250332029e-05   5.703188539076193e-06   -1.8891513151961725e-05
-2.7348919866389626e-05   4.560667762519773e-06   -1.099047601948479e-05
-2.7348919866389626e-05   4.560667762519773e-06   -1.099047601948479e-05
-2.7348919866389626e-05   4.560667762519773e-06   -1.099047601948479e-05
-2.7348919866389626e-05   4.560667762519773e-06   -1.099047601948479e-05
-3.6968247117468486e-05   7.678743552353264e-06   -2.515184263071667e-05
-3.6968247117468486e-05   7.678743552353264e-06   -2.515184263071667e-05
-3.6968247117468486e-05   7.678743552353264e-06   -2.515184263071667e-05
-3.6968247117468486e-05   7.678743552353264e-06   -2.515184263071667e-05
-3.528502401113005e-05   5.046976209523678e-06   -7.487997727575828e-06
-3.528502401113005e-05   5.046976209523678e-06   -7.487997727575828e-06
-3.528502401113005e-05   5.046976209523678e-06   -7.487997727575828e-06
-3.528502401113005e-05   5.046976209523678e-06   -7.487997727575828e-06
-2.6461552202755557e-05   8.077622778896376e-06   -2.4012172016490136e-05
-2.6461552202755557e-05   8.077622778896376e-06   -2.4012172016490136e-05
-2.6461552202755557e-05   8.077622778896376e-06   -2.4012172016490136e-05
-2.6461552202755557e-05   8.077622778896376e-06   -2.4012172016490136e-05
-3.0770210918438915e-05   6.203773283942502e-06   -1.5706764460045655e-05
-3.0770210918438915e-05   6.203773283942502e-06   -1.5706764460045655e-05
-3.0770210918438915e-05   6.203773283942502e-06   -1.5706764460045655e-05
-3.0770210918438915e-05   6.203773283942502e-06   -1.5706764460045655e-05
-2.6461552202755604e-05   5.046976209523597e-06   -9.306385669199534e-06
-2.6461552202755604e-05   5.046976209523597e-06   -9.306385669199534e-06
-2.6461552202755604e-05   5.046976209523597e-06   -9.306385669199534e-06
-2.6461552202755604e-05   5.046976209523597e-06   -9.306385669199534e-06
-3.5285024011129915e-05   8.077622778896376e-06   -2.219378407486666e-05
-3.5285024011129915e-05   8.077622778896376e-06   -2.219378407486666e-05
-3.5285024011129915e-05   8.077622778896376e-06   -2.219378407486666e-05
-3.5285024011129915e-05   8.077622778896376e-06   -2.219378407486666e-05
-3.329451534741135e-05   5.800595294796346e-06   -5.780975566910826e-06
-3.329451534741135e-05   5.800595294796346e-06   -5.780975566910826e-06
-3.329451534741135e-05   5.800595294796346e-06   -5.780975566910826e-06
-3.329451534741135e-05   5.800595294796346e-06   -5.780975566910826e-06
-2.5722248653295262e-05   8.583560092938333e-06   -2.007119893598916e-05
-2.5722248653295262e-05   8.583560092938333e-06   -2.007119893598916e-05
-2.5722248653295262e-05   8.583560092938333e-06   -2.007119893598916e-05
-2.5722248653295262e-05   8.583560092938333e-06   -2.007119893598916e-05
-2.9188243436610313e-05   6.445543230530976e-06   -1.3011730846353652e-05
-2.9188243436610313e-05   6.445543230530976e-06   -1.3011730846353652e-05
-2.9188243436610313e-05   6.445543230530976e-06   -1.3011730846353652e-05
-2.9188243436610313e-05   6.445543230530976e-06   -1.3011730846353652e-05
2.9622150051190042e-05   -3.885918613761829e-06   -2.3000791814524121e-07
2.9622150051190042e-05   -3.885918613761829e-06   -2.3000791814524121e-07
2.9622150051190042e-05   -3.885918613761829e-06   -2.3000791814524121e-07
2.9622150051190042e-05   -3.885918613761829e-06   -2.3000791814524121e-07
1.2625553511140183e-05   -7.010542019944988e-06   -3.0432442861937927e-05
1.2625553511140183e-05   -7.010542019944988e-06   -3.0432442861937927e-05
1.2625553511140183e-05   -7.010542019944988e-06   -3.0432442861937927e-05
1.2625553511140183e-05   -7.010542019944988e-06   -3.0432442861937927e-05
1.352114465612495e-05   -3.1933150166254913e-06   -3.349071111897117e-06
1.352114465612495e-05   -3.1933150166254913e-06   -3.349071111897117e-06
1.352114465612495e-05   -3.1933150166254913e-06   -3.349071111897117e-06
1.352114465612495e-05   -3.1933150166254913e-06   -3.349071111897117e-06
3.1864525902001504e-05   -6.519734932960812e-06   -3.192552123855669e-05
3.1864525902001504e-05   -6.519734932960812e-06   -3.192552123855669e-05
3.1864525902001504e-05   -6.519734932960812e-06   -3.192552123855669e-05
3.1864525902001504e-05   -6.519734932960812e-06   -3.192552123855669e-05
2.102489993817927e-05   -4.620093322547925e-06   -1.499926293176769e-05
2.102489993817927e-05   -4.620093322547925e-06   -1.499926293176769e-05
2.102489993817927e-05   -4.620093322547925e-06   -1.499926293176769e-05
2.102489993817927e-05   -4.620093322547925e-06   -1.499926293176769e-05
3.186452590200157e-05   -3.1933150166254714e-06   -1.3532191620959678e-06
3.186452590200157e-05   -3.1933150166254714e-06   -1.3532191620959678e-06
3.186452590200157e-05   -3.1933150166254714e-06   -1.3532191620959678e-06
3.186452590200157e-05   -3.1933150166254714e-06   -1.3532191620959678e-06
1.3521144656124923e-05   -6.519734932960812e-06   -3.392137318835816e-05
1.3521144656124923e-05   -6.519734932960812e-06   -3.392137318835816e-05
1.3521144656124923e-05   -6.519734932960812e-06   -3.392137318835816e-05
1.3521144656124923e-05   -6.519734932960812e-06   -3.392137318835816e-05
1.4513213728755276e-05   -2.731614750362118e-06   -4.716315888332731e-06
1.4513213728755276e-05   -2.731614750362118e-06   -4.716315888332731e-06
1.4513213728755276e-05   -2.731614750362118e-06   -4.716315888332731e-06
1.4513213728755276e-05   -2.731614750362118e-06   -4.716315888332731e-06
3.374846495250845e-05   -6.098088041418294e-06   -3.475518395328796e-05
3.374846495250845e-05   -6.098088041418294e-06   -3.475518395328796e-05
3.374846495250845e-05   -6.098088041418294e-06   -3.475518395328796e-05
3.374846495250845e-05   -6.098088041418294e-06   -3.475518395328796e-05
2.270912459285436e-05   -4.4324198705692625e-06   -1.7355684256373878e-05
2.270912459285436e-05   -4.4324198705692625e-06   -1.7355684256373878e-05
2.270912459285436e-05   -4.4324198705692625e-06   -1.7355684256373878e-05
2.270912459285436e-05   -4.4324198705692625e-06   -1.7355684256373878e-05
3.374846495250852e-05   -2.7316147503621885e-06   -2.6964319136994156e-06
3.374846495250852e-05   -2.7316147503621885e-06   -2.6964319136994156e-06
3.374846495250852e-05   -2.7316147503621885e-06   -2.6964319136994156e-06
3.374846495250852e-05   -2.7316147503621885e-06   -2.6964319136994156e-06
1.4513213728755276e-05   -6.09808804141786e-06   -3.67750679279216e-05
1.4513213728755276e-05   -6.09808804141786e-06   -3.67750679279216e-05
1.4513213728755276e-05   -6.09808804141786e-06   -3.67750679279216e-05
1.4513213728755276e-05   -6.09808804141786e-06   -3.67750679279216e-05
1.5333432919471888e-05   -1.5682001386018406e-06   -7.87240795514549e-06
1.5333432919471888e-05   -1.5682001386018406e-06   -7.87240795514549e-06
1.5333432919471888e-05   -1.5682001386018406e-06   -7.87240795514549e-06
1.5333432919471888e-05   -1.5682001386018406e-06   -7.87240795514549e-06
3.5935897956752473e-05   -4.764490132023926e-06   -4.0292075687893276e-05
3.5935897956752473e-05   -4.764490132023926e-06   -4.0292075687893276e-05
3.5935897956752473e-05   -4.764490132023926e-06   -4.0292075687893276e-05
3.5935897956752473e-05   -4.764490132023926e-06   -4.0292075687893276e-05
2.3622354979906352e-05   -3.911570934344612e-06   -2.028125557842521e-05
2.3622354979906352e-05   -3.911570934344612e-06   -2.028125557842521e-05
2.3622354979906352e-05   -3.911570934344612e-06   -2.028125557842521e-05
2.3622354979906352e-05   -3.911570934344612e-06   -2.028125557842521e-05
1.2625553511140183e-05   -1.5372647864852025e-06   -2.0634842887396875e-05
1.2625553511140183e-05   -1.5372647864852025e-06   -2.0634842887396875e-05
1.2625553511140183e-05   -1.5372647864852025e-06   -2.0634842887396875e-05
1.2625553511140183e-05   -1.5372647864852025e-06   -2.0634842887396875e-05
-5.3674213858440425e-06   -3.2839135782366906e-06   -5.167112365742142e-05
-5.3674213858440425e-06   -3.2839135782366906e-06   -5.167112365742142e-05
-5.3674213858440425e-06   -3.2839135782366906e-06   -5.167112365742142e-05
-5.3674213858440425e-06   -3.2839135782366906e-06   -5.167112365742142e-05
-4.534022889617279e-06   -5.877386000437829e-07   -2.1064191216138735e-05
-4.534022889617279e-06   -5.877386000437829e-07   -2.1064191216138735e-05
-4.534022889617279e-06   -5.877386000437829e-07   -2.1064191216138735e-05
-4.534022889617279e-06   -5.877386000437829e-07   -2.1064191216138735e-05
1.3521144656124957e-05   -2.602435989022215e-06   -4.994731869232199e-05
1.3521144656124957e-05   -2.602435989022215e-06   -4.994731869232199e-05
1.3521144656124957e-05   -2.602435989022215e-06   -4.994731869232199e-05
1.3521144656124957e-05   -2.602435989022215e-06   -4.994731869232199e-05
4.106145671689544e-06   -1.5880151920163316e-06   -3.486430619646663e-05
4.106145671689544e-06   -1.5880151920163316e-06   -3.486430619646663e-05
4.106145671689544e-06   -1.5880151920163316e-06   -3.486430619646663e-05
4.106145671689544e-06   -1.5880151920163316e-06   -3.486430619646663e-05
1.352114465612495e-05   -5.877386000438793e-07   -1.985537278275133e-05
1.352114465612495e-05   -5.877386000438793e-07   -1.985537278275133e-05
1.352114465612495e-05   -5.877386000438793e-07   -1.985537278275133e-05
1.352114465612495e-05   -5.877386000438793e-07   -1.985537278275133e-05
-4.534022889617252e-06   -2.602435989022215e-06   -5.115613712570891e-05
-4.534022889617252e-06   -2.602435989022215e-06   -5.115613712570891e-05
-4.534022889617252e-06   -2.602435989022215e-06   -5.115613712570891e-05
-4.534022889617252e-06   -2.602435989022215e-06   -5.115613712570891e-05
-3.738294961931355e-06   3.9407626292362573e-07   -2.1334575461473418e-05
-3.738294961931355e-06   3.9407626292362573e-07   -2.1334575461473418e-05
-3.738294961931355e-06   3.9407626292362573e-07   -2.1334575461473418e-05
-3.738294961931355e-06   3.9407626292362573e-07   -2.1334575461473418e-05
1.451321372875528e-05   -1.7694014137147572e-06   -5.0455670006634785e-05
1.451321372875528e-05   -1.7694014137147572e-06   -5.0455670006634785e-05
1.451321372875528e-05   -1.7694014137147572e-06   -5.0455670006634785e-05
1.451321372875528e-05   -1.7694014137147572e-06   -5.0455670006634785e-05
4.767518235681839e-06   -9.853150357867421e-07   -3.468329601160193e-05
4.767518235681839e-06   -9.853150357867421e-07   -3.468329601160193e-05
4.767518235681839e-06   -9.853150357867421e-07   -3.468329601160193e-05
4.767518235681839e-06   -9.853150357867421e-07   -3.468329601160193e-05
1.4513213728755276e-05   3.940762629235415e-07   -2.0036488855490345e-05
1.4513213728755276e-05   3.940762629235415e-07   -2.0036488855490345e-05
1.4513213728755276e-05   3.940762629235415e-07   -2.0036488855490345e-05
1.4513213728755276e-05   3.940762629235415e-07   -2.0036488855490345e-05
-3.738294961931355e-06   -1.7694014137147572e-06   -5.175375661261802e-05
-3.738294961931355e-06   -1.7694014137147572e-06   -5.175375661261802e-05
-3.738294961931355e-06   -1.7694014137147572e-06   -5.175375661261802e-05
-3.738294961931355e-06   -1.7694014137147572e-06   -5.175375661261802e-05
-2.9908220692896723e-06   1.556769704691473e-06   -2.2060128571122026e-05
-2.9908220692896723e-06   1.556769704691473e-06   -2.2060128571122026e-05
-2.9908220692896723e-06   1.556769704691473e-06   -2.2060128571122026e-05
-2.9908220692896723e-06   1.556769704691473e-06   -2.2060128571122026e-05
1.5333432919471834e-05   -7.213022598915632e-07   -5.123371037364129e-05
1.5333432919471834e-05   -7.213022598915632e-07   -5.123371037364129e-05
1.5333432919471834e-05   -7.213022598915632e-07   -5.123371037364129e-05
1.5333432919471834e-05   -7.213022598915632e-07   -5.123371037364129e-05
5.59239053262829e-06   -2.420398428184048e-07   -3.528619717914686e-05
5.59239053262829e-06   -2.420398428184048e-07   -3.528619717914686e-05
5.59239053262829e-06   -2.420398428184048e-07   -3.528619717914686e-05
5.59239053262829e-06   -2.420398428184048e-07   -3.528619717914686e-05
-5.3674213858440425e-06   1.1808060545254663e-06   -2.6538317235034895e-05
-5.3674213858440425e-06   1.1808060545254663e-06   -2.6538317235034895e-05
-5.3674213858440425e-06   1.1808060545254663e-06   -2.6538317235034895e-05
-5.3674213858440425e-06   1.1808060545254663e-06   -2.6538317235034895e-05
-2.3043477899380438e-05   5.96086508985582e-07   -5.634924315158613e-05
-2.3043477899380438e-05   5.96086508985582e-07   -5.634924315158613e-05
-2.3043477899380438e-05   5.96086508985582e-07   -5.634924315158613e-05
-2.3043477899380438e-05   5.96086508985582e-07   -5.634924315158613e-05
-2.214643420111188e-05   2.1853926356145935e-06   -2.635393947881485e-05
-2.214643420111188e-05   2.1853926356145935e-06   -2.635393947881485e-05
-2.214643420111188e-05   2.1853926356145935e-06   -2.635393947881485e-05
-2.214643420111188e-05   2.1853926356145935e-06   -2.635393947881485e-05
-4.534022889617252e-06   1.3614469644269121e-06   -5.521359092859352e-05
-4.534022889617252e-06   1.3614469644269121e-06   -5.521359092859352e-05
-4.534022889617252e-06   1.3614469644269121e-06   -5.521359092859352e-05
-4.534022889617252e-06   1.3614469644269121e-06   -5.521359092859352e-05
-1.3678516168762885e-05   1.6189374066003653e-06   -4.01272630619879e-05
-1.3678516168762885e-05   1.6189374066003653e-06   -4.01272630619879e-05
-1.3678516168762885e-05   1.6189374066003653e-06   -4.01272630619879e-05
-1.3678516168762885e-05   1.6189374066003653e-06   -4.01272630619879e-05
-4.534022889617279e-06   2.185392635614355e-06   -2.5859572076102674e-05
-4.534022889617279e-06   2.185392635614355e-06   -2.5859572076102674e-05
-4.534022889617279e-06   2.185392635614355e-06   -2.5859572076102674e-05
-4.534022889617279e-06   2.185392635614355e-06   -2.5859572076102674e-05
-2.214643420111188e-05   1.3614469644269121e-06   -5.5707958331305697e-05
-2.214643420111188e-05   1.3614469644269121e-06   -5.5707958331305697e-05
-2.214643420111188e-05   1.3614469644269121e-06   -5.5707958331305697e-05
-2.214643420111188e-05   1.3614469644269121e-06   -5.5707958331305697e-05
-2.1281238322483162e-05   3.2489871432525227e-06   -2.6314236853528482e-05
-2.1281238322483162e-05   3.2489871432525227e-06   -2.6314236853528482e-05
-2.1281238322483162e-05   3.2489871432525227e-06   -2.6314236853528482e-05
-2.1281238322483162e-05   3.2489871432525227e-06   -2.6314236853528482e-05
-3.738294961931367e-06   2.2478110879662477e-06   -5.495177015460995e-05
-3.738294961931367e-06   2.2478110879662477e-06   -5.495177015460995e-05
-3.738294961931367e-06   2.2478110879662477e-06   -5.495177015460995e-05
-3.738294961931367e-06   2.2478110879662477e-06   -5.495177015460995e-05
-1.2906609687141042e-05   2.3354666890532984e-06   -3.972383897324564e-05
-1.2906609687141042e-05   2.3354666890532984e-06   -3.972383897324564e-05
-1.2906609687141042e-05   2.3354666890532984e-06   -3.972383897324564e-05
-1.2906609687141042e-05   2.3354666890532984e-06   -3.972383897324564e-05
-3.738294961931355e-06   3.248987143252616e-06   -2.5713531220356673e-05
-3.738294961931355e-06   3.248987143252616e-06   -2.5713531220356673e-05
-3.738294961931355e-06   3.248987143252616e-06   -2.5713531220356673e-05
-3.738294961931355e-06   3.248987143252616e-06   -2.5713531220356673e-05
-2.1281238322483162e-05   2.2478110879662477e-06   -5.555247578778173e-05
-2.1281238322483162e-05   2.2478110879662477e-06   -5.555247578778173e-05
-2.1281238322483162e-05   2.2478110879662477e-06   -5.555247578778173e-05
-2.1281238322483162e-05   2.2478110879662477e-06   -5.555247578778173e-05
-2.0481747499054383e-05   4.330963787517331e-06   -2.693316126676972e-05
-2.0481747499054383e-05   4.330963787517331e-06   -2.693316126676972e-05
-2.0481747499054383e-05   4.330963787517331e-06   -2.693316126676972e-05
-2.0481747499054383e-05   4.330963787517331e-06   -2.693316126676972e-05
-2.990822069289669e-06   3.1638506533130176e-06   -5.538443576918813e-05
-2.990822069289669e-06   3.1638506533130176e-06   -5.538443576918813e-05
-2.990822069289669e-06   3.1638506533130176e-06   -5.538443576918813e-05
-2.990822069289669e-06   3.1638506533130176e-06   -5.538443576918813e-05
-1.2216969244469887e-05   3.070694909975899e-06   -3.995163036455313e-05
-1.2216969244469887e-05   3.070694909975899e-06   -3.995163036455313e-05
-1.2216969244469887e-05   3.070694909975899e-06   -3.995163036455313e-05
-1.2216969244469887e-05   3.070694909975899e-06   -3.995163036455313e-05
-2.3043477899380472e-05   3.818858088819912e-06   -2.1530250490926902e-05
-2.3043477899380472e-05   3.818858088819912e-06   -2.1530250490926902e-05
-2.3043477899380472e-05   3.818858088819912e-06   -2.1530250490926902e-05
-2.3043477899380472e-05   3.818858088819912e-06   -2.1530250490926902e-05
-4.039124031502256e-05   4.6148868544444895e-06   -4.996557059095568e-05
-4.039124031502256e-05   4.6148868544444895e-06   -4.996557059095568e-05
-4.039124031502256e-05   4.6148868544444895e-06   -4.996557059095568e-05
-4.039124031502256e-05   4.6148868544444895e-06   -4.996557059095568e-05
-3.931007537366446e-05   4.891154212154688e-06   -2.0231956668028978e-05
-3.931007537366446e-05   4.891154212154688e-06   -2.0231956668028978e-05
-3.931007537366446e-05   4.891154212154688e-06   -2.0231956668028978e-05
-3.931007537366446e-05   4.891154212154688e-06   -2.0231956668028978e-05
-2.214643420111193e-05   5.586886507911917e-06   -4.925546466640414e-05
-2.214643420111193e-05   5.586886507911917e-06   -4.925546466640414e-05
-2.214643420111193e-05   5.586886507911917e-06   -4.925546466640414e-05
-2.214643420111193e-05   5.586886507911917e-06   -4.925546466640414e-05
-3.099467152323746e-05   4.931070132666287e-06   -3.411491263771419e-05
-3.099467152323746e-05   4.931070132666287e-06   -3.411491263771419e-05
-3.099467152323746e-05   4.931070132666287e-06   -3.411491263771419e-05
-3.099467152323746e-05   4.931070132666287e-06   -3.411491263771419e-05
-2.2146434201111922e-05   4.891154212154759e-06   -2.0649396045483272e-05
-2.2146434201111922e-05   4.891154212154759e-06   -2.0649396045483272e-05
-2.2146434201111922e-05   4.891154212154759e-06   -2.0649396045483272e-05
-2.2146434201111922e-05   4.891154212154759e-06   -2.0649396045483272e-05
-3.931007537366446e-05   5.586886507911917e-06   -4.8838025288949804e-05
-3.931007537366446e-05   5.586886507911917e-06   -4.8838025288949804e-05
-3.931007537366446e-05   5.586886507911917e-06   -4.8838025288949804e-05
-3.931007537366446e-05   5.586886507911917e-06   -4.8838025288949804e-05
-3.811383352721611e-05   5.857047341842857e-06   -1.9509842386813536e-05
-3.811383352721611e-05   5.857047341842857e-06   -1.9509842386813536e-05
-3.811383352721611e-05   5.857047341842857e-06   -1.9509842386813536e-05
-3.811383352721611e-05   5.857047341842857e-06   -1.9509842386813536e-05
-2.12812383224832e-05   6.423983225278731e-06   -4.790432925809664e-05
-2.12812383224832e-05   6.423983225278731e-06   -4.790432925809664e-05
-2.12812383224832e-05   6.423983225278731e-06   -4.790432925809664e-05
-2.12812383224832e-05   6.423983225278731e-06   -4.790432925809664e-05
-2.99012060942583e-05   5.6878183539300735e-06   -3.309601738232888e-05
-2.99012060942583e-05   5.6878183539300735e-06   -3.309601738232888e-05
-2.99012060942583e-05   5.6878183539300735e-06   -3.309601738232888e-05
-2.99012060942583e-05   5.6878183539300735e-06   -3.309601738232888e-05
-2.1281238322483203e-05   5.857047341842899e-06   -1.9850003916875147e-05
-2.1281238322483203e-05   5.857047341842899e-06   -1.9850003916875147e-05
-2.1281238322483203e-05   5.857047341842899e-06   -1.9850003916875147e-05
-2.1281238322483203e-05   5.857047341842899e-06   -1.9850003916875147e-05
-3.811383352721611e-05   6.4239832252791645e-06   -4.756416772803539e-05
-3.811383352721611e-05   6.4239832252791645e-06   -4.756416772803539e-05
-3.811383352721611e-05   6.4239832252791645e-06   -4.756416772803539e-05
-3.811383352721611e-05   6.4239832252791645e-06   -4.756416772803539e-05
-3.71029803856955e-05   6.937768637883205e-06   -1.996069444482008e-05
-3.71029803856955e-05   6.937768637883205e-06   -1.996069444482008e-05
-3.71029803856955e-05   6.937768637883205e-06   -1.996069444482008e-05
-3.71029803856955e-05   6.937768637883205e-06   -1.996069444482008e-05
-2.0481747499054414e-05   7.350108021466056e-06   -4.791015288603839e-05
-2.0481747499054414e-05   7.350108021466056e-06   -4.791015288603839e-05
-2.0481747499054414e-05   7.350108021466056e-06   -4.791015288603839e-05
-2.0481747499054414e-05   7.350108021466056e-06   -4.791015288603839e-05
-2.92208082915224e-05   6.384885153888457e-06   -3.2765917844712366e-05
-2.92208082915224e-05   6.384885153888457e-06   -3.2765917844712366e-05
-2.92208082915224e-05   6.384885153888457e-06   -3.2765917844712366e-05
-2.92208082915224e-05   6.384885153888457e-06   -3.2765917844712366e-05
-4.039124031502256e-05   6.5654993003513735e-06   -1.0789240379827569e-05
-4.039124031502256e-05   6.5654993003513735e-06   -1.0789240379827569e-05
-4.039124031502256e-05   6.5654993003513735e-06   -1.0789240379827569e-05
-4.039124031502256e-05   6.5654993003513735e-06   -1.0789240379827569e-05
-5.866276390514562e-05   9.071283455052218e-06   -3.973830920387918e-05
-5.866276390514562e-05   9.071283455052218e-06   -3.973830920387918e-05
-5.866276390514562e-05   9.071283455052218e-06   -3.973830920387918e-05
-5.866276390514562e-05   9.071283455052218e-06   -3.973830920387918e-05
-5.618026485703578e-05   7.678743552353264e-06   -3.430411283974555e-06
-5.618026485703578e-05   7.678743552353264e-06   -3.430411283974555e-06
-5.618026485703578e-05   7.678743552353264e-06   -3.430411283974555e-06
-5.618026485703578e-05   7.678743552353264e-06   -3.430411283974555e-06
-3.931007537366438e-05   1.0362746859109151e-05   -3.315779574031382e-05
-3.931007537366438e-05   1.0362746859109151e-05   -3.315779574031382e-05
-3.931007537366438e-05   1.0362746859109151e-05   -3.315779574031382e-05
-3.931007537366438e-05   1.0362746859109151e-05   -3.315779574031382e-05
-4.662532230826125e-05   8.642172679097261e-06   -1.9933373007978373e-05
-4.662532230826125e-05   8.642172679097261e-06   -1.9933373007978373e-05
-4.662532230826125e-05   8.642172679097261e-06   -1.9933373007978373e-05
-4.662532230826125e-05   8.642172679097261e-06   -1.9933373007978373e-05
-3.9310075373664424e-05   7.678743552353416e-06   -5.040813268028001e-06
-3.9310075373664424e-05   7.678743552353416e-06   -5.040813268028001e-06
-3.9310075373664424e-05   7.678743552353416e-06   -5.040813268028001e-06
-3.9310075373664424e-05   7.678743552353416e-06   -5.040813268028001e-06
-5.6180264857035684e-05   1.0362746859109151e-05   -3.154739375626028e-05
-5.6180264857035684e-05   1.0362746859109151e-05   -3.154739375626028e-05
-5.6180264857035684e-05   1.0362746859109151e-05   -3.154739375626028e-05
-5.6180264857035684e-05   1.0362746859109151e-05   -3.154739375626028e-05
-5.413742188985102e-05   8.077622778896376e-06   -3.579568500582629e-07
-5.413742188985102e-05   8.077622778896376e-06   -3.579568500582629e-07
-5.413742188985102e-05   8.077622778896376e-06   -3.579568500582629e-07
-5.413742188985102e-05   8.077622778896376e-06   -3.579568500582629e-07
-3.811383352721611e-05   1.070240983033462e-05   -2.8638809685312493e-05
-3.811383352721611e-05   1.070240983033462e-05   -2.8638809685312493e-05
-3.811383352721611e-05   1.070240983033462e-05   -2.8638809685312493e-05
-3.811383352721611e-05   1.070240983033462e-05   -2.8638809685312493e-05
-4.577905989008456e-05   9.15642812039652e-06   -1.4935843387901799e-05
-4.577905989008456e-05   9.15642812039652e-06   -1.4935843387901799e-05
-4.577905989008456e-05   9.15642812039652e-06   -1.4935843387901799e-05
-4.577905989008456e-05   9.15642812039652e-06   -1.4935843387901799e-05
-3.811383352721611e-05   8.077622778896415e-06   -1.9328290809209493e-06
-3.811383352721611e-05   8.077622778896415e-06   -1.9328290809209493e-06
-3.811383352721611e-05   8.077622778896415e-06   -1.9328290809209493e-06
-3.811383352721611e-05   8.077622778896415e-06   -1.9328290809209493e-06
-5.413742188985084e-05   1.0702409830334186e-05   -2.70639374544497e-05
-5.413742188985084e-05   1.0702409830334186e-05   -2.70639374544497e-05
-5.413742188985084e-05   1.0702409830334186e-05   -2.70639374544497e-05
-5.413742188985084e-05   1.0702409830334186e-05   -2.70639374544497e-05
-5.193373031472869e-05   8.583560092938333e-06   3.5435929161766085e-06
-5.193373031472869e-05   8.583560092938333e-06   3.5435929161766085e-06
-5.193373031472869e-05   8.583560092938333e-06   3.5435929161766085e-06
-5.193373031472869e-05   8.583560092938333e-06   3.5435929161766085e-06
-3.710298038569547e-05   1.099517333458212e-05   -2.2621291577198373e-05
-3.710298038569547e-05   1.099517333458212e-05   -2.2621291577198373e-05
-3.710298038569547e-05   1.099517333458212e-05   -2.2621291577198373e-05
-3.710298038569547e-05   1.099517333458212e-05   -2.2621291577198373e-05
-4.370838902537005e-05   9.240407279046629e-06   -1.0559417544420797e-05
-4.370838902537005e-05   9.240407279046629e-06   -1.0559417544420797e-05
-4.370838902537005e-05   9.240407279046629e-06   -1.0559417544420797e-05
-4.370838902537005e-05   9.240407279046629e-06   -1.0559417544420797e-05
5.027244424807319e-05   -7.010542019945224e-06   9.958861099435912e-06
5.027244424807319e-05   -7.010542019945224e-06   9.958861099435912e-06
5.027244424807319e-05   -7.010542019945224e-06   9.958861099435912e-06
5.027244424807319e-05   -7.010542019945224e-06   9.958861099435912e-06
2.4228834826253102e-05   -1.0381776875555051e-05   -3.546989551696353e-05
2.4228834826253102e-05   -1.0381776875555051e-05   -3.546989551696353e-05
2.4228834826253102e-05   -1.0381776875555051e-05   -3.546989551696353e-05
2.4228834826253102e-05   -1.0381776875555051e-05   -3.546989551696353e-05
2.5221429038044805e-05   -6.519734932960812e-06   4.798369344779455e-06
2.5221429038044805e-05   -6.519734932960812e-06   4.798369344779455e-06
2.5221429038044805e-05   -6.519734932960812e-06   4.798369344779455e-06
2.5221429038044805e-05   -6.519734932960812e-06   4.798369344779455e-06
5.257607849332469e-05   -1.0139180530882499e-05   -3.8621045721934236e-05
5.257607849332469e-05   -1.0139180530882499e-05   -3.8621045721934236e-05
5.257607849332469e-05   -1.0139180530882499e-05   -3.8621045721934236e-05
5.257607849332469e-05   -1.0139180530882499e-05   -3.8621045721934236e-05
3.6526796874667377e-05   -7.676271137579266e-06   -1.3349988660154189e-05
3.6526796874667377e-05   -7.676271137579266e-06   -1.3349988660154189e-05
3.6526796874667377e-05   -7.676271137579266e-06   -1.3349988660154189e-05
3.6526796874667377e-05   -7.676271137579266e-06   -1.3349988660154189e-05
5.257607849332472e-05   -6.519734932960961e-06   6.9700367035323806e-06
5.257607849332472e-05   -6.519734932960961e-06   6.9700367035323806e-06
5.257607849332472e-05   -6.519734932960961e-06   6.9700367035323806e-06
5.257607849332472e-05   -6.519734932960961e-06   6.9700367035323806e-06
2.522142903804475e-05   -1.0139180530882499e-05   -4.079271308068716e-05
2.522142903804475e-05   -1.0139180530882499e-05   -4.079271308068716e-05
2.522142903804475e-05   -1.0139180530882499e-05   -4.079271308068716e-05
2.522142903804475e-05   -1.0139180530882499e-05   -4.079271308068716e-05
2.620882510916047e-05   -6.09808804141786e-06   2.273989796379959e-06
2.620882510916047e-05   -6.09808804141786e-06   2.273989796379959e-06
2.620882510916047e-05   -6.09808804141786e-06   2.273989796379959e-06
2.620882510916047e-05   -6.09808804141786e-06   2.273989796379959e-06
5.43444086514305e-05   -9.787225813647112e-06   -4.2405166777399316e-05
5.43444086514305e-05   -9.787225813647112e-06   -4.2405166777399316e-05
5.43444086514305e-05   -9.787225813647112e-06   -4.2405166777399316e-05
5.43444086514305e-05   -9.787225813647112e-06   -4.2405166777399316e-05
3.846677158978022e-05   -7.6509499890875e-06   -1.7224203836051102e-05
3.846677158978022e-05   -7.6509499890875e-06   -1.7224203836051102e-05
3.846677158978022e-05   -7.6509499890875e-06   -1.7224203836051102e-05
3.846677158978022e-05   -7.6509499890875e-06   -1.7224203836051102e-05
5.434440865143052e-05   -6.098088041417779e-06   4.4874724597174665e-06
5.434440865143052e-05   -6.098088041417779e-06   4.4874724597174665e-06
5.434440865143052e-05   -6.098088041417779e-06   4.4874724597174665e-06
5.434440865143052e-05   -6.098088041417779e-06   4.4874724597174665e-06
2.620882510916047e-05   -9.787225813647112e-06   -4.4618649440736824e-05
2.620882510916047e-05   -9.787225813647112e-06   -4.4618649440736824e-05
2.620882510916047e-05   -9.787225813647112e-06   -4.4618649440736824e-05
2.620882510916047e-05   -9.787225813647112e-06   -4.4618649440736824e-05
2.68795963807109e-05   -4.764490132023926e-06   -2.8112454660180874e-06
2.68795963807109e-05   -4.764490132023926e-06   -2.8112454660180874e-06
2.68795963807109e-05   -4.764490132023926e-06   -2.8112454660180874e-06
2.68795963807109e-05   -4.764490132023926e-06   -2.8112454660180874e-06
5.62142600197536e-05   -8.414259369417428e-06   -4.951248998865304e-05
5.62142600197536e-05   -8.414259369417428e-06   -4.951248998865304e-05
5.62142600197536e-05   -8.414259369417428e-06   -4.951248998865304e-05
5.62142600197536e-05   -8.414259369417428e-06   -4.951248998865304e-05
3.900980165322326e-05   -7.062996072480961e-06   -2.164915068926537e-05
3.900980165322326e-05   -7.062996072480961e-06   -2.164915068926537e-05
3.900980165322326e-05   -7.062996072480961e-06   -2.164915068926537e-05
3.900980165322326e-05   -7.062996072480961e-06   -2.164915068926537e-05
2.4228834826253156e-05   -3.2839135782362336e-06   -1.2254571334362804e-05
2.4228834826253156e-05   -3.2839135782362336e-06   -1.2254571334362804e-05
2.4228834826253156e-05   -3.2839135782362336e-06   -1.2254571334362804e-05
2.4228834826253156e-05   -3.2839135782362336e-06   -1.2254571334362804e-05
-1.462598559115474e-06   -6.73031976965166e-06   -5.714147069149286e-05
-1.462598559115474e-06   -6.73031976965166e-06   -5.714147069149286e-05
-1.462598559115474e-06   -6.73031976965166e-06   -5.714147069149286e-05
-1.462598559115474e-06   -6.73031976965166e-06   -5.714147069149286e-05
-4.4362300658786977e-07   -2.6024359890226487e-06   -1.3511191531007322e-05
-4.4362300658786977e-07   -2.6024359890226487e-06   -1.3511191531007322e-05
-4.4362300658786977e-07   -2.6024359890226487e-06   -1.3511191531007322e-05
-4.4362300658786977e-07   -2.6024359890226487e-06   -1.3511191531007322e-05
2.52214290380448e-05   -6.408461608727219e-06   -5.4002662900238976e-05
2.52214290380448e-05   -6.408461608727219e-06   -5.4002662900238976e-05
2.52214290380448e-05   -6.408461608727219e-06   -5.4002662900238976e-05
2.52214290380448e-05   -6.408461608727219e-06   -5.4002662900238976e-05
1.1921889946381731e-05   -4.071702826802855e-06   -3.323881968328858e-05
1.1921889946381731e-05   -4.071702826802855e-06   -3.323881968328858e-05
1.1921889946381731e-05   -4.071702826802855e-06   -3.323881968328858e-05
1.1921889946381731e-05   -4.071702826802855e-06   -3.323881968328858e-05
2.5221429038044778e-05   -2.60243598902251e-06   -1.1227576159184103e-05
2.5221429038044778e-05   -2.60243598902251e-06   -1.1227576159184103e-05
2.5221429038044778e-05   -2.60243598902251e-06   -1.1227576159184103e-05
2.5221429038044778e-05   -2.60243598902251e-06   -1.1227576159184103e-05
-4.4362300658786977e-07   -6.408461608727219e-06   -5.628627827206187e-05
-4.4362300658786977e-07   -6.408461608727219e-06   -5.628627827206187e-05
-4.4362300658786977e-07   -6.408461608727219e-06   -5.628627827206187e-05
-4.4362300658786977e-07   -6.408461608727219e-06   -5.628627827206187e-05
4.5418979980780746e-07   -1.7694014137147572e-06   -1.3830356566630871e-05
4.5418979980780746e-07   -1.7694014137147572e-06   -1.3830356566630871e-05
4.5418979980780746e-07   -1.7694014137147572e-06   -1.3830356566630871e-05
4.5418979980780746e-07   -1.7694014137147572e-06   -1.3830356566630871e-05
2.6208825109160464e-05   -5.808975220877085e-06   -5.433100446458763e-05
2.6208825109160464e-05   -5.808975220877085e-06   -5.433100446458763e-05
2.6208825109160464e-05   -5.808975220877085e-06   -5.433100446458763e-05
2.6208825109160464e-05   -5.808975220877085e-06   -5.433100446458763e-05
1.26157322350391e-05   -3.738021307887404e-06   -3.291842202217876e-05
1.26157322350391e-05   -3.738021307887404e-06   -3.291842202217876e-05
1.26157322350391e-05   -3.738021307887404e-06   -3.291842202217876e-05
1.26157322350391e-05   -3.738021307887404e-06   -3.291842202217876e-05
2.620882510916047e-05   -1.7694014137147638e-06   -1.140661228233317e-05
2.620882510916047e-05   -1.7694014137147638e-06   -1.140661228233317e-05
2.620882510916047e-05   -1.7694014137147638e-06   -1.140661228233317e-05
2.620882510916047e-05   -1.7694014137147638e-06   -1.140661228233317e-05
4.5418979980780746e-07   -5.808975220877519e-06   -5.675474874888538e-05
4.5418979980780746e-07   -5.808975220877519e-06   -5.675474874888538e-05
4.5418979980780746e-07   -5.808975220877519e-06   -5.675474874888538e-05
4.5418979980780746e-07   -5.808975220877519e-06   -5.675474874888538e-05
1.0935106330973e-06   -7.213022598915632e-07   -1.4375961845852596e-05
1.0935106330973e-06   -7.213022598915632e-07   -1.4375961845852596e-05
1.0935106330973e-06   -7.213022598915632e-07   -1.4375961845852596e-05
1.0935106330973e-06   -7.213022598915632e-07   -1.4375961845852596e-05
2.6879596380710988e-05   -4.95606174345754e-06   -5.481191573506925e-05
2.6879596380710988e-05   -4.95606174345754e-06   -5.481191573506925e-05
2.6879596380710988e-05   -4.95606174345754e-06   -5.481191573506925e-05
2.6879596380710988e-05   -4.95606174345754e-06   -5.481191573506925e-05
1.3445989424986883e-05   -3.149869678231807e-06   -3.35062860479987e-05
1.3445989424986883e-05   -3.149869678231807e-06   -3.35062860479987e-05
1.3445989424986883e-05   -3.149869678231807e-06   -3.35062860479987e-05
1.3445989424986883e-05   -3.149869678231807e-06   -3.35062860479987e-05
-1.462598559115474e-06   5.960865089855765e-07   -1.8649702816052674e-05
-1.462598559115474e-06   5.960865089855765e-07   -1.8649702816052674e-05
-1.462598559115474e-06   5.960865089855765e-07   -1.8649702816052674e-05
-1.462598559115474e-06   5.960865089855765e-07   -1.8649702816052674e-05
-2.6774498299739875e-05   -3.5380589461209665e-06   -6.331668965682438e-05
-2.6774498299739875e-05   -3.5380589461209665e-06   -6.331668965682438e-05
-2.6774498299739875e-05   -3.5380589461209665e-06   -6.331668965682438e-05
-2.6774498299739875e-05   -3.5380589461209665e-06   -6.331668965682438e-05
-2.5551951601524467e-05   1.3614469644273458e-06   -2.0280877508762393e-05
-2.5551951601524467e-05   1.3614469644273458e-06   -2.0280877508762393e-05
-2.5551951601524467e-05   1.3614469644273458e-06   -2.0280877508762393e-05
-2.5551951601524467e-05   1.3614469644273458e-06   -2.0280877508762393e-05
-4.4362300658787e-07   -3.1589399936901574e-06   -5.941585965878643e-05
-4.4362300658787e-07   -3.1589399936901574e-06   -5.941585965878643e-05
-4.4362300658787e-07   -3.1589399936901574e-06   -5.941585965878643e-05
-4.4362300658787e-07   -3.1589399936901574e-06   -5.941585965878643e-05
-1.339704085458401e-05   -6.867516898182054e-07   -3.931014289444931e-05
-1.339704085458401e-05   -6.867516898182054e-07   -3.931014289444931e-05
-1.339704085458401e-05   -6.867516898182054e-07   -3.931014289444931e-05
-1.339704085458401e-05   -6.867516898182054e-07   -3.931014289444931e-05
-4.4362300658786977e-07   1.3614469644273693e-06   -1.756864533389215e-05
-4.4362300658786977e-07   1.3614469644273693e-06   -1.756864533389215e-05
-4.4362300658786977e-07   1.3614469644273693e-06   -1.756864533389215e-05
-4.4362300658786977e-07   1.3614469644273693e-06   -1.756864533389215e-05
-2.5551951601524467e-05   -3.1589399936901574e-06   -6.212809183365662e-05
-2.5551951601524467e-05   -3.1589399936901574e-06   -6.212809183365662e-05
-2.5551951601524467e-05   -3.1589399936901574e-06   -6.212809183365662e-05
-2.5551951601524467e-05   -3.1589399936901574e-06   -6.212809183365662e-05
-2.4430323527542167e-05   2.2478110879662477e-06   -1.9918079370494614e-05
-2.4430323527542167e-05   2.2478110879662477e-06   -1.9918079370494614e-05
-2.4430323527542167e-05   2.2478110879662477e-06   -1.9918079370494614e-05
-2.4430323527542167e-05   2.2478110879662477e-06   -1.9918079370494614e-05
4.541897998078149e-07   -2.568371015153597e-06   -5.850255898753957e-05
4.541897998078149e-07   -2.568371015153597e-06   -5.850255898753957e-05
4.541897998078149e-07   -2.568371015153597e-06   -5.850255898753957e-05
4.541897998078149e-07   -2.568371015153597e-06   -5.850255898753957e-05
-1.2401218372684439e-05   -2.5255182202910814e-07   -3.8466370215926865e-05
-1.2401218372684439e-05   -2.5255182202910814e-07   -3.8466370215926865e-05
-1.2401218372684439e-05   -2.5255182202910814e-07   -3.8466370215926865e-05
-1.2401218372684439e-05   -2.5255182202910814e-07   -3.8466370215926865e-05
4.5418979980780746e-07   2.247811087966358e-06   -1.702837010862288e-05
4.5418979980780746e-07   2.247811087966358e-06   -1.702837010862288e-05
4.5418979980780746e-07   2.247811087966358e-06   -1.702837010862288e-05
4.5418979980780746e-07   2.247811087966358e-06   -1.702837010862288e-05
-2.4430323527542167e-05   -2.5683710151531633e-06   -6.139226824941136e-05
-2.4430323527542167e-05   -2.5683710151531633e-06   -6.139226824941136e-05
-2.4430323527542167e-05   -2.5683710151531633e-06   -6.139226824941136e-05
-2.4430323527542167e-05   -2.5683710151531633e-06   -6.139226824941136e-05
-2.367402899036079e-05   3.163850653312584e-06   -2.0263189782190145e-05
-2.367402899036079e-05   3.163850653312584e-06   -2.0263189782190145e-05
-2.367402899036079e-05   3.163850653312584e-06   -2.0263189782190145e-05
-2.367402899036079e-05   3.163850653312584e-06   -2.0263189782190145e-05
1.0935106330972855e-06   -2.0083922125887534e-06   -5.843907676841343e-05
1.0935106330972855e-06   -2.0083922125887534e-06   -5.843907676841343e-05
1.0935106330972855e-06   -2.0083922125887534e-06   -5.843907676841343e-05
1.0935106330972855e-06   -2.0083922125887534e-06   -5.843907676841343e-05
-1.1690858643859959e-05   2.3497849984191466e-07   -3.8477817067610054e-05
-1.1690858643859959e-05   2.3497849984191466e-07   -3.8477817067610054e-05
-1.1690858643859959e-05   2.3497849984191466e-07   -3.8477817067610054e-05
-1.1690858643859959e-05   2.3497849984191466e-07   -3.8477817067610054e-05
-2.6774498299739875e-05   4.614886854444515e-06   -1.5224134787861308e-05
-2.6774498299739875e-05   4.614886854444515e-06   -1.5224134787861308e-05
-2.6774498299739875e-05   4.614886854444515e-06   -1.5224134787861308e-05
-2.6774498299739875e-05   4.614886854444515e-06   -1.5224134787861308e-05
-5.2438795510799265e-05   8.894684213980354e-07   -6.023321453278805e-05
-5.2438795510799265e-05   8.894684213980354e-07   -6.023321453278805e-05
-5.2438795510799265e-05   8.894684213980354e-07   -6.023321453278805e-05
-5.2438795510799265e-05   8.894684213980354e-07   -6.023321453278805e-05
-5.069840472841267e-05   5.586886507911917e-06   -1.6225887970522336e-05
-5.069840472841267e-05   5.586886507911917e-06   -1.6225887970522336e-05
-5.069840472841267e-05   5.586886507911917e-06   -1.6225887970522336e-05
-5.069840472841267e-05   5.586886507911917e-06   -1.6225887970522336e-05
-2.555195160152447e-05   1.5910462968092738e-06   -5.573913905534104e-05
-2.555195160152447e-05   1.5910462968092738e-06   -5.573913905534104e-05
-2.555195160152447e-05   1.5910462968092738e-06   -5.573913905534104e-05
-2.555195160152447e-05   1.5910462968092738e-06   -5.573913905534104e-05
-3.846228577924649e-05   3.5045208766557034e-06   -3.537000017371211e-05
-3.846228577924649e-05   3.5045208766557034e-06   -3.537000017371211e-05
-3.846228577924649e-05   3.5045208766557034e-06   -3.537000017371211e-05
-3.846228577924649e-05   3.5045208766557034e-06   -3.537000017371211e-05
-2.5551951601524467e-05   5.586886507912029e-06   -1.3828383843860577e-05
-2.5551951601524467e-05   5.586886507912029e-06   -1.3828383843860577e-05
-2.5551951601524467e-05   5.586886507912029e-06   -1.3828383843860577e-05
-2.5551951601524467e-05   5.586886507912029e-06   -1.3828383843860577e-05
-5.069840472841276e-05   1.5910462968092738e-06   -5.813664318200275e-05
-5.069840472841276e-05   1.5910462968092738e-06   -5.813664318200275e-05
-5.069840472841276e-05   1.5910462968092738e-06   -5.813664318200275e-05
-5.069840472841276e-05   1.5910462968092738e-06   -5.813664318200275e-05
-4.901615672152788e-05   6.423983225278731e-06   -1.4782151972142846e-05
-4.901615672152788e-05   6.423983225278731e-06   -1.4782151972142846e-05
-4.901615672152788e-05   6.423983225278731e-06   -1.4782151972142846e-05
-4.901615672152788e-05   6.423983225278731e-06   -1.4782151972142846e-05
-2.44303235275422e-05   2.2369513397236564e-06   -5.324632149745267e-05
-2.44303235275422e-05   2.2369513397236564e-06   -5.324632149745267e-05
-2.44303235275422e-05   2.2369513397236564e-06   -5.324632149745267e-05
-2.44303235275422e-05   2.2369513397236564e-06   -5.324632149745267e-05
-3.6889603407710644e-05   4.114931554650633e-06   -3.360764315946115e-05
-3.6889603407710644e-05   4.114931554650633e-06   -3.360764315946115e-05
-3.6889603407710644e-05   4.114931554650633e-06   -3.360764315946115e-05
-3.6889603407710644e-05   4.114931554650633e-06   -3.360764315946115e-05
-2.4430323527542167e-05   6.42398322527893e-06   -1.2269932840809671e-05
-2.4430323527542167e-05   6.42398322527893e-06   -1.2269932840809671e-05
-2.4430323527542167e-05   6.42398322527893e-06   -1.2269932840809671e-05
-2.4430323527542167e-05   6.42398322527893e-06   -1.2269932840809671e-05
-4.901615672152796e-05   2.2369513397232227e-06   -5.5758540628785816e-05
-4.901615672152796e-05   2.2369513397232227e-06   -5.5758540628785816e-05
-4.901615672152796e-05   2.2369513397232227e-06   -5.5758540628785816e-05
-4.901615672152796e-05   2.2369513397232227e-06   -5.5758540628785816e-05
-4.773979567107336e-05   7.350108021466489e-06   -1.4828637484076961e-05
-4.773979567107336e-05   7.350108021466489e-06   -1.4828637484076961e-05
-4.773979567107336e-05   7.350108021466489e-06   -1.4828637484076961e-05
-4.773979567107336e-05   7.350108021466489e-06   -1.4828637484076961e-05
-2.3674028990360833e-05   2.7834439122009606e-06   -5.2198250153038736e-05
-2.3674028990360833e-05   2.7834439122009606e-06   -5.2198250153038736e-05
-2.3674028990360833e-05   2.7834439122009606e-06   -5.2198250153038736e-05
-2.3674028990360833e-05   2.7834439122009606e-06   -5.2198250153038736e-05
-3.60080773776949e-05   4.540952249501833e-06   -3.269600784319642e-05
-3.60080773776949e-05   4.540952249501833e-06   -3.269600784319642e-05
-3.60080773776949e-05   4.540952249501833e-06   -3.269600784319642e-05
-3.60080773776949e-05   4.540952249501833e-06   -3.269600784319642e-05
-5.2438795510799265e-05   9.071283455052556e-06   -8.73559495343304e-06
-5.2438795510799265e-05   9.071283455052556e-06   -8.73559495343304e-06
-5.2438795510799265e-05   9.071283455052556e-06   -8.73559495343304e-06
-5.2438795510799265e-05   9.071283455052556e-06   -8.73559495343304e-06
-7.925101169813282e-05   8.562355015039654e-06   -5.372797899632991e-05
-7.925101169813282e-05   8.562355015039654e-06   -5.372797899632991e-05
-7.925101169813282e-05   8.562355015039654e-06   -5.372797899632991e-05
-7.925101169813282e-05   8.562355015039654e-06   -5.372797899632991e-05
-7.581905295166511e-05   1.0362746859109151e-05   -2.5841551940289885e-07
-7.581905295166511e-05   1.0362746859109151e-05   -2.5841551940289885e-07
-7.581905295166511e-05   1.0362746859109151e-05   -2.5841551940289885e-07
-7.581905295166511e-05   1.0362746859109151e-05   -2.5841551940289885e-07
-5.069840472841258e-05   1.0841485029914819e-05   -4.2413405460640386e-05
-5.069840472841258e-05   1.0841485029914819e-05   -4.2413405460640386e-05
-5.069840472841258e-05   1.0841485029914819e-05   -4.2413405460640386e-05
-5.069840472841258e-05   1.0841485029914819e-05   -4.2413405460640386e-05
-6.176782690008834e-05   1.0222727654484245e-05   -2.359311408258919e-05
-6.176782690008834e-05   1.0222727654484245e-05   -2.359311408258919e-05
-6.176782690008834e-05   1.0222727654484245e-05   -2.359311408258919e-05
-6.176782690008834e-05   1.0222727654484245e-05   -2.359311408258919e-05
-5.069840472841272e-05   1.0362746859109032e-05   -5.45658421886256e-07
-5.069840472841272e-05   1.0362746859109032e-05   -5.45658421886256e-07
-5.069840472841272e-05   1.0362746859109032e-05   -5.45658421886256e-07
-5.069840472841272e-05   1.0362746859109032e-05   -5.45658421886256e-07
-7.581905295166499e-05   1.0841485029914819e-05   -4.212616255815701e-05
-7.581905295166499e-05   1.0841485029914819e-05   -4.212616255815701e-05
-7.581905295166499e-05   1.0841485029914819e-05   -4.212616255815701e-05
-7.581905295166499e-05   1.0841485029914819e-05   -4.212616255815701e-05
-7.297239855630176e-05   1.070240983033462e-05   4.533919309699253e-06
-7.297239855630176e-05   1.070240983033462e-05   4.533919309699253e-06
-7.297239855630176e-05   1.070240983033462e-05   4.533919309699253e-06
-7.297239855630176e-05   1.070240983033462e-05   4.533919309699253e-06
-4.901615672152788e-05   1.135359856220021e-05   -3.5783863654043456e-05
-4.901615672152788e-05   1.135359856220021e-05   -3.5783863654043456e-05
-4.901615672152788e-05   1.135359856220021e-05   -3.5783863654043456e-05
-4.901615672152788e-05   1.135359856220021e-05   -3.5783863654043456e-05
-6.0467412340315764e-05   1.0965589504261311e-05   -1.6465632187966228e-05
-6.0467412340315764e-05   1.0965589504261311e-05   -1.6465632187966228e-05
-6.0467412340315764e-05   1.0965589504261311e-05   -1.6465632187966228e-05
-6.0467412340315764e-05   1.0965589504261311e-05   -1.6465632187966228e-05
-4.901615672152796e-05   1.0702409830334388e-05   4.143206070579726e-06
-4.901615672152796e-05   1.0702409830334388e-05   4.143206070579726e-06
-4.901615672152796e-05   1.0702409830334388e-05   4.143206070579726e-06
-4.901615672152796e-05   1.0702409830334388e-05   4.143206070579726e-06
-7.29723985563019e-05   1.1353598562200643e-05   -3.5393150414924105e-05
-7.29723985563019e-05   1.1353598562200643e-05   -3.5393150414924105e-05
-7.29723985563019e-05   1.1353598562200643e-05   -3.5393150414924105e-05
-7.29723985563019e-05   1.1353598562200643e-05   -3.5393150414924105e-05
-6.999542909632138e-05   1.099517333458212e-05   1.0955974733739895e-05
-6.999542909632138e-05   1.099517333458212e-05   1.0955974733739895e-05
-6.999542909632138e-05   1.099517333458212e-05   1.0955974733739895e-05
-6.999542909632138e-05   1.099517333458212e-05   1.0955974733739895e-05
-4.77397956710734e-05   1.2233764233127251e-05   -2.687990218080049e-05
-4.77397956710734e-05   1.2233764233127251e-05   -2.687990218080049e-05
-4.77397956710734e-05   1.2233764233127251e-05   -2.687990218080049e-05
-4.77397956710734e-05   1.2233764233127251e-05   -2.687990218080049e-05
-5.759398079652153e-05   1.1215509600637913e-05   -9.84530752556101e-06
-5.759398079652153e-05   1.1215509600637913e-05   -9.84530752556101e-06
-5.759398079652153e-05   1.1215509600637913e-05   -9.84530752556101e-06
-5.759398079652153e-05   1.1215509600637913e-05   -9.84530752556101e-06
6.911485445610941e-05   -1.038177687555497e-05   2.357208842331611e-05
6.911485445610941e-05   -1.038177687555497e-05   2.357208842331611e-05
6.911485445610941e-05   -1.038177687555497e-05   2.357208842331611e-05
6.911485445610941e-05   -1.038177687555497e-05   2.357208842331611e-05
3.474334606167186e-05   -1.3130406431336589e-05   -3.536293663421565e-05
3.474334606167186e-05   -1.3130406431336589e-05   -3.536293663421565e-05
3.474334606167186e-05   -1.3130406431336589e-05   -3.536293663421565e-05
3.474334606167186e-05   -1.3130406431336589e-05   -3.536293663421565e-05
3.559292580579206e-05   -1.0139180530882499e-05   1.6906749609515862e-05
3.559292580579206e-05   -1.0139180530882499e-05   1.6906749609515862e-05
3.559292580579206e-05   -1.0139180530882499e-05   1.6906749609515862e-05
3.559292580579206e-05   -1.0139180530882499e-05   1.6906749609515862e-05
7.083801876856955e-05   -1.3458870557781725e-05   -3.984325797897354e-05
7.083801876856955e-05   -1.3458870557781725e-05   -3.984325797897354e-05
7.083801876856955e-05   -1.3458870557781725e-05   -3.984325797897354e-05
7.083801876856955e-05   -1.3458870557781725e-05   -3.984325797897354e-05
5.0478230345829217e-05   -1.0604761644936785e-05   -7.622742622113369e-06
5.0478230345829217e-05   -1.0604761644936785e-05   -7.622742622113369e-06
5.0478230345829217e-05   -1.0604761644936785e-05   -7.622742622113369e-06
5.0478230345829217e-05   -1.0604761644936785e-05   -7.622742622113369e-06
7.083801876856956e-05   -1.0139180530882475e-05   1.8898563625655528e-05
7.083801876856956e-05   -1.0139180530882475e-05   1.8898563625655528e-05
7.083801876856956e-05   -1.0139180530882475e-05   1.8898563625655528e-05
7.083801876856956e-05   -1.0139180530882475e-05   1.8898563625655528e-05
3.559292580579206e-05   -1.3458870557781725e-05   -4.183507199511326e-05
3.559292580579206e-05   -1.3458870557781725e-05   -4.183507199511326e-05
3.559292580579206e-05   -1.3458870557781725e-05   -4.183507199511326e-05
3.559292580579206e-05   -1.3458870557781725e-05   -4.183507199511326e-05
3.6311046595692716e-05   -9.787225813647112e-06   1.333938406700261e-05
3.6311046595692716e-05   -9.787225813647112e-06   1.333938406700261e-05
3.6311046595692716e-05   -9.787225813647112e-06   1.333938406700261e-05
3.6311046595692716e-05   -9.787225813647112e-06   1.333938406700261e-05
7.191198311337728e-05   -1.3337077087052004e-05   -4.3865599365094964e-05
7.191198311337728e-05   -1.3337077087052004e-05   -4.3865599365094964e-05
7.191198311337728e-05   -1.3337077087052004e-05   -4.3865599365094964e-05
7.191198311337728e-05   -1.3337077087052004e-05   -4.3865599365094964e-05
5.225838542717373e-05   -1.0939888207371542e-05   -1.254791654923084e-05
5.225838542717373e-05   -1.0939888207371542e-05   -1.254791654923084e-05
5.225838542717373e-05   -1.0939888207371542e-05   -1.254791654923084e-05
5.225838542717373e-05   -1.0939888207371542e-05   -1.254791654923084e-05
7.19119831133773e-05   -9.787225813647029e-06   1.546929483104602e-05
7.19119831133773e-05   -9.787225813647029e-06   1.546929483104602e-05
7.19119831133773e-05   -9.787225813647029e-06   1.546929483104602e-05
7.19119831133773e-05   -9.787225813647029e-06   1.546929483104602e-05
3.6311046595692716e-05   -1.3337077087052004e-05   -4.5995510129138214e-05
3.6311046595692716e-05   -1.3337077087052004e-05   -4.5995510129138214e-05
3.6311046595692716e-05   -1.3337077087052004e-05   -4.5995510129138214e-05
3.6311046595692716e-05   -1.3337077087052004e-05   -4.5995510129138214e-05
3.7061420114374295e-05   -8.414259369417861e-06   6.416639332618504e-06
3.7061420114374295e-05   -8.414259369417861e-06   6.416639332618504e-06
3.7061420114374295e-05   -8.414259369417861e-06   6.416639332618504e-06
3.7061420114374295e-05   -8.414259369417861e-06   6.416639332618504e-06
7.296946000697041e-05   -1.2595519040152665e-05   -5.092133801926736e-05
7.296946000697041e-05   -1.2595519040152665e-05   -5.092133801926736e-05
7.296946000697041e-05   -1.2595519040152665e-05   -5.092133801926736e-05
7.296946000697041e-05   -1.2595519040152665e-05   -5.092133801926736e-05
5.228496070264197e-05   -1.0528675197905932e-05   -1.768727881740152e-05
5.228496070264197e-05   -1.0528675197905932e-05   -1.768727881740152e-05
5.228496070264197e-05   -1.0528675197905932e-05   -1.768727881740152e-05
5.228496070264197e-05   -1.0528675197905932e-05   -1.768727881740152e-05
3.474334606167186e-05   -6.730319769651576e-06   2.3191792301669248e-06
3.474334606167186e-05   -6.730319769651576e-06   2.3191792301669248e-06
3.474334606167186e-05   -6.730319769651576e-06   2.3191792301669248e-06
3.474334606167186e-05   -6.730319769651576e-06   2.3191792301669248e-06
4.128164898017982e-06   -1.3179457458205746e-05   -5.25756053223888e-05
4.128164898017982e-06   -1.3179457458205746e-05   -5.25756053223888e-05
4.128164898017982e-06   -1.3179457458205746e-05   -5.25756053223888e-05
4.128164898017982e-06   -1.3179457458205746e-05   -5.25756053223888e-05
5.118415518231423e-06   -6.408461608727652e-06   -3.253134649747018e-07
5.118415518231423e-06   -6.408461608727652e-06   -3.253134649747018e-07
5.118415518231423e-06   -6.408461608727652e-06   -3.253134649747018e-07
5.118415518231423e-06   -6.408461608727652e-06   -3.253134649747018e-07
3.55929258057921e-05   -1.3111983700292776e-05   -4.709405068930325e-05
3.55929258057921e-05   -1.3111983700292776e-05   -4.709405068930325e-05
3.55929258057921e-05   -1.3111983700292776e-05   -4.709405068930325e-05
3.55929258057921e-05   -1.3111983700292776e-05   -4.709405068930325e-05
1.9973355496868715e-05   -8.891119898799243e-06   -2.3593951788660394e-05
1.9973355496868715e-05   -8.891119898799243e-06   -2.3593951788660394e-05
1.9973355496868715e-05   -8.891119898799243e-06   -2.3593951788660394e-05
1.9973355496868715e-05   -8.891119898799243e-06   -2.3593951788660394e-05
3.5592925805792036e-05   -6.408461608727481e-06   3.696799789964589e-06
3.5592925805792036e-05   -6.408461608727481e-06   3.696799789964589e-06
3.5592925805792036e-05   -6.408461608727481e-06   3.696799789964589e-06
3.5592925805792036e-05   -6.408461608727481e-06   3.696799789964589e-06
5.118415518231423e-06   -1.3111983700292776e-05   -5.1116163944242435e-05
5.118415518231423e-06   -1.3111983700292776e-05   -5.1116163944242435e-05
5.118415518231423e-06   -1.3111983700292776e-05   -5.1116163944242435e-05
5.118415518231423e-06   -1.3111983700292776e-05   -5.1116163944242435e-05
6.012288610447345e-06   -5.808975220877519e-06   -6.492846829748121e-07
6.012288610447345e-06   -5.808975220877519e-06   -6.492846829748121e-07
6.012288610447345e-06   -5.808975220877519e-06   -6.492846829748121e-07
6.012288610447345e-06   -5.808975220877519e-06   -6.492846829748121e-07
3.63110465956927e-05   -1.2936164764421575e-05   -4.68709009322572e-05
3.63110465956927e-05   -1.2936164764421575e-05   -4.68709009322572e-05
3.63110465956927e-05   -1.2936164764421575e-05   -4.68709009322572e-05
3.63110465956927e-05   -1.2936164764421575e-05   -4.68709009322572e-05
2.053573839187256e-05   -8.989153208231737e-06   -2.294692752627007e-05
2.053573839187256e-05   -8.989153208231737e-06   -2.294692752627007e-05
2.053573839187256e-05   -8.989153208231737e-06   -2.294692752627007e-05
2.053573839187256e-05   -8.989153208231737e-06   -2.294692752627007e-05
3.6311046595692716e-05   -5.808975220877318e-06   3.6270290431517516e-06
3.6311046595692716e-05   -5.808975220877318e-06   3.6270290431517516e-06
3.6311046595692716e-05   -5.808975220877318e-06   3.6270290431517516e-06
3.6311046595692716e-05   -5.808975220877318e-06   3.6270290431517516e-06
6.012288610447345e-06   -1.2936164764421575e-05   -5.11472146583836e-05
6.012288610447345e-06   -1.2936164764421575e-05   -5.11472146583836e-05
6.012288610447345e-06   -1.2936164764421575e-05   -5.11472146583836e-05
6.012288610447345e-06   -1.2936164764421575e-05   -5.11472146583836e-05
7.3463134963027365e-06   -4.95606174345754e-06   -1.2701596703403647e-06
7.3463134963027365e-06   -4.95606174345754e-06   -1.2701596703403647e-06
7.3463134963027365e-06   -4.95606174345754e-06   -1.2701596703403647e-06
7.3463134963027365e-06   -4.95606174345754e-06   -1.2701596703403647e-06
3.706142011437434e-05   -1.2584786408422269e-05   -4.621810256814717e-05
3.706142011437434e-05   -1.2584786408422269e-05   -4.621810256814717e-05
3.706142011437434e-05   -1.2584786408422269e-05   -4.621810256814717e-05
3.706142011437434e-05   -1.2584786408422269e-05   -4.621810256814717e-05
2.1607776380725244e-05   -8.84988778432046e-06   -2.270296885319319e-05
2.1607776380725244e-05   -8.84988778432046e-06   -2.270296885319319e-05
2.1607776380725244e-05   -8.84988778432046e-06   -2.270296885319319e-05
2.1607776380725244e-05   -8.84988778432046e-06   -2.270296885319319e-05
4.128164898017982e-06   -3.538058946121198e-06   -5.245035075232725e-06
4.128164898017982e-06   -3.538058946121198e-06   -5.245035075232725e-06
4.128164898017982e-06   -3.538058946121198e-06   -5.245035075232725e-06
4.128164898017982e-06   -3.538058946121198e-06   -5.245035075232725e-06
-2.61707033983843e-05   -1.5906275674194403e-05   -6.31640789394137e-05
-2.61707033983843e-05   -1.5906275674194403e-05   -6.31640789394137e-05
-2.61707033983843e-05   -1.5906275674194403e-05   -6.31640789394137e-05
-2.61707033983843e-05   -1.5906275674194403e-05   -6.31640789394137e-05
-2.4628261156823037e-05   -3.1589399936901574e-06   -1.1314532139246195e-05
-2.4628261156823037e-05   -3.1589399936901574e-06   -1.1314532139246195e-05
-2.4628261156823037e-05   -3.1589399936901574e-06   -1.1314532139246195e-05
-2.4628261156823037e-05   -3.1589399936901574e-06   -1.1314532139246195e-05
5.118415518231415e-06   -1.6258335472935353e-05   -5.303268931012339e-05
5.118415518231415e-06   -1.6258335472935353e-05   -5.303268931012339e-05
5.118415518231415e-06   -1.6258335472935353e-05   -5.303268931012339e-05
5.118415518231415e-06   -1.6258335472935353e-05   -5.303268931012339e-05
-1.003802833082267e-05   -8.995357574861137e-06   -3.212973630054434e-05
-1.003802833082267e-05   -8.995357574861137e-06   -3.212973630054434e-05
-1.003802833082267e-05   -8.995357574861137e-06   -3.212973630054434e-05
-1.003802833082267e-05   -8.995357574861137e-06   -3.212973630054434e-05
5.118415518231423e-06   -3.1589399936899846e-06   -3.4548948516992077e-06
5.118415518231423e-06   -3.1589399936899846e-06   -3.4548948516992077e-06
5.118415518231423e-06   -3.1589399936899846e-06   -3.4548948516992077e-06
5.118415518231423e-06   -3.1589399936899846e-06   -3.4548948516992077e-06
-2.4628261156823064e-05   -1.6258335472935353e-05   -6.089232659767046e-05
-2.4628261156823064e-05   -1.6258335472935353e-05   -6.089232659767046e-05
-2.4628261156823064e-05   -1.6258335472935353e-05   -6.089232659767046e-05
-2.4628261156823064e-05   -1.6258335472935353e-05   -6.089232659767046e-05
-2.3299175840183785e-05   -2.5683710151531633e-06   -1.0565646152727601e-05
-2.3299175840183785e-05   -2.5683710151531633e-06   -1.0565646152727601e-05
-2.3299175840183785e-05   -2.5683710151531633e-06   -1.0565646152727601e-05
-2.3299175840183785e-05   -2.5683710151531633e-06   -1.0565646152727601e-05
6.012288610447349e-06   -1.618262306698516e-05   -5.124953567268084e-05
6.012288610447349e-06   -1.618262306698516e-05   -5.124953567268084e-05
6.012288610447349e-06   -1.618262306698516e-05   -5.124953567268084e-05
6.012288610447349e-06   -1.618262306698516e-05   -5.124953567268084e-05
-8.942717632802309e-06   -9.199455277983815e-06   -3.0514425940665266e-05
-8.942717632802309e-06   -9.199455277983815e-06   -3.0514425940665266e-05
-8.942717632802309e-06   -9.199455277983815e-06   -3.0514425940665266e-05
-8.942717632802309e-06   -9.199455277983815e-06   -3.0514425940665266e-05
6.012288610447345e-06   -2.568371015153135e-06   -2.3970949216288364e-06
6.012288610447345e-06   -2.568371015153135e-06   -2.3970949216288364e-06
6.012288610447345e-06   -2.568371015153135e-06   -2.3970949216288364e-06
6.012288610447345e-06   -2.568371015153135e-06   -2.3970949216288364e-06
-2.3299175840183866e-05   -1.618262306698516e-05   -5.9418086903779846e-05
-2.3299175840183866e-05   -1.618262306698516e-05   -5.9418086903779846e-05
-2.3299175840183866e-05   -1.618262306698516e-05   -5.9418086903779846e-05
-2.3299175840183866e-05   -1.618262306698516e-05   -5.9418086903779846e-05
-2.10060608211184e-05   -2.0083922125887534e-06   -1.0520778407702202e-05
-2.10060608211184e-05   -2.0083922125887534e-06   -1.0520778407702202e-05
-2.10060608211184e-05   -2.0083922125887534e-06   -1.0520778407702202e-05
-2.10060608211184e-05   -2.0083922125887534e-06   -1.0520778407702202e-05
7.346313496302762e-06   -1.5615581202851544e-05   -4.961042220924652e-05
7.346313496302762e-06   -1.5615581202851544e-05   -4.961042220924652e-05
7.346313496302762e-06   -1.5615581202851544e-05   -4.961042220924652e-05
7.346313496302762e-06   -1.5615581202851544e-05   -4.961042220924652e-05
-7.519338301973078e-06   -8.995750639383474e-06   -2.880623421686767e-05
-7.519338301973078e-06   -8.995750639383474e-06   -2.880623421686767e-05
-7.519338301973078e-06   -8.995750639383474e-06   -2.880623421686767e-05
-7.519338301973078e-06   -8.995750639383474e-06   -2.880623421686767e-05
-2.617070339838426e-05   8.894684213983817e-07   -7.347238928212497e-06
-2.617070339838426e-05   8.894684213983817e-07   -7.347238928212497e-06
-2.617070339838426e-05   8.894684213983817e-07   -7.347238928212497e-06
-2.617070339838426e-05   8.894684213983817e-07   -7.347238928212497e-06
-5.997730778732977e-05   -1.983978258540296e-05   -7.612913018053549e-05
-5.997730778732977e-05   -1.983978258540296e-05   -7.612913018053549e-05
-5.997730778732977e-05   -1.983978258540296e-05   -7.612913018053549e-05
-5.997730778732977e-05   -1.983978258540296e-05   -7.612913018053549e-05
-5.8135781285417585e-05   1.5910462968092738e-06   -1.9170340543739686e-05
-5.8135781285417585e-05   1.5910462968092738e-06   -1.9170340543739686e-05
-5.8135781285417585e-05   1.5910462968092738e-06   -1.9170340543739686e-05
-5.8135781285417585e-05   1.5910462968092738e-06   -1.9170340543739686e-05
-2.4628261156823033e-05   -2.215022234120607e-05   -6.077144624192147e-05
-2.4628261156823033e-05   -2.215022234120607e-05   -6.077144624192147e-05
-2.4628261156823033e-05   -2.215022234120607e-05   -6.077144624192147e-05
-2.4628261156823033e-05   -2.215022234120607e-05   -6.077144624192147e-05
-4.16201545649856e-05   -1.0093126700822658e-05   -3.9685881279213935e-05
-4.16201545649856e-05   -1.0093126700822658e-05   -3.9685881279213935e-05
-4.16201545649856e-05   -1.0093126700822658e-05   -3.9685881279213935e-05
-4.16201545649856e-05   -1.0093126700822658e-05   -3.9685881279213935e-05
-2.4628261156823037e-05   1.5910462968094748e-06   -4.925579360930566e-06
-2.4628261156823037e-05   1.5910462968094748e-06   -4.925579360930566e-06
-2.4628261156823037e-05   1.5910462968094748e-06   -4.925579360930566e-06
-2.4628261156823037e-05   1.5910462968094748e-06   -4.925579360930566e-06
-5.813578128541769e-05   -2.215022234120607e-05   -7.501620742473084e-05
-5.813578128541769e-05   -2.215022234120607e-05   -7.501620742473084e-05
-5.813578128541769e-05   -2.215022234120607e-05   -7.501620742473084e-05
-5.813578128541769e-05   -2.215022234120607e-05   -7.501620742473084e-05
-5.6370449981259615e-05   2.2369513397236564e-06   -1.7126367552531283e-05
-5.6370449981259615e-05   2.2369513397236564e-06   -1.7126367552531283e-05
-5.6370449981259615e-05   2.2369513397236564e-06   -1.7126367552531283e-05
-5.6370449981259615e-05   2.2369513397236564e-06   -1.7126367552531283e-05
-2.329917584018382e-05   -2.227416224654657e-05   -5.753848963589546e-05
-2.329917584018382e-05   -2.227416224654657e-05   -5.753848963589546e-05
-2.329917584018382e-05   -2.227416224654657e-05   -5.753848963589546e-05
-2.329917584018382e-05   -2.227416224654657e-05   -5.753848963589546e-05
-3.982459484877455e-05   -1.0127660008808423e-05   -3.7284025964220415e-05
-3.982459484877455e-05   -1.0127660008808423e-05   -3.7284025964220415e-05
-3.982459484877455e-05   -1.0127660008808423e-05   -3.7284025964220415e-05
-3.982459484877455e-05   -1.0127660008808423e-05   -3.7284025964220415e-05
-2.3299175840183812e-05   2.236951339723597e-06   -2.4196994007691028e-06
-2.3299175840183812e-05   2.236951339723597e-06   -2.4196994007691028e-06
-2.3299175840183812e-05   2.236951339723597e-06   -2.4196994007691028e-06
-2.3299175840183812e-05   2.236951339723597e-06   -2.4196994007691028e-06
-5.637044998125971e-05   -2.227416224654657e-05   -7.224515778765758e-05
-5.637044998125971e-05   -2.227416224654657e-05   -7.224515778765758e-05
-5.637044998125971e-05   -2.227416224654657e-05   -7.224515778765758e-05
-5.637044998125971e-05   -2.227416224654657e-05   -7.224515778765758e-05
-5.347730901548092e-05   2.783443912200527e-06   -1.5044528465386984e-05
-5.347730901548092e-05   2.783443912200527e-06   -1.5044528465386984e-05
-5.347730901548092e-05   2.783443912200527e-06   -1.5044528465386984e-05
-5.347730901548092e-05   2.783443912200527e-06   -1.5044528465386984e-05
-2.100606082111847e-05   -2.0329760075466028e-05   -5.5295353063391204e-05
-2.100606082111847e-05   -2.0329760075466028e-05   -5.5295353063391204e-05
-2.100606082111847e-05   -2.0329760075466028e-05   -5.5295353063391204e-05
-2.100606082111847e-05   -2.0329760075466028e-05   -5.5295353063391204e-05
-3.805122694958294e-05   -8.94664736746792e-06   -3.371661047408242e-05
-3.805122694958294e-05   -8.94664736746792e-06   -3.371661047408242e-05
-3.805122694958294e-05   -8.94664736746792e-06   -3.371661047408242e-05
-3.805122694958294e-05   -8.94664736746792e-06   -3.371661047408242e-05
-5.997730778732977e-05   8.562355015040093e-06   -1.2974196931827848e-05
-5.997730778732977e-05   8.562355015040093e-06   -1.2974196931827848e-05
-5.997730778732977e-05   8.562355015040093e-06   -1.2974196931827848e-05
-5.997730778732977e-05   8.562355015040093e-06   -1.2974196931827848e-05
-0.00010327728352271928   0.0   -9.027823616650135e-05
-0.00010327728352271928   0.0   -9.027823616650135e-05
-0.00010327728352271928   0.0   -9.027823616650135e-05
-0.00010327728352271928   0.0   -9.027823616650135e-05
-0.00010058238159632589   1.0841485029914819e-05   -9.951993840326238e-06
-0.00010058238159632589   1.0841485029914819e-05   -9.951993840326238e-06
-0.00010058238159632589   1.0841485029914819e-05   -9.951993840326238e-06
-0.00010058238159632589   1.0841485029914819e-05   -9.951993840326238e-06
-5.8135781285417585e-05   0.0   -7.419143667389104e-05
-5.8135781285417585e-05   0.0   -7.419143667389104e-05
-5.8135781285417585e-05   0.0   -7.419143667389104e-05
-5.8135781285417585e-05   0.0   -7.419143667389104e-05
-7.70729633786433e-05   3.312418950993795e-06   -4.461691788911139e-05
-7.70729633786433e-05   3.312418950993795e-06   -4.461691788911139e-05
-7.70729633786433e-05   3.312418950993795e-06   -4.461691788911139e-05
-7.70729633786433e-05   3.312418950993795e-06   -4.461691788911139e-05
-5.813578128541763e-05   1.0841485029914685e-05   -3.447102822377304e-06
-5.813578128541763e-05   1.0841485029914685e-05   -3.447102822377304e-06
-5.813578128541763e-05   1.0841485029914685e-05   -3.447102822377304e-06
-5.813578128541763e-05   1.0841485029914685e-05   -3.447102822377304e-06
-0.00010058238159632571   0.0   -8.069632769183992e-05
-0.00010058238159632571   0.0   -8.069632769183992e-05
-0.00010058238159632571   0.0   -8.069632769183992e-05
-0.00010058238159632571   0.0   -8.069632769183992e-05
-9.830287323205858e-05   1.135359856220021e-05   -3.963849715109095e-06
-9.830287323205858e-05   1.135359856220021e-05   -3.963849715109095e-06
-9.830287323205858e-05   1.135359856220021e-05   -3.963849715109095e-06
-9.830287323205858e-05   1.135359856220021e-05   -3.963849715109095e-06
-5.6370449981259716e-05   0.0   -6.703906266245391e-05
-5.6370449981259716e-05   0.0   -6.703906266245391e-05
-5.6370449981259716e-05   0.0   -6.703906266245391e-05
-5.6370449981259716e-05   0.0   -6.703906266245391e-05
-7.626913476245731e-05   5.249718006890194e-06   -3.702441883125769e-05
-7.626913476245731e-05   5.249718006890194e-06   -3.702441883125769e-05
-7.626913476245731e-05   5.249718006890194e-06   -3.702441883125769e-05
-7.626913476245731e-05   5.249718006890194e-06   -3.702441883125769e-05
-5.637044998125971e-05   1.1353598562200482e-05   2.848309422211117e-06
-5.637044998125971e-05   1.1353598562200482e-05   2.848309422211117e-06
-5.637044998125971e-05   1.1353598562200482e-05   2.848309422211117e-06
-5.637044998125971e-05   1.1353598562200482e-05   2.848309422211117e-06
-9.830287323205842e-05   0.0   -7.385122179977407e-05
-9.830287323205842e-05   0.0   -7.385122179977407e-05
-9.830287323205842e-05   0.0   -7.385122179977407e-05
-9.830287323205842e-05   0.0   -7.385122179977407e-05
-9.375503943391527e-05   1.2233764233127251e-05   5.673559432534028e-06
-9.375503943391527e-05   1.2233764233127251e-05   5.673559432534028e-06
-9.375503943391527e-05   1.2233764233127251e-05   5.673559432534028e-06
-9.375503943391527e-05   1.2233764233127251e-05   5.673559432534028e-06
-5.347730901548096e-05   0.0   -5.41157327249802e-05
-5.347730901548096e-05   0.0   -5.41157327249802e-05
-5.347730901548096e-05   0.0   -5.41157327249802e-05
-5.347730901548096e-05   0.0   -5.41157327249802e-05
-7.230062839042144e-05   6.475511080804991e-06   -2.662884041522966e-05
-7.230062839042144e-05   6.475511080804991e-06   -2.662884041522966e-05
-7.230062839042144e-05   6.475511080804991e-06   -2.662884041522966e-05
-7.230062839042144e-05   6.475511080804991e-06   -2.662884041522966e-05
7.646463340367591e-05   -1.3130406431336734e-05   4.564401507680814e-05
7.646463340367591e-05   -1.3130406431336734e-05   4.564401507680814e-05
7.646463340367591e-05   -1.3130406431336734e-05   4.564401507680814e-05
7.646463340367591e-05   -1.3130406431336734e-05   4.564401507680814e-05
3.967337125170619e-05   -1.0117396433153257e-05   -1.3866949177564637e-05
3.967337125170619e-05   -1.0117396433153257e-05   -1.3866949177564637e-05
3.967337125170619e-05   -1.0117396433153257e-05   -1.3866949177564637e-05
3.967337125170619e-05   -1.0117396433153257e-05   -1.3866949177564637e-05
3.867510036465733e-05   -1.3458870557781725e-05   4.0312854900287744e-05
3.867510036465733e-05   -1.3458870557781725e-05   4.0312854900287744e-05
3.867510036465733e-05   -1.3458870557781725e-05   4.0312854900287744e-05
3.867510036465733e-05   -1.3458870557781725e-05   4.0312854900287744e-05
7.564656239660674e-05   -1.1123821331371873e-05   -2.270727802214056e-05
7.564656239660674e-05   -1.1123821331371873e-05   -2.270727802214056e-05
7.564656239660674e-05   -1.1123821331371873e-05   -2.270727802214056e-05
7.564656239660674e-05   -1.1123821331371873e-05   -2.270727802214056e-05
5.525741481487512e-05   -1.1313794004738902e-05   1.138861821809898e-05
5.525741481487512e-05   -1.1313794004738902e-05   1.138861821809898e-05
5.525741481487512e-05   -1.1313794004738902e-05   1.138861821809898e-05
5.525741481487512e-05   -1.1313794004738902e-05   1.138861821809898e-05
7.564656239660674e-05   -1.3458870557781786e-05   3.891182536444192e-05
7.564656239660674e-05   -1.3458870557781786e-05   3.891182536444192e-05
7.564656239660674e-05   -1.3458870557781786e-05   3.891182536444192e-05
7.564656239660674e-05   -1.3458870557781786e-05   3.891182536444192e-05
3.867510036465733e-05   -1.1123821331371873e-05   -2.130624848629449e-05
3.867510036465733e-05   -1.1123821331371873e-05   -2.130624848629449e-05
3.867510036465733e-05   -1.1123821331371873e-05   -2.130624848629449e-05
3.867510036465733e-05   -1.1123821331371873e-05   -2.130624848629449e-05
3.777205570218603e-05   -1.3337077087052004e-05   3.619450594071383e-05
3.777205570218603e-05   -1.3337077087052004e-05   3.619450594071383e-05
3.777205570218603e-05   -1.3337077087052004e-05   3.619450594071383e-05
3.777205570218603e-05   -1.3337077087052004e-05   3.619450594071383e-05
7.47004983999334e-05   -1.1216454733889956e-05   -2.662527196742922e-05
7.47004983999334e-05   -1.1216454733889956e-05   -2.662527196742922e-05
7.47004983999334e-05   -1.1216454733889956e-05   -2.662527196742922e-05
7.47004983999334e-05   -1.1216454733889956e-05   -2.662527196742922e-05
5.521524001698545e-05   -1.151221491882664e-05   6.027614781779333e-06
5.521524001698545e-05   -1.151221491882664e-05   6.027614781779333e-06
5.521524001698545e-05   -1.151221491882664e-05   6.027614781779333e-06
5.521524001698545e-05   -1.151221491882664e-05   6.027614781779333e-06
7.470049839993355e-05   -1.3337077087052227e-05   3.492213252881643e-05
7.470049839993355e-05   -1.3337077087052227e-05   3.492213252881643e-05
7.470049839993355e-05   -1.3337077087052227e-05   3.492213252881643e-05
7.470049839993355e-05   -1.3337077087052227e-05   3.492213252881643e-05
3.777205570218603e-05   -1.1216454733889956e-05   -2.5352898555531817e-05
3.777205570218603e-05   -1.1216454733889956e-05   -2.5352898555531817e-05
3.777205570218603e-05   -1.1216454733889956e-05   -2.5352898555531817e-05
3.777205570218603e-05   -1.1216454733889956e-05   -2.5352898555531817e-05
3.667032514090453e-05   -1.2595519040152665e-05   2.9494321613152694e-05
3.667032514090453e-05   -1.2595519040152665e-05   2.9494321613152694e-05
3.667032514090453e-05   -1.2595519040152665e-05   2.9494321613152694e-05
3.667032514090453e-05   -1.2595519040152665e-05   2.9494321613152694e-05
7.32181885435295e-05   -1.0982500509927866e-05   -3.23865951760237e-05
7.32181885435295e-05   -1.0982500509927866e-05   -3.23865951760237e-05
7.32181885435295e-05   -1.0982500509927866e-05   -3.23865951760237e-05
7.32181885435295e-05   -1.0982500509927866e-05   -3.23865951760237e-05
5.333011917172943e-05   -1.0946994385851398e-05   7.388834358637347e-07
5.333011917172943e-05   -1.0946994385851398e-05   7.388834358637347e-07
5.333011917172943e-05   -1.0946994385851398e-05   7.388834358637347e-07
5.333011917172943e-05   -1.0946994385851398e-05   7.388834358637347e-07
3.967337125170619e-05   -1.3179457458205916e-05   3.4108635000677616e-05
3.967337125170619e-05   -1.3179457458205916e-05   3.4108635000677616e-05
3.967337125170619e-05   -1.3179457458205916e-05   3.4108635000677616e-05
3.967337125170619e-05   -1.3179457458205916e-05   3.4108635000677616e-05
8.453078254446443e-06   -6.256508088895232e-06   -1.3771417039835704e-05
8.453078254446443e-06   -6.256508088895232e-06   -1.3771417039835704e-05
8.453078254446443e-06   -6.256508088895232e-06   -1.3771417039835704e-05
8.453078254446443e-06   -6.256508088895232e-06   -1.3771417039835704e-05
6.873174973452028e-06   -1.3111983700292776e-05   3.893949521090135e-05
6.873174973452028e-06   -1.3111983700292776e-05   3.893949521090135e-05
6.873174973452028e-06   -1.3111983700292776e-05   3.893949521090135e-05
6.873174973452028e-06   -1.3111983700292776e-05   3.893949521090135e-05
3.867510036465734e-05   -6.635952025620291e-06   -1.794933277924444e-05
3.867510036465734e-05   -6.635952025620291e-06   -1.794933277924444e-05
3.867510036465734e-05   -6.635952025620291e-06   -1.794933277924444e-05
3.867510036465734e-05   -6.635952025620291e-06   -1.794933277924444e-05
2.33860832575428e-05   -9.43336525118443e-06   9.210810334618229e-06
2.33860832575428e-05   -9.43336525118443e-06   9.210810334618229e-06
2.33860832575428e-05   -9.43336525118443e-06   9.210810334618229e-06
2.33860832575428e-05   -9.43336525118443e-06   9.210810334618229e-06
3.8675100364657304e-05   -1.3111983700292947e-05   3.5053876206097645e-05
3.8675100364657304e-05   -1.3111983700292947e-05   3.5053876206097645e-05
3.8675100364657304e-05   -1.3111983700292947e-05   3.5053876206097645e-05
3.8675100364657304e-05   -1.3111983700292947e-05   3.5053876206097645e-05
6.873174973452055e-06   -6.635952025620291e-06   -1.4063713774440951e-05
6.873174973452055e-06   -6.635952025620291e-06   -1.4063713774440951e-05
6.873174973452055e-06   -6.635952025620291e-06   -1.4063713774440951e-05
6.873174973452055e-06   -6.635952025620291e-06   -1.4063713774440951e-05
5.746553313886593e-06   -1.2936164764421575e-05   3.8997997693581647e-05
5.746553313886593e-06   -1.2936164764421575e-05   3.8997997693581647e-05
5.746553313886593e-06   -1.2936164764421575e-05   3.8997997693581647e-05
5.746553313886593e-06   -1.2936164764421575e-05   3.8997997693581647e-05
3.777205570218603e-05   -6.8046938377771746e-06   -1.8056722176237422e-05
3.777205570218603e-05   -6.8046938377771746e-06   -1.8056722176237422e-05
3.777205570218603e-05   -6.8046938377771746e-06   -1.8056722176237422e-05
3.777205570218603e-05   -6.8046938377771746e-06   -1.8056722176237422e-05
2.2031834174182427e-05   -9.240104478649893e-06   9.638226754959446e-06
2.2031834174182427e-05   -9.240104478649893e-06   9.638226754959446e-06
2.2031834174182427e-05   -9.240104478649893e-06   9.638226754959446e-06
2.2031834174182427e-05   -9.240104478649893e-06   9.638226754959446e-06
3.77720557021861e-05   -1.2936164764421322e-05   3.531911513759479e-05
3.77720557021861e-05   -1.2936164764421322e-05   3.531911513759479e-05
3.77720557021861e-05   -1.2936164764421322e-05   3.531911513759479e-05
3.77720557021861e-05   -1.2936164764421322e-05   3.531911513759479e-05
5.746553313886593e-06   -6.8046938377771746e-06   -1.4377839620250809e-05
5.746553313886593e-06   -6.8046938377771746e-06   -1.4377839620250809e-05
5.746553313886593e-06   -6.8046938377771746e-06   -1.4377839620250809e-05
5.746553313886593e-06   -6.8046938377771746e-06   -1.4377839620250809e-05
4.4932851072050016e-06   -1.2584786408422269e-05   4.026641362165685e-05
4.4932851072050016e-06   -1.2584786408422269e-05   4.026641362165685e-05
4.4932851072050016e-06   -1.2584786408422269e-05   4.026641362165685e-05
4.4932851072050016e-06   -1.2584786408422269e-05   4.026641362165685e-05
3.667032514090454e-05   -6.651285150183293e-06   -1.6922087189452298e-05
3.667032514090454e-05   -6.651285150183293e-06   -1.6922087189452298e-05
3.667032514090454e-05   -6.651285150183293e-06   -1.6922087189452298e-05
3.667032514090454e-05   -6.651285150183293e-06   -1.6922087189452298e-05
2.120359242300997e-05   -8.834732456132303e-06   1.0165869057274842e-05
2.120359242300997e-05   -8.834732456132303e-06   1.0165869057274842e-05
2.120359242300997e-05   -8.834732456132303e-06   1.0165869057274842e-05
2.120359242300997e-05   -8.834732456132303e-06   1.0165869057274842e-05
8.45307825444647e-06   -1.5906275674194606e-05   3.509486104208274e-05
8.45307825444647e-06   -1.5906275674194606e-05   3.509486104208274e-05
8.45307825444647e-06   -1.5906275674194606e-05   3.509486104208274e-05
8.45307825444647e-06   -1.5906275674194606e-05   3.509486104208274e-05
-2.1537776925585045e-05   -2.6319434707055417e-06   -6.925298269209535e-06
-2.1537776925585045e-05   -2.6319434707055417e-06   -6.925298269209535e-06
-2.1537776925585045e-05   -2.6319434707055417e-06   -6.925298269209535e-06
-2.1537776925585045e-05   -2.6319434707055417e-06   -6.925298269209535e-06
-2.3995519175031176e-05   -1.6258335472935353e-05   4.511043755818663e-05
-2.3995519175031176e-05   -1.6258335472935353e-05   4.511043755818663e-05
-2.3995519175031176e-05   -1.6258335472935353e-05   4.511043755818663e-05
-2.3995519175031176e-05   -1.6258335472935353e-05   4.511043755818663e-05
6.873174973452044e-06   -2.7792226176578776e-06   -1.4424853735784835e-05
6.873174973452044e-06   -2.7792226176578776e-06   -1.4424853735784835e-05
6.873174973452044e-06   -2.7792226176578776e-06   -1.4424853735784835e-05
6.873174973452044e-06   -2.7792226176578776e-06   -1.4424853735784835e-05
-7.2831048510385854e-06   -9.091868502516566e-06   1.2956533502614593e-05
-7.2831048510385854e-06   -9.091868502516566e-06   1.2956533502614593e-05
-7.2831048510385854e-06   -9.091868502516566e-06   1.2956533502614593e-05
-7.2831048510385854e-06   -9.091868502516566e-06   1.2956533502614593e-05
6.873174973452028e-06   -1.6258335472935255e-05   3.7022969845020536e-05
6.873174973452028e-06   -1.6258335472935255e-05   3.7022969845020536e-05
6.873174973452028e-06   -1.6258335472935255e-05   3.7022969845020536e-05
6.873174973452028e-06   -1.6258335472935255e-05   3.7022969845020536e-05
-2.399551917503112e-05   -2.7792226176578776e-06   -6.337386022618741e-06
-2.399551917503112e-05   -2.7792226176578776e-06   -6.337386022618741e-06
-2.399551917503112e-05   -2.7792226176578776e-06   -6.337386022618741e-06
-2.399551917503112e-05   -2.7792226176578776e-06   -6.337386022618741e-06
-2.5497670847965886e-05   -1.618262306698516e-05   4.6829485688496117e-05
-2.5497670847965886e-05   -1.618262306698516e-05   4.6829485688496117e-05
-2.5497670847965886e-05   -1.618262306698516e-05   4.6829485688496117e-05
-2.5497670847965886e-05   -1.618262306698516e-05   4.6829485688496117e-05
5.7465533138866e-06   -2.9596080516319095e-06   -1.3178030257136262e-05
5.7465533138866e-06   -2.9596080516319095e-06   -1.3178030257136262e-05
5.7465533138866e-06   -2.9596080516319095e-06   -1.3178030257136262e-05
5.7465533138866e-06   -2.9596080516319095e-06   -1.3178030257136262e-05
-8.946979296871369e-06   -9.063017845912374e-06   1.4973236637361718e-05
-8.946979296871369e-06   -9.063017845912374e-06   1.4973236637361718e-05
-8.946979296871369e-06   -9.063017845912374e-06   1.4973236637361718e-05
-8.946979296871369e-06   -9.063017845912374e-06   1.4973236637361718e-05
5.746553313886593e-06   -1.6182623066984764e-05   3.889567667928438e-05
5.746553313886593e-06   -1.6182623066984764e-05   3.889567667928438e-05
5.746553313886593e-06   -1.6182623066984764e-05   3.889567667928438e-05
5.746553313886593e-06   -1.6182623066984764e-05   3.889567667928438e-05
-2.549767084796583e-05   -2.9596080516319095e-06   -5.244221247924664e-06
-2.549767084796583e-05   -2.9596080516319095e-06   -5.244221247924664e-06
-2.549767084796583e-05   -2.9596080516319095e-06   -5.244221247924664e-06
-2.549767084796583e-05   -2.9596080516319095e-06   -5.244221247924664e-06
-2.726445417286494e-05   -1.5615581202851544e-05   4.905536896159597e-05
-2.726445417286494e-05   -1.5615581202851544e-05   4.905536896159597e-05
-2.726445417286494e-05   -1.5615581202851544e-05   4.905536896159597e-05
-2.726445417286494e-05   -1.5615581202851544e-05   4.905536896159597e-05
4.493285107205016e-06   -2.9421808994192777e-06   -1.1478236687246531e-05
4.493285107205016e-06   -2.9421808994192777e-06   -1.1478236687246531e-05
4.493285107205016e-06   -2.9421808994192777e-06   -1.1478236687246531e-05
4.493285107205016e-06   -2.9421808994192777e-06   -1.1478236687246531e-05
-1.0301857559521687e-05   -8.702394316234801e-06   1.6636462474053893e-05
-1.0301857559521687e-05   -8.702394316234801e-06   1.6636462474053893e-05
-1.0301857559521687e-05   -8.702394316234801e-06   1.6636462474053893e-05
-1.0301857559521687e-05   -8.702394316234801e-06   1.6636462474053893e-05
-2.1537776925585085e-05   -1.983978258540293e-05   4.253195972713517e-05
-2.1537776925585085e-05   -1.983978258540293e-05   4.253195972713517e-05
-2.1537776925585085e-05   -1.983978258540293e-05   4.253195972713517e-05
-2.1537776925585085e-05   -1.983978258540293e-05   4.253195972713517e-05
-5.569044483098828e-05   2.827269092579767e-06   -7.889224417473827e-07
-5.569044483098828e-05   2.827269092579767e-06   -7.889224417473827e-07
-5.569044483098828e-05   2.827269092579767e-06   -7.889224417473827e-07
-5.569044483098828e-05   2.827269092579767e-06   -7.889224417473827e-07
-5.8643754932040154e-05   -2.215022234120607e-05   6.011636474527807e-05
-5.8643754932040154e-05   -2.215022234120607e-05   6.011636474527807e-05
-5.8643754932040154e-05   -2.215022234120607e-05   6.011636474527807e-05
-5.8643754932040154e-05   -2.215022234120607e-05   6.011636474527807e-05
-2.3995519175031118e-05   2.6581890443647983e-06   -1.2515741681079343e-05
-2.3995519175031118e-05   2.6581890443647983e-06   -1.2515741681079343e-05
-2.3995519175031118e-05   2.6581890443647983e-06   -1.2515741681079343e-05
-2.3995519175031118e-05   2.6581890443647983e-06   -1.2515741681079343e-05
-3.9408136021721873e-05   -8.237525801215416e-06   1.970938197075293e-05
-3.9408136021721873e-05   -8.237525801215416e-06   1.970938197075293e-05
-3.9408136021721873e-05   -8.237525801215416e-06   1.970938197075293e-05
-3.9408136021721873e-05   -8.237525801215416e-06   1.970938197075293e-05
-2.399551917503112e-05   -2.2150222341205935e-05   4.523131791393559e-05
-2.399551917503112e-05   -2.2150222341205935e-05   4.523131791393559e-05
-2.399551917503112e-05   -2.2150222341205935e-05   4.523131791393559e-05
-2.399551917503112e-05   -2.2150222341205935e-05   4.523131791393559e-05
-5.8643754932040046e-05   2.6581890443647983e-06   2.3693051502630263e-06
-5.8643754932040046e-05   2.6581890443647983e-06   2.3693051502630263e-06
-5.8643754932040046e-05   2.6581890443647983e-06   2.3693051502630263e-06
-5.8643754932040046e-05   2.6581890443647983e-06   2.3693051502630263e-06
-6.044385412438934e-05   -2.227416224654657e-05   6.34816054864624e-05
-6.044385412438934e-05   -2.227416224654657e-05   6.34816054864624e-05
-6.044385412438934e-05   -2.227416224654657e-05   6.34816054864624e-05
-6.044385412438934e-05   -2.227416224654657e-05   6.34816054864624e-05
-2.549767084796584e-05   2.346708636923305e-06   -9.53455583765873e-06
-2.549767084796584e-05   2.346708636923305e-06   -9.53455583765873e-06
-2.549767084796584e-05   2.346708636923305e-06   -9.53455583765873e-06
-2.549767084796584e-05   2.346708636923305e-06   -9.53455583765873e-06
-4.132680293568402e-05   -9.483851855732021e-06   2.3945667270798283e-05
-4.132680293568402e-05   -9.483851855732021e-06   2.3945667270798283e-05
-4.132680293568402e-05   -9.483851855732021e-06   2.3945667270798283e-05
-4.132680293568402e-05   -9.483851855732021e-06   2.3945667270798283e-05
-2.549767084796583e-05   -2.2274162246546436e-05   4.8709082956380125e-05
-2.549767084796583e-05   -2.2274162246546436e-05   4.8709082956380125e-05
-2.549767084796583e-05   -2.2274162246546436e-05   4.8709082956380125e-05
-2.549767084796583e-05   -2.2274162246546436e-05   4.8709082956380125e-05
-6.044385412438922e-05   2.346708636923305e-06   5.2379666924233254e-06
-6.044385412438922e-05   2.346708636923305e-06   5.2379666924233254e-06
-6.044385412438922e-05   2.346708636923305e-06   5.2379666924233254e-06
-6.044385412438922e-05   2.346708636923305e-06   5.2379666924233254e-06
-6.238335169417392e-05   -2.0329760075466028e-05   6.49290489014606e-05
-6.238335169417392e-05   -2.0329760075466028e-05   6.49290489014606e-05
-6.238335169417392e-05   -2.0329760075466028e-05   6.49290489014606e-05
-6.238335169417392e-05   -2.0329760075466028e-05   6.49290489014606e-05
-2.7264454172864954e-05   1.994068924286805e-06   -6.996744367239341e-06
-2.7264454172864954e-05   1.994068924286805e-06   -6.996744367239341e-06
-2.7264454172864954e-05   1.994068924286805e-06   -6.996744367239341e-06
-2.7264454172864954e-05   1.994068924286805e-06   -6.996744367239341e-06
-4.3303482819463726e-05   -9.554846350122957e-06   2.6664319208404664e-05
-4.3303482819463726e-05   -9.554846350122957e-06   2.6664319208404664e-05
-4.3303482819463726e-05   -9.554846350122957e-06   2.6664319208404664e-05
-4.3303482819463726e-05   -9.554846350122957e-06   2.6664319208404664e-05
-5.569044483098809e-05   -7.285838599102577e-20   4.712049775698244e-05
-5.569044483098809e-05   -7.285838599102577e-20   4.712049775698244e-05
-5.569044483098809e-05   -7.285838599102577e-20   4.712049775698244e-05
-5.569044483098809e-05   -7.285838599102577e-20   4.712049775698244e-05
-9.808630492296322e-05   1.2860704803445162e-05   -1.5822846180909168e-05
-9.808630492296322e-05   1.2860704803445162e-05   -1.5822846180909168e-05
-9.808630492296322e-05   1.2860704803445162e-05   -1.5822846180909168e-05
-9.808630492296322e-05   1.2860704803445162e-05   -1.5822846180909168e-05
-0.00010215946999455121   0.0   6.838857696419773e-05
-0.00010215946999455121   0.0   6.838857696419773e-05
-0.00010215946999455121   0.0   6.838857696419773e-05
-0.00010215946999455121   0.0   6.838857696419773e-05
-5.8643754932040046e-05   1.2412402446800551e-05   -1.1585056274734972e-05
-5.8643754932040046e-05   1.2412402446800551e-05   -1.1585056274734972e-05
-5.8643754932040046e-05   1.2412402446800551e-05   -1.1585056274734972e-05
-5.8643754932040046e-05   1.2412402446800551e-05   -1.1585056274734972e-05
-7.529138838734455e-05   7.630152046498445e-06   1.9030349724287465e-05
-7.529138838734455e-05   7.630152046498445e-06   1.9030349724287465e-05
-7.529138838734455e-05   7.630152046498445e-06   1.9030349724287465e-05
-7.529138838734455e-05   7.630152046498445e-06   1.9030349724287465e-05
-5.864375493203999e-05   1.3530843112619098e-19   6.0941135496117484e-05
-5.864375493203999e-05   1.3530843112619098e-19   6.0941135496117484e-05
-5.864375493203999e-05   1.3530843112619098e-19   6.0941135496117484e-05
-5.864375493203999e-05   1.3530843112619098e-19   6.0941135496117484e-05
-0.00010215946999455138   1.2412402446800551e-05   -4.137614806654132e-06
-0.00010215946999455138   1.2412402446800551e-05   -4.137614806654132e-06
-0.00010215946999455138   1.2412402446800551e-05   -4.137614806654132e-06
-0.00010215946999455138   1.2412402446800551e-05   -4.137614806654132e-06
-0.00010421087586172427   0.0   7.594410075120826e-05
-0.00010421087586172427   0.0   7.594410075120826e-05
-0.00010421087586172427   0.0   7.594410075120826e-05
-0.00010421087586172427   0.0   7.594410075120826e-05
-6.044385412438923e-05   1.209400023257116e-05   -4.2573356172260644e-06
-6.044385412438923e-05   1.209400023257116e-05   -4.2573356172260644e-06
-6.044385412438923e-05   1.209400023257116e-05   -4.2573356172260644e-06
-6.044385412438923e-05   1.209400023257116e-05   -4.2573356172260644e-06
-7.922003437054676e-05   6.371134861644662e-06   3.04700173489266e-05
-7.922003437054676e-05   6.371134861644662e-06   3.04700173489266e-05
-7.922003437054676e-05   6.371134861644662e-06   3.04700173489266e-05
-7.922003437054676e-05   6.371134861644662e-06   3.04700173489266e-05
-6.044385412438922e-05   1.3530843112619098e-19   6.86877006116659e-05
-6.044385412438922e-05   1.3530843112619098e-19   6.86877006116659e-05
-6.044385412438922e-05   1.3530843112619098e-19   6.86877006116659e-05
-6.044385412438922e-05   1.3530843112619098e-19   6.86877006116659e-05
-0.00010421087586172444   1.209400023257116e-05   2.9990645223163664e-06
-0.00010421087586172444   1.209400023257116e-05   2.9990645223163664e-06
-0.00010421087586172444   1.209400023257116e-05   2.9990645223163664e-06
-0.00010421087586172444   1.209400023257116e-05   2.9990645223163664e-06
-0.00010649535716853023   0.0   8.601932040022816e-05
-0.00010649535716853023   0.0   8.601932040022816e-05
-0.00010649535716853023   0.0   8.601932040022816e-05
-0.00010649535716853023   0.0   8.601932040022816e-05
-6.238335169417388e-05   1.0071214612927641e-05   6.456582508544012e-06
-6.238335169417388e-05   1.0071214612927641e-05   6.456582508544012e-06
-6.238335169417388e-05   1.0071214612927641e-05   6.456582508544012e-06
-6.238335169417388e-05   1.0071214612927641e-05   6.456582508544012e-06
-7.988014291311155e-05   4.472286675612225e-06   3.8977257969162135e-05
-7.988014291311155e-05   4.472286675612225e-06   3.8977257969162135e-05
-7.988014291311155e-05   4.472286675612225e-06   3.8977257969162135e-05
-7.988014291311155e-05   4.472286675612225e-06   3.8977257969162135e-05
6.725199076968595e-05   -1.0117396433153155e-05   4.7748439558529567e-05
6.725199076968595e-05   -1.0117396433153155e-05   4.7748439558529567e-05
6.725199076968595e-05   -1.0117396433153155e-05   4.7748439558529567e-05
6.725199076968595e-05   -1.0117396433153155e-05   4.7748439558529567e-05
3.401386607786532e-05   -7.63005760561885e-06   -6.156031631317357e-06
3.401386607786532e-05   -7.63005760561885e-06   -6.156031631317357e-06
3.401386607786532e-05   -7.63005760561885e-06   -6.156031631317357e-06
3.401386607786532e-05   -7.63005760561885e-06   -6.156031631317357e-06
3.311608614837267e-05   -1.1123821331371873e-05   4.167883841694033e-05
3.311608614837267e-05   -1.1123821331371873e-05   4.167883841694033e-05
3.311608614837267e-05   -1.1123821331371873e-05   4.167883841694033e-05
3.311608614837267e-05   -1.1123821331371873e-05   4.167883841694033e-05
6.56490597869677e-05   -8.647924561870721e-06   -1.4028322375752106e-05
6.56490597869677e-05   -8.647924561870721e-06   -1.4028322375752106e-05
6.56490597869677e-05   -8.647924561870721e-06   -1.4028322375752106e-05
6.56490597869677e-05   -8.647924561870721e-06   -1.4028322375752106e-05
4.7781486449748005e-05   -9.004854252249624e-06   1.5965124333841698e-05
4.7781486449748005e-05   -9.004854252249624e-06   1.5965124333841698e-05
4.7781486449748005e-05   -9.004854252249624e-06   1.5965124333841698e-05
4.7781486449748005e-05   -9.004854252249624e-06   1.5965124333841698e-05
6.564905978696758e-05   -1.1123821331371838e-05   4.0193300355239594e-05
6.564905978696758e-05   -1.1123821331371838e-05   4.0193300355239594e-05
6.564905978696758e-05   -1.1123821331371838e-05   4.0193300355239594e-05
6.564905978696758e-05   -1.1123821331371838e-05   4.0193300355239594e-05
3.3116086148372737e-05   -8.647924561870721e-06   -1.2542784314051357e-05
3.3116086148372737e-05   -8.647924561870721e-06   -1.2542784314051357e-05
3.3116086148372737e-05   -8.647924561870721e-06   -1.2542784314051357e-05
3.3116086148372737e-05   -8.647924561870721e-06   -1.2542784314051357e-05
3.195923911495959e-05   -1.1216454733889956e-05   3.741122188799105e-05
3.195923911495959e-05   -1.1216454733889956e-05   3.741122188799105e-05
3.195923911495959e-05   -1.1216454733889956e-05   3.741122188799105e-05
3.195923911495959e-05   -1.1216454733889956e-05   3.741122188799105e-05
6.402794130416546e-05   -8.799262132523893e-06   -1.7486930654838548e-05
6.402794130416546e-05   -8.799262132523893e-06   -1.7486930654838548e-05
6.402794130416546e-05   -8.799262132523893e-06   -1.7486930654838548e-05
6.402794130416546e-05   -8.799262132523893e-06   -1.7486930654838548e-05
4.733159008565364e-05   -9.398094073921268e-06   1.0699620540853159e-05
4.733159008565364e-05   -9.398094073921268e-06   1.0699620540853159e-05
4.733159008565364e-05   -9.398094073921268e-06   1.0699620540853159e-05
4.733159008565364e-05   -9.398094073921268e-06   1.0699620540853159e-05
6.402794130416546e-05   -1.1216454733889814e-05   3.596090632717133e-05
6.402794130416546e-05   -1.1216454733889814e-05   3.596090632717133e-05
6.402794130416546e-05   -1.1216454733889814e-05   3.596090632717133e-05
6.402794130416546e-05   -1.1216454733889814e-05   3.596090632717133e-05
3.195923911495959e-05   -8.799262132523893e-06   -1.6036615094018776e-05
3.195923911495959e-05   -8.799262132523893e-06   -1.6036615094018776e-05
3.195923911495959e-05   -8.799262132523893e-06   -1.6036615094018776e-05
3.195923911495959e-05   -8.799262132523893e-06   -1.6036615094018776e-05
3.074551340882094e-05   -1.0982500509927866e-05   3.108103843294657e-05
3.074551340882094e-05   -1.0982500509927866e-05   3.108103843294657e-05
3.074551340882094e-05   -1.0982500509927866e-05   3.108103843294657e-05
3.074551340882094e-05   -1.0982500509927866e-05   3.108103843294657e-05
6.199865789218593e-05   -8.743790107494046e-06   -2.235076194745553e-05
6.199865789218593e-05   -8.743790107494046e-06   -2.235076194745553e-05
6.199865789218593e-05   -8.743790107494046e-06   -2.235076194745553e-05
6.199865789218593e-05   -8.743790107494046e-06   -2.235076194745553e-05
4.522172440536488e-05   -9.152137113960929e-06   5.8558020677938315e-06
4.522172440536488e-05   -9.152137113960929e-06   5.8558020677938315e-06
4.522172440536488e-05   -9.152137113960929e-06   5.8558020677938315e-06
4.522172440536488e-05   -9.152137113960929e-06   5.8558020677938315e-06
3.401386607786532e-05   -6.256508088895249e-06   4.518260537119301e-05
3.401386607786532e-05   -6.256508088895249e-06   4.518260537119301e-05
3.401386607786532e-05   -6.256508088895249e-06   4.518260537119301e-05
3.401386607786532e-05   -6.256508088895249e-06   4.518260537119301e-05
3.7305101505725764e-06   -2.692384429172842e-06   -3.1511803117948572e-06
3.7305101505725764e-06   -2.692384429172842e-06   -3.1511803117948572e-06
3.7305101505725764e-06   -2.692384429172842e-06   -3.1511803117948572e-06
3.7305101505725764e-06   -2.692384429172842e-06   -3.1511803117948572e-06
2.838684690967215e-06   -6.635952025620291e-06   4.7073693447655324e-05
2.838684690967215e-06   -6.635952025620291e-06   4.7073693447655324e-05
2.838684690967215e-06   -6.635952025620291e-06   4.7073693447655324e-05
2.838684690967215e-06   -6.635952025620291e-06   4.7073693447655324e-05
3.311608614837273e-05   -3.239386486178497e-06   -5.426581638352091e-06
3.311608614837273e-05   -3.239386486178497e-06   -5.426581638352091e-06
3.311608614837273e-05   -3.239386486178497e-06   -5.426581638352091e-06
3.311608614837273e-05   -3.239386486178497e-06   -5.426581638352091e-06
1.8248269332407145e-05   -4.375862071291561e-06   2.0034998405991445e-05
1.8248269332407145e-05   -4.375862071291561e-06   2.0034998405991445e-05
1.8248269332407145e-05   -4.375862071291561e-06   2.0034998405991445e-05
1.8248269332407145e-05   -4.375862071291561e-06   2.0034998405991445e-05
3.3116086148372696e-05   -6.63595202562022e-06   4.503575412399038e-05
3.3116086148372696e-05   -6.63595202562022e-06   4.503575412399038e-05
3.3116086148372696e-05   -6.63595202562022e-06   4.503575412399038e-05
3.3116086148372696e-05   -6.63595202562022e-06   4.503575412399038e-05
2.838684690967215e-06   -3.239386486178497e-06   -3.3886423146871174e-06
2.838684690967215e-06   -3.239386486178497e-06   -3.3886423146871174e-06
2.838684690967215e-06   -3.239386486178497e-06   -3.3886423146871174e-06
2.838684690967215e-06   -3.239386486178497e-06   -3.3886423146871174e-06
1.7002242124051668e-06   -6.8046938377771746e-06   4.663134613287832e-05
1.7002242124051668e-06   -6.8046938377771746e-06   4.663134613287832e-05
1.7002242124051668e-06   -6.8046938377771746e-06   4.663134613287832e-05
1.7002242124051668e-06   -6.8046938377771746e-06   4.663134613287832e-05
3.195923911495959e-05   -3.598114061788716e-06   -5.7242932369721135e-06
3.195923911495959e-05   -3.598114061788716e-06   -5.7242932369721135e-06
3.195923911495959e-05   -3.598114061788716e-06   -5.7242932369721135e-06
3.195923911495959e-05   -3.598114061788716e-06   -5.7242932369721135e-06
1.7117374016752345e-05   -4.582937469745866e-06   1.9603042638148256e-05
1.7117374016752345e-05   -4.582937469745866e-06   1.9603042638148256e-05
1.7117374016752345e-05   -4.582937469745866e-06   1.9603042638148256e-05
1.7117374016752345e-05   -4.582937469745866e-06   1.9603042638148256e-05
3.1959239114959546e-05   -6.80469383777726e-06   4.47073982672852e-05
3.1959239114959546e-05   -6.80469383777726e-06   4.47073982672852e-05
3.1959239114959546e-05   -6.80469383777726e-06   4.47073982672852e-05
3.1959239114959546e-05   -6.80469383777726e-06   4.47073982672852e-05
1.7002242124051668e-06   -3.598114061788716e-06   -3.800345371379266e-06
1.7002242124051668e-06   -3.598114061788716e-06   -3.800345371379266e-06
1.7002242124051668e-06   -3.598114061788716e-06   -3.800345371379266e-06
1.7002242124051668e-06   -3.598114061788716e-06   -3.800345371379266e-06
4.425798981181928e-07   -6.651285150183293e-06   4.731739682145271e-05
4.425798981181928e-07   -6.651285150183293e-06   4.731739682145271e-05
4.425798981181928e-07   -6.651285150183293e-06   4.731739682145271e-05
4.425798981181928e-07   -6.651285150183293e-06   4.731739682145271e-05
3.074551340882092e-05   -3.7518492834003048e-06   -4.927153883121254e-06
3.074551340882092e-05   -3.7518492834003048e-06   -4.927153883121254e-06
3.074551340882092e-05   -3.7518492834003048e-06   -4.927153883121254e-06
3.074551340882092e-05   -3.7518492834003048e-06   -4.927153883121254e-06
1.6196062702153262e-05   -4.5395273533237884e-06   1.9794537469946134e-05
1.6196062702153262e-05   -4.5395273533237884e-06   1.9794537469946134e-05
1.6196062702153262e-05   -4.5395273533237884e-06   1.9794537469946134e-05
1.6196062702153262e-05   -4.5395273533237884e-06   1.9794537469946134e-05
3.7305101505725764e-06   -2.631943470705488e-06   4.620259901555934e-05
3.7305101505725764e-06   -2.631943470705488e-06   4.620259901555934e-05
3.7305101505725764e-06   -2.631943470705488e-06   4.620259901555934e-05
3.7305101505725764e-06   -2.631943470705488e-06   4.620259901555934e-05
-2.5607308221600234e-05   2.3925221635519127e-06   3.209144424920485e-07
-2.5607308221600234e-05   2.3925221635519127e-06   3.209144424920485e-07
-2.5607308221600234e-05   2.3925221635519127e-06   3.209144424920485e-07
-2.5607308221600234e-05   2.3925221635519127e-06   3.209144424920485e-07
-2.6612137614448695e-05   -2.7792226176578776e-06   4.956440459789337e-05
-2.6612137614448695e-05   -2.7792226176578776e-06   4.956440459789337e-05
-2.6612137614448695e-05   -2.7792226176578776e-06   4.956440459789337e-05
-2.6612137614448695e-05   -2.7792226176578776e-06   4.956440459789337e-05
2.8386846909672034e-06   1.9738625683116476e-06   -2.3721503560484908e-06
2.8386846909672034e-06   1.9738625683116476e-06   -2.3721503560484908e-06
2.8386846909672034e-06   1.9738625683116476e-06   -2.3721503560484908e-06
2.8386846909672034e-06   1.9738625683116476e-06   -2.3721503560484908e-06
-1.1391617606910136e-05   -4.073429509150739e-08   2.2553778258455862e-05
-1.1391617606910136e-05   -4.073429509150739e-08   2.2553778258455862e-05
-1.1391617606910136e-05   -4.073429509150739e-08   2.2553778258455862e-05
-1.1391617606910136e-05   -4.073429509150739e-08   2.2553778258455862e-05
2.838684690967215e-06   -2.7792226176580097e-06   4.671255348631144e-05
2.838684690967215e-06   -2.7792226176580097e-06   4.671255348631144e-05
2.838684690967215e-06   -2.7792226176580097e-06   4.671255348631144e-05
2.838684690967215e-06   -2.7792226176580097e-06   4.671255348631144e-05
-2.6612137614448695e-05   1.9738625683116476e-06   4.797007555335225e-07
-2.6612137614448695e-05   1.9738625683116476e-06   4.797007555335225e-07
-2.6612137614448695e-05   1.9738625683116476e-06   4.797007555335225e-07
-2.6612137614448695e-05   1.9738625683116476e-06   4.797007555335225e-07
-2.795928655978581e-05   -2.9596080516319095e-06   5.05574034032391e-05
-2.795928655978581e-05   -2.9596080516319095e-06   5.05574034032391e-05
-2.795928655978581e-05   -2.9596080516319095e-06   5.05574034032391e-05
-2.795928655978581e-05   -2.9596080516319095e-06   5.05574034032391e-05
1.7002242124051763e-06   1.584138460445153e-06   -1.6013624576587766e-06
1.7002242124051763e-06   1.584138460445153e-06   -1.6013624576587766e-06
1.7002242124051763e-06   1.584138460445153e-06   -1.6013624576587766e-06
1.7002242124051763e-06   1.584138460445153e-06   -1.6013624576587766e-06
-1.2382797300708404e-05   -1.584393863746092e-07   2.291588677228877e-05
-1.2382797300708404e-05   -1.584393863746092e-07   2.291588677228877e-05
-1.2382797300708404e-05   -1.584393863746092e-07   2.291588677228877e-05
-1.2382797300708404e-05   -1.584393863746092e-07   2.291588677228877e-05
1.7002242124051668e-06   -2.959608051632052e-06   4.783115549599295e-05
1.7002242124051668e-06   -2.959608051632052e-06   4.783115549599295e-05
1.7002242124051668e-06   -2.959608051632052e-06   4.783115549599295e-05
1.7002242124051668e-06   -2.959608051632052e-06   4.783115549599295e-05
-2.795928655978581e-05   1.584138460445153e-06   1.1248854495874826e-06
-2.795928655978581e-05   1.584138460445153e-06   1.1248854495874826e-06
-2.795928655978581e-05   1.584138460445153e-06   1.1248854495874826e-06
-2.795928655978581e-05   1.584138460445153e-06   1.1248854495874826e-06
-2.939457718282299e-05   -2.9421808994192777e-06   5.174850965081472e-05
-2.939457718282299e-05   -2.9421808994192777e-06   5.174850965081472e-05
-2.939457718282299e-05   -2.9421808994192777e-06   5.174850965081472e-05
-2.939457718282299e-05   -2.9421808994192777e-06   5.174850965081472e-05
4.4257989811819914e-07   1.3034242374128022e-06   -5.274485661866399e-07
4.4257989811819914e-07   1.3034242374128022e-06   -5.274485661866399e-07
4.4257989811819914e-07   1.3034242374128022e-06   -5.274485661866399e-07
4.4257989811819914e-07   1.3034242374128022e-06   -5.274485661866399e-07
-1.364684117435016e-05   -2.4291965444733776e-07   2.3882726223044292e-05
-1.364684117435016e-05   -2.4291965444733776e-07   2.3882726223044292e-05
-1.364684117435016e-05   -2.4291965444733776e-07   2.3882726223044292e-05
-1.364684117435016e-05   -2.4291965444733776e-07   2.3882726223044292e-05
-2.5607308221600126e-05   2.8272690925796718e-06   4.175342321678611e-05
-2.5607308221600126e-05   2.8272690925796718e-06   4.175342321678611e-05
-2.5607308221600126e-05   2.8272690925796718e-06   4.175342321678611e-05
-2.5607308221600126e-05   2.8272690925796718e-06   4.175342321678611e-05
-5.434848059731801e-05   7.794469639073928e-06   -3.1682104148474458e-06
-5.434848059731801e-05   7.794469639073928e-06   -3.1682104148474458e-06
-5.434848059731801e-05   7.794469639073928e-06   -3.1682104148474458e-06
-5.434848059731801e-05   7.794469639073928e-06   -3.1682104148474458e-06
-5.5811981882057985e-05   2.6581890443643647e-06   4.6215991931657964e-05
-5.5811981882057985e-05   2.6581890443643647e-06   4.6215991931657964e-05
-5.5811981882057985e-05   2.6581890443643647e-06   4.6215991931657964e-05
-5.5811981882057985e-05   2.6581890443643647e-06   4.6215991931657964e-05
-2.6612137614448647e-05   7.374760698073638e-06   -5.280358173249445e-06
-2.6612137614448647e-05   7.374760698073638e-06   -5.280358173249445e-06
-2.6612137614448647e-05   7.374760698073638e-06   -5.280358173249445e-06
-2.6612137614448647e-05   7.374760698073638e-06   -5.280358173249445e-06
-4.027479907054117e-05   5.253630827288178e-06   1.8763422176042805e-05
-4.027479907054117e-05   5.253630827288178e-06   1.8763422176042805e-05
-4.027479907054117e-05   5.253630827288178e-06   1.8763422176042805e-05
-4.027479907054117e-05   5.253630827288178e-06   1.8763422176042805e-05
-2.6612137614448695e-05   2.6581890443645802e-06   4.338604893943266e-05
-2.6612137614448695e-05   2.6581890443645802e-06   4.338604893943266e-05
-2.6612137614448695e-05   2.6581890443645802e-06   4.338604893943266e-05
-2.6612137614448695e-05   2.6581890443645802e-06   4.338604893943266e-05
-5.5811981882057876e-05   7.374760698073638e-06   -2.4504151810240873e-06
-5.5811981882057876e-05   7.374760698073638e-06   -2.4504151810240873e-06
-5.5811981882057876e-05   7.374760698073638e-06   -2.4504151810240873e-06
-5.5811981882057876e-05   7.374760698073638e-06   -2.4504151810240873e-06
-5.7605497509609425e-05   2.346708636923305e-06   4.905099810805229e-05
-5.7605497509609425e-05   2.346708636923305e-06   4.905099810805229e-05
-5.7605497509609425e-05   2.346708636923305e-06   4.905099810805229e-05
-5.7605497509609425e-05   2.346708636923305e-06   4.905099810805229e-05
-2.7959286559785803e-05   6.98659079450192e-06   -3.143282769534181e-06
-2.7959286559785803e-05   6.98659079450192e-06   -3.143282769534181e-06
-2.7959286559785803e-05   6.98659079450192e-06   -3.143282769534181e-06
-2.7959286559785803e-05   6.98659079450192e-06   -3.143282769534181e-06
-4.1364907607710165e-05   5.156823274719315e-06   2.0297279488876228e-05
-4.1364907607710165e-05   5.156823274719315e-06   2.0297279488876228e-05
-4.1364907607710165e-05   5.156823274719315e-06   2.0297279488876228e-05
-4.1364907607710165e-05   5.156823274719315e-06   2.0297279488876228e-05
-2.795928655978581e-05   2.3467086369233645e-06   4.6267068813505034e-05
-2.795928655978581e-05   2.3467086369233645e-06   4.6267068813505034e-05
-2.795928655978581e-05   2.3467086369233645e-06   4.6267068813505034e-05
-2.795928655978581e-05   2.3467086369233645e-06   4.6267068813505034e-05
-5.7605497509609344e-05   6.98659079450192e-06   -3.5935347498703384e-07
-5.7605497509609344e-05   6.98659079450192e-06   -3.5935347498703384e-07
-5.7605497509609344e-05   6.98659079450192e-06   -3.5935347498703384e-07
-5.7605497509609344e-05   6.98659079450192e-06   -3.5935347498703384e-07
-5.9503200352680955e-05   1.994068924286805e-06   5.1308381070342725e-05
-5.9503200352680955e-05   1.994068924286805e-06   5.1308381070342725e-05
-5.9503200352680955e-05   1.994068924286805e-06   5.1308381070342725e-05
-5.9503200352680955e-05   1.994068924286805e-06   5.1308381070342725e-05
-2.9394577182822878e-05   6.464767726920093e-06   -1.5550768276671473e-06
-2.9394577182822878e-05   6.464767726920093e-06   -1.5550768276671473e-06
-2.9394577182822878e-05   6.464767726920093e-06   -1.5550768276671473e-06
-2.9394577182822878e-05   6.464767726920093e-06   -1.5550768276671473e-06
-4.318057212707e-05   4.841839746961424e-06   2.239533820072039e-05
-4.318057212707e-05   4.841839746961424e-06   2.239533820072039e-05
-4.318057212707e-05   4.841839746961424e-06   2.239533820072039e-05
-4.318057212707e-05   4.841839746961424e-06   2.239533820072039e-05
-5.434848059731801e-05   1.2860704803445307e-05   2.1983396923453682e-05
-5.434848059731801e-05   1.2860704803445307e-05   2.1983396923453682e-05
-5.434848059731801e-05   1.2860704803445307e-05   2.1983396923453682e-05
-5.434848059731801e-05   1.2860704803445307e-05   2.1983396923453682e-05
-8.187383879926241e-05   1.2676334538369756e-05   -2.400282223883254e-05
-8.187383879926241e-05   1.2676334538369756e-05   -2.400282223883254e-05
-8.187383879926241e-05   1.2676334538369756e-05   -2.400282223883254e-05
-8.187383879926241e-05   1.2676334538369756e-05   -2.400282223883254e-05
-8.45009698562276e-05   1.2412402446800985e-05   3.256590136233874e-05
-8.45009698562276e-05   1.2412402446800985e-05   3.256590136233874e-05
-8.45009698562276e-05   1.2412402446800985e-05   3.256590136233874e-05
-8.45009698562276e-05   1.2412402446800985e-05   3.256590136233874e-05
-5.581198188205789e-05   1.2919520539599397e-05   -1.555334945028958e-05
-5.581198188205789e-05   1.2919520539599397e-05   -1.555334945028958e-05
-5.581198188205789e-05   1.2919520539599397e-05   -1.555334945028958e-05
-5.581198188205789e-05   1.2919520539599397e-05   -1.555334945028958e-05
-6.635108368661576e-05   1.291741415709131e-05   2.013084053478244e-06
-6.635108368661576e-05   1.291741415709131e-05   2.013084053478244e-06
-6.635108368661576e-05   1.291741415709131e-05   2.013084053478244e-06
-6.635108368661576e-05   1.291741415709131e-05   2.013084053478244e-06
-5.581198188205785e-05   1.2412402446801176e-05   3.226163050665991e-05
-5.581198188205785e-05   1.2412402446801176e-05   3.226163050665991e-05
-5.581198188205785e-05   1.2412402446801176e-05   3.226163050665991e-05
-5.581198188205785e-05   1.2412402446801176e-05   3.226163050665991e-05
-8.45009698562276e-05   1.2919520539598963e-05   -1.5249078594610803e-05
-8.45009698562276e-05   1.2919520539598963e-05   -1.5249078594610803e-05
-8.45009698562276e-05   1.2919520539598963e-05   -1.5249078594610803e-05
-8.45009698562276e-05   1.2919520539598963e-05   -1.5249078594610803e-05
-8.707726732349306e-05   1.209400023257116e-05   3.999516512663472e-05
-8.707726732349306e-05   1.209400023257116e-05   3.999516512663472e-05
-8.707726732349306e-05   1.209400023257116e-05   3.999516512663472e-05
-8.707726732349306e-05   1.209400023257116e-05   3.999516512663472e-05
-5.760549750960933e-05   1.282644911295783e-05   -9.563920558070124e-06
-5.760549750960933e-05   1.282644911295783e-05   -9.563920558070124e-06
-5.760549750960933e-05   1.282644911295783e-05   -9.563920558070124e-06
-5.760549750960933e-05   1.282644911295783e-05   -9.563920558070124e-06
-6.936299691385197e-05   1.2915514387099817e-05   9.978472617849592e-06
-6.936299691385197e-05   1.2915514387099817e-05   9.978472617849592e-06
-6.936299691385197e-05   1.2915514387099817e-05   9.978472617849592e-06
-6.936299691385197e-05   1.2915514387099817e-05   9.978472617849592e-06
-5.7605497509609344e-05   1.2094000232570954e-05   3.95556957984032e-05
-5.7605497509609344e-05   1.2094000232570954e-05   3.95556957984032e-05
-5.7605497509609344e-05   1.2094000232570954e-05   3.95556957984032e-05
-5.7605497509609344e-05   1.2094000232570954e-05   3.95556957984032e-05
-8.707726732349322e-05   1.282644911295783e-05   -9.124451229838328e-06
-8.707726732349322e-05   1.282644911295783e-05   -9.124451229838328e-06
-8.707726732349322e-05   1.282644911295783e-05   -9.124451229838328e-06
-8.707726732349322e-05   1.282644911295783e-05   -9.124451229838328e-06
-9.011563306867215e-05   1.0071214612927641e-05   5.24092619240532e-05
-9.011563306867215e-05   1.0071214612927641e-05   5.24092619240532e-05
-9.011563306867215e-05   1.0071214612927641e-05   5.24092619240532e-05
-9.011563306867215e-05   1.0071214612927641e-05   5.24092619240532e-05
-5.95032003526809e-05   1.1807633575892668e-05   3.4668935295489997e-07
-5.95032003526809e-05   1.1807633575892668e-05   3.4668935295489997e-07
-5.95032003526809e-05   1.1807633575892668e-05   3.4668935295489997e-07
-5.95032003526809e-05   1.1807633575892668e-05   3.4668935295489997e-07
-7.044359442430327e-05   1.2302326791798976e-05   1.8283863542782163e-05
-7.044359442430327e-05   1.2302326791798976e-05   1.8283863542782163e-05
-7.044359442430327e-05   1.2302326791798976e-05   1.8283863542782163e-05
-7.044359442430327e-05   1.2302326791798976e-05   1.8283863542782163e-05
5.4539697284974024e-05   -7.63005760561858e-06   4.2088426061840994e-05
5.4539697284974024e-05   -7.63005760561858e-06   4.2088426061840994e-05
5.4539697284974024e-05   -7.63005760561858e-06   4.2088426061840994e-05
5.4539697284974024e-05   -7.63005760561858e-06   4.2088426061840994e-05
2.7002767390649767e-05   -5.593705539797943e-06   -2.584645855873693e-06
2.7002767390649767e-05   -5.593705539797943e-06   -2.584645855873693e-06
2.7002767390649767e-05   -5.593705539797943e-06   -2.584645855873693e-06
2.7002767390649767e-05   -5.593705539797943e-06   -2.584645855873693e-06
2.5968609423841577e-05   -8.647924561870288e-06   3.6600390652416145e-05
2.5968609423841577e-05   -8.647924561870288e-06   3.6600390652416145e-05
2.5968609423841577e-05   -8.647924561870288e-06   3.6600390652416145e-05
2.5968609423841577e-05   -8.647924561870288e-06   3.6600390652416145e-05
5.263773808420633e-05   -6.490404331576955e-06   -9.14266925303398e-06
5.263773808420633e-05   -6.490404331576955e-06   -9.14266925303398e-06
5.263773808420633e-05   -6.490404331576955e-06   -9.14266925303398e-06
5.263773808420633e-05   -6.490404331576955e-06   -9.14266925303398e-06
3.820417687173926e-05   -7.01797480640769e-06   1.5229808385976065e-05
3.820417687173926e-05   -7.01797480640769e-06   1.5229808385976065e-05
3.820417687173926e-05   -7.01797480640769e-06   1.5229808385976065e-05
3.820417687173926e-05   -7.01797480640769e-06   1.5229808385976065e-05
5.263773808420623e-05   -8.64792456187042e-06   3.530587851424032e-05
5.263773808420623e-05   -8.64792456187042e-06   3.530587851424032e-05
5.263773808420623e-05   -8.64792456187042e-06   3.530587851424032e-05
5.263773808420623e-05   -8.64792456187042e-06   3.530587851424032e-05
2.596860942384166e-05   -6.490404331576955e-06   -7.848157114858203e-06
2.596860942384166e-05   -6.490404331576955e-06   -7.848157114858203e-06
2.596860942384166e-05   -6.490404331576955e-06   -7.848157114858203e-06
2.596860942384166e-05   -6.490404331576955e-06   -7.848157114858203e-06
2.4819483292451924e-05   -8.799262132523893e-06   3.2800881860071875e-05
2.4819483292451924e-05   -8.799262132523893e-06   3.2800881860071875e-05
2.4819483292451924e-05   -8.799262132523893e-06   3.2800881860071875e-05
2.4819483292451924e-05   -8.799262132523893e-06   3.2800881860071875e-05
5.091549737167215e-05   -6.6705857671768044e-06   -1.196968075783626e-05
5.091549737167215e-05   -6.6705857671768044e-06   -1.196968075783626e-05
5.091549737167215e-05   -6.6705857671768044e-06   -1.196968075783626e-05
5.091549737167215e-05   -6.6705857671768044e-06   -1.196968075783626e-05
3.748818704771371e-05   -7.3654693350726046e-06   1.0826099922831478e-05
3.748818704771371e-05   -7.3654693350726046e-06   1.0826099922831478e-05
3.748818704771371e-05   -7.3654693350726046e-06   1.0826099922831478e-05
3.748818704771371e-05   -7.3654693350726046e-06   1.0826099922831478e-05
5.0915497371671975e-05   -8.799262132523468e-06   3.152367604086401e-05
5.0915497371671975e-05   -8.799262132523468e-06   3.152367604086401e-05
5.0915497371671975e-05   -8.799262132523468e-06   3.152367604086401e-05
5.0915497371671975e-05   -8.799262132523468e-06   3.152367604086401e-05
2.4819483292451964e-05   -6.6705857671768044e-06   -1.0692474938628436e-05
2.4819483292451964e-05   -6.6705857671768044e-06   -1.0692474938628436e-05
2.4819483292451964e-05   -6.6705857671768044e-06   -1.0692474938628436e-05
2.4819483292451964e-05   -6.6705857671768044e-06   -1.0692474938628436e-05
2.371427299290523e-05   -8.743790107493613e-06   2.7502803438717027e-05
2.371427299290523e-05   -8.743790107493613e-06   2.7502803438717027e-05
2.371427299290523e-05   -8.743790107493613e-06   2.7502803438717027e-05
2.371427299290523e-05   -8.743790107493613e-06   2.7502803438717027e-05
4.8964957299406853e-05   -6.743614587078738e-06   -1.5781775717701364e-05
4.8964957299406853e-05   -6.743614587078738e-06   -1.5781775717701364e-05
4.8964957299406853e-05   -6.743614587078738e-06   -1.5781775717701364e-05
4.8964957299406853e-05   -6.743614587078738e-06   -1.5781775717701364e-05
3.555766108408074e-05   -7.2410752378860785e-06   6.862194364993768e-06
3.555766108408074e-05   -7.2410752378860785e-06   6.862194364993768e-06
3.555766108408074e-05   -7.2410752378860785e-06   6.862194364993768e-06
3.555766108408074e-05   -7.2410752378860785e-06   6.862194364993768e-06
2.7002767390649767e-05   -2.6923844291733567e-06   4.417661442502252e-05
2.7002767390649767e-05   -2.6923844291733567e-06   4.417661442502252e-05
2.7002767390649767e-05   -2.6923844291733567e-06   4.417661442502252e-05
2.7002767390649767e-05   -2.6923844291733567e-06   4.417661442502252e-05
1.1552241681115618e-06   -1.0698245899816092e-06   2.0709116243069255e-06
1.1552241681115618e-06   -1.0698245899816092e-06   2.0709116243069255e-06
1.1552241681115618e-06   -1.0698245899816092e-06   2.0709116243069255e-06
1.1552241681115618e-06   -1.0698245899816092e-06   2.0709116243069255e-06
1.6248443079154486e-07   -3.239386486178497e-06   4.463679757807826e-05
1.6248443079154486e-07   -3.239386486178497e-06   4.463679757807826e-05
1.6248443079154486e-07   -3.239386486178497e-06   4.463679757807826e-05
1.6248443079154486e-07   -3.239386486178497e-06   4.463679757807826e-05
2.596860942384166e-05   -1.7057127362405354e-06   7.063850063653606e-07
2.596860942384166e-05   -1.7057127362405354e-06   7.063850063653606e-07
2.596860942384166e-05   -1.7057127362405354e-06   7.063850063653606e-07
2.596860942384166e-05   -1.7057127362405354e-06   7.063850063653606e-07
1.340759709365516e-05   -2.0962083382806973e-06   2.1875702917900376e-05
1.340759709365516e-05   -2.0962083382806973e-06   2.1875702917900376e-05
1.340759709365516e-05   -2.0962083382806973e-06   2.1875702917900376e-05
1.340759709365516e-05   -2.0962083382806973e-06   2.1875702917900376e-05
2.5968609423841638e-05   -3.2393864861784865e-06   4.371659332811544e-05
2.5968609423841638e-05   -3.2393864861784865e-06   4.371659332811544e-05
2.5968609423841638e-05   -3.2393864861784865e-06   4.371659332811544e-05
2.5968609423841638e-05   -3.2393864861784865e-06   4.371659332811544e-05
1.6248443079154486e-07   -1.7057127362405354e-06   1.6265892563282081e-06
1.6248443079154486e-07   -1.7057127362405354e-06   1.6265892563282081e-06
1.6248443079154486e-07   -1.7057127362405354e-06   1.6265892563282081e-06
1.6248443079154486e-07   -1.7057127362405354e-06   1.6265892563282081e-06
-8.694037356553623e-07   -3.598114061788716e-06   4.3965187888921845e-05
-8.694037356553623e-07   -3.598114061788716e-06   4.3965187888921845e-05
-8.694037356553623e-07   -3.598114061788716e-06   4.3965187888921845e-05
-8.694037356553623e-07   -3.598114061788716e-06   4.3965187888921845e-05
2.481948329245196e-05   -2.1781404421169527e-06   2.9839200360632257e-07
2.481948329245196e-05   -2.1781404421169527e-06   2.9839200360632257e-07
2.481948329245196e-05   -2.1781404421169527e-06   2.9839200360632257e-07
2.481948329245196e-05   -2.1781404421169527e-06   2.9839200360632257e-07
1.226801495788207e-05   -2.4293995671696884e-06   2.136826136958864e-05
1.226801495788207e-05   -2.4293995671696884e-06   2.136826136958864e-05
1.226801495788207e-05   -2.4293995671696884e-06   2.136826136958864e-05
1.226801495788207e-05   -2.4293995671696884e-06   2.136826136958864e-05
2.4819483292451964e-05   -3.598114061788887e-06   4.31132037171187e-05
2.4819483292451964e-05   -3.598114061788887e-06   4.31132037171187e-05
2.4819483292451964e-05   -3.598114061788887e-06   4.31132037171187e-05
2.4819483292451964e-05   -3.598114061788887e-06   4.31132037171187e-05
-8.694037356553623e-07   -2.1781404421169527e-06   1.150376175409508e-06
-8.694037356553623e-07   -2.1781404421169527e-06   1.150376175409508e-06
-8.694037356553623e-07   -2.1781404421169527e-06   1.150376175409508e-06
-8.694037356553623e-07   -2.1781404421169527e-06   1.150376175409508e-06
-1.943670964668298e-06   -3.7518492834003048e-06   4.43037623041652e-05
-1.943670964668298e-06   -3.7518492834003048e-06   4.43037623041652e-05
-1.943670964668298e-06   -3.7518492834003048e-06   4.43037623041652e-05
-1.943670964668298e-06   -3.7518492834003048e-06   4.43037623041652e-05
2.3714272992905283e-05   -2.550887545776058e-06   8.199453323013778e-07
2.3714272992905283e-05   -2.550887545776058e-06   8.199453323013778e-07
2.3714272992905283e-05   -2.550887545776058e-06   8.199453323013778e-07
2.3714272992905283e-05   -2.550887545776058e-06   8.199453323013778e-07
1.1411100055431996e-05   -2.6083881043323896e-06   2.1359733896558254e-05
1.1411100055431996e-05   -2.6083881043323896e-06   2.1359733896558254e-05
1.1411100055431996e-05   -2.6083881043323896e-06   2.1359733896558254e-05
1.1411100055431996e-05   -2.6083881043323896e-06   2.1359733896558254e-05
1.1552241681115618e-06   2.3925221635520533e-06   4.5607565702269776e-05
1.1552241681115618e-06   2.3925221635520533e-06   4.5607565702269776e-05
1.1552241681115618e-06   2.3925221635520533e-06   4.5607565702269776e-05
1.1552241681115618e-06   2.3925221635520533e-06   4.5607565702269776e-05
-2.3937209656560692e-05   3.4732712552204732e-06   4.435292116150829e-06
-2.3937209656560692e-05   3.4732712552204732e-06   4.435292116150829e-06
-2.3937209656560692e-05   3.4732712552204732e-06   4.435292116150829e-06
-2.3937209656560692e-05   3.4732712552204732e-06   4.435292116150829e-06
-2.497445633128833e-05   1.9738625683116476e-06   4.623541173806741e-05
-2.497445633128833e-05   1.9738625683116476e-06   4.623541173806741e-05
-2.497445633128833e-05   1.9738625683116476e-06   4.623541173806741e-05
-2.497445633128833e-05   1.9738625683116476e-06   4.623541173806741e-05
1.6248443079153933e-07   2.9440662372291933e-06   3.758388266583896e-06
1.6248443079153933e-07   2.9440662372291933e-06   3.758388266583896e-06
1.6248443079153933e-07   2.9440662372291933e-06   3.758388266583896e-06
1.6248443079153933e-07   2.9440662372291933e-06   3.758388266583896e-06
-1.1916921923182041e-05   2.726691400189909e-06   2.402115709209689e-05
-1.1916921923182041e-05   2.726691400189909e-06   2.402115709209689e-05
-1.1916921923182041e-05   2.726691400189909e-06   2.402115709209689e-05
-1.1916921923182041e-05   2.726691400189909e-06   2.402115709209689e-05
1.6248443079154486e-07   1.9738625683115743e-06   4.565328953671697e-05
1.6248443079154486e-07   1.9738625683115743e-06   4.565328953671697e-05
1.6248443079154486e-07   1.9738625683115743e-06   4.565328953671697e-05
1.6248443079154486e-07   1.9738625683115743e-06   4.565328953671697e-05
-2.497445633128833e-05   2.9440662372291933e-06   4.340510467934445e-06
-2.497445633128833e-05   2.9440662372291933e-06   4.340510467934445e-06
-2.497445633128833e-05   2.9440662372291933e-06   4.340510467934445e-06
-2.497445633128833e-05   2.9440662372291933e-06   4.340510467934445e-06
-2.6069777361384014e-05   1.5841384604447194e-06   4.66718110764821e-05
-2.6069777361384014e-05   1.5841384604447194e-06   4.66718110764821e-05
-2.6069777361384014e-05   1.5841384604447194e-06   4.66718110764821e-05
-2.6069777361384014e-05   1.5841384604447194e-06   4.66718110764821e-05
-8.694037356553818e-07   2.430205583511466e-06   4.163548093094355e-06
-8.694037356553818e-07   2.430205583511466e-06   4.163548093094355e-06
-8.694037356553818e-07   2.430205583511466e-06   4.163548093094355e-06
-8.694037356553818e-07   2.430205583511466e-06   4.163548093094355e-06
-1.2880487064982874e-05   2.4245479077560604e-06   2.4185414914093073e-05
-1.2880487064982874e-05   2.4245479077560604e-06   2.4185414914093073e-05
-1.2880487064982874e-05   2.4245479077560604e-06   2.4185414914093073e-05
-1.2880487064982874e-05   2.4245479077560604e-06   2.4185414914093073e-05
-8.694037356553623e-07   1.584138460444922e-06   4.6164170802642226e-05
-8.694037356553623e-07   1.584138460444922e-06   4.6164170802642226e-05
-8.694037356553623e-07   1.584138460444922e-06   4.6164170802642226e-05
-8.694037356553623e-07   1.584138460444922e-06   4.6164170802642226e-05
-2.6069777361384014e-05   2.430205583511466e-06   4.6711883669341755e-06
-2.6069777361384014e-05   2.430205583511466e-06   4.6711883669341755e-06
-2.6069777361384014e-05   2.430205583511466e-06   4.6711883669341755e-06
-2.6069777361384014e-05   2.430205583511466e-06   4.6711883669341755e-06
-2.7200065457521765e-05   1.3034242374128022e-06   4.736543398575505e-05
-2.7200065457521765e-05   1.3034242374128022e-06   4.736543398575505e-05
-2.7200065457521765e-05   1.3034242374128022e-06   4.736543398575505e-05
-2.7200065457521765e-05   1.3034242374128022e-06   4.736543398575505e-05
-1.943670964668292e-06   1.972804045287206e-06   4.8698152796081845e-06
-1.943670964668292e-06   1.972804045287206e-06   4.8698152796081845e-06
-1.943670964668292e-06   1.972804045287206e-06   4.8698152796081845e-06
-1.943670964668292e-06   1.972804045287206e-06   4.8698152796081845e-06
-1.3923222440104956e-05   2.135078011291768e-06   2.4738370025733936e-05
-1.3923222440104956e-05   2.135078011291768e-06   2.4738370025733936e-05
-1.3923222440104956e-05   2.135078011291768e-06   2.4738370025733936e-05
-1.3923222440104956e-05   2.135078011291768e-06   2.4738370025733936e-05
-2.3937209656560774e-05   7.794469639073685e-06   3.9786569972035486e-05
-2.3937209656560774e-05   7.794469639073685e-06   3.9786569972035486e-05
-2.3937209656560774e-05   7.794469639073685e-06   3.9786569972035486e-05
-2.3937209656560774e-05   7.794469639073685e-06   3.9786569972035486e-05
-4.82386524820213e-05   7.89310634194797e-06   -6.566527153411151e-07
-4.82386524820213e-05   7.89310634194797e-06   -6.566527153411151e-07
-4.82386524820213e-05   7.89310634194797e-06   -6.566527153411151e-07
-4.82386524820213e-05   7.89310634194797e-06   -6.566527153411151e-07
-4.944283468123783e-05   7.374760698074072e-06   4.048310892481796e-05
-4.944283468123783e-05   7.374760698074072e-06   4.048310892481796e-05
-4.944283468123783e-05   7.374760698074072e-06   4.048310892481796e-05
-4.944283468123783e-05   7.374760698074072e-06   4.048310892481796e-05
-2.497445633128839e-05   7.387687557296012e-06   -3.0527777396439785e-07
-2.497445633128839e-05   7.387687557296012e-06   -3.0527777396439785e-07
-2.497445633128839e-05   7.387687557296012e-06   -3.0527777396439785e-07
-2.497445633128839e-05   7.387687557296012e-06   -3.0527777396439785e-07
-3.648451213355702e-05   7.594203086608384e-06   1.8754239245562438e-05
-3.648451213355702e-05   7.594203086608384e-06   1.8754239245562438e-05
-3.648451213355702e-05   7.594203086608384e-06   1.8754239245562438e-05
-3.648451213355702e-05   7.594203086608384e-06   1.8754239245562438e-05
-2.4974456331288385e-05   7.374760698073863e-06   4.047535280928471e-05
-2.4974456331288385e-05   7.374760698073863e-06   4.047535280928471e-05
-2.4974456331288385e-05   7.374760698073863e-06   4.047535280928471e-05
-2.4974456331288385e-05   7.374760698073863e-06   4.047535280928471e-05
-4.9442834681237774e-05   7.387687557296012e-06   -2.975216584310929e-07
-4.9442834681237774e-05   7.387687557296012e-06   -2.975216584310929e-07
-4.9442834681237774e-05   7.387687557296012e-06   -2.975216584310929e-07
-4.9442834681237774e-05   7.387687557296012e-06   -2.975216584310929e-07
-5.077748029737241e-05   6.986590794502354e-06   4.236477247631146e-05
-5.077748029737241e-05   6.986590794502354e-06   4.236477247631146e-05
-5.077748029737241e-05   6.986590794502354e-06   4.236477247631146e-05
-5.077748029737241e-05   6.986590794502354e-06   4.236477247631146e-05
-2.6069777361384072e-05   6.921806826087288e-06   1.2241379640464648e-06
-2.6069777361384072e-05   6.921806826087288e-06   1.2241379640464648e-06
-2.6069777361384072e-05   6.921806826087288e-06   1.2241379640464648e-06
-2.6069777361384072e-05   6.921806826087288e-06   1.2241379640464648e-06
-3.735524170111866e-05   7.308729320999567e-06   1.980109169998995e-05
-3.735524170111866e-05   7.308729320999567e-06   1.980109169998995e-05
-3.735524170111866e-05   7.308729320999567e-06   1.980109169998995e-05
-3.735524170111866e-05   7.308729320999567e-06   1.980109169998995e-05
-2.606977736138407e-05   6.9865907945021554e-06   4.240364285736033e-05
-2.606977736138407e-05   6.9865907945021554e-06   4.240364285736033e-05
-2.606977736138407e-05   6.9865907945021554e-06   4.240364285736033e-05
-2.606977736138407e-05   6.9865907945021554e-06   4.240364285736033e-05
-5.077748029737241e-05   6.921806826087288e-06   1.1852675829975446e-06
-5.077748029737241e-05   6.921806826087288e-06   1.1852675829975446e-06
-5.077748029737241e-05   6.921806826087288e-06   1.1852675829975446e-06
-5.077748029737241e-05   6.921806826087288e-06   1.1852675829975446e-06
-5.2049474303718184e-05   6.46476772691966e-06   4.372332877966849e-05
-5.2049474303718184e-05   6.46476772691966e-06   4.372332877966849e-05
-5.2049474303718184e-05   6.46476772691966e-06   4.372332877966849e-05
-5.2049474303718184e-05   6.46476772691966e-06   4.372332877966849e-05
-2.7200065457521812e-05   6.352911289409218e-06   2.3747612318479844e-06
-2.7200065457521812e-05   6.352911289409218e-06   2.3747612318479844e-06
-2.7200065457521812e-05   6.352911289409218e-06   2.3747612318479844e-06
-2.7200065457521812e-05   6.352911289409218e-06   2.3747612318479844e-06
-3.874016061340499e-05   6.938014142785203e-06   2.125719144629491e-05
-3.874016061340499e-05   6.938014142785203e-06   2.125719144629491e-05
-3.874016061340499e-05   6.938014142785203e-06   2.125719144629491e-05
-3.874016061340499e-05   6.938014142785203e-06   2.125719144629491e-05
-4.823865248202122e-05   1.2676334538369617e-05   1.9121762328819843e-05
-4.823865248202122e-05   1.2676334538369617e-05   1.9121762328819843e-05
-4.823865248202122e-05   1.2676334538369617e-05   1.9121762328819843e-05
-4.823865248202122e-05   1.2676334538369617e-05   1.9121762328819843e-05
-7.132865632784131e-05   1.1363387659720642e-05   -2.0149345541402796e-05
-7.132865632784131e-05   1.1363387659720642e-05   -2.0149345541402796e-05
-7.132865632784131e-05   1.1363387659720642e-05   -2.0149345541402796e-05
-7.132865632784131e-05   1.1363387659720642e-05   -2.0149345541402796e-05
-7.322495478497058e-05   1.2919520539598963e-05   2.6518647475207028e-05
-7.322495478497058e-05   1.2919520539598963e-05   2.6518647475207028e-05
-7.322495478497058e-05   1.2919520539598963e-05   2.6518647475207028e-05
-7.322495478497058e-05   1.2919520539598963e-05   2.6518647475207028e-05
-4.944283468123782e-05   1.148364190569056e-05   -1.2256692184002755e-05
-4.944283468123782e-05   1.148364190569056e-05   -1.2256692184002755e-05
-4.944283468123782e-05   1.148364190569056e-05   -1.2256692184002755e-05
-4.944283468123782e-05   1.148364190569056e-05   -1.2256692184002755e-05
-5.8239976979451484e-05   1.2040257788628172e-05   2.071242116591127e-06
-5.8239976979451484e-05   1.2040257788628172e-05   2.071242116591127e-06
-5.8239976979451484e-05   1.2040257788628172e-05   2.071242116591127e-06
-5.8239976979451484e-05   1.2040257788628172e-05   2.071242116591127e-06
-4.944283468123772e-05   1.2919520539599112e-05   2.7380174655551983e-05
-4.944283468123772e-05   1.2919520539599112e-05   2.7380174655551983e-05
-4.944283468123772e-05   1.2919520539599112e-05   2.7380174655551983e-05
-4.944283468123772e-05   1.2919520539599112e-05   2.7380174655551983e-05
-7.322495478497069e-05   1.148364190569056e-05   -1.3118219364347764e-05
-7.322495478497069e-05   1.148364190569056e-05   -1.3118219364347764e-05
-7.322495478497069e-05   1.148364190569056e-05   -1.3118219364347764e-05
-7.322495478497069e-05   1.148364190569056e-05   -1.3118219364347764e-05
-7.507663855891162e-05   1.2826449112957397e-05   3.227864039105741e-05
-7.507663855891162e-05   1.2826449112957397e-05   3.227864039105741e-05
-7.507663855891162e-05   1.2826449112957397e-05   3.227864039105741e-05
-7.507663855891162e-05   1.2826449112957397e-05   3.227864039105741e-05
-5.077748029737243e-05   1.1357174109339827e-05   -7.338391709337346e-06
-5.077748029737243e-05   1.1357174109339827e-05   -7.338391709337346e-06
-5.077748029737243e-05   1.1357174109339827e-05   -7.338391709337346e-06
-5.077748029737243e-05   1.1357174109339827e-05   -7.338391709337346e-06
-6.0569499851008026e-05   1.225993746957043e-05   8.439982863917917e-06
-6.0569499851008026e-05   1.225993746957043e-05   8.439982863917917e-06
-6.0569499851008026e-05   1.225993746957043e-05   8.439982863917917e-06
-6.0569499851008026e-05   1.225993746957043e-05   8.439982863917917e-06
-5.077748029737241e-05   1.2826449112957317e-05   3.316020539322821e-05
-5.077748029737241e-05   1.2826449112957317e-05   3.316020539322821e-05
-5.077748029737241e-05   1.2826449112957317e-05   3.316020539322821e-05
-5.077748029737241e-05   1.2826449112957317e-05   3.316020539322821e-05
-7.50766385589119e-05   1.1357174109339827e-05   -8.219956711508149e-06
-7.50766385589119e-05   1.1357174109339827e-05   -8.219956711508149e-06
-7.50766385589119e-05   1.1357174109339827e-05   -8.219956711508149e-06
-7.50766385589119e-05   1.1357174109339827e-05   -8.219956711508149e-06
-7.723922847593359e-05   1.1807633575892668e-05   4.2146846104095274e-05
-7.723922847593359e-05   1.1807633575892668e-05   4.2146846104095274e-05
-7.723922847593359e-05   1.1807633575892668e-05   4.2146846104095274e-05
-7.723922847593359e-05   1.1807633575892668e-05   4.2146846104095274e-05
-5.204947430371816e-05   1.0481250951533544e-05   9.59752058351279e-07
-5.204947430371816e-05   1.0481250951533544e-05   9.59752058351279e-07
-5.204947430371816e-05   1.0481250951533544e-05   9.59752058351279e-07
-5.204947430371816e-05   1.0481250951533544e-05   9.59752058351279e-07
-6.11617149728692e-05   1.1898576898526983e-05   1.5296424272074054e-05
-6.11617149728692e-05   1.1898576898526983e-05   1.5296424272074054e-05
-6.11617149728692e-05   1.1898576898526983e-05   1.5296424272074054e-05
-6.11617149728692e-05   1.1898576898526983e-05   1.5296424272074054e-05
4.1397709009446873e-05   -5.593705539797967e-06   3.5136467193893446e-05
4.1397709009446873e-05   -5.593705539797967e-06   3.5136467193893446e-05
4.1397709009446873e-05   -5.593705539797967e-06   3.5136467193893446e-05
4.1397709009446873e-05   -5.593705539797967e-06   3.5136467193893446e-05
1.9489556705881165e-05   -3.696036123353088e-06   -2.3851832884930375e-07
1.9489556705881165e-05   -3.696036123353088e-06   -2.3851832884930375e-07
1.9489556705881165e-05   -3.696036123353088e-06   -2.3851832884930375e-07
1.9489556705881165e-05   -3.696036123353088e-06   -2.3851832884930375e-07
1.8565970713761023e-05   -6.490404331576955e-06   3.087369546753973e-05
1.8565970713761023e-05   -6.490404331576955e-06   3.087369546753973e-05
1.8565970713761023e-05   -6.490404331576955e-06   3.087369546753973e-05
1.8565970713761023e-05   -6.490404331576955e-06   3.087369546753973e-05
3.961081788834794e-05   -4.486289501648075e-06   -5.403518721395619e-06
3.961081788834794e-05   -4.486289501648075e-06   -5.403518721395619e-06
3.961081788834794e-05   -4.486289501648075e-06   -5.403518721395619e-06
3.961081788834794e-05   -4.486289501648075e-06   -5.403518721395619e-06
2.836576399591524e-05   -5.105265080735614e-06   1.3709623113444562e-05
2.836576399591524e-05   -5.105265080735614e-06   1.3709623113444562e-05
2.836576399591524e-05   -5.105265080735614e-06   1.3709623113444562e-05
2.836576399591524e-05   -5.105265080735614e-06   1.3709623113444562e-05
3.961081788834787e-05   -6.4904043315772245e-06   2.9671226569582534e-05
3.961081788834787e-05   -6.4904043315772245e-06   2.9671226569582534e-05
3.961081788834787e-05   -6.4904043315772245e-06   2.9671226569582534e-05
3.961081788834787e-05   -6.4904043315772245e-06   2.9671226569582534e-05
1.856597071376105e-05   -4.486289501648075e-06   -4.201049823438462e-06
1.856597071376105e-05   -4.486289501648075e-06   -4.201049823438462e-06
1.856597071376105e-05   -4.486289501648075e-06   -4.201049823438462e-06
1.856597071376105e-05   -4.486289501648075e-06   -4.201049823438462e-06
1.7546621475617785e-05   -6.6705857671768044e-06   2.787722994541963e-05
1.7546621475617785e-05   -6.6705857671768044e-06   2.787722994541963e-05
1.7546621475617785e-05   -6.6705857671768044e-06   2.787722994541963e-05
1.7546621475617785e-05   -6.6705857671768044e-06   2.787722994541963e-05
3.804487873427582e-05   -4.697452104295528e-06   -7.470412350072403e-06
3.804487873427582e-05   -4.697452104295528e-06   -7.470412350072403e-06
3.804487873427582e-05   -4.697452104295528e-06   -7.470412350072403e-06
3.804487873427582e-05   -4.697452104295528e-06   -7.470412350072403e-06
2.7624853331939695e-05   -5.425863486058571e-06   1.0333343482879396e-05
2.7624853331939695e-05   -5.425863486058571e-06   1.0333343482879396e-05
2.7624853331939695e-05   -5.425863486058571e-06   1.0333343482879396e-05
2.7624853331939695e-05   -5.425863486058571e-06   1.0333343482879396e-05
3.804487873427576e-05   -6.670585767177016e-06   2.6693349747690604e-05
3.804487873427576e-05   -6.670585767177016e-06   2.6693349747690604e-05
3.804487873427576e-05   -6.670585767177016e-06   2.6693349747690604e-05
3.804487873427576e-05   -6.670585767177016e-06   2.6693349747690604e-05
1.7546621475617812e-05   -4.697452104295528e-06   -6.286532152343554e-06
1.7546621475617812e-05   -4.697452104295528e-06   -6.286532152343554e-06
1.7546621475617812e-05   -4.697452104295528e-06   -6.286532152343554e-06
1.7546621475617812e-05   -4.697452104295528e-06   -6.286532152343554e-06
1.660542608843446e-05   -6.743614587078738e-06   2.3819424231305043e-05
1.660542608843446e-05   -6.743614587078738e-06   2.3819424231305043e-05
1.660542608843446e-05   -6.743614587078738e-06   2.3819424231305043e-05
1.660542608843446e-05   -6.743614587078738e-06   2.3819424231305043e-05
3.629538231775549e-05   -4.895014894199575e-06   -1.0106329299957556e-05
3.629538231775549e-05   -4.895014894199575e-06   -1.0106329299957556e-05
3.629538231775549e-05   -4.895014894199575e-06   -1.0106329299957556e-05
3.629538231775549e-05   -4.895014894199575e-06   -1.0106329299957556e-05
2.59905931995065e-05   -5.3949291856478405e-06   7.368267805326435e-06
2.59905931995065e-05   -5.3949291856478405e-06   7.368267805326435e-06
2.59905931995065e-05   -5.3949291856478405e-06   7.368267805326435e-06
2.59905931995065e-05   -5.3949291856478405e-06   7.368267805326435e-06
1.948955670588109e-05   -1.0698245899817743e-06   3.995709042042589e-05
1.948955670588109e-05   -1.0698245899817743e-06   3.995709042042589e-05
1.948955670588109e-05   -1.0698245899817743e-06   3.995709042042589e-05
1.948955670588109e-05   -1.0698245899817743e-06   3.995709042042589e-05
-1.247228983166992e-06   -1.8545812960867047e-08   6.0265482048917594e-06
-1.247228983166992e-06   -1.8545812960867047e-08   6.0265482048917594e-06
-1.247228983166992e-06   -1.8545812960867047e-08   6.0265482048917594e-06
-1.247228983166992e-06   -1.8545812960867047e-08   6.0265482048917594e-06
-2.115492385289621e-06   -1.7057127362405354e-06   4.0028055172514456e-05
-2.115492385289621e-06   -1.7057127362405354e-06   4.0028055172514456e-05
-2.115492385289621e-06   -1.7057127362405354e-06   4.0028055172514456e-05
-2.115492385289621e-06   -1.7057127362405354e-06   4.0028055172514456e-05
1.8565970713761054e-05   -7.060167633216909e-07   4.959132423678893e-06
1.8565970713761054e-05   -7.060167633216909e-07   4.959132423678893e-06
1.8565970713761054e-05   -7.060167633216909e-07   4.959132423678893e-06
1.8565970713761054e-05   -7.060167633216909e-07   4.959132423678893e-06
8.532712457974324e-06   -8.999655299224592e-07   2.1797598776616988e-05
8.532712457974324e-06   -8.999655299224592e-07   2.1797598776616988e-05
8.532712457974324e-06   -8.999655299224592e-07   2.1797598776616988e-05
8.532712457974324e-06   -8.999655299224592e-07   2.1797598776616988e-05
1.8565970713760976e-05   -1.7057127362402404e-06   3.9428237588763106e-05
1.8565970713760976e-05   -1.7057127362402404e-06   3.9428237588763106e-05
1.8565970713760976e-05   -1.7057127362402404e-06   3.9428237588763106e-05
1.8565970713760976e-05   -1.7057127362402404e-06   3.9428237588763106e-05
-2.115492385289621e-06   -7.060167633216909e-07   5.558950007430053e-06
-2.115492385289621e-06   -7.060167633216909e-07   5.558950007430053e-06
-2.115492385289621e-06   -7.060167633216909e-07   5.558950007430053e-06
-2.115492385289621e-06   -7.060167633216909e-07   5.558950007430053e-06
-3.0022141844085676e-06   -2.1781404421169527e-06   3.942617273563738e-05
-3.0022141844085676e-06   -2.1781404421169527e-06   3.942617273563738e-05
-3.0022141844085676e-06   -2.1781404421169527e-06   3.942617273563738e-05
-3.0022141844085676e-06   -2.1781404421169527e-06   3.942617273563738e-05
1.7546621475617816e-05   -1.248014028811667e-06   4.6200374542772825e-06
1.7546621475617816e-05   -1.248014028811667e-06   4.6200374542772825e-06
1.7546621475617816e-05   -1.248014028811667e-06   4.6200374542772825e-06
1.7546621475617816e-05   -1.248014028811667e-06   4.6200374542772825e-06
7.5589093609365735e-06   -1.3242892341717993e-06   2.1311989435296837e-05
7.5589093609365735e-06   -1.3242892341717993e-06   2.1311989435296837e-05
7.5589093609365735e-06   -1.3242892341717993e-06   2.1311989435296837e-05
7.5589093609365735e-06   -1.3242892341717993e-06   2.1311989435296837e-05
1.7546621475617785e-05   -2.178140442116846e-06   3.886809688765421e-05
1.7546621475617785e-05   -2.178140442116846e-06   3.886809688765421e-05
1.7546621475617785e-05   -2.178140442116846e-06   3.886809688765421e-05
1.7546621475617785e-05   -2.178140442116846e-06   3.886809688765421e-05
-3.0022141844085676e-06   -1.248014028811667e-06   5.178113302260149e-06
-3.0022141844085676e-06   -1.248014028811667e-06   5.178113302260149e-06
-3.0022141844085676e-06   -1.248014028811667e-06   5.178113302260149e-06
-3.0022141844085676e-06   -1.248014028811667e-06   5.178113302260149e-06
-3.8937374640397166e-06   -2.550887545776058e-06   3.9701509905963215e-05
-3.8937374640397166e-06   -2.550887545776058e-06   3.9701509905963215e-05
-3.8937374640397166e-06   -2.550887545776058e-06   3.9701509905963215e-05
-3.8937374640397166e-06   -2.550887545776058e-06   3.9701509905963215e-05
1.660542608843447e-05   -1.7501043176014475e-06   5.055767381601648e-06
1.660542608843447e-05   -1.7501043176014475e-06   5.055767381601648e-06
1.660542608843447e-05   -1.7501043176014475e-06   5.055767381601648e-06
1.660542608843447e-05   -1.7501043176014475e-06   5.055767381601648e-06
6.815107432596061e-06   -1.6385182198194737e-06   2.1306013482662946e-05
6.815107432596061e-06   -1.6385182198194737e-06   2.1306013482662946e-05
6.815107432596061e-06   -1.6385182198194737e-06   2.1306013482662946e-05
6.815107432596061e-06   -1.6385182198194737e-06   2.1306013482662946e-05
-1.247228983166992e-06   3.473271255220539e-06   4.23037887234811e-05
-1.247228983166992e-06   3.473271255220539e-06   4.23037887234811e-05
-1.247228983166992e-06   3.473271255220539e-06   4.23037887234811e-05
-1.247228983166992e-06   3.473271255220539e-06   4.23037887234811e-05
-2.1548963766084006e-05   3.57481602795192e-06   8.528490948924794e-06
-2.1548963766084006e-05   3.57481602795192e-06   8.528490948924794e-06
-2.1548963766084006e-05   3.57481602795192e-06   8.528490948924794e-06
-2.1548963766084006e-05   3.57481602795192e-06   8.528490948924794e-06
-2.242186608723243e-05   2.9440662372291933e-06   4.217579482760584e-05
-2.242186608723243e-05   2.9440662372291933e-06   4.217579482760584e-05
-2.242186608723243e-05   2.9440662372291933e-06   4.217579482760584e-05
-2.242186608723243e-05   2.9440662372291933e-06   4.217579482760584e-05
-2.1154923852896142e-06   2.970633978621913e-06   8.315898012865598e-06
-2.1154923852896142e-06   2.970633978621913e-06   8.315898012865598e-06
-2.1154923852896142e-06   2.970633978621913e-06   8.315898012865598e-06
-2.1154923852896142e-06   2.970633978621913e-06   8.315898012865598e-06
-1.1864106845497158e-05   3.184116361599869e-06   2.44354993500915e-05
-1.1864106845497158e-05   3.184116361599869e-06   2.44354993500915e-05
-1.1864106845497158e-05   3.184116361599869e-06   2.44354993500915e-05
-1.1864106845497158e-05   3.184116361599869e-06   2.44354993500915e-05
-2.115492385289621e-06   2.944066237229116e-06   4.215985418277047e-05
-2.115492385289621e-06   2.944066237229116e-06   4.215985418277047e-05
-2.115492385289621e-06   2.944066237229116e-06   4.215985418277047e-05
-2.115492385289621e-06   2.944066237229116e-06   4.215985418277047e-05
-2.242186608723243e-05   2.970633978621913e-06   8.331838657701322e-06
-2.242186608723243e-05   2.970633978621913e-06   8.331838657701322e-06
-2.242186608723243e-05   2.970633978621913e-06   8.331838657701322e-06
-2.242186608723243e-05   2.970633978621913e-06   8.331838657701322e-06
-2.331658554437745e-05   2.430205583511466e-06   4.2406842757796315e-05
-2.331658554437745e-05   2.430205583511466e-06   4.2406842757796315e-05
-2.331658554437745e-05   2.430205583511466e-06   4.2406842757796315e-05
-2.331658554437745e-05   2.430205583511466e-06   4.2406842757796315e-05
-3.0022141844085782e-06   2.3760357576352482e-06   8.582059053374095e-06
-3.0022141844085782e-06   2.3760357576352482e-06   8.582059053374095e-06
-3.0022141844085782e-06   2.3760357576352482e-06   8.582059053374095e-06
-3.0022141844085782e-06   2.3760357576352482e-06   8.582059053374095e-06
-1.2674595996344576e-05   2.777840365979743e-06   2.4461612641594934e-05
-1.2674595996344576e-05   2.777840365979743e-06   2.4461612641594934e-05
-1.2674595996344576e-05   2.777840365979743e-06   2.4461612641594934e-05
-1.2674595996344576e-05   2.777840365979743e-06   2.4461612641594934e-05
-3.0022141844085676e-06   2.4302055835114805e-06   4.243934465332239e-05
-3.0022141844085676e-06   2.4302055835114805e-06   4.243934465332239e-05
-3.0022141844085676e-06   2.4302055835114805e-06   4.243934465332239e-05
-3.0022141844085676e-06   2.4302055835114805e-06   4.243934465332239e-05
-2.331658554437753e-05   2.3760357576352482e-06   8.54955715784856e-06
-2.331658554437753e-05   2.3760357576352482e-06   8.54955715784856e-06
-2.331658554437753e-05   2.3760357576352482e-06   8.54955715784856e-06
-2.331658554437753e-05   2.3760357576352482e-06   8.54955715784856e-06
-2.4210966378939098e-05   1.972804045287206e-06   4.2934202158051915e-05
-2.4210966378939098e-05   1.972804045287206e-06   4.2934202158051915e-05
-2.4210966378939098e-05   1.972804045287206e-06   4.2934202158051915e-05
-2.4210966378939098e-05   1.972804045287206e-06   4.2934202158051915e-05
-3.893737464039748e-06   1.8118029575485417e-06   9.168754619196277e-06
-3.893737464039748e-06   1.8118029575485417e-06   9.168754619196277e-06
-3.893737464039748e-06   1.8118029575485417e-06   9.168754619196277e-06
-3.893737464039748e-06   1.8118029575485417e-06   9.168754619196277e-06
-1.3523088558752646e-05   2.381936838003959e-06   2.4875592782111153e-05
-1.3523088558752646e-05   2.381936838003959e-06   2.4875592782111153e-05
-1.3523088558752646e-05   2.381936838003959e-06   2.4875592782111153e-05
-1.3523088558752646e-05   2.381936838003959e-06   2.4875592782111153e-05
-2.1548963766083952e-05   7.893106341947815e-06   3.721358873390356e-05
-2.1548963766083952e-05   7.893106341947815e-06   3.721358873390356e-05
-2.1548963766083952e-05   7.893106341947815e-06   3.721358873390356e-05
-2.1548963766083952e-05   7.893106341947815e-06   3.721358873390356e-05
-4.14012821384311e-05   7.032656431222445e-06   3.610121500223105e-06
-4.14012821384311e-05   7.032656431222445e-06   3.610121500223105e-06
-4.14012821384311e-05   7.032656431222445e-06   3.610121500223105e-06
-4.14012821384311e-05   7.032656431222445e-06   3.610121500223105e-06
-4.234051301468621e-05   7.387687557296012e-06   3.696975009822743e-05
-4.234051301468621e-05   7.387687557296012e-06   3.696975009822743e-05
-4.234051301468621e-05   7.387687557296012e-06   3.696975009822743e-05
-4.234051301468621e-05   7.387687557296012e-06   3.696975009822743e-05
-2.2421866087232457e-05   6.4539267448297626e-06   4.33226170661776e-06
-2.2421866087232457e-05   6.4539267448297626e-06   4.33226170661776e-06
-2.2421866087232457e-05   6.4539267448297626e-06   4.33226170661776e-06
-2.2421866087232457e-05   6.4539267448297626e-06   4.33226170661776e-06
-3.182269611728729e-05   7.098191772397962e-06   1.9613752740168134e-05
-3.182269611728729e-05   7.098191772397962e-06   1.9613752740168134e-05
-3.182269611728729e-05   7.098191772397962e-06   1.9613752740168134e-05
-3.182269611728729e-05   7.098191772397962e-06   1.9613752740168134e-05
-2.242186608723243e-05   7.387687557295614e-06   3.753000658570727e-05
-2.242186608723243e-05   7.387687557295614e-06   3.753000658570727e-05
-2.242186608723243e-05   7.387687557295614e-06   3.753000658570727e-05
-2.242186608723243e-05   7.387687557295614e-06   3.753000658570727e-05
-4.23405130146861e-05   6.4539267448297626e-06   3.7720052191380325e-06
-4.23405130146861e-05   6.4539267448297626e-06   3.7720052191380325e-06
-4.23405130146861e-05   6.4539267448297626e-06   3.7720052191380325e-06
-4.23405130146861e-05   6.4539267448297626e-06   3.7720052191380325e-06
-4.337451456716464e-05   6.921806826087288e-06   3.8355587076164275e-05
-4.337451456716464e-05   6.921806826087288e-06   3.8355587076164275e-05
-4.337451456716464e-05   6.921806826087288e-06   3.8355587076164275e-05
-4.337451456716464e-05   6.921806826087288e-06   3.8355587076164275e-05
-2.3316585544377533e-05   5.914798028179655e-06   5.529910650263687e-06
-2.3316585544377533e-05   5.914798028179655e-06   5.529910650263687e-06
-2.3316585544377533e-05   5.914798028179655e-06   5.529910650263687e-06
-2.3316585544377533e-05   5.914798028179655e-06   5.529910650263687e-06
-3.249712600700623e-05   6.7286633776506705e-06   2.0342492211630032e-05
-3.249712600700623e-05   6.7286633776506705e-06   2.0342492211630032e-05
-3.249712600700623e-05   6.7286633776506705e-06   2.0342492211630032e-05
-3.249712600700623e-05   6.7286633776506705e-06   2.0342492211630032e-05
-2.331658554437753e-05   6.921806826087456e-06   3.8959792354908984e-05
-2.331658554437753e-05   6.921806826087456e-06   3.8959792354908984e-05
-2.331658554437753e-05   6.921806826087456e-06   3.8959792354908984e-05
-2.331658554437753e-05   6.921806826087456e-06   3.8959792354908984e-05
-4.337451456716464e-05   5.914798028179655e-06   4.9257053715190315e-06
-4.337451456716464e-05   5.914798028179655e-06   4.9257053715190315e-06
-4.337451456716464e-05   5.914798028179655e-06   4.9257053715190315e-06
-4.337451456716464e-05   5.914798028179655e-06   4.9257053715190315e-06
-4.432002480869425e-05   6.352911289409218e-06   3.9398017886238014e-05
-4.432002480869425e-05   6.352911289409218e-06   3.9398017886238014e-05
-4.432002480869425e-05   6.352911289409218e-06   3.9398017886238014e-05
-4.432002480869425e-05   6.352911289409218e-06   3.9398017886238014e-05
-2.421096637893915e-05   5.287074057193624e-06   6.522422842642156e-06
-2.421096637893915e-05   5.287074057193624e-06   6.522422842642156e-06
-2.421096637893915e-05   5.287074057193624e-06   6.522422842642156e-06
-2.421096637893915e-05   5.287074057193624e-06   6.522422842642156e-06
-3.35696929124937e-05   6.311957378183405e-06   2.1505370405972663e-05
-3.35696929124937e-05   6.311957378183405e-06   2.1505370405972663e-05
-3.35696929124937e-05   6.311957378183405e-06   2.1505370405972663e-05
-3.35696929124937e-05   6.311957378183405e-06   2.1505370405972663e-05
-4.14012821384311e-05   1.1363387659720713e-05   1.7992394088595836e-05
-4.14012821384311e-05   1.1363387659720713e-05   1.7992394088595836e-05
-4.14012821384311e-05   1.1363387659720713e-05   1.7992394088595836e-05
-4.14012821384311e-05   1.1363387659720713e-05   1.7992394088595836e-05
-6.025062968545409e-05   9.690686282890892e-06   -1.4426805982540474e-05
-6.025062968545409e-05   9.690686282890892e-06   -1.4426805982540474e-05
-6.025062968545409e-05   9.690686282890892e-06   -1.4426805982540474e-05
-6.025062968545409e-05   9.690686282890892e-06   -1.4426805982540474e-05
-6.193846453773298e-05   1.148364190569056e-05   2.3905470882759497e-05
-6.193846453773298e-05   1.148364190569056e-05   2.3905470882759497e-05
-6.193846453773298e-05   1.148364190569056e-05   2.3905470882759497e-05
-6.193846453773298e-05   1.148364190569056e-05   2.3905470882759497e-05
-4.2340513014686184e-05   9.641794089196645e-06   -7.652672965755632e-06
-4.2340513014686184e-05   9.641794089196645e-06   -7.652672965755632e-06
-4.2340513014686184e-05   9.641794089196645e-06   -7.652672965755632e-06
-4.2340513014686184e-05   9.641794089196645e-06   -7.652672965755632e-06
-4.952410481299407e-05   1.0390610652597377e-05   3.870690093383481e-06
-4.952410481299407e-05   1.0390610652597377e-05   3.870690093383481e-06
-4.952410481299407e-05   1.0390610652597377e-05   3.870690093383481e-06
-4.952410481299407e-05   1.0390610652597377e-05   3.870690093383481e-06
-4.2340513014686157e-05   1.1483641905690804e-05   2.5010579572655933e-05
-4.2340513014686157e-05   1.1483641905690804e-05   2.5010579572655933e-05
-4.2340513014686157e-05   1.1483641905690804e-05   2.5010579572655933e-05
-4.2340513014686157e-05   1.1483641905690804e-05   2.5010579572655933e-05
-6.193846453773314e-05   9.641794089196645e-06   -8.757781655652176e-06
-6.193846453773314e-05   9.641794089196645e-06   -8.757781655652176e-06
-6.193846453773314e-05   9.641794089196645e-06   -8.757781655652176e-06
-6.193846453773314e-05   9.641794089196645e-06   -8.757781655652176e-06
-6.344979712761368e-05   1.1357174109339827e-05   2.8684723636513733e-05
-6.344979712761368e-05   1.1357174109339827e-05   2.8684723636513733e-05
-6.344979712761368e-05   1.1357174109339827e-05   2.8684723636513733e-05
-6.344979712761368e-05   1.1357174109339827e-05   2.8684723636513733e-05
-4.3374514567164704e-05   9.445167197147473e-06   -3.6268764835862936e-06
-4.3374514567164704e-05   9.445167197147473e-06   -3.6268764835862936e-06
-4.3374514567164704e-05   9.445167197147473e-06   -3.6268764835862936e-06
-4.3374514567164704e-05   9.445167197147473e-06   -3.6268764835862936e-06
-5.1463437380986584e-05   1.0505201143610945e-05   9.218641171574024e-06
-5.1463437380986584e-05   1.0505201143610945e-05   9.218641171574024e-06
-5.1463437380986584e-05   1.0505201143610945e-05   9.218641171574024e-06
-5.1463437380986584e-05   1.0505201143610945e-05   9.218641171574024e-06
-4.337451456716464e-05   1.1357174109339838e-05   2.9831927783829275e-05
-4.337451456716464e-05   1.1357174109339838e-05   2.9831927783829275e-05
-4.337451456716464e-05   1.1357174109339838e-05   2.9831927783829275e-05
-4.337451456716464e-05   1.1357174109339838e-05   2.9831927783829275e-05
-6.344979712761384e-05   9.445167197147473e-06   -4.774080630901511e-06
-6.344979712761384e-05   9.445167197147473e-06   -4.774080630901511e-06
-6.344979712761384e-05   9.445167197147473e-06   -4.774080630901511e-06
-6.344979712761384e-05   9.445167197147473e-06   -4.774080630901511e-06
-6.51865144369638e-05   1.0481250951533544e-05   3.6908268098395257e-05
-6.51865144369638e-05   1.0481250951533544e-05   3.6908268098395257e-05
-6.51865144369638e-05   1.0481250951533544e-05   3.6908268098395257e-05
-6.51865144369638e-05   1.0481250951533544e-05   3.6908268098395257e-05
-4.432002480869423e-05   8.578160156778869e-06   3.2726398614651552e-06
-4.432002480869423e-05   8.578160156778869e-06   3.2726398614651552e-06
-4.432002480869423e-05   8.578160156778869e-06   3.2726398614651552e-06
-4.432002480869423e-05   8.578160156778869e-06   3.2726398614651552e-06
-5.187917304361869e-05   1.0145769852448316e-05   1.493065443560382e-05
-5.187917304361869e-05   1.0145769852448316e-05   1.493065443560382e-05
-5.187917304361869e-05   1.0145769852448316e-05   1.493065443560382e-05
-5.187917304361869e-05   1.0145769852448316e-05   1.493065443560382e-05
2.851601582463267e-05   -3.6960361233532743e-06   2.8599720180977816e-05
2.851601582463267e-05   -3.6960361233532743e-06   2.8599720180977816e-05
2.851601582463267e-05   -3.6960361233532743e-06   2.8599720180977816e-05
2.851601582463267e-05   -3.6960361233532743e-06   2.8599720180977816e-05
1.1832043225574908e-05   -1.8160226701285486e-06   1.9211072544826364e-06
1.1832043225574908e-05   -1.8160226701285486e-06   1.9211072544826364e-06
1.1832043225574908e-05   -1.8160226701285486e-06   1.9211072544826364e-06
1.1832043225574908e-05   -1.8160226701285486e-06   1.9211072544826364e-06
1.1089302335988193e-05   -4.486289501648075e-06   2.5714378133213792e-05
1.1089302335988193e-05   -4.486289501648075e-06   2.5714378133213792e-05
1.1089302335988193e-05   -4.486289501648075e-06   2.5714378133213792e-05
1.1089302335988193e-05   -4.486289501648075e-06   2.5714378133213792e-05
2.6935128710998737e-05   -2.522726759843089e-06   -1.873470136887212e-06
2.6935128710998737e-05   -2.522726759843089e-06   -1.873470136887212e-06
2.6935128710998737e-05   -2.522726759843089e-06   -1.873470136887212e-06
2.6935128710998737e-05   -2.522726759843089e-06   -1.873470136887212e-06
1.8618235779111144e-05   -3.205549793416137e-06   1.2397711903070003e-05
1.8618235779111144e-05   -3.205549793416137e-06   1.2397711903070003e-05
1.8618235779111144e-05   -3.205549793416137e-06   1.2397711903070003e-05
1.8618235779111144e-05   -3.205549793416137e-06   1.2397711903070003e-05
2.693512871099878e-05   -4.486289501648276e-06   2.4536240488130627e-05
2.693512871099878e-05   -4.486289501648276e-06   2.4536240488130627e-05
2.693512871099878e-05   -4.486289501648276e-06   2.4536240488130627e-05
2.693512871099878e-05   -4.486289501648276e-06   2.4536240488130627e-05
1.1089302335988149e-05   -2.522726759843089e-06   -6.953324918036134e-07
1.1089302335988149e-05   -2.522726759843089e-06   -6.953324918036134e-07
1.1089302335988149e-05   -2.522726759843089e-06   -6.953324918036134e-07
1.1089302335988149e-05   -2.522726759843089e-06   -6.953324918036134e-07
1.0255171914442425e-05   -4.697452104295528e-06   2.35715843956456e-05
1.0255171914442425e-05   -4.697452104295528e-06   2.35715843956456e-05
1.0255171914442425e-05   -4.697452104295528e-06   2.35715843956456e-05
1.0255171914442425e-05   -4.697452104295528e-06   2.35715843956456e-05
2.557812301549273e-05   -2.7661022186471415e-06   -3.125477370827175e-06
2.557812301549273e-05   -2.7661022186471415e-06   -3.125477370827175e-06
2.557812301549273e-05   -2.7661022186471415e-06   -3.125477370827175e-06
2.557812301549273e-05   -2.7661022186471415e-06   -3.125477370827175e-06
1.7914578920641912e-05   -3.505274790934366e-06   1.0090599663963816e-05
1.7914578920641912e-05   -3.505274790934366e-06   1.0090599663963816e-05
1.7914578920641912e-05   -3.505274790934366e-06   1.0090599663963816e-05
1.7914578920641912e-05   -3.505274790934366e-06   1.0090599663963816e-05
2.5578123015492776e-05   -4.697452104295703e-06   2.2412774464256697e-05
2.5578123015492776e-05   -4.697452104295703e-06   2.2412774464256697e-05
2.5578123015492776e-05   -4.697452104295703e-06   2.2412774464256697e-05
2.5578123015492776e-05   -4.697452104295703e-06   2.2412774464256697e-05
1.0255171914442401e-05   -2.7661022186471415e-06   -1.9666674394378664e-06
1.0255171914442401e-05   -2.7661022186471415e-06   -1.9666674394378664e-06
1.0255171914442401e-05   -2.7661022186471415e-06   -1.9666674394378664e-06
1.0255171914442401e-05   -2.7661022186471415e-06   -1.9666674394378664e-06
9.507492425711202e-06   -4.895014894199575e-06   2.0789832610794336e-05
9.507492425711202e-06   -4.895014894199575e-06   2.0789832610794336e-05
9.507492425711202e-06   -4.895014894199575e-06   2.0789832610794336e-05
9.507492425711202e-06   -4.895014894199575e-06   2.0789832610794336e-05
2.4039124350543732e-05   -3.088125313435025e-06   -4.513687679052173e-06
2.4039124350543732e-05   -3.088125313435025e-06   -4.513687679052173e-06
2.4039124350543732e-05   -3.088125313435025e-06   -4.513687679052173e-06
2.4039124350543732e-05   -3.088125313435025e-06   -4.513687679052173e-06
1.6612399023421865e-05   -3.56421644052236e-06   8.149842542403002e-06
1.6612399023421865e-05   -3.56421644052236e-06   8.149842542403002e-06
1.6612399023421865e-05   -3.56421644052236e-06   8.149842542403002e-06
1.6612399023421865e-05   -3.56421644052236e-06   8.149842542403002e-06
1.1832043225574946e-05   -1.8545812961012615e-08   3.5362027520440724e-05
1.1832043225574946e-05   -1.8545812961012615e-08   3.5362027520440724e-05
1.1832043225574946e-05   -1.8545812961012615e-08   3.5362027520440724e-05
1.1832043225574946e-05   -1.8545812961012615e-08   3.5362027520440724e-05
-3.8246996133386795e-06   9.356405988691745e-07   9.839967969349408e-06
-3.8246996133386795e-06   9.356405988691745e-07   9.839967969349408e-06
-3.8246996133386795e-06   9.356405988691745e-07   9.839967969349408e-06
-3.8246996133386795e-06   9.356405988691745e-07   9.839967969349408e-06
-4.507141798585436e-06   -7.060167633216909e-07   3.5430192020987576e-05
-4.507141798585436e-06   -7.060167633216909e-07   3.5430192020987576e-05
-4.507141798585436e-06   -7.060167633216909e-07   3.5430192020987576e-05
-4.507141798585436e-06   -7.060167633216909e-07   3.5430192020987576e-05
1.108930233598815e-05   2.2003597110629644e-07   8.880486822708173e-06
1.108930233598815e-05   2.2003597110629644e-07   8.880486822708173e-06
1.108930233598815e-05   2.2003597110629644e-07   8.880486822708173e-06
1.108930233598815e-05   2.2003597110629644e-07   8.880486822708173e-06
3.535792306172056e-06   4.6351371544997924e-08   2.1573880965472384e-05
3.535792306172056e-06   4.6351371544997924e-08   2.1573880965472384e-05
3.535792306172056e-06   4.6351371544997924e-08   2.1573880965472384e-05
3.535792306172056e-06   4.6351371544997924e-08   2.1573880965472384e-05
1.1089302335988183e-05   -7.060167633218068e-07   3.487456038033074e-05
1.1089302335988183e-05   -7.060167633218068e-07   3.487456038033074e-05
1.1089302335988183e-05   -7.060167633218068e-07   3.487456038033074e-05
1.1089302335988183e-05   -7.060167633218068e-07   3.487456038033074e-05
-4.507141798585436e-06   2.2003597110629644e-07   9.436118463365022e-06
-4.507141798585436e-06   2.2003597110629644e-07   9.436118463365022e-06
-4.507141798585436e-06   2.2003597110629644e-07   9.436118463365022e-06
-4.507141798585436e-06   2.2003597110629644e-07   9.436118463365022e-06
-5.204871151245135e-06   -1.248014028811667e-06   3.5007582501177595e-05
-5.204871151245135e-06   -1.248014028811667e-06   3.5007582501177595e-05
-5.204871151245135e-06   -1.248014028811667e-06   3.5007582501177595e-05
-5.204871151245135e-06   -1.248014028811667e-06   3.5007582501177595e-05
1.0255171914442401e-05   -3.6563319729299333e-07   8.711415559453973e-06
1.0255171914442401e-05   -3.6563319729299333e-07   8.711415559453973e-06
1.0255171914442401e-05   -3.6563319729299333e-07   8.711415559453973e-06
1.0255171914442401e-05   -3.6563319729299333e-07   8.711415559453973e-06
2.7855604081439893e-06   -4.3101033917218243e-07   2.1199994355080003e-05
2.7855604081439893e-06   -4.3101033917218243e-07   2.1199994355080003e-05
2.7855604081439893e-06   -4.3101033917218243e-07   2.1199994355080003e-05
2.7855604081439893e-06   -4.3101033917218243e-07   2.1199994355080003e-05
1.0255171914442442e-05   -1.248014028811839e-06   3.4478154002266564e-05
1.0255171914442442e-05   -1.248014028811839e-06   3.4478154002266564e-05
1.0255171914442442e-05   -1.248014028811839e-06   3.4478154002266564e-05
1.0255171914442442e-05   -1.248014028811839e-06   3.4478154002266564e-05
-5.204871151245135e-06   -3.6563319729299333e-07   9.240844058365288e-06
-5.204871151245135e-06   -3.6563319729299333e-07   9.240844058365288e-06
-5.204871151245135e-06   -3.6563319729299333e-07   9.240844058365288e-06
-5.204871151245135e-06   -3.6563319729299333e-07   9.240844058365288e-06
-5.896724619477105e-06   -1.7501043176014475e-06   3.532707569432422e-05
-5.896724619477105e-06   -1.7501043176014475e-06   3.532707569432422e-05
-5.896724619477105e-06   -1.7501043176014475e-06   3.532707569432422e-05
-5.896724619477105e-06   -1.7501043176014475e-06   3.532707569432422e-05
9.507492425711154e-06   -9.42927288104245e-07   9.169074401311907e-06
9.507492425711154e-06   -9.42927288104245e-07   9.169074401311907e-06
9.507492425711154e-06   -9.42927288104245e-07   9.169074401311907e-06
9.507492425711154e-06   -9.42927288104245e-07   9.169074401311907e-06
2.1927251280657876e-06   -8.291285425571747e-07   2.129207398339199e-05
2.1927251280657876e-06   -8.291285425571747e-07   2.129207398339199e-05
2.1927251280657876e-06   -8.291285425571747e-07   2.129207398339199e-05
2.1927251280657876e-06   -8.291285425571747e-07   2.129207398339199e-05
-3.8246996133386795e-06   3.57481602795172e-06   3.837555524793313e-05
-3.8246996133386795e-06   3.57481602795172e-06   3.837555524793313e-05
-3.8246996133386795e-06   3.57481602795172e-06   3.837555524793313e-05
-3.8246996133386795e-06   3.57481602795172e-06   3.837555524793313e-05
-1.9223806994512192e-05   3.517540992524623e-06   1.267601125805437e-05
-1.9223806994512192e-05   3.517540992524623e-06   1.267601125805437e-05
-1.9223806994512192e-05   3.517540992524623e-06   1.267601125805437e-05
-1.9223806994512192e-05   3.517540992524623e-06   1.267601125805437e-05
-1.9897051530369682e-05   2.970633978621913e-06   3.812504833377228e-05
-1.9897051530369682e-05   2.970633978621913e-06   3.812504833377228e-05
-1.9897051530369682e-05   2.970633978621913e-06   3.812504833377228e-05
-1.9897051530369682e-05   2.970633978621913e-06   3.812504833377228e-05
-4.507141798585424e-06   2.8671478242046303e-06   1.2537290473449458e-05
-4.507141798585424e-06   2.8671478242046303e-06   1.2537290473449458e-05
-4.507141798585424e-06   2.8671478242046303e-06   1.2537290473449458e-05
-4.507141798585424e-06   2.8671478242046303e-06   1.2537290473449458e-05
-1.1892754341664539e-05   3.1525213798496397e-06   2.4675420578528266e-05
-1.1892754341664539e-05   3.1525213798496397e-06   2.4675420578528266e-05
-1.1892754341664539e-05   3.1525213798496397e-06   2.4675420578528266e-05
-1.1892754341664539e-05   3.1525213798496397e-06   2.4675420578528266e-05
-4.507141798585436e-06   2.970633978622084e-06   3.8187140026423256e-05
-4.507141798585436e-06   2.970633978622084e-06   3.8187140026423256e-05
-4.507141798585436e-06   2.970633978622084e-06   3.8187140026423256e-05
-4.507141798585436e-06   2.970633978622084e-06   3.8187140026423256e-05
-1.9897051530369736e-05   2.8671478242046303e-06   1.2475198780798969e-05
-1.9897051530369736e-05   2.8671478242046303e-06   1.2475198780798969e-05
-1.9897051530369736e-05   2.8671478242046303e-06   1.2475198780798969e-05
-1.9897051530369736e-05   2.8671478242046303e-06   1.2475198780798969e-05
-2.0586506459633843e-05   2.3760357576352482e-06   3.832043356067445e-05
-2.0586506459633843e-05   2.3760357576352482e-06   3.832043356067445e-05
-2.0586506459633843e-05   2.3760357576352482e-06   3.832043356067445e-05
-2.0586506459633843e-05   2.3760357576352482e-06   3.832043356067445e-05
-5.20487115124512e-06   2.224211271606869e-06   1.2775469404977018e-05
-5.20487115124512e-06   2.224211271606869e-06   1.2775469404977018e-05
-5.20487115124512e-06   2.224211271606869e-06   1.2775469404977018e-05
-5.20487115124512e-06   2.224211271606869e-06   1.2775469404977018e-05
-1.2509379989633729e-05   2.680401314794894e-06   2.4675936776379168e-05
-1.2509379989633729e-05   2.680401314794894e-06   2.4675936776379168e-05
-1.2509379989633729e-05   2.680401314794894e-06   2.4675936776379168e-05
-1.2509379989633729e-05   2.680401314794894e-06   2.4675936776379168e-05
-5.204871151245135e-06   2.376035757635108e-06   3.841152825229143e-05
-5.204871151245135e-06   2.376035757635108e-06   3.841152825229143e-05
-5.204871151245135e-06   2.376035757635108e-06   3.841152825229143e-05
-5.204871151245135e-06   2.376035757635108e-06   3.841152825229143e-05
-2.0586506459633897e-05   2.224211271606869e-06   1.2684374713360061e-05
-2.0586506459633897e-05   2.224211271606869e-06   1.2684374713360061e-05
-2.0586506459633897e-05   2.224211271606869e-06   1.2684374713360061e-05
-2.0586506459633897e-05   2.224211271606869e-06   1.2684374713360061e-05
-2.1267953492596888e-05   1.8118029575485417e-06   3.8835641664644246e-05
-2.1267953492596888e-05   1.8118029575485417e-06   3.8835641664644246e-05
-2.1267953492596888e-05   1.8118029575485417e-06   3.8835641664644246e-05
-2.1267953492596888e-05   1.8118029575485417e-06   3.8835641664644246e-05
-5.896724619477075e-06   1.6052174069314425e-06   1.3340878206481336e-05
-5.896724619477075e-06   1.6052174069314425e-06   1.3340878206481336e-05
-5.896724619477075e-06   1.6052174069314425e-06   1.3340878206481336e-05
-5.896724619477075e-06   1.6052174069314425e-06   1.3340878206481336e-05
-1.3154339376465007e-05   2.2193667971734995e-06   2.5068413167315137e-05
-1.3154339376465007e-05   2.2193667971734995e-06   2.5068413167315137e-05
-1.3154339376465007e-05   2.2193667971734995e-06   2.5068413167315137e-05
-1.3154339376465007e-05   2.2193667971734995e-06   2.5068413167315137e-05
-1.9223806994512192e-05   7.032656431222235e-06   3.39390907244106e-05
-1.9223806994512192e-05   7.032656431222235e-06   3.39390907244106e-05
-1.9223806994512192e-05   7.032656431222235e-06   3.39390907244106e-05
-1.9223806994512192e-05   7.032656431222235e-06   3.39390907244106e-05
-3.436313728804322e-05   6.0292088638041336e-06   8.104805028074464e-06
-3.436313728804322e-05   6.0292088638041336e-06   8.104805028074464e-06
-3.436313728804322e-05   6.0292088638041336e-06   8.104805028074464e-06
-3.436313728804322e-05   6.0292088638041336e-06   8.104805028074464e-06
-3.508525667753141e-05   6.4539267448297626e-06   3.348936101863062e-05
-3.508525667753141e-05   6.4539267448297626e-06   3.348936101863062e-05
-3.508525667753141e-05   6.4539267448297626e-06   3.348936101863062e-05
-3.508525667753141e-05   6.4539267448297626e-06   3.348936101863062e-05
-1.989705153036966e-05   5.393742804732241e-06   8.81179613741956e-06
-1.989705153036966e-05   5.393742804732241e-06   8.81179613741956e-06
-1.989705153036966e-05   5.393742804732241e-06   8.81179613741956e-06
-1.989705153036966e-05   5.393742804732241e-06   8.81179613741956e-06
-2.706565384047729e-05   6.121633512253498e-06   2.0322732229753528e-05
-2.706565384047729e-05   6.121633512253498e-06   2.0322732229753528e-05
-2.706565384047729e-05   6.121633512253498e-06   2.0322732229753528e-05
-2.706565384047729e-05   6.121633512253498e-06   2.0322732229753528e-05
-1.9897051530369736e-05   6.453926744829677e-06   3.412547138268904e-05
-1.9897051530369736e-05   6.453926744829677e-06   3.412547138268904e-05
-1.9897051530369736e-05   6.453926744829677e-06   3.412547138268904e-05
-1.9897051530369736e-05   6.453926744829677e-06   3.412547138268904e-05
-3.5085256677531355e-05   5.393742804732241e-06   8.17568577336108e-06
-3.5085256677531355e-05   5.393742804732241e-06   8.17568577336108e-06
-3.5085256677531355e-05   5.393742804732241e-06   8.17568577336108e-06
-3.5085256677531355e-05   5.393742804732241e-06   8.17568577336108e-06
-3.589800299739961e-05   5.914798028179655e-06   3.463542667311967e-05
-3.589800299739961e-05   5.914798028179655e-06   3.463542667311967e-05
-3.589800299739961e-05   5.914798028179655e-06   3.463542667311967e-05
-3.589800299739961e-05   5.914798028179655e-06   3.463542667311967e-05
-2.0586506459633816e-05   4.805864061563055e-06   9.781626156813621e-06
-2.0586506459633816e-05   4.805864061563055e-06   9.781626156813621e-06
-2.0586506459633816e-05   4.805864061563055e-06   9.781626156813621e-06
-2.0586506459633816e-05   4.805864061563055e-06   9.781626156813621e-06
-2.756610399135902e-05   5.6887049270711466e-06   2.08845841903848e-05
-2.756610399135902e-05   5.6887049270711466e-06   2.08845841903848e-05
-2.756610399135902e-05   5.6887049270711466e-06   2.08845841903848e-05
-2.756610399135902e-05   5.6887049270711466e-06   2.08845841903848e-05
-2.0586506459633897e-05   5.914798028179667e-06   3.530078705308963e-05
-2.0586506459633897e-05   5.914798028179667e-06   3.530078705308963e-05
-2.0586506459633897e-05   5.914798028179667e-06   3.530078705308963e-05
-2.0586506459633897e-05   5.914798028179667e-06   3.530078705308963e-05
-3.58980029973995e-05   4.805864061563055e-06   9.11626577684366e-06
-3.58980029973995e-05   4.805864061563055e-06   9.11626577684366e-06
-3.58980029973995e-05   4.805864061563055e-06   9.11626577684366e-06
-3.58980029973995e-05   4.805864061563055e-06   9.11626577684366e-06
-3.662069327098425e-05   5.287074057193624e-06   3.5602949937260826e-05
-3.662069327098425e-05   5.287074057193624e-06   3.5602949937260826e-05
-3.662069327098425e-05   5.287074057193624e-06   3.5602949937260826e-05
-3.662069327098425e-05   5.287074057193624e-06   3.5602949937260826e-05
-2.1267953492596834e-05   4.148806384739407e-06   1.0698010910087624e-05
-2.1267953492596834e-05   4.148806384739407e-06   1.0698010910087624e-05
-2.1267953492596834e-05   4.148806384739407e-06   1.0698010910087624e-05
-2.1267953492596834e-05   4.148806384739407e-06   1.0698010910087624e-05
-2.8380552304750846e-05   5.2331618890554335e-06   2.1901728961087245e-05
-2.8380552304750846e-05   5.2331618890554335e-06   2.1901728961087245e-05
-2.8380552304750846e-05   5.2331618890554335e-06   2.1901728961087245e-05
-2.8380552304750846e-05   5.2331618890554335e-06   2.1901728961087245e-05
-3.436313728804322e-05   9.69068628289087e-06   1.630371552729373e-05
-3.436313728804322e-05   9.69068628289087e-06   1.630371552729373e-05
-3.436313728804322e-05   9.69068628289087e-06   1.630371552729373e-05
-3.436313728804322e-05   9.69068628289087e-06   1.630371552729373e-05
-4.85552723848537e-05   7.906763269430097e-06   -8.420196775466883e-06
-4.85552723848537e-05   7.906763269430097e-06   -8.420196775466883e-06
-4.85552723848537e-05   7.906763269430097e-06   -8.420196775466883e-06
-4.85552723848537e-05   7.906763269430097e-06   -8.420196775466883e-06
-5.0064879374731345e-05   9.641794089196645e-06   2.090115335098993e-05
-5.0064879374731345e-05   9.641794089196645e-06   2.090115335098993e-05
-5.0064879374731345e-05   9.641794089196645e-06   2.090115335098993e-05
-5.0064879374731345e-05   9.641794089196645e-06   2.090115335098993e-05
-3.5085256677531315e-05   7.70257828461838e-06   -2.901354994929643e-06
-3.5085256677531315e-05   7.70257828461838e-06   -2.901354994929643e-06
-3.5085256677531315e-05   7.70257828461838e-06   -2.901354994929643e-06
-3.5085256677531315e-05   7.70257828461838e-06   -2.901354994929643e-06
-4.04425417943112e-05   8.576697991691295e-06   5.5029817087939034e-06
-4.04425417943112e-05   8.576697991691295e-06   5.5029817087939034e-06
-4.04425417943112e-05   8.576697991691295e-06   5.5029817087939034e-06
-4.04425417943112e-05   8.576697991691295e-06   5.5029817087939034e-06
-3.5085256677531355e-05   9.641794089196447e-06   2.2064682833736627e-05
-3.5085256677531355e-05   9.641794089196447e-06   2.2064682833736627e-05
-3.5085256677531355e-05   9.641794089196447e-06   2.2064682833736627e-05
-3.5085256677531355e-05   9.641794089196447e-06   2.2064682833736627e-05
-5.0064879374731237e-05   7.70257828461838e-06   -4.06488447767645e-06
-5.0064879374731237e-05   7.70257828461838e-06   -4.06488447767645e-06
-5.0064879374731237e-05   7.70257828461838e-06   -4.06488447767645e-06
-5.0064879374731237e-05   7.70257828461838e-06   -4.06488447767645e-06
-5.1382148236139445e-05   9.445167197147473e-06   2.4887774765205246e-05
-5.1382148236139445e-05   9.445167197147473e-06   2.4887774765205246e-05
-5.1382148236139445e-05   9.445167197147473e-06   2.4887774765205246e-05
-5.1382148236139445e-05   9.445167197147473e-06   2.4887774765205246e-05
-3.589800299739949e-05   7.453383775798831e-06   2.759360867814328e-07
-3.589800299739949e-05   7.453383775798831e-06   2.759360867814328e-07
-3.589800299739949e-05   7.453383775798831e-06   2.759360867814328e-07
-3.589800299739949e-05   7.453383775798831e-06   2.759360867814328e-07
-4.204065028537302e-05   8.582023443113153e-06   9.836497766350536e-06
-4.204065028537302e-05   8.582023443113153e-06   9.836497766350536e-06
-4.204065028537302e-05   8.582023443113153e-06   9.836497766350536e-06
-4.204065028537302e-05   8.582023443113153e-06   9.836497766350536e-06
-3.58980029973995e-05   9.44516719714761e-06   2.6082844818014345e-05
-3.58980029973995e-05   9.44516719714761e-06   2.6082844818014345e-05
-3.58980029973995e-05   9.44516719714761e-06   2.6082844818014345e-05
-3.58980029973995e-05   9.44516719714761e-06   2.6082844818014345e-05
-5.138214823613934e-05   7.4533837757990475e-06   -9.191339660275574e-07
-5.138214823613934e-05   7.4533837757990475e-06   -9.191339660275574e-07
-5.138214823613934e-05   7.4533837757990475e-06   -9.191339660275574e-07
-5.138214823613934e-05   7.4533837757990475e-06   -9.191339660275574e-07
-5.291031979533342e-05   8.578160156778869e-06   3.181624306264081e-05
-5.291031979533342e-05   8.578160156778869e-06   3.181624306264081e-05
-5.291031979533342e-05   8.578160156778869e-06   3.181624306264081e-05
-5.291031979533342e-05   8.578160156778869e-06   3.181624306264081e-05
-3.662069327098405e-05   6.61744976882526e-06   5.843291754831074e-06
-3.662069327098405e-05   6.61744976882526e-06   5.843291754831074e-06
-3.662069327098405e-05   6.61744976882526e-06   5.843291754831074e-06
-3.662069327098405e-05   6.61744976882526e-06   5.843291754831074e-06
-4.239842347183113e-05   8.21800131266346e-06   1.4512511163271378e-05
-4.239842347183113e-05   8.21800131266346e-06   1.4512511163271378e-05
-4.239842347183113e-05   8.21800131266346e-06   1.4512511163271378e-05
-4.239842347183113e-05   8.21800131266346e-06   1.4512511163271378e-05
1.5827533726123704e-05   -1.8160226701286153e-06   2.2497872652221546e-05
1.5827533726123704e-05   -1.8160226701286153e-06   2.2497872652221546e-05
1.5827533726123704e-05   -1.8160226701286153e-06   2.2497872652221546e-05
1.5827533726123704e-05   -1.8160226701286153e-06   2.2497872652221546e-05
4.135216406074542e-06   4.4204545816741575e-08   4.126813448373677e-06
4.135216406074542e-06   4.4204545816741575e-08   4.126813448373677e-06
4.135216406074542e-06   4.4204545816741575e-08   4.126813448373677e-06
4.135216406074542e-06   4.4204545816741575e-08   4.126813448373677e-06
3.579802453750608e-06   -2.522726759843089e-06   2.097734312484249e-05
3.579802453750608e-06   -2.522726759843089e-06   2.097734312484249e-05
3.579802453750608e-06   -2.522726759843089e-06   2.097734312484249e-05
3.579802453750608e-06   -2.522726759843089e-06   2.097734312484249e-05
1.445476172998914e-05   -5.889673715777418e-07   1.692155364819368e-06
1.445476172998914e-05   -5.889673715777418e-07   1.692155364819368e-06
1.445476172998914e-05   -5.889673715777418e-07   1.692155364819368e-06
1.445476172998914e-05   -5.889673715777418e-07   1.692155364819368e-06
8.93831790076146e-06   -1.3105099067566017e-06   1.1319153934640193e-05
8.93831790076146e-06   -1.3105099067566017e-06   1.1319153934640193e-05
8.93831790076146e-06   -1.3105099067566017e-06   1.1319153934640193e-05
8.93831790076146e-06   -1.3105099067566017e-06   1.1319153934640193e-05
1.4454761729989165e-05   -2.5227267598428988e-06   1.9817087491883628e-05
1.4454761729989165e-05   -2.5227267598428988e-06   1.9817087491883628e-05
1.4454761729989165e-05   -2.5227267598428988e-06   1.9817087491883628e-05
1.4454761729989165e-05   -2.5227267598428988e-06   1.9817087491883628e-05
3.5798024537506045e-06   -5.889673715777418e-07   2.8524109977785816e-06
3.5798024537506045e-06   -5.889673715777418e-07   2.8524109977785816e-06
3.5798024537506045e-06   -5.889673715777418e-07   2.8524109977785816e-06
3.5798024537506045e-06   -5.889673715777418e-07   2.8524109977785816e-06
2.9326200990005885e-06   -2.7661022186471415e-06   1.9689018938855185e-05
2.9326200990005885e-06   -2.7661022186471415e-06   1.9689018938855185e-05
2.9326200990005885e-06   -2.7661022186471415e-06   1.9689018938855185e-05
2.9326200990005885e-06   -2.7661022186471415e-06   1.9689018938855185e-05
1.3292577719513673e-05   -8.621093753589416e-07   1.2800271986939142e-06
1.3292577719513673e-05   -8.621093753589416e-07   1.2800271986939142e-06
1.3292577719513673e-05   -8.621093753589416e-07   1.2800271986939142e-06
1.3292577719513673e-05   -8.621093753589416e-07   1.2800271986939142e-06
8.274557159396311e-06   -1.5868778526059637e-06   1.0078255885237675e-05
8.274557159396311e-06   -1.5868778526059637e-06   1.0078255885237675e-05
8.274557159396311e-06   -1.5868778526059637e-06   1.0078255885237675e-05
8.274557159396311e-06   -1.5868778526059637e-06   1.0078255885237675e-05
1.3292577719513688e-05   -2.7661022186470106e-06   1.854662323288233e-05
1.3292577719513688e-05   -2.7661022186470106e-06   1.854662323288233e-05
1.3292577719513688e-05   -2.7661022186470106e-06   1.854662323288233e-05
1.3292577719513688e-05   -2.7661022186470106e-06   1.854662323288233e-05
2.9326200990005784e-06   -8.621093753589416e-07   2.422422904666769e-06
2.9326200990005784e-06   -8.621093753589416e-07   2.422422904666769e-06
2.9326200990005784e-06   -8.621093753589416e-07   2.422422904666769e-06
2.9326200990005784e-06   -8.621093753589416e-07   2.422422904666769e-06
2.3719483399687908e-06   -3.088125313435025e-06   1.8201006435860658e-05
2.3719483399687908e-06   -3.088125313435025e-06   1.8201006435860658e-05
2.3719483399687908e-06   -3.088125313435025e-06   1.8201006435860658e-05
2.3719483399687908e-06   -3.088125313435025e-06   1.8201006435860658e-05
1.1931842974261267e-05   -1.3173594742813162e-06   1.205389208547823e-06
1.1931842974261267e-05   -1.3173594742813162e-06   1.205389208547823e-06
1.1931842974261267e-05   -1.3173594742813162e-06   1.205389208547823e-06
1.1931842974261267e-05   -1.3173594742813162e-06   1.205389208547823e-06
7.297513920670012e-06   -1.7297135716943645e-06   9.176683422981057e-06
7.297513920670012e-06   -1.7297135716943645e-06   9.176683422981057e-06
7.297513920670012e-06   -1.7297135716943645e-06   9.176683422981057e-06
7.297513920670012e-06   -1.7297135716943645e-06   9.176683422981057e-06
4.1352164060745485e-06   9.356405988691321e-07   3.096035784955751e-05
4.1352164060745485e-06   9.356405988691321e-07   3.096035784955751e-05
4.1352164060745485e-06   9.356405988691321e-07   3.096035784955751e-05
4.1352164060745485e-06   9.356405988691321e-07   3.096035784955751e-05
-6.517574098440816e-06   1.77765620886991e-06   1.3710916374699107e-05
-6.517574098440816e-06   1.77765620886991e-06   1.3710916374699107e-05
-6.517574098440816e-06   1.77765620886991e-06   1.3710916374699107e-05
-6.517574098440816e-06   1.77765620886991e-06   1.3710916374699107e-05
-7.0054288489604984e-06   2.2003597110629644e-07   3.105832703997674e-05
-7.0054288489604984e-06   2.2003597110629644e-07   3.105832703997674e-05
-7.0054288489604984e-06   2.2003597110629644e-07   3.105832703997674e-05
-7.0054288489604984e-06   2.2003597110629644e-07   3.105832703997674e-05
3.579802453750603e-06   1.0619769721430597e-06   1.2911110268169831e-05
3.579802453750603e-06   1.0619769721430597e-06   1.2911110268169831e-05
3.579802453750603e-06   1.0619769721430597e-06   1.2911110268169831e-05
3.579802453750603e-06   1.0619769721430597e-06   1.2911110268169831e-05
-1.531615276595657e-06   9.275599857625806e-07   2.1510790010575894e-05
-1.531615276595657e-06   9.275599857625806e-07   2.1510790010575894e-05
-1.531615276595657e-06   9.275599857625806e-07   2.1510790010575894e-05
-1.531615276595657e-06   9.275599857625806e-07   2.1510790010575894e-05
3.5798024537506045e-06   2.2003597110624062e-07   3.0553162439354506e-05
3.5798024537506045e-06   2.2003597110624062e-07   3.0553162439354506e-05
3.5798024537506045e-06   2.2003597110624062e-07   3.0553162439354506e-05
3.5798024537506045e-06   2.2003597110624062e-07   3.0553162439354506e-05
-7.0054288489604984e-06   1.0619769721430597e-06   1.3416274868791934e-05
-7.0054288489604984e-06   1.0619769721430597e-06   1.3416274868791934e-05
-7.0054288489604984e-06   1.0619769721430597e-06   1.3416274868791934e-05
-7.0054288489604984e-06   1.0619769721430597e-06   1.3416274868791934e-05
-7.507503080011915e-06   -3.6563319729321017e-07   3.085966298882405e-05
-7.507503080011915e-06   -3.6563319729321017e-07   3.085966298882405e-05
-7.507503080011915e-06   -3.6563319729321017e-07   3.085966298882405e-05
-7.507503080011915e-06   -3.6563319729321017e-07   3.085966298882405e-05
2.9326200990005788e-06   4.5530188783537637e-07   1.2966896639393291e-05
2.9326200990005788e-06   4.5530188783537637e-07   1.2966896639393291e-05
2.9326200990005788e-06   4.5530188783537637e-07   1.2966896639393291e-05
2.9326200990005788e-06   4.5530188783537637e-07   1.2966896639393291e-05
-2.0523049629151414e-06   4.2832587197720595e-07   2.1291290685434704e-05
-2.0523049629151414e-06   4.2832587197720595e-07   2.1291290685434704e-05
-2.0523049629151414e-06   4.2832587197720595e-07   2.1291290685434704e-05
-2.0523049629151414e-06   4.2832587197720595e-07   2.1291290685434704e-05
2.9326200990005885e-06   -3.656331972930846e-07   3.0367101937747417e-05
2.9326200990005885e-06   -3.656331972930846e-07   3.0367101937747417e-05
2.9326200990005885e-06   -3.656331972930846e-07   3.0367101937747417e-05
2.9326200990005885e-06   -3.656331972930846e-07   3.0367101937747417e-05
-7.507503080011942e-06   4.5530188783515953e-07   1.345945769047033e-05
-7.507503080011942e-06   4.5530188783515953e-07   1.345945769047033e-05
-7.507503080011942e-06   4.5530188783515953e-07   1.345945769047033e-05
-7.507503080011942e-06   4.5530188783515953e-07   1.345945769047033e-05
-8.002056545118477e-06   -9.42927288104245e-07   3.126648603057132e-05
-8.002056545118477e-06   -9.42927288104245e-07   3.126648603057132e-05
-8.002056545118477e-06   -9.42927288104245e-07   3.126648603057132e-05
-8.002056545118477e-06   -9.42927288104245e-07   3.126648603057132e-05
2.371948339968783e-06   -1.6484185009547382e-07   1.3509626625954015e-05
2.371948339968783e-06   -1.6484185009547382e-07   1.3509626625954015e-05
2.371948339968783e-06   -1.6484185009547382e-07   1.3509626625954015e-05
2.371948339968783e-06   -1.6484185009547382e-07   1.3509626625954015e-05
-2.49330373222619e-06   -1.9833750992048413e-08   2.1531375220150097e-05
-2.49330373222619e-06   -1.9833750992048413e-08   2.1531375220150097e-05
-2.49330373222619e-06   -1.9833750992048413e-08   2.1531375220150097e-05
-2.49330373222619e-06   -1.9833750992048413e-08   2.1531375220150097e-05
-6.517574098440816e-06   3.5175409925246766e-06   3.4335975525519443e-05
-6.517574098440816e-06   3.5175409925246766e-06   3.4335975525519443e-05
-6.517574098440816e-06   3.5175409925246766e-06   3.4335975525519443e-05
-6.517574098440816e-06   3.5175409925246766e-06   3.4335975525519443e-05
-1.699041086957977e-05   3.3154487269913737e-06   1.6759992214301044e-05
-1.699041086957977e-05   3.3154487269913737e-06   1.6759992214301044e-05
-1.699041086957977e-05   3.3154487269913737e-06   1.6759992214301044e-05
-1.699041086957977e-05   3.3154487269913737e-06   1.6759992214301044e-05
-1.745844463692375e-05   2.8671478242046303e-06   3.403251124624112e-05
-1.745844463692375e-05   2.8671478242046303e-06   3.403251124624112e-05
-1.745844463692375e-05   2.8671478242046303e-06   3.403251124624112e-05
-1.745844463692375e-05   2.8671478242046303e-06   3.403251124624112e-05
-7.005428848960446e-06   2.655501484504809e-06   1.673780607012242e-05
-7.005428848960446e-06   2.655501484504809e-06   1.673780607012242e-05
-7.005428848960446e-06   2.655501484504809e-06   1.673780607012242e-05
-7.005428848960446e-06   2.655501484504809e-06   1.673780607012242e-05
-1.2015289312798005e-05   3.0152351342893017e-06   2.487173331998209e-05
-1.2015289312798005e-05   3.0152351342893017e-06   2.487173331998209e-05
-1.2015289312798005e-05   3.0152351342893017e-06   2.487173331998209e-05
-1.2015289312798005e-05   3.0152351342893017e-06   2.487173331998209e-05
-7.005428848960471e-06   2.8671478242045876e-06   3.415949905006123e-05
-7.005428848960471e-06   2.8671478242045876e-06   3.415949905006123e-05
-7.005428848960471e-06   2.8671478242045876e-06   3.415949905006123e-05
-7.005428848960471e-06   2.8671478242045876e-06   3.415949905006123e-05
-1.745844463692375e-05   2.655501484504809e-06   1.6610818266302716e-05
-1.745844463692375e-05   2.655501484504809e-06   1.6610818266302716e-05
-1.745844463692375e-05   2.655501484504809e-06   1.6610818266302716e-05
-1.745844463692375e-05   2.655501484504809e-06   1.6610818266302716e-05
-1.7941846429665395e-05   2.224211271606869e-06   3.4259119097428126e-05
-1.7941846429665395e-05   2.224211271606869e-06   3.4259119097428126e-05
-1.7941846429665395e-05   2.224211271606869e-06   3.4259119097428126e-05
-1.7941846429665395e-05   2.224211271606869e-06   3.4259119097428126e-05
-7.507503080011916e-06   1.99892920826005e-06   1.7003716086013917e-05
-7.507503080011916e-06   1.99892920826005e-06   1.7003716086013917e-05
-7.507503080011916e-06   1.99892920826005e-06   1.7003716086013917e-05
-7.507503080011916e-06   1.99892920826005e-06   1.7003716086013917e-05
-1.2432056288139249e-05   2.5131925007844044e-06   2.4902746790711342e-05
-1.2432056288139249e-05   2.5131925007844044e-06   2.4902746790711342e-05
-1.2432056288139249e-05   2.5131925007844044e-06   2.4902746790711342e-05
-1.2432056288139249e-05   2.5131925007844044e-06   2.4902746790711342e-05
-7.507503080011942e-06   2.2242112716068095e-06   3.439428833543635e-05
-7.507503080011942e-06   2.2242112716068095e-06   3.439428833543635e-05
-7.507503080011942e-06   2.2242112716068095e-06   3.439428833543635e-05
-7.507503080011942e-06   2.2242112716068095e-06   3.439428833543635e-05
-1.7941846429665395e-05   1.99892920826005e-06   1.686854684800575e-05
-1.7941846429665395e-05   1.99892920826005e-06   1.686854684800575e-05
-1.7941846429665395e-05   1.99892920826005e-06   1.686854684800575e-05
-1.7941846429665395e-05   1.99892920826005e-06   1.686854684800575e-05
-1.8417713657163215e-05   1.6052174069314425e-06   3.4812975328181884e-05
-1.8417713657163215e-05   1.6052174069314425e-06   3.4812975328181884e-05
-1.8417713657163215e-05   1.6052174069314425e-06   3.4812975328181884e-05
-1.8417713657163215e-05   1.6052174069314425e-06   3.4812975328181884e-05
-8.002056545118455e-06   1.370203590497646e-06   1.7594555097967925e-05
-8.002056545118455e-06   1.370203590497646e-06   1.7594555097967925e-05
-8.002056545118455e-06   1.370203590497646e-06   1.7594555097967925e-05
-8.002056545118455e-06   1.370203590497646e-06   1.7594555097967925e-05
-1.2875332205497108e-05   2.0211863801949687e-06   2.532609152478037e-05
-1.2875332205497108e-05   2.0211863801949687e-06   2.532609152478037e-05
-1.2875332205497108e-05   2.0211863801949687e-06   2.532609152478037e-05
-1.2875332205497108e-05   2.0211863801949687e-06   2.532609152478037e-05
-1.699041086957977e-05   6.029208863804062e-06   3.0245582476670337e-05
-1.699041086957977e-05   6.029208863804062e-06   3.0245582476670337e-05
-1.699041086957977e-05   6.029208863804062e-06   3.0245582476670337e-05
-1.699041086957977e-05   6.029208863804062e-06   3.0245582476670337e-05
-2.7271891763960897e-05   4.923798490444548e-06   1.2446534762019493e-05
-2.7271891763960897e-05   4.923798490444548e-06   1.2446534762019493e-05
-2.7271891763960897e-05   4.923798490444548e-06   1.2446534762019493e-05
-2.7271891763960897e-05   4.923798490444548e-06   1.2446534762019493e-05
-2.778197054559246e-05   5.393742804732241e-06   2.9687768914716e-05
-2.778197054559246e-05   5.393742804732241e-06   2.9687768914716e-05
-2.778197054559246e-05   5.393742804732241e-06   2.9687768914716e-05
-2.778197054559246e-05   5.393742804732241e-06   2.9687768914716e-05
-1.7458444636923727e-05   4.258176657822091e-06   1.3163232088414414e-05
-1.7458444636923727e-05   4.258176657822091e-06   1.3163232088414414e-05
-1.7458444636923727e-05   4.258176657822091e-06   1.3163232088414414e-05
-1.7458444636923727e-05   4.258176657822091e-06   1.3163232088414414e-05
-2.2321750138856913e-05   5.067629619504412e-06   2.078306948129487e-05
-2.2321750138856913e-05   5.067629619504412e-06   2.078306948129487e-05
-2.2321750138856913e-05   5.067629619504412e-06   2.078306948129487e-05
-2.2321750138856913e-05   5.067629619504412e-06   2.078306948129487e-05
-1.745844463692375e-05   5.393742804732095e-06   3.036910860286209e-05
-1.745844463692375e-05   5.393742804732095e-06   3.036910860286209e-05
-1.745844463692375e-05   5.393742804732095e-06   3.036910860286209e-05
-1.745844463692375e-05   5.393742804732095e-06   3.036910860286209e-05
-2.7781970545592404e-05   4.258176657822091e-06   1.2481892400268378e-05
-2.7781970545592404e-05   4.258176657822091e-06   1.2481892400268378e-05
-2.7781970545592404e-05   4.258176657822091e-06   1.2481892400268378e-05
-2.7781970545592404e-05   4.258176657822091e-06   1.2481892400268378e-05
-2.8386130550955607e-05   4.805864061563055e-06   3.066473731053827e-05
-2.8386130550955607e-05   4.805864061563055e-06   3.066473731053827e-05
-2.8386130550955607e-05   4.805864061563055e-06   3.066473731053827e-05
-2.8386130550955607e-05   4.805864061563055e-06   3.066473731053827e-05
-1.7941846429665347e-05   3.65314201099037e-06   1.394923033873162e-05
-1.7941846429665347e-05   3.65314201099037e-06   1.394923033873162e-05
-1.7941846429665347e-05   3.65314201099037e-06   1.394923033873162e-05
-1.7941846429665347e-05   3.65314201099037e-06   1.394923033873162e-05
-2.2652510016716105e-05   4.596778530589762e-06   2.123415440538959e-05
-2.2652510016716105e-05   4.596778530589762e-06   2.123415440538959e-05
-2.2652510016716105e-05   4.596778530589762e-06   2.123415440538959e-05
-2.2652510016716105e-05   4.596778530589762e-06   2.123415440538959e-05
-1.7941846429665395e-05   4.805864061563212e-06   3.135637054088158e-05
-1.7941846429665395e-05   4.805864061563212e-06   3.135637054088158e-05
-1.7941846429665395e-05   4.805864061563212e-06   3.135637054088158e-05
-1.7941846429665395e-05   4.805864061563212e-06   3.135637054088158e-05
-2.8386130550955607e-05   3.65314201099037e-06   1.3257597108388042e-05
-2.8386130550955607e-05   3.65314201099037e-06   1.3257597108388042e-05
-2.8386130550955607e-05   3.65314201099037e-06   1.3257597108388042e-05
-2.8386130550955607e-05   3.65314201099037e-06   1.3257597108388042e-05
-2.8904679543591218e-05   4.148806384739407e-06   3.160879514383145e-05
-2.8904679543591218e-05   4.148806384739407e-06   3.160879514383145e-05
-2.8904679543591218e-05   4.148806384739407e-06   3.160879514383145e-05
-2.8904679543591218e-05   4.148806384739407e-06   3.160879514383145e-05
-1.841771365716317e-05   3.0066993541941894e-06   1.4815782884778598e-05
-1.841771365716317e-05   3.0066993541941894e-06   1.4815782884778598e-05
-1.841771365716317e-05   3.0066993541941894e-06   1.4815782884778598e-05
-1.841771365716317e-05   3.0066993541941894e-06   1.4815782884778598e-05
-2.322083704638093e-05   4.125394780477845e-06   2.2149771277704742e-05
-2.322083704638093e-05   4.125394780477845e-06   2.2149771277704742e-05
-2.322083704638093e-05   4.125394780477845e-06   2.2149771277704742e-05
-2.322083704638093e-05   4.125394780477845e-06   2.2149771277704742e-05
-2.727189176396095e-05   7.906763269430187e-06   1.4127688257190019e-05
-2.727189176396095e-05   7.906763269430187e-06   1.4127688257190019e-05
-2.727189176396095e-05   7.906763269430187e-06   1.4127688257190019e-05
-2.727189176396095e-05   7.906763269430187e-06   1.4127688257190019e-05
-3.654006182189428e-05   6.055674257974359e-06   -2.429915246238959e-06
-3.654006182189428e-05   6.055674257974359e-06   -2.429915246238959e-06
-3.654006182189428e-05   6.055674257974359e-06   -2.429915246238959e-06
-3.654006182189428e-05   6.055674257974359e-06   -2.429915246238959e-06
-3.784750993114129e-05   7.70257828461838e-06   1.7417723526604555e-05
-3.784750993114129e-05   7.70257828461838e-06   1.7417723526604555e-05
-3.784750993114129e-05   7.70257828461838e-06   1.7417723526604555e-05
-3.784750993114129e-05   7.70257828461838e-06   1.7417723526604555e-05
-2.7781970545592377e-05   5.71423725158446e-06   1.8348291705105012e-06
-2.7781970545592377e-05   5.71423725158446e-06   1.8348291705105012e-06
-2.7781970545592377e-05   5.71423725158446e-06   1.8348291705105012e-06
-2.7781970545592377e-05   5.71423725158446e-06   1.8348291705105012e-06
-3.11819781106698e-05   6.719359232423405e-06   6.898435257137597e-06
-3.11819781106698e-05   6.719359232423405e-06   6.898435257137597e-06
-3.11819781106698e-05   6.719359232423405e-06   6.898435257137597e-06
-3.11819781106698e-05   6.719359232423405e-06   6.898435257137597e-06
-2.778197054559235e-05   7.702578284618579e-06   1.861072814642495e-05
-2.778197054559235e-05   7.702578284618579e-06   1.861072814642495e-05
-2.778197054559235e-05   7.702578284618579e-06   1.861072814642495e-05
-2.778197054559235e-05   7.702578284618579e-06   1.861072814642495e-05
-3.7847509931141345e-05   5.71423725158446e-06   6.418245506901597e-07
-3.7847509931141345e-05   5.71423725158446e-06   6.418245506901597e-07
-3.7847509931141345e-05   5.71423725158446e-06   6.418245506901597e-07
-3.7847509931141345e-05   5.71423725158446e-06   6.418245506901597e-07
-3.897338246315905e-05   7.4533837757990475e-06   2.0609916046898918e-05
-3.897338246315905e-05   7.4533837757990475e-06   2.0609916046898918e-05
-3.897338246315905e-05   7.4533837757990475e-06   2.0609916046898918e-05
-3.897338246315905e-05   7.4533837757990475e-06   2.0609916046898918e-05
-2.8386130550955496e-05   5.429231153170544e-06   4.178987766803653e-06
-2.8386130550955496e-05   5.429231153170544e-06   4.178987766803653e-06
-2.8386130550955496e-05   5.429231153170544e-06   4.178987766803653e-06
-2.8386130550955496e-05   5.429231153170544e-06   4.178987766803653e-06
-3.243688560368339e-05   6.630662889791977e-06   1.0209387146044345e-05
-3.243688560368339e-05   6.630662889791977e-06   1.0209387146044345e-05
-3.243688560368339e-05   6.630662889791977e-06   1.0209387146044345e-05
-3.243688560368339e-05   6.630662889791977e-06   1.0209387146044345e-05
-2.8386130550955607e-05   7.4533837757988975e-06   2.1824407620475933e-05
-2.8386130550955607e-05   7.4533837757988975e-06   2.1824407620475933e-05
-2.8386130550955607e-05   7.4533837757988975e-06   2.1824407620475933e-05
-2.8386130550955607e-05   7.4533837757988975e-06   2.1824407620475933e-05
-3.8973382463159106e-05   5.429231153170544e-06   2.964496193226529e-06
-3.8973382463159106e-05   5.429231153170544e-06   2.964496193226529e-06
-3.8973382463159106e-05   5.429231153170544e-06   2.964496193226529e-06
-3.8973382463159106e-05   5.429231153170544e-06   2.964496193226529e-06
-4.0321069371465396e-05   6.61744976882526e-06   2.6259258803898065e-05
-4.0321069371465396e-05   6.61744976882526e-06   2.6259258803898065e-05
-4.0321069371465396e-05   6.61744976882526e-06   2.6259258803898065e-05
-4.0321069371465396e-05   6.61744976882526e-06   2.6259258803898065e-05
-2.8904679543591133e-05   4.6544867885762314e-06   8.40972021225704e-06
-2.8904679543591133e-05   4.6544867885762314e-06   8.40972021225704e-06
-2.8904679543591133e-05   4.6544867885762314e-06   8.40972021225704e-06
-2.8904679543591133e-05   4.6544867885762314e-06   8.40972021225704e-06
-3.2750602679479886e-05   6.278355864800271e-06   1.384527065966955e-05
-3.2750602679479886e-05   6.278355864800271e-06   1.384527065966955e-05
-3.2750602679479886e-05   6.278355864800271e-06   1.384527065966955e-05
-3.2750602679479886e-05   6.278355864800271e-06   1.384527065966955e-05
3.1480159320166696e-06   4.420454581691968e-08   1.678156849584979e-05
3.1480159320166696e-06   4.420454581691968e-08   1.678156849584979e-05
3.1480159320166696e-06   4.420454581691968e-08   1.678156849584979e-05
3.1480159320166696e-06   4.420454581691968e-08   1.678156849584979e-05
-3.535470457939247e-06   1.8296069284164454e-06   6.7136659421496115e-06
-3.535470457939247e-06   1.8296069284164454e-06   6.7136659421496115e-06
-3.535470457939247e-06   1.8296069284164454e-06   6.7136659421496115e-06
-3.535470457939247e-06   1.8296069284164454e-06   6.7136659421496115e-06
-3.928465456113672e-06   -5.889673715777418e-07   1.6555433298904155e-05
-3.928465456113672e-06   -5.889673715777418e-07   1.6555433298904155e-05
-3.928465456113672e-06   -5.889673715777418e-07   1.6555433298904155e-05
-3.928465456113672e-06   -5.889673715777418e-07   1.6555433298904155e-05
1.9516767593041017e-06   1.2389627891884122e-06   5.658438176748106e-06
1.9516767593041017e-06   1.2389627891884122e-06   5.658438176748106e-06
1.9516767593041017e-06   1.2389627891884122e-06   5.658438176748106e-06
1.9516767593041017e-06   1.2389627891884122e-06   5.658438176748106e-06
-7.468959293189002e-07   5.299258320826377e-07   1.0581481498716616e-05
-7.468959293189002e-07   5.299258320826377e-07   1.0581481498716616e-05
-7.468959293189002e-07   5.299258320826377e-07   1.0581481498716616e-05
-7.468959293189002e-07   5.299258320826377e-07   1.0581481498716616e-05
1.9516767593040962e-06   -5.889673715777969e-07   1.5458675202444506e-05
1.9516767593040962e-06   -5.889673715777969e-07   1.5458675202444506e-05
1.9516767593040962e-06   -5.889673715777969e-07   1.5458675202444506e-05
1.9516767593040962e-06   -5.889673715777969e-07   1.5458675202444506e-05
-3.928465456113672e-06   1.2389627891884122e-06   6.755196273207755e-06
-3.928465456113672e-06   1.2389627891884122e-06   6.755196273207755e-06
-3.928465456113672e-06   1.2389627891884122e-06   6.755196273207755e-06
-3.928465456113672e-06   1.2389627891884122e-06   6.755196273207755e-06
-4.4138784293531354e-06   -8.621093753589416e-07   1.6124425871584806e-05
-4.4138784293531354e-06   -8.621093753589416e-07   1.6124425871584806e-05
-4.4138784293531354e-06   -8.621093753589416e-07   1.6124425871584806e-05
-4.4138784293531354e-06   -8.621093753589416e-07   1.6124425871584806e-05
9.137205427129479e-07   9.136206553575759e-07   6.179656233044721e-06
9.137205427129479e-07   9.136206553575759e-07   6.179656233044721e-06
9.137205427129479e-07   9.136206553575759e-07   6.179656233044721e-06
9.137205427129479e-07   9.136206553575759e-07   6.179656233044721e-06
-1.3927337622603516e-06   2.7823420424826634e-07   1.0404978611999234e-05
-1.3927337622603516e-06   2.7823420424826634e-07   1.0404978611999234e-05
-1.3927337622603516e-06   2.7823420424826634e-07   1.0404978611999234e-05
-1.3927337622603516e-06   2.7823420424826634e-07   1.0404978611999234e-05
9.137205427129481e-07   -8.621093753588129e-07   1.5058987853154722e-05
9.137205427129481e-07   -8.621093753588129e-07   1.5058987853154722e-05
9.137205427129481e-07   -8.621093753588129e-07   1.5058987853154722e-05
9.137205427129481e-07   -8.621093753588129e-07   1.5058987853154722e-05
-4.413878429353129e-06   9.136206553575759e-07   7.245094251474697e-06
-4.413878429353129e-06   9.136206553575759e-07   7.245094251474697e-06
-4.413878429353129e-06   9.136206553575759e-07   7.245094251474697e-06
-4.413878429353129e-06   9.136206553575759e-07   7.245094251474697e-06
-4.819463241074761e-06   -1.317359474281533e-06   1.5974258633027084e-05
-4.819463241074761e-06   -1.317359474281533e-06   1.5974258633027084e-05
-4.819463241074761e-06   -1.317359474281533e-06   1.5974258633027084e-05
-4.819463241074761e-06   -1.317359474281533e-06   1.5974258633027084e-05
-3.8833680710922464e-07   2.2337632555355195e-07   7.664606429850455e-06
-3.8833680710922464e-07   2.2337632555355195e-07   7.664606429850455e-06
-3.8833680710922464e-07   2.2337632555355195e-07   7.664606429850455e-06
-3.8833680710922464e-07   2.2337632555355195e-07   7.664606429850455e-06
-2.0875889651418304e-06   4.7206824965121547e-08   1.06023950602578e-05
-2.0875889651418304e-06   4.7206824965121547e-08   1.06023950602578e-05
-2.0875889651418304e-06   4.7206824965121547e-08   1.06023950602578e-05
-2.0875889651418304e-06   4.7206824965121547e-08   1.06023950602578e-05
-3.535470457939247e-06   1.7776562088698703e-06   2.6931703485734513e-05
-3.535470457939247e-06   1.7776562088698703e-06   2.6931703485734513e-05
-3.535470457939247e-06   1.7776562088698703e-06   2.6931703485734513e-05
-3.535470457939247e-06   1.7776562088698703e-06   2.6931703485734513e-05
-9.130057487985796e-06   2.1295042133679092e-06   1.7818500571688983e-05
-9.130057487985796e-06   2.1295042133679092e-06   1.7818500571688983e-05
-9.130057487985796e-06   2.1295042133679092e-06   1.7818500571688983e-05
-9.130057487985796e-06   2.1295042133679092e-06   1.7818500571688983e-05
-9.426306867361993e-06   1.0619769721430597e-06   2.6858820732776926e-05
-9.426306867361993e-06   1.0619769721430597e-06   2.6858820732776926e-05
-9.426306867361993e-06   1.0619769721430597e-06   2.6858820732776926e-05
-9.426306867361993e-06   1.0619769721430597e-06   2.6858820732776926e-05
-3.928465456113673e-06   1.4697905779458096e-06   1.745106355054803e-05
-3.928465456113673e-06   1.4697905779458096e-06   1.745106355054803e-05
-3.928465456113673e-06   1.4697905779458096e-06   1.745106355054803e-05
-3.928465456113673e-06   1.4697905779458096e-06   1.745106355054803e-05
-6.543618116901173e-06   1.5333294470711457e-06   2.1771527997052078e-05
-6.543618116901173e-06   1.5333294470711457e-06   2.1771527997052078e-05
-6.543618116901173e-06   1.5333294470711457e-06   2.1771527997052078e-05
-6.543618116901173e-06   1.5333294470711457e-06   2.1771527997052078e-05
-3.9284654561136615e-06   1.0619769721431772e-06   2.661413256929506e-05
-3.9284654561136615e-06   1.0619769721431772e-06   2.661413256929506e-05
-3.9284654561136615e-06   1.0619769721431772e-06   2.661413256929506e-05
-3.9284654561136615e-06   1.0619769721431772e-06   2.661413256929506e-05
-9.426306867361993e-06   1.4697905779458096e-06   1.7695751714029754e-05
-9.426306867361993e-06   1.4697905779458096e-06   1.7695751714029754e-05
-9.426306867361993e-06   1.4697905779458096e-06   1.7695751714029754e-05
-9.426306867361993e-06   1.4697905779458096e-06   1.7695751714029754e-05
-9.731852711336862e-06   4.5530188783537637e-07   2.6912082479546443e-05
-9.731852711336862e-06   4.5530188783537637e-07   2.6912082479546443e-05
-9.731852711336862e-06   4.5530188783537637e-07   2.6912082479546443e-05
-9.731852711336862e-06   4.5530188783537637e-07   2.6912082479546443e-05
-4.413878429353132e-06   8.606066765606477e-07   1.7805609136338365e-05
-4.413878429353132e-06   8.606066765606477e-07   1.7805609136338365e-05
-4.413878429353132e-06   8.606066765606477e-07   1.7805609136338365e-05
-4.413878429353132e-06   8.606066765606477e-07   1.7805609136338365e-05
-6.846059671660467e-06   1.0510993216853847e-06   2.1744948953109533e-05
-6.846059671660467e-06   1.0510993216853847e-06   2.1744948953109533e-05
-6.846059671660467e-06   1.0510993216853847e-06   2.1744948953109533e-05
-6.846059671660467e-06   1.0510993216853847e-06   2.1744948953109533e-05
-4.413878429353129e-06   4.5530188783516974e-07   2.6668899606311085e-05
-4.413878429353129e-06   4.5530188783516974e-07   2.6668899606311085e-05
-4.413878429353129e-06   4.5530188783516974e-07   2.6668899606311085e-05
-4.413878429353129e-06   4.5530188783516974e-07   2.6668899606311085e-05
-9.731852711336862e-06   8.606066765606477e-07   1.8048792009573594e-05
-9.731852711336862e-06   8.606066765606477e-07   1.8048792009573594e-05
-9.731852711336862e-06   8.606066765606477e-07   1.8048792009573594e-05
-9.731852711336862e-06   8.606066765606477e-07   1.8048792009573594e-05
-1.0031527264676174e-05   -1.6484185009547382e-07   2.7435186059415512e-05
-1.0031527264676174e-05   -1.6484185009547382e-07   2.7435186059415512e-05
-1.0031527264676174e-05   -1.6484185009547382e-07   2.7435186059415512e-05
-1.0031527264676174e-05   -1.6484185009547382e-07   2.7435186059415512e-05
-4.819463241074757e-06   2.0040733736187075e-07   1.8529263174272202e-05
-4.819463241074757e-06   2.0040733736187075e-07   1.8529263174272202e-05
-4.819463241074757e-06   2.0040733736187075e-07   1.8529263174272202e-05
-4.819463241074757e-06   2.0040733736187075e-07   1.8529263174272202e-05
-7.148229209219294e-06   5.7693084702529e-07   2.2184625682048262e-05
-7.148229209219294e-06   5.7693084702529e-07   2.2184625682048262e-05
-7.148229209219294e-06   5.7693084702529e-07   2.2184625682048262e-05
-7.148229209219294e-06   5.7693084702529e-07   2.2184625682048262e-05
-9.130057487985796e-06   3.3154487269915495e-06   3.0313143487355047e-05
-9.130057487985796e-06   3.3154487269915495e-06   3.0313143487355047e-05
-9.130057487985796e-06   3.3154487269915495e-06   3.0313143487355047e-05
-9.130057487985796e-06   3.3154487269915495e-06   3.0313143487355047e-05
-1.4706627827753616e-05   2.5523292352090405e-06   2.05609878926727e-05
-1.4706627827753616e-05   2.5523292352090405e-06   2.05609878926727e-05
-1.4706627827753616e-05   2.5523292352090405e-06   2.05609878926727e-05
-1.4706627827753616e-05   2.5523292352090405e-06   2.05609878926727e-05
-1.4957271722573166e-05   2.655501484504809e-06   2.9751537121863e-05
-1.4957271722573166e-05   2.655501484504809e-06   2.9751537121863e-05
-1.4957271722573166e-05   2.655501484504809e-06   2.9751537121863e-05
-1.4957271722573166e-05   2.655501484504809e-06   2.9751537121863e-05
-9.426306867362e-06   1.940810130763443e-06   2.096207717542246e-05
-9.426306867362e-06   1.940810130763443e-06   2.096207717542246e-05
-9.426306867362e-06   1.940810130763443e-06   2.096207717542246e-05
-9.426306867362e-06   1.940810130763443e-06   2.096207717542246e-05
-1.2061034058807375e-05   2.5657182831930695e-06   2.4978344269706862e-05
-1.2061034058807375e-05   2.5657182831930695e-06   2.4978344269706862e-05
-1.2061034058807375e-05   2.5657182831930695e-06   2.4978344269706862e-05
-1.2061034058807375e-05   2.5657182831930695e-06   2.4978344269706862e-05
-9.426306867361993e-06   2.6555014845048678e-06   3.0180351934107818e-05
-9.426306867361993e-06   2.6555014845048678e-06   3.0180351934107818e-05
-9.426306867361993e-06   2.6555014845048678e-06   3.0180351934107818e-05
-9.426306867361993e-06   2.6555014845048678e-06   3.0180351934107818e-05
-1.4957271722573166e-05   1.940810130763443e-06   2.0533262363177558e-05
-1.4957271722573166e-05   1.940810130763443e-06   2.0533262363177558e-05
-1.4957271722573166e-05   1.940810130763443e-06   2.0533262363177558e-05
-1.4957271722573166e-05   1.940810130763443e-06   2.0533262363177558e-05
-1.5225886662019255e-05   1.99892920826005e-06   3.0048549627382636e-05
-1.5225886662019255e-05   1.99892920826005e-06   3.0048549627382636e-05
-1.5225886662019255e-05   1.99892920826005e-06   3.0048549627382636e-05
-1.5225886662019255e-05   1.99892920826005e-06   3.0048549627382636e-05
-9.731852711336859e-06   1.319277128747744e-06   2.12996176239527e-05
-9.731852711336859e-06   1.319277128747744e-06   2.12996176239527e-05
-9.731852711336859e-06   1.319277128747744e-06   2.12996176239527e-05
-9.731852711336859e-06   1.319277128747744e-06   2.12996176239527e-05
-1.2275179194362043e-05   2.075942395421068e-06   2.5084495935657374e-05
-1.2275179194362043e-05   2.075942395421068e-06   2.5084495935657374e-05
-1.2275179194362043e-05   2.075942395421068e-06   2.5084495935657374e-05
-1.2275179194362043e-05   2.075942395421068e-06   2.5084495935657374e-05
-9.731852711336862e-06   1.998929208260162e-06   3.0456340875089976e-05
-9.731852711336862e-06   1.998929208260162e-06   3.0456340875089976e-05
-9.731852711336862e-06   1.998929208260162e-06   3.0456340875089976e-05
-9.731852711336862e-06   1.998929208260162e-06   3.0456340875089976e-05
-1.5225886662019255e-05   1.319277128747744e-06   2.0891826376245306e-05
-1.5225886662019255e-05   1.319277128747744e-06   2.0891826376245306e-05
-1.5225886662019255e-05   1.319277128747744e-06   2.0891826376245306e-05
-1.5225886662019255e-05   1.319277128747744e-06   2.0891826376245306e-05
-1.548895321101118e-05   1.3702035904974291e-06   3.066913045967983e-05
-1.548895321101118e-05   1.3702035904974291e-06   3.066913045967983e-05
-1.548895321101118e-05   1.3702035904974291e-06   3.066913045967983e-05
-1.548895321101118e-05   1.3702035904974291e-06   3.066913045967983e-05
-1.0031527264676208e-05   7.299822422570258e-07   2.1957553358065932e-05
-1.0031527264676208e-05   7.299822422570258e-07   2.1957553358065932e-05
-1.0031527264676208e-05   7.299822422570258e-07   2.1957553358065932e-05
-1.0031527264676208e-05   7.299822422570258e-07   2.1957553358065932e-05
-1.25137836792792e-05   1.5935041590515661e-06   2.557653423232751e-05
-1.25137836792792e-05   1.5935041590515661e-06   2.557653423232751e-05
-1.25137836792792e-05   1.5935041590515661e-06   2.557653423232751e-05
-1.25137836792792e-05   1.5935041590515661e-06   2.557653423232751e-05
-1.4706627827753616e-05   4.923798490444621e-06   2.6205060564019793e-05
-1.4706627827753616e-05   4.923798490444621e-06   2.6205060564019793e-05
-1.4706627827753616e-05   4.923798490444621e-06   2.6205060564019793e-05
-1.4706627827753616e-05   4.923798490444621e-06   2.6205060564019793e-05
-2.019084770361895e-05   3.4496145231550056e-06   1.618018372387056e-05
-2.019084770361895e-05   3.4496145231550056e-06   1.618018372387056e-05
-2.019084770361895e-05   3.4496145231550056e-06   1.618018372387056e-05
-2.019084770361895e-05   3.4496145231550056e-06   1.618018372387056e-05
-2.0466220252374407e-05   4.258176657822091e-06   2.5432779869041452e-05
-2.0466220252374407e-05   4.258176657822091e-06   2.5432779869041452e-05
-2.0466220252374407e-05   4.258176657822091e-06   2.5432779869041452e-05
-2.0466220252374407e-05   4.258176657822091e-06   2.5432779869041452e-05
-1.4957271722573145e-05   2.8062248662666118e-06   1.7122370060972537e-05
-1.4957271722573145e-05   2.8062248662666118e-06   1.7122370060972537e-05
-1.4957271722573145e-05   2.8062248662666118e-06   1.7122370060972537e-05
-1.4957271722573145e-05   2.8062248662666118e-06   1.7122370060972537e-05
-1.7543005978478608e-05   3.826814601691833e-06   2.081957331289319e-05
-1.7543005978478608e-05   3.826814601691833e-06   2.081957331289319e-05
-1.7543005978478608e-05   3.826814601691833e-06   2.081957331289319e-05
-1.7543005978478608e-05   3.826814601691833e-06   2.081957331289319e-05
-1.4957271722573166e-05   4.2581766578220324e-06   2.6303950943974588e-05
-1.4957271722573166e-05   4.2581766578220324e-06   2.6303950943974588e-05
-1.4957271722573166e-05   4.2581766578220324e-06   2.6303950943974588e-05
-1.4957271722573166e-05   4.2581766578220324e-06   2.6303950943974588e-05
-2.0466220252374407e-05   2.8062248662666118e-06   1.6251198986039293e-05
-2.0466220252374407e-05   2.8062248662666118e-06   1.6251198986039293e-05
-2.0466220252374407e-05   2.8062248662666118e-06   1.6251198986039293e-05
-2.0466220252374407e-05   2.8062248662666118e-06   1.6251198986039293e-05
-2.0846938600978552e-05   3.65314201099037e-06   2.627771281713768e-05
-2.0846938600978552e-05   3.65314201099037e-06   2.627771281713768e-05
-2.0846938600978552e-05   3.65314201099037e-06   2.627771281713768e-05
-2.0846938600978552e-05   3.65314201099037e-06   2.627771281713768e-05
-1.5225886662019262e-05   2.2339415093725577e-06   1.776081321984294e-05
-1.5225886662019262e-05   2.2339415093725577e-06   1.776081321984294e-05
-1.5225886662019262e-05   2.2339415093725577e-06   1.776081321984294e-05
-1.5225886662019262e-05   2.2339415093725577e-06   1.776081321984294e-05
-1.7692706690863024e-05   3.352131809506321e-06   2.120126575450216e-05
-1.7692706690863024e-05   3.352131809506321e-06   2.120126575450216e-05
-1.7692706690863024e-05   3.352131809506321e-06   2.120126575450216e-05
-1.7692706690863024e-05   3.352131809506321e-06   2.120126575450216e-05
-1.5225886662019255e-05   3.6531420109903534e-06   2.7129233118108236e-05
-1.5225886662019255e-05   3.6531420109903534e-06   2.7129233118108236e-05
-1.5225886662019255e-05   3.6531420109903534e-06   2.7129233118108236e-05
-1.5225886662019255e-05   3.6531420109903534e-06   2.7129233118108236e-05
-2.0846938600978498e-05   2.233941509372341e-06   1.6909292918872192e-05
-2.0846938600978498e-05   2.233941509372341e-06   1.6909292918872192e-05
-2.0846938600978498e-05   2.233941509372341e-06   1.6909292918872192e-05
-2.0846938600978498e-05   2.233941509372341e-06   1.6909292918872192e-05
-2.1152188490931444e-05   3.0066993541944063e-06   2.7217981816456864e-05
-2.1152188490931444e-05   3.0066993541944063e-06   2.7217981816456864e-05
-2.1152188490931444e-05   3.0066993541944063e-06   2.7217981816456864e-05
-2.1152188490931444e-05   3.0066993541944063e-06   2.7217981816456864e-05
-1.5488953211011172e-05   1.651058154370508e-06   1.8592641069817457e-05
-1.5488953211011172e-05   1.651058154370508e-06   1.8592641069817457e-05
-1.5488953211011172e-05   1.651058154370508e-06   1.8592641069817457e-05
-1.5488953211011172e-05   1.651058154370508e-06   1.8592641069817457e-05
-1.8007952518796902e-05   2.9008638821094185e-06   2.2041089812817002e-05
-1.8007952518796902e-05   2.9008638821094185e-06   2.2041089812817002e-05
-1.8007952518796902e-05   2.9008638821094185e-06   2.2041089812817002e-05
-1.8007952518796902e-05   2.9008638821094185e-06   2.2041089812817002e-05
-2.019084770361895e-05   6.055674257974473e-06   1.1554753582261146e-05
-2.019084770361895e-05   6.055674257974473e-06   1.1554753582261146e-05
-2.019084770361895e-05   6.055674257974473e-06   1.1554753582261146e-05
-2.019084770361895e-05   6.055674257974473e-06   1.1554753582261146e-05
-2.449164444477968e-05   4.074079296322291e-06   3.1978020366686735e-06
-2.449164444477968e-05   4.074079296322291e-06   3.1978020366686735e-06
-2.449164444477968e-05   4.074079296322291e-06   3.1978020366686735e-06
-2.449164444477968e-05   4.074079296322291e-06   3.1978020366686735e-06
-2.553715050802272e-05   5.71423725158446e-06   1.3544730065449383e-05
-2.553715050802272e-05   5.71423725158446e-06   1.3544730065449383e-05
-2.553715050802272e-05   5.71423725158446e-06   1.3544730065449383e-05
-2.553715050802272e-05   5.71423725158446e-06   1.3544730065449383e-05
-2.0466220252374414e-05   3.6459262951944477e-06   6.334166213202907e-06
-2.0466220252374414e-05   3.6459262951944477e-06   6.334166213202907e-06
-2.0466220252374414e-05   3.6459262951944477e-06   6.334166213202907e-06
-2.0466220252374414e-05   3.6459262951944477e-06   6.334166213202907e-06
-2.1884961032747322e-05   4.823719287787688e-06   7.992058384935193e-06
-2.1884961032747322e-05   4.823719287787688e-06   7.992058384935193e-06
-2.1884961032747322e-05   4.823719287787688e-06   7.992058384935193e-06
-2.1884961032747322e-05   4.823719287787688e-06   7.992058384935193e-06
-2.0466220252374407e-05   5.714237251584471e-06   1.4785716639283413e-05
-2.0466220252374407e-05   5.714237251584471e-06   1.4785716639283413e-05
-2.0466220252374407e-05   5.714237251584471e-06   1.4785716639283413e-05
-2.0466220252374407e-05   5.714237251584471e-06   1.4785716639283413e-05
-2.553715050802272e-05   3.6459262951944477e-06   5.093179639368807e-06
-2.553715050802272e-05   3.6459262951944477e-06   5.093179639368807e-06
-2.553715050802272e-05   3.6459262951944477e-06   5.093179639368807e-06
-2.553715050802272e-05   3.6459262951944477e-06   5.093179639368807e-06
-2.6434888154202836e-05   5.429231153170544e-06   1.5952767955823566e-05
-2.6434888154202836e-05   5.429231153170544e-06   1.5952767955823566e-05
-2.6434888154202836e-05   5.429231153170544e-06   1.5952767955823566e-05
-2.6434888154202836e-05   5.429231153170544e-06   1.5952767955823566e-05
-2.084693860097849e-05   3.3520052869545538e-06   7.885854220179302e-06
-2.084693860097849e-05   3.3520052869545538e-06   7.885854220179302e-06
-2.084693860097849e-05   3.3520052869545538e-06   7.885854220179302e-06
-2.084693860097849e-05   3.3520052869545538e-06   7.885854220179302e-06
-2.2770619565923563e-05   4.655569640147662e-06   1.0309850549839231e-05
-2.2770619565923563e-05   4.655569640147662e-06   1.0309850549839231e-05
-2.2770619565923563e-05   4.655569640147662e-06   1.0309850549839231e-05
-2.2770619565923563e-05   4.655569640147662e-06   1.0309850549839231e-05
-2.0846938600978498e-05   5.429231153170515e-06   1.7199103475553073e-05
-2.0846938600978498e-05   5.429231153170515e-06   1.7199103475553073e-05
-2.0846938600978498e-05   5.429231153170515e-06   1.7199103475553073e-05
-2.0846938600978498e-05   5.429231153170515e-06   1.7199103475553073e-05
-2.6434888154202945e-05   3.3520052869547706e-06   6.639518700449795e-06
-2.6434888154202945e-05   3.3520052869547706e-06   6.639518700449795e-06
-2.6434888154202945e-05   3.3520052869547706e-06   6.639518700449795e-06
-2.6434888154202945e-05   3.3520052869547706e-06   6.639518700449795e-06
-2.7578288084134997e-05   4.6544867885762314e-06   2.0311100376010308e-05
-2.7578288084134997e-05   4.6544867885762314e-06   2.0311100376010308e-05
-2.7578288084134997e-05   4.6544867885762314e-06   2.0311100376010308e-05
-2.7578288084134997e-05   4.6544867885762314e-06   2.0311100376010308e-05
-2.115218849093136e-05   2.6776818114896198e-06   1.0787017373589604e-05
-2.115218849093136e-05   2.6776818114896198e-06   1.0787017373589604e-05
-2.115218849093136e-05   2.6776818114896198e-06   1.0787017373589604e-05
-2.115218849093136e-05   2.6776818114896198e-06   1.0787017373589604e-05
-2.30241850186615e-05   4.333999932655801e-06   1.2913220713772701e-05
-2.30241850186615e-05   4.333999932655801e-06   1.2913220713772701e-05
-2.30241850186615e-05   4.333999932655801e-06   1.2913220713772701e-05
-2.30241850186615e-05   4.333999932655801e-06   1.2913220713772701e-05
-1.0077063995212902e-05   1.8296069284163397e-06   1.1964905305551277e-05
-1.0077063995212902e-05   1.8296069284163397e-06   1.1964905305551277e-05
-1.0077063995212902e-05   1.8296069284163397e-06   1.1964905305551277e-05
-1.0077063995212902e-05   1.8296069284163397e-06   1.1964905305551277e-05
-1.0998038711993984e-05   3.4516926468060316e-06   1.140319887528332e-05
-1.0998038711993984e-05   3.4516926468060316e-06   1.140319887528332e-05
-1.0998038711993984e-05   3.4516926468060316e-06   1.140319887528332e-05
-1.0998038711993984e-05   3.4516926468060316e-06   1.140319887528332e-05
-1.1279775139746116e-05   1.2389627891884122e-06   1.2859005369720612e-05
-1.1279775139746116e-05   1.2389627891884122e-06   1.2859005369720612e-05
-1.1279775139746116e-05   1.2389627891884122e-06   1.2859005369720612e-05
-1.1279775139746116e-05   1.2389627891884122e-06   1.2859005369720612e-05
-1.1264915828841362e-05   2.697498002371618e-06   1.1959118723636064e-05
-1.1264915828841362e-05   2.697498002371618e-06   1.1959118723636064e-05
-1.1264915828841362e-05   2.697498002371618e-06   1.1959118723636064e-05
-1.1264915828841362e-05   2.697498002371618e-06   1.1959118723636064e-05
-1.0633418647480833e-05   2.1543656900581843e-06   1.1232502808756582e-05
-1.0633418647480833e-05   2.1543656900581843e-06   1.1232502808756582e-05
-1.0633418647480833e-05   2.1543656900581843e-06   1.1232502808756582e-05
-1.0633418647480833e-05   2.1543656900581843e-06   1.1232502808756582e-05
-1.1264915828841386e-05   1.238962789188434e-06   1.1983884241810764e-05
-1.1264915828841386e-05   1.238962789188434e-06   1.1983884241810764e-05
-1.1264915828841386e-05   1.238962789188434e-06   1.1983884241810764e-05
-1.1264915828841386e-05   1.238962789188434e-06   1.1983884241810764e-05
-1.1279775139746116e-05   2.697498002371618e-06   1.2834239851546047e-05
-1.1279775139746116e-05   2.697498002371618e-06   1.2834239851546047e-05
-1.1279775139746116e-05   2.697498002371618e-06   1.2834239851546047e-05
-1.1279775139746116e-05   2.697498002371618e-06   1.2834239851546047e-05
-1.1645483820036526e-05   9.136206553575759e-07   1.326922729109187e-05
-1.1645483820036526e-05   9.136206553575759e-07   1.326922729109187e-05
-1.1645483820036526e-05   9.136206553575759e-07   1.326922729109187e-05
-1.1645483820036526e-05   9.136206553575759e-07   1.326922729109187e-05
-1.2419954895658121e-05   2.1758094278659726e-06   1.3802699153622923e-05
-1.2419954895658121e-05   2.1758094278659726e-06   1.3802699153622923e-05
-1.2419954895658121e-05   2.1758094278659726e-06   1.3802699153622923e-05
-1.2419954895658121e-05   2.1758094278659726e-06   1.3802699153622923e-05
-1.1340561129998955e-05   1.828970112118509e-06   1.2211813133639545e-05
-1.1340561129998955e-05   1.828970112118509e-06   1.2211813133639545e-05
-1.1340561129998955e-05   1.828970112118509e-06   1.2211813133639545e-05
-1.1340561129998955e-05   1.828970112118509e-06   1.2211813133639545e-05
-1.2419954895658114e-05   9.136206553577903e-07   1.2511914027586463e-05
-1.2419954895658114e-05   9.136206553577903e-07   1.2511914027586463e-05
-1.2419954895658114e-05   9.136206553577903e-07   1.2511914027586463e-05
-1.2419954895658114e-05   9.136206553577903e-07   1.2511914027586463e-05
-1.1645483820036526e-05   2.1758094278659726e-06   1.4560012417127923e-05
-1.1645483820036526e-05   2.1758094278659726e-06   1.4560012417127923e-05
-1.1645483820036526e-05   2.1758094278659726e-06   1.4560012417127923e-05
-1.1645483820036526e-05   2.1758094278659726e-06   1.4560012417127923e-05
-1.1877840772271684e-05   2.2337632555333511e-07   1.458984193810492e-05
-1.1877840772271684e-05   2.2337632555333511e-07   1.458984193810492e-05
-1.1877840772271684e-05   2.2337632555333511e-07   1.458984193810492e-05
-1.1877840772271684e-05   2.2337632555333511e-07   1.458984193810492e-05
-1.3649591248332614e-05   8.924943011282991e-07   1.714128861286137e-05
-1.3649591248332614e-05   8.924943011282991e-07   1.714128861286137e-05
-1.3649591248332614e-05   8.924943011282991e-07   1.714128861286137e-05
-1.3649591248332614e-05   8.924943011282991e-07   1.714128861286137e-05
-1.1835379180875544e-05   1.429219935082356e-06   1.3795566453393271e-05
-1.1835379180875544e-05   1.429219935082356e-06   1.3795566453393271e-05
-1.1835379180875544e-05   1.429219935082356e-06   1.3795566453393271e-05
-1.1835379180875544e-05   1.429219935082356e-06   1.3795566453393271e-05
-1.0998038711993984e-05   2.12950421336773e-06   2.3831882563425753e-05
-1.0998038711993984e-05   2.12950421336773e-06   2.3831882563425753e-05
-1.0998038711993984e-05   2.12950421336773e-06   2.3831882563425753e-05
-1.0998038711993984e-05   2.12950421336773e-06   2.3831882563425753e-05
-1.1134480652121449e-05   8.932313093694107e-07   2.2862715587480993e-05
-1.1134480652121449e-05   8.932313093694107e-07   2.2862715587480993e-05
-1.1134480652121449e-05   8.932313093694107e-07   2.2862715587480993e-05
-1.1134480652121449e-05   8.932313093694107e-07   2.2862715587480993e-05
-1.1220971519883684e-05   1.4697905779458096e-06   2.2930214721392033e-05
-1.1220971519883684e-05   1.4697905779458096e-06   2.2930214721392033e-05
-1.1220971519883684e-05   1.4697905779458096e-06   2.2930214721392033e-05
-1.1220971519883684e-05   1.4697905779458096e-06   2.2930214721392033e-05
-1.1279775139746118e-05   4.286940351644255e-07   2.365287868016494e-05
-1.1279775139746118e-05   4.286940351644255e-07   2.365287868016494e-05
-1.1279775139746118e-05   4.286940351644255e-07   2.365287868016494e-05
-1.1279775139746118e-05   4.286940351644255e-07   2.365287868016494e-05
-1.1123861760790282e-05   1.0881370963271297e-06   2.2997357211874335e-05
-1.1123861760790282e-05   1.0881370963271297e-06   2.2997357211874335e-05
-1.1123861760790282e-05   1.0881370963271297e-06   2.2997357211874335e-05
-1.1123861760790282e-05   1.0881370963271297e-06   2.2997357211874335e-05
-1.1279775139746123e-05   1.4697905779459633e-06   2.35548726470608e-05
-1.1279775139746123e-05   1.4697905779459633e-06   2.35548726470608e-05
-1.1279775139746123e-05   1.4697905779459633e-06   2.35548726470608e-05
-1.1279775139746123e-05   1.4697905779459633e-06   2.35548726470608e-05
-1.1220971519883684e-05   4.286940351644255e-07   2.3028220754496033e-05
-1.1220971519883684e-05   4.286940351644255e-07   2.3028220754496033e-05
-1.1220971519883684e-05   4.286940351644255e-07   2.3028220754496033e-05
-1.1220971519883684e-05   4.286940351644255e-07   2.3028220754496033e-05
-1.1328254047771085e-05   8.606066765606477e-07   2.3247170584504424e-05
-1.1328254047771085e-05   8.606066765606477e-07   2.3247170584504424e-05
-1.1328254047771085e-05   8.606066765606477e-07   2.3247170584504424e-05
-1.1328254047771085e-05   8.606066765606477e-07   2.3247170584504424e-05
-1.1645483820036527e-05   -1.1034597585798597e-07   2.4358458463064726e-05
-1.1645483820036527e-05   -1.1034597585798597e-07   2.4358458463064726e-05
-1.1645483820036527e-05   -1.1034597585798597e-07   2.4358458463064726e-05
-1.1645483820036527e-05   -1.1034597585798597e-07   2.4358458463064726e-05
-1.1229981617061473e-05   7.031330842978238e-07   2.317786735534652e-05
-1.1229981617061473e-05   7.031330842978238e-07   2.317786735534652e-05
-1.1229981617061473e-05   7.031330842978238e-07   2.317786735534652e-05
-1.1229981617061473e-05   7.031330842978238e-07   2.317786735534652e-05
-1.1645483820036526e-05   8.606066765605885e-07   2.3829742175955192e-05
-1.1645483820036526e-05   8.606066765605885e-07   2.3829742175955192e-05
-1.1645483820036526e-05   8.606066765605885e-07   2.3829742175955192e-05
-1.1645483820036526e-05   8.606066765605885e-07   2.3829742175955192e-05
-1.132825404777103e-05   -1.1034597585798597e-07   2.377588687161355e-05
-1.132825404777103e-05   -1.1034597585798597e-07   2.377588687161355e-05
-1.132825404777103e-05   -1.1034597585798597e-07   2.377588687161355e-05
-1.132825404777103e-05   -1.1034597585798597e-07   2.377588687161355e-05
-1.1405959506498672e-05   2.004073373620876e-07   2.391846010218698e-05
-1.1405959506498672e-05   2.004073373620876e-07   2.391846010218698e-05
-1.1405959506498672e-05   2.004073373620876e-07   2.391846010218698e-05
-1.1405959506498672e-05   2.004073373620876e-07   2.391846010218698e-05
-1.1877840772271654e-05   -8.189211633694102e-07   2.5316525978913798e-05
-1.1877840772271654e-05   -8.189211633694102e-07   2.5316525978913798e-05
-1.1877840772271654e-05   -8.189211633694102e-07   2.5316525978913798e-05
-1.1877840772271654e-05   -8.189211633694102e-07   2.5316525978913798e-05
-1.1398292896281097e-05   2.504698149682124e-07   2.3875644931926166e-05
-1.1398292896281097e-05   2.504698149682124e-07   2.3875644931926166e-05
-1.1398292896281097e-05   2.504698149682124e-07   2.3875644931926166e-05
-1.1398292896281097e-05   2.504698149682124e-07   2.3875644931926166e-05
-1.1134480652121476e-05   2.5523292352091498e-06   2.6290477837079902e-05
-1.1134480652121476e-05   2.5523292352091498e-06   2.6290477837079902e-05
-1.1134480652121476e-05   2.5523292352091498e-06   2.6290477837079902e-05
-1.1134480652121476e-05   2.5523292352091498e-06   2.6290477837079902e-05
-1.1979988079204138e-05   2.4822680814388237e-07   2.3498837335702942e-05
-1.1979988079204138e-05   2.4822680814388237e-07   2.3498837335702942e-05
-1.1979988079204138e-05   2.4822680814388237e-07   2.3498837335702942e-05
-1.1979988079204138e-05   2.4822680814388237e-07   2.3498837335702942e-05
-1.200839434527224e-05   1.940810130763443e-06   2.4945412079007702e-05
-1.200839434527224e-05   1.940810130763443e-06   2.4945412079007702e-05
-1.200839434527224e-05   1.940810130763443e-06   2.4945412079007702e-05
-1.200839434527224e-05   1.940810130763443e-06   2.4945412079007702e-05
-1.1220971519883692e-05   -1.444033755315351e-07   2.4884168807137134e-05
-1.1220971519883692e-05   -1.444033755315351e-07   2.4884168807137134e-05
-1.1220971519883692e-05   -1.444033755315351e-07   2.4884168807137134e-05
-1.1220971519883692e-05   -1.444033755315351e-07   2.4884168807137134e-05
-1.1566004209946415e-05   1.1105890825082723e-06   2.4706227815751117e-05
-1.1566004209946415e-05   1.1105890825082723e-06   2.4706227815751117e-05
-1.1566004209946415e-05   1.1105890825082723e-06   2.4706227815751117e-05
-1.1566004209946415e-05   1.1105890825082723e-06   2.4706227815751117e-05
-1.1220971519883684e-05   1.940810130763464e-06   2.619654018278471e-05
-1.1220971519883684e-05   1.940810130763464e-06   2.619654018278471e-05
-1.1220971519883684e-05   1.940810130763464e-06   2.619654018278471e-05
-1.1220971519883684e-05   1.940810130763464e-06   2.619654018278471e-05
-1.200839434527224e-05   -1.444033755315351e-07   2.3633040703360125e-05
-1.200839434527224e-05   -1.444033755315351e-07   2.3633040703360125e-05
-1.200839434527224e-05   -1.444033755315351e-07   2.3633040703360125e-05
-1.200839434527224e-05   -1.444033755315351e-07   2.3633040703360125e-05
-1.206078564040705e-05   1.319277128747744e-06   2.5337679910690308e-05
-1.206078564040705e-05   1.319277128747744e-06   2.5337679910690308e-05
-1.206078564040705e-05   1.319277128747744e-06   2.5337679910690308e-05
-1.206078564040705e-05   1.319277128747744e-06   2.5337679910690308e-05
-1.1328254047771039e-05   -6.145833515743123e-07   2.5277110211156887e-05
-1.1328254047771039e-05   -6.145833515743123e-07   2.5277110211156887e-05
-1.1328254047771039e-05   -6.145833515743123e-07   2.5277110211156887e-05
-1.1328254047771039e-05   -6.145833515743123e-07   2.5277110211156887e-05
-1.1571495557552411e-05   7.215961180297983e-07   2.488080504569679e-05
-1.1571495557552411e-05   7.215961180297983e-07   2.488080504569679e-05
-1.1571495557552411e-05   7.215961180297983e-07   2.488080504569679e-05
-1.1571495557552411e-05   7.215961180297983e-07   2.488080504569679e-05
-1.132825404777103e-05   1.3192771287477588e-06   2.649799619888326e-05
-1.132825404777103e-05   1.3192771287477588e-06   2.649799619888326e-05
-1.132825404777103e-05   1.3192771287477588e-06   2.649799619888326e-05
-1.132825404777103e-05   1.3192771287477588e-06   2.649799619888326e-05
-1.206078564040705e-05   -6.145833515743123e-07   2.4116793922963583e-05
-1.206078564040705e-05   -6.145833515743123e-07   2.4116793922963583e-05
-1.206078564040705e-05   -6.145833515743123e-07   2.4116793922963583e-05
-1.206078564040705e-05   -6.145833515743123e-07   2.4116793922963583e-05
-1.2093933514675304e-05   7.299822422570258e-07   2.6037493568883486e-05
-1.2093933514675304e-05   7.299822422570258e-07   2.6037493568883486e-05
-1.2093933514675304e-05   7.299822422570258e-07   2.6037493568883486e-05
-1.2093933514675304e-05   7.299822422570258e-07   2.6037493568883486e-05
-1.1405959506498675e-05   -1.0868630987811078e-06   2.598097742654502e-05
-1.1405959506498675e-05   -1.0868630987811078e-06   2.598097742654502e-05
-1.1405959506498675e-05   -1.0868630987811078e-06   2.598097742654502e-05
-1.1405959506498675e-05   -1.0868630987811078e-06   2.598097742654502e-05
-1.1596170497154605e-05   3.216461491995339e-07   2.5452890195515364e-05
-1.1596170497154605e-05   3.216461491995339e-07   2.5452890195515364e-05
-1.1596170497154605e-05   3.216461491995339e-07   2.5452890195515364e-05
-1.1596170497154605e-05   3.216461491995339e-07   2.5452890195515364e-05
-1.1979988079204138e-05   3.449614523154983e-06   2.1411722592412272e-05
-1.1979988079204138e-05   3.449614523154983e-06   2.1411722592412272e-05
-1.1979988079204138e-05   3.449614523154983e-06   2.1411722592412272e-05
-1.1979988079204138e-05   3.449614523154983e-06   2.1411722592412272e-05
-1.3206410140073415e-05   1.13238123507079e-06   1.7977345851446197e-05
-1.3206410140073415e-05   1.13238123507079e-06   1.7977345851446197e-05
-1.3206410140073415e-05   1.13238123507079e-06   1.7977345851446197e-05
-1.3206410140073415e-05   1.13238123507079e-06   1.7977345851446197e-05
-1.3227127071420105e-05   2.8062248662666118e-06   2.0219892997841177e-05
-1.3227127071420105e-05   2.8062248662666118e-06   2.0219892997841177e-05
-1.3227127071420105e-05   2.8062248662666118e-06   2.0219892997841177e-05
-1.3227127071420105e-05   2.8062248662666118e-06   2.0219892997841177e-05
-1.2008394345272229e-05   6.151802346640329e-07   1.9503298566556223e-05
-1.2008394345272229e-05   6.151802346640329e-07   1.9503298566556223e-05
-1.2008394345272229e-05   6.151802346640329e-07   1.9503298566556223e-05
-1.2008394345272229e-05   6.151802346640329e-07   1.9503298566556223e-05
-1.2572503840694664e-05   2.048467991964129e-06   1.958350840454686e-05
-1.2572503840694664e-05   2.048467991964129e-06   1.958350840454686e-05
-1.2572503840694664e-05   2.048467991964129e-06   1.958350840454686e-05
-1.2572503840694664e-05   2.048467991964129e-06   1.958350840454686e-05
-1.200839434527224e-05   2.806224866266704e-06   2.153451977680268e-05
-1.200839434527224e-05   2.806224866266704e-06   2.153451977680268e-05
-1.200839434527224e-05   2.806224866266704e-06   2.153451977680268e-05
-1.200839434527224e-05   2.806224866266704e-06   2.153451977680268e-05
-1.3227127071420105e-05   6.151802346640329e-07   1.8188671787594722e-05
-1.3227127071420105e-05   6.151802346640329e-07   1.8188671787594722e-05
-1.3227127071420105e-05   6.151802346640329e-07   1.8188671787594722e-05
-1.3227127071420105e-05   6.151802346640329e-07   1.8188671787594722e-05
-1.3369765340997283e-05   2.233941509372341e-06   2.0969718964690973e-05
-1.3369765340997283e-05   2.233941509372341e-06   2.0969718964690973e-05
-1.3369765340997283e-05   2.233941509372341e-06   2.0969718964690973e-05
-1.3369765340997283e-05   2.233941509372341e-06   2.0969718964690973e-05
-1.2060785640407026e-05   1.7236186004366324e-07   2.0025033919970957e-05
-1.2060785640407026e-05   1.7236186004366324e-07   2.0025033919970957e-05
-1.2060785640407026e-05   1.7236186004366324e-07   2.0025033919970957e-05
-1.2060785640407026e-05   1.7236186004366324e-07   2.0025033919970957e-05
-1.2535733076800927e-05   1.6234526045769398e-06   1.9945958533907574e-05
-1.2535733076800927e-05   1.6234526045769398e-06   1.9945958533907574e-05
-1.2535733076800927e-05   1.6234526045769398e-06   1.9945958533907574e-05
-1.2535733076800927e-05   1.6234526045769398e-06   1.9945958533907574e-05
-1.206078564040705e-05   2.2339415093724307e-06   2.2206666754287724e-05
-1.206078564040705e-05   2.2339415093724307e-06   2.2206666754287724e-05
-1.206078564040705e-05   2.2339415093724307e-06   2.2206666754287724e-05
-1.206078564040705e-05   2.2339415093724307e-06   2.2206666754287724e-05
-1.3369765340997283e-05   1.7236186004366324e-07   1.8788086130373796e-05
-1.3369765340997283e-05   1.7236186004366324e-07   1.8788086130373796e-05
-1.3369765340997283e-05   1.7236186004366324e-07   1.8788086130373796e-05
-1.3369765340997283e-05   1.7236186004366324e-07   1.8788086130373796e-05
-1.3454534534328459e-05   1.651058154370508e-06   2.1901682781811076e-05
-1.3454534534328459e-05   1.651058154370508e-06   2.1901682781811076e-05
-1.3454534534328459e-05   1.651058154370508e-06   2.1901682781811076e-05
-1.3454534534328459e-05   1.651058154370508e-06   2.1901682781811076e-05
-1.2093933514675272e-05   -2.739940252431553e-07   2.0789045723490376e-05
-1.2093933514675272e-05   -2.739940252431553e-07   2.0789045723490376e-05
-1.2093933514675272e-05   -2.739940252431553e-07   2.0789045723490376e-05
-1.2093933514675272e-05   -2.739940252431553e-07   2.0789045723490376e-05
-1.2597666700169786e-05   1.2439204459228784e-06   2.0717852349946874e-05
-1.2597666700169786e-05   1.2439204459228784e-06   2.0717852349946874e-05
-1.2597666700169786e-05   1.2439204459228784e-06   2.0717852349946874e-05
-1.2597666700169786e-05   1.2439204459228784e-06   2.0717852349946874e-05
-1.3206410140073415e-05   4.0740792963222375e-06   8.227957909351206e-06
-1.3206410140073415e-05   4.0740792963222375e-06   8.227957909351206e-06
-1.3206410140073415e-05   4.0740792963222375e-06   8.227957909351206e-06
-1.3206410140073415e-05   4.0740792963222375e-06   8.227957909351206e-06
-1.3029545845102746e-05   1.8648063990343204e-06   7.197167995929416e-06
-1.3029545845102746e-05   1.8648063990343204e-06   7.197167995929416e-06
-1.3029545845102746e-05   1.8648063990343204e-06   7.197167995929416e-06
-1.3029545845102746e-05   1.8648063990343204e-06   7.197167995929416e-06
-1.369948613173268e-05   3.645926295194231e-06   9.014693760297588e-06
-1.369948613173268e-05   3.645926295194231e-06   9.014693760297588e-06
-1.369948613173268e-05   3.645926295194231e-06   9.014693760297588e-06
-1.369948613173268e-05   3.645926295194231e-06   9.014693760297588e-06
-1.3227127071420086e-05   1.4989821873490896e-06   9.515595124483635e-06
-1.3227127071420086e-05   1.4989821873490896e-06   9.515595124483635e-06
-1.3227127071420086e-05   1.4989821873490896e-06   9.515595124483635e-06
-1.3227127071420086e-05   1.4989821873490896e-06   9.515595124483635e-06
-1.2858976820073397e-05   2.8656956831312266e-06   8.081983274769934e-06
-1.2858976820073397e-05   2.8656956831312266e-06   8.081983274769934e-06
-1.2858976820073397e-05   2.8656956831312266e-06   8.081983274769934e-06
-1.2858976820073397e-05   2.8656956831312266e-06   8.081983274769934e-06
-1.322712707142005e-05   3.6459262951942428e-06   1.030286022500452e-05
-1.322712707142005e-05   3.6459262951942428e-06   1.030286022500452e-05
-1.322712707142005e-05   3.6459262951942428e-06   1.030286022500452e-05
-1.322712707142005e-05   3.6459262951942428e-06   1.030286022500452e-05
-1.3699486131732788e-05   1.4989821873490896e-06   8.227428659776458e-06
-1.3699486131732788e-05   1.4989821873490896e-06   8.227428659776458e-06
-1.3699486131732788e-05   1.4989821873490896e-06   8.227428659776458e-06
-1.3699486131732788e-05   1.4989821873490896e-06   8.227428659776458e-06
-1.4287854828239207e-05   3.3520052869547706e-06   1.0690914329925623e-05
-1.4287854828239207e-05   3.3520052869547706e-06   1.0690914329925623e-05
-1.4287854828239207e-05   3.3520052869547706e-06   1.0690914329925623e-05
-1.4287854828239207e-05   3.3520052869547706e-06   1.0690914329925623e-05
-1.3369765340997255e-05   1.2597287268339584e-06   1.0416131120594488e-05
-1.3369765340997255e-05   1.2597287268339584e-06   1.0416131120594488e-05
-1.3369765340997255e-05   1.2597287268339584e-06   1.0416131120594488e-05
-1.3369765340997255e-05   1.2597287268339584e-06   1.0416131120594488e-05
-1.3336065961252576e-05   2.651719243572685e-06   9.524771177644e-06
-1.3336065961252576e-05   2.651719243572685e-06   9.524771177644e-06
-1.3336065961252576e-05   2.651719243572685e-06   9.524771177644e-06
-1.3336065961252576e-05   2.651719243572685e-06   9.524771177644e-06
-1.336976534099723e-05   3.352005286954749e-06   1.194628026599746e-05
-1.336976534099723e-05   3.352005286954749e-06   1.194628026599746e-05
-1.336976534099723e-05   3.352005286954749e-06   1.194628026599746e-05
-1.336976534099723e-05   3.352005286954749e-06   1.194628026599746e-05
-1.4287854828239207e-05   1.2597287268339584e-06   9.160765184522055e-06
-1.4287854828239207e-05   1.2597287268339584e-06   9.160765184522055e-06
-1.4287854828239207e-05   1.2597287268339584e-06   9.160765184522055e-06
-1.4287854828239207e-05   1.2597287268339584e-06   9.160765184522055e-06
-1.516350773946083e-05   2.677681811489403e-06   1.3770294891023464e-05
-1.516350773946083e-05   2.677681811489403e-06   1.3770294891023464e-05
-1.516350773946083e-05   2.677681811489403e-06   1.3770294891023464e-05
-1.516350773946083e-05   2.677681811489403e-06   1.3770294891023464e-05
-1.345453453432844e-05   7.791002873992758e-07   1.2061155130256357e-05
-1.345453453432844e-05   7.791002873992758e-07   1.2061155130256357e-05
-1.345453453432844e-05   7.791002873992758e-07   1.2061155130256357e-05
-1.345453453432844e-05   7.791002873992758e-07   1.2061155130256357e-05
-1.3497283236323433e-05   2.3977632258927618e-06   1.1161205203816596e-05
-1.3497283236323433e-05   2.3977632258927618e-06   1.1161205203816596e-05
-1.3497283236323433e-05   2.3977632258927618e-06   1.1161205203816596e-05
-1.3497283236323433e-05   2.3977632258927618e-06   1.1161205203816596e-05
-2.606918849494397e-05   3.451692646806051e-06   9.999595072095722e-06
-2.606918849494397e-05   3.451692646806051e-06   9.999595072095722e-06
-2.606918849494397e-05   3.451692646806051e-06   9.999595072095722e-06
-2.606918849494397e-05   3.451692646806051e-06   9.999595072095722e-06
-1.7586193046643413e-05   4.781163330091619e-06   2.4935603229234702e-05
-1.7586193046643413e-05   4.781163330091619e-06   2.4935603229234702e-05
-1.7586193046643413e-05   4.781163330091619e-06   2.4935603229234702e-05
-1.7586193046643413e-05   4.781163330091619e-06   2.4935603229234702e-05
-1.757681432459624e-05   2.697498002371618e-06   1.1372200377507066e-05
-1.757681432459624e-05   2.697498002371618e-06   1.1372200377507066e-05
-1.757681432459624e-05   2.697498002371618e-06   1.1372200377507066e-05
-1.757681432459624e-05   2.697498002371618e-06   1.1372200377507066e-05
-2.8707534521801703e-05   1.944177172342749e-06   3.037539320420023e-05
-2.8707534521801703e-05   1.944177172342749e-06   3.037539320420023e-05
-2.8707534521801703e-05   1.944177172342749e-06   3.037539320420023e-05
-2.8707534521801703e-05   1.944177172342749e-06   3.037539320420023e-05
-2.132494278683329e-05   2.8349369042737337e-06   1.7536617806760858e-05
-2.132494278683329e-05   2.8349369042737337e-06   1.7536617806760858e-05
-2.132494278683329e-05   2.8349369042737337e-06   1.7536617806760858e-05
-2.132494278683329e-05   2.8349369042737337e-06   1.7536617806760858e-05
-2.8707534521801754e-05   2.697498002371586e-06   1.182419287552416e-05
-2.8707534521801754e-05   2.697498002371586e-06   1.182419287552416e-05
-2.8707534521801754e-05   2.697498002371586e-06   1.182419287552416e-05
-2.8707534521801754e-05   2.697498002371586e-06   1.182419287552416e-05
-1.7576814324596208e-05   1.944177172342749e-06   2.992340070618292e-05
-1.7576814324596208e-05   1.944177172342749e-06   2.992340070618292e-05
-1.7576814324596208e-05   1.944177172342749e-06   2.992340070618292e-05
-1.7576814324596208e-05   1.944177172342749e-06   2.992340070618292e-05
-1.7814113698210422e-05   2.175809427865864e-06   1.2726440722879862e-05
-1.7814113698210422e-05   2.175809427865864e-06   1.2726440722879862e-05
-1.7814113698210422e-05   2.175809427865864e-06   1.2726440722879862e-05
-1.7814113698210422e-05   2.175809427865864e-06   1.2726440722879862e-05
-2.880632907101475e-05   1.3976918656645725e-06   3.1513670214874573e-05
-2.880632907101475e-05   1.3976918656645725e-06   3.1513670214874573e-05
-2.880632907101475e-05   1.3976918656645725e-06   3.1513670214874573e-05
-2.880632907101475e-05   1.3976918656645725e-06   3.1513670214874573e-05
-2.2751520222302908e-05   1.773793899850426e-06   2.1196660913176477e-05
-2.2751520222302908e-05   1.773793899850426e-06   2.1196660913176477e-05
-2.2751520222302908e-05   1.773793899850426e-06   2.1196660913176477e-05
-2.2751520222302908e-05   1.773793899850426e-06   2.1196660913176477e-05
-2.8806329071014804e-05   2.1758094278659116e-06   1.3193311260200821e-05
-2.8806329071014804e-05   2.1758094278659116e-06   1.3193311260200821e-05
-2.8806329071014804e-05   2.1758094278659116e-06   1.3193311260200821e-05
-2.8806329071014804e-05   2.1758094278659116e-06   1.3193311260200821e-05
-1.7814113698210395e-05   1.3976918656645725e-06   3.104679967755379e-05
-1.7814113698210395e-05   1.3976918656645725e-06   3.104679967755379e-05
-1.7814113698210395e-05   1.3976918656645725e-06   3.104679967755379e-05
-1.7814113698210395e-05   1.3976918656645725e-06   3.104679967755379e-05
-1.7621517812714e-05   8.924943011282991e-07   1.5095616019874126e-05
-1.7621517812714e-05   8.924943011282991e-07   1.5095616019874126e-05
-1.7621517812714e-05   8.924943011282991e-07   1.5095616019874126e-05
-1.7621517812714e-05   8.924943011282991e-07   1.5095616019874126e-05
-2.91142256527281e-05   -9.247742790583695e-07   3.534049023467615e-05
-2.91142256527281e-05   -9.247742790583695e-07   3.534049023467615e-05
-2.91142256527281e-05   -9.247742790583695e-07   3.534049023467615e-05
-2.91142256527281e-05   -9.247742790583695e-07   3.534049023467615e-05
-2.2401765088555374e-05   8.63410405033127e-07   2.308014515060008e-05
-2.2401765088555374e-05   8.63410405033127e-07   2.308014515060008e-05
-2.2401765088555374e-05   8.63410405033127e-07   2.308014515060008e-05
-2.2401765088555374e-05   8.63410405033127e-07   2.308014515060008e-05
-1.7586193046643447e-05   8.9323130936937e-07   2.2998557936663706e-05
-1.7586193046643447e-05   8.9323130936937e-07   2.2998557936663706e-05
-1.7586193046643447e-05   8.9323130936937e-07   2.2998557936663706e-05
-1.7586193046643447e-05   8.9323130936937e-07   2.2998557936663706e-05
-1.0784223132055242e-05   -5.375510332303118e-06   3.0573929475973856e-05
-1.0784223132055242e-05   -5.375510332303118e-06   3.0573929475973856e-05
-1.0784223132055242e-05   -5.375510332303118e-06   3.0573929475973856e-05
-1.0784223132055242e-05   -5.375510332303118e-06   3.0573929475973856e-05
-1.0804553010561687e-05   4.286940351644255e-07   1.929346388889082e-05
-1.0804553010561687e-05   4.286940351644255e-07   1.929346388889082e-05
-1.0804553010561687e-05   4.286940351644255e-07   1.929346388889082e-05
-1.0804553010561687e-05   4.286940351644255e-07   1.929346388889082e-05
-1.7576814324596204e-05   -4.400264826894137e-06   3.347794139618352e-05
-1.7576814324596204e-05   -4.400264826894137e-06   3.347794139618352e-05
-1.7576814324596204e-05   -4.400264826894137e-06   3.347794139618352e-05
-1.7576814324596204e-05   -4.400264826894137e-06   3.347794139618352e-05
-1.4112106893459043e-05   -2.6579105207202207e-06   2.665801642725058e-05
-1.4112106893459043e-05   -2.6579105207202207e-06   2.665801642725058e-05
-1.4112106893459043e-05   -2.6579105207202207e-06   2.665801642725058e-05
-1.4112106893459043e-05   -2.6579105207202207e-06   2.665801642725058e-05
-1.757681432459622e-05   4.286940351643795e-07   2.21908392061256e-05
-1.757681432459622e-05   4.286940351643795e-07   2.21908392061256e-05
-1.757681432459622e-05   4.286940351643795e-07   2.21908392061256e-05
-1.757681432459622e-05   4.286940351643795e-07   2.21908392061256e-05
-1.080455301056166e-05   -4.400264826894137e-06   3.058056607894847e-05
-1.080455301056166e-05   -4.400264826894137e-06   3.058056607894847e-05
-1.080455301056166e-05   -4.400264826894137e-06   3.058056607894847e-05
-1.080455301056166e-05   -4.400264826894137e-06   3.058056607894847e-05
-1.0844852978605804e-05   -1.1034597585798597e-07   1.989079386495278e-05
-1.0844852978605804e-05   -1.1034597585798597e-07   1.989079386495278e-05
-1.0844852978605804e-05   -1.1034597585798597e-07   1.989079386495278e-05
-1.0844852978605804e-05   -1.1034597585798597e-07   1.989079386495278e-05
-1.7814113698210395e-05   -4.500500815631154e-06   3.414032130149105e-05
-1.7814113698210395e-05   -4.500500815631154e-06   3.414032130149105e-05
-1.7814113698210395e-05   -4.500500815631154e-06   3.414032130149105e-05
-1.7814113698210395e-05   -4.500500815631154e-06   3.414032130149105e-05
-1.4007587598702375e-05   -2.3221027904872992e-06   2.6489072320558e-05
-1.4007587598702375e-05   -2.3221027904872992e-06   2.6489072320558e-05
-1.4007587598702375e-05   -2.3221027904872992e-06   2.6489072320558e-05
-1.4007587598702375e-05   -2.3221027904872992e-06   2.6489072320558e-05
-1.7814113698210422e-05   -1.1034597585801787e-07   2.2524886768816854e-05
-1.7814113698210422e-05   -1.1034597585801787e-07   2.2524886768816854e-05
-1.7814113698210422e-05   -1.1034597585801787e-07   2.2524886768816854e-05
-1.7814113698210422e-05   -1.1034597585801787e-07   2.2524886768816854e-05
-1.0844852978605777e-05   -4.500500815631154e-06   3.1506228397627125e-05
-1.0844852978605777e-05   -4.500500815631154e-06   3.1506228397627125e-05
-1.0844852978605777e-05   -4.500500815631154e-06   3.1506228397627125e-05
-1.0844852978605777e-05   -4.500500815631154e-06   3.1506228397627125e-05
-1.0736426471796937e-05   -8.189211633694102e-07   2.0635168679903454e-05
-1.0736426471796937e-05   -8.189211633694102e-07   2.0635168679903454e-05
-1.0736426471796937e-05   -8.189211633694102e-07   2.0635168679903454e-05
-1.0736426471796937e-05   -8.189211633694102e-07   2.0635168679903454e-05
-1.7621517812713958e-05   -4.542611031166594e-06   3.43445348354433e-05
-1.7621517812713958e-05   -4.542611031166594e-06   3.43445348354433e-05
-1.7621517812713958e-05   -4.542611031166594e-06   3.43445348354433e-05
-1.7621517812713958e-05   -4.542611031166594e-06   3.43445348354433e-05
-1.4070515571263405e-05   -2.6081611818755445e-06   2.726552785678449e-05
-1.4070515571263405e-05   -2.6081611818755445e-06   2.726552785678449e-05
-1.4070515571263405e-05   -2.6081611818755445e-06   2.726552785678449e-05
-1.4070515571263405e-05   -2.6081611818755445e-06   2.726552785678449e-05
-1.0784223132055242e-05   2.4822680814378396e-07   2.1255896156121288e-05
-1.0784223132055242e-05   2.4822680814378396e-07   2.1255896156121288e-05
-1.0784223132055242e-05   2.4822680814378396e-07   2.1255896156121288e-05
-1.0784223132055242e-05   2.4822680814378396e-07   2.1255896156121288e-05
-7.929017542289722e-06   -4.199176875603334e-06   2.3346129928815628e-05
-7.929017542289722e-06   -4.199176875603334e-06   2.3346129928815628e-05
-7.929017542289722e-06   -4.199176875603334e-06   2.3346129928815628e-05
-7.929017542289722e-06   -4.199176875603334e-06   2.3346129928815628e-05
-7.856690979083996e-06   -1.444033755315351e-07   1.8761608624490492e-05
-7.856690979083996e-06   -1.444033755315351e-07   1.8761608624490492e-05
-7.856690979083996e-06   -1.444033755315351e-07   1.8761608624490492e-05
-7.856690979083996e-06   -1.444033755315351e-07   1.8761608624490492e-05
-1.0804553010561653e-05   -4.1240755706003856e-06   2.6062515327327992e-05
-1.0804553010561653e-05   -4.1240755706003856e-06   2.6062515327327992e-05
-1.0804553010561653e-05   -4.1240755706003856e-06   2.6062515327327992e-05
-1.0804553010561653e-05   -4.1240755706003856e-06   2.6062515327327992e-05
-9.285981465972137e-06   -2.122426753379289e-06   2.23305734626794e-05
-9.285981465972137e-06   -2.122426753379289e-06   2.23305734626794e-05
-9.285981465972137e-06   -2.122426753379289e-06   2.23305734626794e-05
-9.285981465972137e-06   -2.122426753379289e-06   2.23305734626794e-05
-1.080455301056166e-05   -1.4440337553157115e-07   2.1149411941531705e-05
-1.080455301056166e-05   -1.4440337553157115e-07   2.1149411941531705e-05
-1.080455301056166e-05   -1.4440337553157115e-07   2.1149411941531705e-05
-1.080455301056166e-05   -1.4440337553157115e-07   2.1149411941531705e-05
-7.856690979083996e-06   -4.1240755706003856e-06   2.3674712010286644e-05
-7.856690979083996e-06   -4.1240755706003856e-06   2.3674712010286644e-05
-7.856690979083996e-06   -4.1240755706003856e-06   2.3674712010286644e-05
-7.856690979083996e-06   -4.1240755706003856e-06   2.3674712010286644e-05
-7.794151123520423e-06   -6.145833515743123e-07   1.9210613286894983e-05
-7.794151123520423e-06   -6.145833515743123e-07   1.9210613286894983e-05
-7.794151123520423e-06   -6.145833515743123e-07   1.9210613286894983e-05
-7.794151123520423e-06   -6.145833515743123e-07   1.9210613286894983e-05
-1.0844852978605776e-05   -4.250256547575957e-06   2.647652029630495e-05
-1.0844852978605776e-05   -4.250256547575957e-06   2.647652029630495e-05
-1.0844852978605776e-05   -4.250256547575957e-06   2.647652029630495e-05
-1.0844852978605776e-05   -4.250256547575957e-06   2.647652029630495e-05
-9.202523428071812e-06   -2.264127350665038e-06   2.25476268606015e-05
-9.202523428071812e-06   -2.264127350665038e-06   2.25476268606015e-05
-9.202523428071812e-06   -2.264127350665038e-06   2.25476268606015e-05
-9.202523428071812e-06   -2.264127350665038e-06   2.25476268606015e-05
-1.0844852978605777e-05   -6.145833515742529e-07   2.139201720449625e-05
-1.0844852978605777e-05   -6.145833515742529e-07   2.139201720449625e-05
-1.0844852978605777e-05   -6.145833515742529e-07   2.139201720449625e-05
-1.0844852978605777e-05   -6.145833515742529e-07   2.139201720449625e-05
-7.794151123520423e-06   -4.250256547575957e-06   2.4295116378703973e-05
-7.794151123520423e-06   -4.250256547575957e-06   2.4295116378703973e-05
-7.794151123520423e-06   -4.250256547575957e-06   2.4295116378703973e-05
-7.794151123520423e-06   -4.250256547575957e-06   2.4295116378703973e-05
-7.63924524904377e-06   -1.0868630987809994e-06   1.9905678571169056e-05
-7.63924524904377e-06   -1.0868630987809994e-06   1.9905678571169056e-05
-7.63924524904377e-06   -1.0868630987809994e-06   1.9905678571169056e-05
-7.63924524904377e-06   -1.0868630987809994e-06   1.9905678571169056e-05
-1.0736426471796922e-05   -4.42942752678819e-06   2.707318593256168e-05
-1.0736426471796922e-05   -4.42942752678819e-06   2.707318593256168e-05
-1.0736426471796922e-05   -4.42942752678819e-06   2.707318593256168e-05
-1.0736426471796922e-05   -4.42942752678819e-06   2.707318593256168e-05
-9.104847037526568e-06   -2.4704556315565404e-06   2.3178503738305572e-05
-9.104847037526568e-06   -2.4704556315565404e-06   2.3178503738305572e-05
-9.104847037526568e-06   -2.4704556315565404e-06   2.3178503738305572e-05
-9.104847037526568e-06   -2.4704556315565404e-06   2.3178503738305572e-05
-7.929017542289722e-06   1.1323812350708223e-06   1.4456302434466886e-05
-7.929017542289722e-06   1.1323812350708223e-06   1.4456302434466886e-05
-7.929017542289722e-06   1.1323812350708223e-06   1.4456302434466886e-05
-7.929017542289722e-06   1.1323812350708223e-06   1.4456302434466886e-05
-6.6050315088104486e-06   -1.722571331460557e-06   1.4949974283680258e-05
-6.6050315088104486e-06   -1.722571331460557e-06   1.4949974283680258e-05
-6.6050315088104486e-06   -1.722571331460557e-06   1.4949974283680258e-05
-6.6050315088104486e-06   -1.722571331460557e-06   1.4949974283680258e-05
-6.461456019835857e-06   6.151802346640329e-07   1.3052621101001518e-05
-6.461456019835857e-06   6.151802346640329e-07   1.3052621101001518e-05
-6.461456019835857e-06   6.151802346640329e-07   1.3052621101001518e-05
-6.461456019835857e-06   6.151802346640329e-07   1.3052621101001518e-05
-7.856690979083976e-06   -2.016895409811051e-06   1.6957258086433525e-05
-7.856690979083976e-06   -2.016895409811051e-06   1.6957258086433525e-05
-7.856690979083976e-06   -2.016895409811051e-06   1.6957258086433525e-05
-7.856690979083976e-06   -2.016895409811051e-06   1.6957258086433525e-05
-7.160338379084631e-06   -3.9289371518193023e-07   1.4822269402990423e-05
-7.160338379084631e-06   -3.9289371518193023e-07   1.4822269402990423e-05
-7.160338379084631e-06   -3.9289371518193023e-07   1.4822269402990423e-05
-7.160338379084631e-06   -3.9289371518193023e-07   1.4822269402990423e-05
-7.856690979083996e-06   6.151802346640689e-07   1.4631866487686482e-05
-7.856690979083996e-06   6.151802346640689e-07   1.4631866487686482e-05
-7.856690979083996e-06   6.151802346640689e-07   1.4631866487686482e-05
-7.856690979083996e-06   6.151802346640689e-07   1.4631866487686482e-05
-6.461456019835857e-06   -2.016895409811051e-06   1.53780126997484e-05
-6.461456019835857e-06   -2.016895409811051e-06   1.53780126997484e-05
-6.461456019835857e-06   -2.016895409811051e-06   1.53780126997484e-05
-6.461456019835857e-06   -2.016895409811051e-06   1.53780126997484e-05
-6.395799851964415e-06   1.7236186004366324e-07   1.3670211503934073e-05
-6.395799851964415e-06   1.7236186004366324e-07   1.3670211503934073e-05
-6.395799851964415e-06   1.7236186004366324e-07   1.3670211503934073e-05
-6.395799851964415e-06   1.7236186004366324e-07   1.3670211503934073e-05
-7.794151123520433e-06   -2.2420411065703603e-06   1.744943873649581e-05
-7.794151123520433e-06   -2.2420411065703603e-06   1.744943873649581e-05
-7.794151123520433e-06   -2.2420411065703603e-06   1.744943873649581e-05
-7.794151123520433e-06   -2.2420411065703603e-06   1.744943873649581e-05
-7.018022136411567e-06   -7.082283255307716e-07   1.5235602756023532e-05
-7.018022136411567e-06   -7.082283255307716e-07   1.5235602756023532e-05
-7.018022136411567e-06   -7.082283255307716e-07   1.5235602756023532e-05
-7.018022136411567e-06   -7.082283255307716e-07   1.5235602756023532e-05
-7.794151123520423e-06   1.723618600436893e-07   1.5118853283902574e-05
-7.794151123520423e-06   1.723618600436893e-07   1.5118853283902574e-05
-7.794151123520423e-06   1.723618600436893e-07   1.5118853283902574e-05
-7.794151123520423e-06   1.723618600436893e-07   1.5118853283902574e-05
-6.395799851964415e-06   -2.2420411065703603e-06   1.600079695652742e-05
-6.395799851964415e-06   -2.2420411065703603e-06   1.600079695652742e-05
-6.395799851964415e-06   -2.2420411065703603e-06   1.600079695652742e-05
-6.395799851964415e-06   -2.2420411065703603e-06   1.600079695652742e-05
-6.288430913217616e-06   -2.739940252431553e-07   1.4445787263871472e-05
-6.288430913217616e-06   -2.739940252431553e-07   1.4445787263871472e-05
-6.288430913217616e-06   -2.739940252431553e-07   1.4445787263871472e-05
-6.288430913217616e-06   -2.739940252431553e-07   1.4445787263871472e-05
-7.639245249043788e-06   -2.537438706686206e-06   1.805521129911422e-05
-7.639245249043788e-06   -2.537438706686206e-06   1.805521129911422e-05
-7.639245249043788e-06   -2.537438706686206e-06   1.805521129911422e-05
-7.639245249043788e-06   -2.537438706686206e-06   1.805521129911422e-05
-6.907108290702525e-06   -9.844342316993066e-07   1.5903180350219947e-05
-6.907108290702525e-06   -9.844342316993066e-07   1.5903180350219947e-05
-6.907108290702525e-06   -9.844342316993066e-07   1.5903180350219947e-05
-6.907108290702525e-06   -9.844342316993066e-07   1.5903180350219947e-05
-6.605031508810394e-06   1.8648063990343698e-06   3.288716777404032e-06
-6.605031508810394e-06   1.8648063990343698e-06   3.288716777404032e-06
-6.605031508810394e-06   1.8648063990343698e-06   3.288716777404032e-06
-6.605031508810394e-06   1.8648063990343698e-06   3.288716777404032e-06
-3.8110477743404135e-06   -1.9358968180425724e-07   6.710318686350904e-06
-3.8110477743404135e-06   -1.9358968180425724e-07   6.710318686350904e-06
-3.8110477743404135e-06   -1.9358968180425724e-07   6.710318686350904e-06
-3.8110477743404135e-06   -1.9358968180425724e-07   6.710318686350904e-06
-4.026172185379092e-06   1.4989821873490896e-06   3.3184166446963755e-06
-4.026172185379092e-06   1.4989821873490896e-06   3.3184166446963755e-06
-4.026172185379092e-06   1.4989821873490896e-06   3.3184166446963755e-06
-4.026172185379092e-06   1.4989821873490896e-06   3.3184166446963755e-06
-6.4614560198358755e-06   -2.695641346412976e-07   8.438350828651763e-06
-6.4614560198358755e-06   -2.695641346412976e-07   8.438350828651763e-06
-6.4614560198358755e-06   -2.695641346412976e-07   8.438350828651763e-06
-6.4614560198358755e-06   -2.695641346412976e-07   8.438350828651763e-06
-5.046242208906698e-06   9.58422965412816e-07   5.342868883737289e-06
-5.046242208906698e-06   9.58422965412816e-07   5.342868883737289e-06
-5.046242208906698e-06   9.58422965412816e-07   5.342868883737289e-06
-5.046242208906698e-06   9.58422965412816e-07   5.342868883737289e-06
-6.461456019835911e-06   1.498982187349075e-06   4.379544437890163e-06
-6.461456019835911e-06   1.498982187349075e-06   4.379544437890163e-06
-6.461456019835911e-06   1.498982187349075e-06   4.379544437890163e-06
-6.461456019835911e-06   1.498982187349075e-06   4.379544437890163e-06
-4.026172185379092e-06   -2.695641346412976e-07   7.37722303545765e-06
-4.026172185379092e-06   -2.695641346412976e-07   7.37722303545765e-06
-4.026172185379092e-06   -2.695641346412976e-07   7.37722303545765e-06
-4.026172185379092e-06   -2.695641346412976e-07   7.37722303545765e-06
-4.202522553793013e-06   1.2597287268339584e-06   4.31890176778079e-06
-4.202522553793013e-06   1.2597287268339584e-06   4.31890176778079e-06
-4.202522553793013e-06   1.2597287268339584e-06   4.31890176778079e-06
-4.202522553793013e-06   1.2597287268339584e-06   4.31890176778079e-06
-6.395799851964371e-06   -3.7252915045593105e-07   8.95371865777372e-06
-6.395799851964371e-06   -3.7252915045593105e-07   8.95371865777372e-06
-6.395799851964371e-06   -3.7252915045593105e-07   8.95371865777372e-06
-6.395799851964371e-06   -3.7252915045593105e-07   8.95371865777372e-06
-5.133429511702054e-06   7.772649677995286e-07   6.1598916197165825e-06
-5.133429511702054e-06   7.772649677995286e-07   6.1598916197165825e-06
-5.133429511702054e-06   7.772649677995286e-07   6.1598916197165825e-06
-5.133429511702054e-06   7.772649677995286e-07   6.1598916197165825e-06
-6.395799851964361e-06   1.2597287268339205e-06   5.298256494154952e-06
-6.395799851964361e-06   1.2597287268339205e-06   5.298256494154952e-06
-6.395799851964361e-06   1.2597287268339205e-06   5.298256494154952e-06
-6.395799851964361e-06   1.2597287268339205e-06   5.298256494154952e-06
-4.202522553793013e-06   -3.7252915045593105e-07   7.97436393139983e-06
-4.202522553793013e-06   -3.7252915045593105e-07   7.97436393139983e-06
-4.202522553793013e-06   -3.7252915045593105e-07   7.97436393139983e-06
-4.202522553793013e-06   -3.7252915045593105e-07   7.97436393139983e-06
-4.639403091218357e-06   7.791002873992758e-07   6.1072175600832175e-06
-4.639403091218357e-06   7.791002873992758e-07   6.1072175600832175e-06
-4.639403091218357e-06   7.791002873992758e-07   6.1072175600832175e-06
-4.639403091218357e-06   7.791002873992758e-07   6.1072175600832175e-06
-6.288430913217575e-06   -4.970837431388531e-07   9.62130768173764e-06
-6.288430913217575e-06   -4.970837431388531e-07   9.62130768173764e-06
-6.288430913217575e-06   -4.970837431388531e-07   9.62130768173764e-06
-6.288430913217575e-06   -4.970837431388531e-07   9.62130768173764e-06
-5.143690026630971e-06   6.549058260550038e-07   7.022212462576695e-06
-5.143690026630971e-06   6.549058260550038e-07   7.022212462576695e-06
-5.143690026630971e-06   6.549058260550038e-07   7.022212462576695e-06
-5.143690026630971e-06   6.549058260550038e-07   7.022212462576695e-06
-6.0988595114014443e-05   4.781163330091644e-06   2.603582482354103e-05
-6.0988595114014443e-05   4.781163330091644e-06   2.603582482354103e-05
-6.0988595114014443e-05   4.781163330091644e-06   2.603582482354103e-05
-6.0988595114014443e-05   4.781163330091644e-06   2.603582482354103e-05
-1.4349225814242116e-05   -2.968019292438043e-05   8.309129323714505e-05
-1.4349225814242116e-05   -2.968019292438043e-05   8.309129323714505e-05
-1.4349225814242116e-05   -2.968019292438043e-05   8.309129323714505e-05
-1.4349225814242116e-05   -2.968019292438043e-05   8.309129323714505e-05
-1.6834487238983882e-05   1.944177172342749e-06   1.4301904430372823e-05
-1.6834487238983882e-05   1.944177172342749e-06   1.4301904430372823e-05
-1.6834487238983882e-05   1.944177172342749e-06   1.4301904430372823e-05
-1.6834487238983882e-05   1.944177172342749e-06   1.4301904430372823e-05
-5.562328257363025e-05   -2.305047247147553e-05   9.394668644107425e-05
-5.562328257363025e-05   -2.305047247147553e-05   9.394668644107425e-05
-5.562328257363025e-05   -2.305047247147553e-05   9.394668644107425e-05
-5.562328257363025e-05   -2.305047247147553e-05   9.394668644107425e-05
-3.70896201791098e-05   -1.1476488402504485e-05   5.6112858675490874e-05
-3.70896201791098e-05   -1.1476488402504485e-05   5.6112858675490874e-05
-3.70896201791098e-05   -1.1476488402504485e-05   5.6112858675490874e-05
-3.70896201791098e-05   -1.1476488402504485e-05   5.6112858675490874e-05
-5.562328257363016e-05   1.9441771723427313e-06   2.929869421666376e-05
-5.562328257363016e-05   1.9441771723427313e-06   2.929869421666376e-05
-5.562328257363016e-05   1.9441771723427313e-06   2.929869421666376e-05
-5.562328257363016e-05   1.9441771723427313e-06   2.929869421666376e-05
-1.683448723898391e-05   -2.305047247147553e-05   7.89498966547833e-05
-1.683448723898391e-05   -2.305047247147553e-05   7.89498966547833e-05
-1.683448723898391e-05   -2.305047247147553e-05   7.89498966547833e-05
-1.683448723898391e-05   -2.305047247147553e-05   7.89498966547833e-05
-1.721122957690656e-05   1.3976918656645725e-06   1.5715402905920617e-05
-1.721122957690656e-05   1.3976918656645725e-06   1.5715402905920617e-05
-1.721122957690656e-05   1.3976918656645725e-06   1.5715402905920617e-05
-1.721122957690656e-05   1.3976918656645725e-06   1.5715402905920617e-05
-5.248124340835781e-05   -1.985344678753764e-05   8.724944248359388e-05
-5.248124340835781e-05   -1.985344678753764e-05   8.724944248359388e-05
-5.248124340835781e-05   -1.985344678753764e-05   8.724944248359388e-05
-5.248124340835781e-05   -1.985344678753764e-05   8.724944248359388e-05
-3.5977204599765744e-05   -1.0870840116345099e-05   5.435314713322499e-05
-3.5977204599765744e-05   -1.0870840116345099e-05   5.435314713322499e-05
-3.5977204599765744e-05   -1.0870840116345099e-05   5.435314713322499e-05
-3.5977204599765744e-05   -1.0870840116345099e-05   5.435314713322499e-05
-5.248124340835772e-05   1.397691865664557e-06   2.846608609784193e-05
-5.248124340835772e-05   1.397691865664557e-06   2.846608609784193e-05
-5.248124340835772e-05   1.397691865664557e-06   2.846608609784193e-05
-5.248124340835772e-05   1.397691865664557e-06   2.846608609784193e-05
-1.7211229576906586e-05   -1.985344678753764e-05   7.449875929167259e-05
-1.7211229576906586e-05   -1.985344678753764e-05   7.449875929167259e-05
-1.7211229576906586e-05   -1.985344678753764e-05   7.449875929167259e-05
-1.7211229576906586e-05   -1.985344678753764e-05   7.449875929167259e-05
-1.8844991046744084e-05   -9.247742790583695e-07   1.96830118925454e-05
-1.8844991046744084e-05   -9.247742790583695e-07   1.96830118925454e-05
-1.8844991046744084e-05   -9.247742790583695e-07   1.96830118925454e-05
-1.8844991046744084e-05   -9.247742790583695e-07   1.96830118925454e-05
-4.8454966558802885e-05   -1.560939509752732e-05   7.784374357039136e-05
-4.8454966558802885e-05   -1.560939509752732e-05   7.784374357039136e-05
-4.8454966558802885e-05   -1.560939509752732e-05   7.784374357039136e-05
-4.8454966558802885e-05   -1.560939509752732e-05   7.784374357039136e-05
-3.460071264063697e-05   -1.003389356364932e-05   5.140801945312141e-05
-3.460071264063697e-05   -1.003389356364932e-05   5.140801945312141e-05
-3.460071264063697e-05   -1.003389356364932e-05   5.140801945312141e-05
-3.460071264063697e-05   -1.003389356364932e-05   5.140801945312141e-05
-1.434922581424209e-05   -5.375510332303114e-06   1.4758582302600449e-05
-1.434922581424209e-05   -5.375510332303114e-06   1.4758582302600449e-05
-1.434922581424209e-05   -5.375510332303114e-06   1.4758582302600449e-05
-1.434922581424209e-05   -5.375510332303114e-06   1.4758582302600449e-05
-5.001780296773106e-06   -9.16708157704579e-06   2.8062715418203184e-05
-5.001780296773106e-06   -9.16708157704579e-06   2.8062715418203184e-05
-5.001780296773106e-06   -9.16708157704579e-06   2.8062715418203184e-05
-5.001780296773106e-06   -9.16708157704579e-06   2.8062715418203184e-05
-5.582892924764905e-06   -4.400264826894137e-06   1.3195764825105238e-05
-5.582892924764905e-06   -4.400264826894137e-06   1.3195764825105238e-05
-5.582892924764905e-06   -4.400264826894137e-06   1.3195764825105238e-05
-5.582892924764905e-06   -4.400264826894137e-06   1.3195764825105238e-05
-1.6834487238983916e-05   -1.2168065319007794e-05   3.6609102310738374e-05
-1.6834487238983916e-05   -1.2168065319007794e-05   3.6609102310738374e-05
-1.6834487238983916e-05   -1.2168065319007794e-05   3.6609102310738374e-05
-1.6834487238983916e-05   -1.2168065319007794e-05   3.6609102310738374e-05
-9.897647534636791e-06   -6.38026835214113e-06   2.1575024623373106e-05
-9.897647534636791e-06   -6.38026835214113e-06   2.1575024623373106e-05
-9.897647534636791e-06   -6.38026835214113e-06   2.1575024623373106e-05
-9.897647534636791e-06   -6.38026835214113e-06   2.1575024623373106e-05
-1.683448723898387e-05   -4.400264826894116e-06   1.78564451203733e-05
-1.683448723898387e-05   -4.400264826894116e-06   1.78564451203733e-05
-1.683448723898387e-05   -4.400264826894116e-06   1.78564451203733e-05
-1.683448723898387e-05   -4.400264826894116e-06   1.78564451203733e-05
-5.582892924764932e-06   -1.2168065319007794e-05   3.194842201547016e-05
-5.582892924764932e-06   -1.2168065319007794e-05   3.194842201547016e-05
-5.582892924764932e-06   -1.2168065319007794e-05   3.194842201547016e-05
-5.582892924764932e-06   -1.2168065319007794e-05   3.194842201547016e-05
-6.0804078220847194e-06   -4.500500815631154e-06   1.4836764439596047e-05
-6.0804078220847194e-06   -4.500500815631154e-06   1.4836764439596047e-05
-6.0804078220847194e-06   -4.500500815631154e-06   1.4836764439596047e-05
-6.0804078220847194e-06   -4.500500815631154e-06   1.4836764439596047e-05
-1.7211229576906583e-05   -1.1120767632734269e-05   3.7360294121227544e-05
-1.7211229576906583e-05   -1.1120767632734269e-05   3.7360294121227544e-05
-1.7211229576906583e-05   -1.1120767632734269e-05   3.7360294121227544e-05
-1.7211229576906583e-05   -1.1120767632734269e-05   3.7360294121227544e-05
-1.1155701774850632e-05   -7.804966043253837e-06   2.527826683077953e-05
-1.1155701774850632e-05   -7.804966043253837e-06   2.527826683077953e-05
-1.1155701774850632e-05   -7.804966043253837e-06   2.527826683077953e-05
-1.1155701774850632e-05   -7.804966043253837e-06   2.527826683077953e-05
-1.7211229576906586e-05   -4.500500815631165e-06   1.880892452985793e-05
-1.7211229576906586e-05   -4.500500815631165e-06   1.880892452985793e-05
-1.7211229576906586e-05   -4.500500815631165e-06   1.880892452985793e-05
-1.7211229576906586e-05   -4.500500815631165e-06   1.880892452985793e-05
-6.0804078220847194e-06   -1.1120767632734269e-05   3.338813403096566e-05
-6.0804078220847194e-06   -1.1120767632734269e-05   3.338813403096566e-05
-6.0804078220847194e-06   -1.1120767632734269e-05   3.338813403096566e-05
-6.0804078220847194e-06   -1.1120767632734269e-05   3.338813403096566e-05
-6.888929965687471e-06   -4.542611031166594e-06   1.6226365226339396e-05
-6.888929965687471e-06   -4.542611031166594e-06   1.6226365226339396e-05
-6.888929965687471e-06   -4.542611031166594e-06   1.6226365226339396e-05
-6.888929965687471e-06   -4.542611031166594e-06   1.6226365226339396e-05
-1.8844991046744074e-05   -1.0461031722975206e-05   3.970418610985207e-05
-1.8844991046744074e-05   -1.0461031722975206e-05   3.970418610985207e-05
-1.8844991046744074e-05   -1.0461031722975206e-05   3.970418610985207e-05
-1.8844991046744074e-05   -1.0461031722975206e-05   3.970418610985207e-05
-1.1887409946900534e-05   -7.125549299654533e-06   2.6106928156120453e-05
-1.1887409946900534e-05   -7.125549299654533e-06   2.6106928156120453e-05
-1.1887409946900534e-05   -7.125549299654533e-06   2.6106928156120453e-05
-1.1887409946900534e-05   -7.125549299654533e-06   2.6106928156120453e-05
-5.001780296773106e-06   -4.199176875603326e-06   7.924282218844866e-06
-5.001780296773106e-06   -4.199176875603326e-06   7.924282218844866e-06
-5.001780296773106e-06   -4.199176875603326e-06   7.924282218844866e-06
-5.001780296773106e-06   -4.199176875603326e-06   7.924282218844866e-06
-2.788544879916944e-06   -2.5420481605343005e-06   1.2607285142646673e-05
-2.788544879916944e-06   -2.5420481605343005e-06   1.2607285142646673e-05
-2.788544879916944e-06   -2.5420481605343005e-06   1.2607285142646673e-05
-2.788544879916944e-06   -2.5420481605343005e-06   1.2607285142646673e-05
-2.6779958905898582e-06   -4.12407557060044e-06   9.151940467467894e-06
-2.6779958905898582e-06   -4.12407557060044e-06   9.151940467467894e-06
-2.6779958905898582e-06   -4.12407557060044e-06   9.151940467467894e-06
-2.6779958905898582e-06   -4.12407557060044e-06   9.151940467467894e-06
-5.582892924764928e-06   -3.33369824729549e-06   1.3519209130443191e-05
-5.582892924764928e-06   -3.33369824729549e-06   1.3519209130443191e-05
-5.582892924764928e-06   -3.33369824729549e-06   1.3519209130443191e-05
-5.582892924764928e-06   -3.33369824729549e-06   1.3519209130443191e-05
-3.759084283227879e-06   -3.363032711620591e-06   1.0497128739809711e-05
-3.759084283227879e-06   -3.363032711620591e-06   1.0497128739809711e-05
-3.759084283227879e-06   -3.363032711620591e-06   1.0497128739809711e-05
-3.759084283227879e-06   -3.363032711620591e-06   1.0497128739809711e-05
-5.582892924764878e-06   -4.124075570600429e-06   8.677714073484843e-06
-5.582892924764878e-06   -4.124075570600429e-06   8.677714073484843e-06
-5.582892924764878e-06   -4.124075570600429e-06   8.677714073484843e-06
-5.582892924764878e-06   -4.124075570600429e-06   8.677714073484843e-06
-2.677995890589804e-06   -3.33369824729549e-06   1.3993435524426107e-05
-2.677995890589804e-06   -3.33369824729549e-06   1.3993435524426107e-05
-2.677995890589804e-06   -3.33369824729549e-06   1.3993435524426107e-05
-2.677995890589804e-06   -3.33369824729549e-06   1.3993435524426107e-05
-2.680506354126727e-06   -4.250256547576011e-06   9.7838897681748e-06
-2.680506354126727e-06   -4.250256547576011e-06   9.7838897681748e-06
-2.680506354126727e-06   -4.250256547576011e-06   9.7838897681748e-06
-2.680506354126727e-06   -4.250256547576011e-06   9.7838897681748e-06
-6.080407822084725e-06   -4.288867497741038e-06   1.5473558784870377e-05
-6.080407822084725e-06   -4.288867497741038e-06   1.5473558784870377e-05
-6.080407822084725e-06   -4.288867497741038e-06   1.5473558784870377e-05
-6.080407822084725e-06   -4.288867497741038e-06   1.5473558784870377e-05
-3.983451088672731e-06   -3.6771545101050673e-06   1.1611603103268899e-05
-3.983451088672731e-06   -3.6771545101050673e-06   1.1611603103268899e-05
-3.983451088672731e-06   -3.6771545101050673e-06   1.1611603103268899e-05
-3.983451088672731e-06   -3.6771545101050673e-06   1.1611603103268899e-05
-6.0804078220847194e-06   -4.25025654757598e-06   9.807056338273886e-06
-6.0804078220847194e-06   -4.25025654757598e-06   9.807056338273886e-06
-6.0804078220847194e-06   -4.25025654757598e-06   9.807056338273886e-06
-6.0804078220847194e-06   -4.25025654757598e-06   9.807056338273886e-06
-2.680506354126727e-06   -4.288867497741038e-06   1.5450392214771372e-05
-2.680506354126727e-06   -4.288867497741038e-06   1.5450392214771372e-05
-2.680506354126727e-06   -4.288867497741038e-06   1.5450392214771372e-05
-2.680506354126727e-06   -4.288867497741038e-06   1.5450392214771372e-05
-2.717639965033286e-06   -4.42942752678819e-06   1.0728727171959145e-05
-2.717639965033286e-06   -4.42942752678819e-06   1.0728727171959145e-05
-2.717639965033286e-06   -4.42942752678819e-06   1.0728727171959145e-05
-2.717639965033286e-06   -4.42942752678819e-06   1.0728727171959145e-05
-6.888929965687499e-06   -5.196932647083216e-06   1.8141380245226258e-05
-6.888929965687499e-06   -5.196932647083216e-06   1.8141380245226258e-05
-6.888929965687499e-06   -5.196932647083216e-06   1.8141380245226258e-05
-6.888929965687499e-06   -5.196932647083216e-06   1.8141380245226258e-05
-4.238582133426899e-06   -4.017454565033684e-06   1.3016447008895528e-05
-4.238582133426899e-06   -4.017454565033684e-06   1.3016447008895528e-05
-4.238582133426899e-06   -4.017454565033684e-06   1.3016447008895528e-05
-4.238582133426899e-06   -4.017454565033684e-06   1.3016447008895528e-05
-2.788544879916944e-06   -1.7225713314605844e-06   2.235375342669795e-06
-2.788544879916944e-06   -1.7225713314605844e-06   2.235375342669795e-06
-2.788544879916944e-06   -1.7225713314605844e-06   2.235375342669795e-06
-2.788544879916944e-06   -1.7225713314605844e-06   2.235375342669795e-06
-2.0668766648917255e-06   4.5919593721727386e-07   4.74721606225179e-06
-2.0668766648917255e-06   4.5919593721727386e-07   4.74721606225179e-06
-2.0668766648917255e-06   4.5919593721727386e-07   4.74721606225179e-06
-2.0668766648917255e-06   4.5919593721727386e-07   4.74721606225179e-06
-1.6709559376992269e-06   -2.016895409811051e-06   3.750884608744935e-06
-1.6709559376992269e-06   -2.016895409811051e-06   3.750884608744935e-06
-1.6709559376992269e-06   -2.016895409811051e-06   3.750884608744935e-06
-1.6709559376992269e-06   -2.016895409811051e-06   3.750884608744935e-06
-2.677995890589838e-06   1.7710136540617617e-07   4.112886465098826e-06
-2.677995890589838e-06   1.7710136540617617e-07   4.112886465098826e-06
-2.677995890589838e-06   1.7710136540617617e-07   4.112886465098826e-06
-2.677995890589838e-06   1.7710136540617617e-07   4.112886465098826e-06
-2.159227543945483e-06   -8.027058290804281e-07   3.836156870716621e-06
-2.159227543945483e-06   -8.027058290804281e-07   3.836156870716621e-06
-2.159227543945483e-06   -8.027058290804281e-07   3.836156870716621e-06
-2.159227543945483e-06   -8.027058290804281e-07   3.836156870716621e-06
-2.6779958905898582e-06   -2.016895409811052e-06   2.4344865436146123e-06
-2.6779958905898582e-06   -2.016895409811052e-06   2.4344865436146123e-06
-2.6779958905898582e-06   -2.016895409811052e-06   2.4344865436146123e-06
-2.6779958905898582e-06   -2.016895409811052e-06   2.4344865436146123e-06
-1.6709559376992269e-06   1.7710136540617617e-07   5.42928453022923e-06
-1.6709559376992269e-06   1.7710136540617617e-07   5.42928453022923e-06
-1.6709559376992269e-06   1.7710136540617617e-07   5.42928453022923e-06
-1.6709559376992269e-06   1.7710136540617617e-07   5.42928453022923e-06
-1.453099203572658e-06   -2.2420411065703603e-06   4.120364308643617e-06
-1.453099203572658e-06   -2.2420411065703603e-06   4.120364308643617e-06
-1.453099203572658e-06   -2.2420411065703603e-06   4.120364308643617e-06
-1.453099203572658e-06   -2.2420411065703603e-06   4.120364308643617e-06
-2.680506354126752e-06   -2.7178746877542007e-07   4.983890710223314e-06
-2.680506354126752e-06   -2.7178746877542007e-07   4.983890710223314e-06
-2.680506354126752e-06   -2.7178746877542007e-07   4.983890710223314e-06
-2.680506354126752e-06   -2.7178746877542007e-07   4.983890710223314e-06
-1.9557661118146652e-06   -1.02951855196262e-06   4.2306289562822706e-06
-1.9557661118146652e-06   -1.02951855196262e-06   4.2306289562822706e-06
-1.9557661118146652e-06   -1.02951855196262e-06   4.2306289562822706e-06
-1.9557661118146652e-06   -1.02951855196262e-06   4.2306289562822706e-06
-2.680506354126727e-06   -2.242041106570318e-06   2.9382121259666856e-06
-2.680506354126727e-06   -2.242041106570318e-06   2.9382121259666856e-06
-2.680506354126727e-06   -2.242041106570318e-06   2.9382121259666856e-06
-2.680506354126727e-06   -2.242041106570318e-06   2.9382121259666856e-06
-1.453099203572658e-06   -2.7178746877542007e-07   6.166042892900327e-06
-1.453099203572658e-06   -2.7178746877542007e-07   6.166042892900327e-06
-1.453099203572658e-06   -2.7178746877542007e-07   6.166042892900327e-06
-1.453099203572658e-06   -2.7178746877542007e-07   6.166042892900327e-06
-1.1188457767571545e-06   -2.537438706686206e-06   4.521230939398633e-06
-1.1188457767571545e-06   -2.537438706686206e-06   4.521230939398633e-06
-1.1188457767571545e-06   -2.537438706686206e-06   4.521230939398633e-06
-1.1188457767571545e-06   -2.537438706686206e-06   4.521230939398633e-06
-2.7176399650332736e-06   -1.1958724665481156e-06   6.3809481757758535e-06
-2.7176399650332736e-06   -1.1958724665481156e-06   6.3809481757758535e-06
-2.7176399650332736e-06   -1.1958724665481156e-06   6.3809481757758535e-06
-2.7176399650332736e-06   -1.1958724665481156e-06   6.3809481757758535e-06
-1.789261805640357e-06   -1.3772638393283118e-06   4.9424860671225e-06
-1.789261805640357e-06   -1.3772638393283118e-06   4.9424860671225e-06
-1.789261805640357e-06   -1.3772638393283118e-06   4.9424860671225e-06
-1.789261805640357e-06   -1.3772638393283118e-06   4.9424860671225e-06
-2.0668766648917255e-06   -1.9358968180423815e-07   -3.460182244949679e-06
-2.0668766648917255e-06   -1.9358968180423815e-07   -3.460182244949679e-06
-2.0668766648917255e-06   -1.9358968180423815e-07   -3.460182244949679e-06
-2.0668766648917255e-06   -1.9358968180423815e-07   -3.460182244949679e-06
-3.803452612753189e-07   2.976064703393285e-07   -3.545788809695711e-07
-3.803452612753189e-07   2.976064703393285e-07   -3.545788809695711e-07
-3.803452612753189e-07   2.976064703393285e-07   -3.545788809695711e-07
-3.803452612753189e-07   2.976064703393285e-07   -3.545788809695711e-07
8.59090242021944e-09   -2.695641346412434e-07   -2.7177247961272582e-06
8.59090242021944e-09   -2.695641346412434e-07   -2.7177247961272582e-06
8.59090242021944e-09   -2.695641346412434e-07   -2.7177247961272582e-06
8.59090242021944e-09   -2.695641346412434e-07   -2.7177247961272582e-06
-1.6709559376992152e-06   5.155233090659798e-07   -3.895325288195972e-07
-1.6709559376992152e-06   5.155233090659798e-07   -3.895325288195972e-07
-1.6709559376992152e-06   5.155233090659798e-07   -3.895325288195972e-07
-1.6709559376992152e-06   5.155233090659798e-07   -3.895325288195972e-07
-9.39133193054322e-07   1.371107208473284e-07   -1.3821895502967585e-06
-9.39133193054322e-07   1.371107208473284e-07   -1.3821895502967585e-06
-9.39133193054322e-07   1.371107208473284e-07   -1.3821895502967585e-06
-9.39133193054322e-07   1.371107208473284e-07   -1.3821895502967585e-06
-1.6709559376991727e-06   -2.6956413464128097e-07   -3.1887772623517547e-06
-1.6709559376991727e-06   -2.6956413464128097e-07   -3.1887772623517547e-06
-1.6709559376991727e-06   -2.6956413464128097e-07   -3.1887772623517547e-06
-1.6709559376991727e-06   -2.6956413464128097e-07   -3.1887772623517547e-06
8.59090242011102e-09   5.155233090659798e-07   8.15199374048451e-08
8.59090242011102e-09   5.155233090659798e-07   8.15199374048451e-08
8.59090242011102e-09   5.155233090659798e-07   8.15199374048451e-08
8.59090242011102e-09   5.155233090659798e-07   8.15199374048451e-08
2.1295177070692912e-07   -3.7252915045593105e-07   -2.4373855208212033e-06
2.1295177070692912e-07   -3.7252915045593105e-07   -2.4373855208212033e-06
2.1295177070692912e-07   -3.7252915045593105e-07   -2.4373855208212033e-06
2.1295177070692912e-07   -3.7252915045593105e-07   -2.4373855208212033e-06
-1.4530992035726564e-06   4.430182983586464e-07   -1.4996236631084278e-07
-1.4530992035726564e-06   4.430182983586464e-07   -1.4996236631084278e-07
-1.4530992035726564e-06   4.430182983586464e-07   -1.4996236631084278e-07
-1.4530992035726564e-06   4.430182983586464e-07   -1.4996236631084278e-07
-6.514455765264564e-07   8.967840047817356e-08   -1.2740478059923479e-06
-6.514455765264564e-07   8.967840047817356e-08   -1.2740478059923479e-06
-6.514455765264564e-07   8.967840047817356e-08   -1.2740478059923479e-06
-6.514455765264564e-07   8.967840047817356e-08   -1.2740478059923479e-06
-1.453099203572658e-06   -3.725291504559761e-07   -2.92671399010992e-06
-1.453099203572658e-06   -3.725291504559761e-07   -2.92671399010992e-06
-1.453099203572658e-06   -3.725291504559761e-07   -2.92671399010992e-06
-1.453099203572658e-06   -3.725291504559761e-07   -2.92671399010992e-06
2.129517707068207e-07   4.430182983586464e-07   3.3936610297781965e-07
2.129517707068207e-07   4.430182983586464e-07   3.3936610297781965e-07
2.129517707068207e-07   4.430182983586464e-07   3.3936610297781965e-07
2.129517707068207e-07   4.430182983586464e-07   3.3936610297781965e-07
4.6766721401275257e-07   -4.970837431388531e-07   -2.0265530920701063e-06
4.6766721401275257e-07   -4.970837431388531e-07   -2.0265530920701063e-06
4.6766721401275257e-07   -4.970837431388531e-07   -2.0265530920701063e-06
4.6766721401275257e-07   -4.970837431388531e-07   -2.0265530920701063e-06
-1.1188457767571977e-06   3.830042185972728e-07   8.958244883774166e-08
-1.1188457767571977e-06   3.830042185972728e-07   8.958244883774166e-08
-1.1188457767571977e-06   3.830042185972728e-07   8.958244883774166e-08
-1.1188457767571977e-06   3.830042185972728e-07   8.958244883774166e-08
-3.9092928790568757e-07   3.258678247318567e-08   -9.133612375739888e-07
-3.9092928790568757e-07   3.258678247318567e-08   -9.133612375739888e-07
-3.9092928790568757e-07   3.258678247318567e-08   -9.133612375739888e-07
-3.9092928790568757e-07   3.258678247318567e-08   -9.133612375739888e-07
              </DataArray>   
             <DataArray type="Float64" NumberOfComponents="3" Name="Stress" format="ascii">   
-3.1643141134122517   -0.7910785283530629   -0.7910785283530629
-3.1643141134122517   -0.7910785283530629   -0.7910785283530629
-3.1643141134122517   -0.7910785283530629   -0.7910785283530629
-3.1643141134122517   -0.7910785283530629   -0.7910785283530629
-1.8311574830632882   -0.05802038219712424   -0.03671574003646469
-1.8311574830632882   -0.05802038219712424   -0.03671574003646469
-1.8311574830632882   -0.05802038219712424   -0.03671574003646469
-1.8311574830632882   -0.05802038219712424   -0.03671574003646469
-1.9737872631293374   -0.49344681578233435   -0.49344681578233435
-1.9737872631293374   -0.49344681578233435   -0.49344681578233435
-1.9737872631293374   -0.49344681578233435   -0.49344681578233435
-1.9737872631293374   -0.49344681578233435   -0.49344681578233435
-3.0497379718378888   -0.2504531055177898   -0.09578207696291142
-3.0497379718378888   -0.2504531055177898   -0.09578207696291142
-3.0497379718378888   -0.2504531055177898   -0.09578207696291142
-3.0497379718378888   -0.2504531055177898   -0.09578207696291142
-2.391894472241725   -0.39213923860391375   -0.006605025386156295
-2.391894472241725   -0.39213923860391375   -0.006605025386156295
-2.391894472241725   -0.39213923860391375   -0.006605025386156295
-2.391894472241725   -0.39213923860391375   -0.006605025386156295
-3.3116565948241714   -0.8279141487060429   -0.8279141487060429
-3.3116565948241714   -0.8279141487060429   -0.8279141487060429
-3.3116565948241714   -0.8279141487060429   -0.8279141487060429
-3.3116565948241714   -0.8279141487060429   -0.8279141487060429
-1.7739835440866238   0.021899323462354736   -0.009774359813455716
-1.7739835440866238   0.021899323462354736   -0.009774359813455716
-1.7739835440866238   0.021899323462354736   -0.009774359813455716
-1.7739835440866238   0.021899323462354736   -0.009774359813455716
-1.9793992674945409   -0.4948498168736352   -0.4948498168736352
-1.9793992674945409   -0.4948498168736352   -0.4948498168736352
-1.9793992674945409   -0.4948498168736352   -0.4948498168736352
-1.9793992674945409   -0.4948498168736352   -0.4948498168736352
-3.152285019260218   -0.2528697364301497   -0.14035921707226323
-3.152285019260218   -0.2528697364301497   -0.14035921707226323
-3.152285019260218   -0.2528697364301497   -0.14035921707226323
-3.152285019260218   -0.2528697364301497   -0.14035921707226323
-2.4811555670029946   -0.369221600901542   -0.13168054389634906
-2.4811555670029946   -0.369221600901542   -0.13168054389634906
-2.4811555670029946   -0.369221600901542   -0.13168054389634906
-2.4811555670029946   -0.369221600901542   -0.13168054389634906
-3.4151546983997116   -0.8537886745999279   -0.8537886745999279
-3.4151546983997116   -0.8537886745999279   -0.8537886745999279
-3.4151546983997116   -0.8537886745999279   -0.8537886745999279
-3.4151546983997116   -0.8537886745999279   -0.8537886745999279
-1.7688699787369973   0.05372873091419472   0.009218079126238107
-1.7688699787369973   0.05372873091419472   0.009218079126238107
-1.7688699787369973   0.05372873091419472   0.009218079126238107
-1.7688699787369973   0.05372873091419472   0.009218079126238107
-1.9784102272880308   -0.4946025568220077   -0.4946025568220077
-1.9784102272880308   -0.4946025568220077   -0.4946025568220077
-1.9784102272880308   -0.4946025568220077   -0.4946025568220077
-1.9784102272880308   -0.4946025568220077   -0.4946025568220077
-3.3354683117050126   -0.22182775190812765   -0.08418576448406564
-3.3354683117050126   -0.22182775190812765   -0.08418576448406564
-3.3354683117050126   -0.22182775190812765   -0.08418576448406564
-3.3354683117050126   -0.22182775190812765   -0.08418576448406564
-2.547401420930762   -0.3634899372227601   -0.23799608463365185
-2.547401420930762   -0.3634899372227601   -0.23799608463365185
-2.547401420930762   -0.3634899372227601   -0.23799608463365185
-2.547401420930762   -0.3634899372227601   -0.23799608463365185
-2.013566954018415   -0.5033917385046037   -0.5033917385046037
-2.013566954018415   -0.5033917385046037   -0.5033917385046037
-2.013566954018415   -0.5033917385046037   -0.5033917385046037
-2.013566954018415   -0.5033917385046037   -0.5033917385046037
-0.8400561150158725   -0.05589939881095632   -0.0181665877984684
-0.8400561150158725   -0.05589939881095632   -0.0181665877984684
-0.8400561150158725   -0.05589939881095632   -0.0181665877984684
-0.8400561150158725   -0.05589939881095632   -0.0181665877984684
-0.8819410450651123   -0.22048526126627807   -0.22048526126627807
-0.8819410450651123   -0.22048526126627807   -0.22048526126627807
-0.8819410450651123   -0.22048526126627807   -0.22048526126627807
-0.8819410450651123   -0.22048526126627807   -0.22048526126627807
-1.8332638876143512   -0.2156198412354045   -0.06865691275433283
-1.8332638876143512   -0.2156198412354045   -0.06865691275433283
-1.8332638876143512   -0.2156198412354045   -0.06865691275433283
-1.8332638876143512   -0.2156198412354045   -0.06865691275433283
-1.3520916366049753   -0.2561380626741412   0.010572877587192825
-1.3520916366049753   -0.2561380626741412   0.010572877587192825
-1.3520916366049753   -0.2561380626741412   0.010572877587192825
-1.3520916366049753   -0.2561380626741412   0.010572877587192825
-1.9737872631293358   -0.49344681578233396   -0.49344681578233396
-1.9737872631293358   -0.49344681578233396   -0.49344681578233396
-1.9737872631293358   -0.49344681578233396   -0.49344681578233396
-1.9737872631293358   -0.49344681578233396   -0.49344681578233396
-0.792608383272844   0.0061509995579334675   -0.00045821312914828133
-0.792608383272844   0.0061509995579334675   -0.00045821312914828133
-0.792608383272844   0.0061509995579334675   -0.00045821312914828133
-0.792608383272844   0.0061509995579334675   -0.00045821312914828133
-0.8623051077511245   -0.21557627693778111   -0.21557627693778111
-0.8623051077511245   -0.21557627693778111   -0.21557627693778111
-0.8623051077511245   -0.21557627693778111   -0.21557627693778111
-0.8623051077511245   -0.21557627693778111   -0.21557627693778111
-1.8286976873087466   -0.17591223305662285   -0.060279499761675806
-1.8286976873087466   -0.17591223305662285   -0.060279499761675806
-1.8286976873087466   -0.17591223305662285   -0.060279499761675806
-1.8286976873087466   -0.17591223305662285   -0.060279499761675806
-1.333313600974121   -0.21564415244738738   -0.06971601794217692
-1.333313600974121   -0.21564415244738738   -0.06971601794217692
-1.333313600974121   -0.21564415244738738   -0.06971601794217692
-1.333313600974121   -0.21564415244738738   -0.06971601794217692
-1.9793992674945409   -0.4948498168736352   -0.4948498168736352
-1.9793992674945409   -0.4948498168736352   -0.4948498168736352
-1.9793992674945409   -0.4948498168736352   -0.4948498168736352
-1.9793992674945409   -0.4948498168736352   -0.4948498168736352
-0.7611843435870675   0.053780490857494895   0.020670776087233972
-0.7611843435870675   0.053780490857494895   0.020670776087233972
-0.7611843435870675   0.053780490857494895   0.020670776087233972
-0.7611843435870675   0.053780490857494895   0.020670776087233972
-0.844432577514702   -0.2111081443786755   -0.2111081443786755
-0.844432577514702   -0.2111081443786755   -0.2111081443786755
-0.844432577514702   -0.2111081443786755   -0.2111081443786755
-0.844432577514702   -0.2111081443786755   -0.2111081443786755
-1.815312652418334   -0.1357508645855714   -0.03796637470998246
-1.815312652418334   -0.1357508645855714   -0.03796637470998246
-1.815312652418334   -0.1357508645855714   -0.03796637470998246
-1.815312652418334   -0.1357508645855714   -0.03796637470998246
-1.3399596606171222   -0.1908456529953267   -0.1553309988194896
-1.3399596606171222   -0.1908456529953267   -0.1553309988194896
-1.3399596606171222   -0.1908456529953267   -0.1553309988194896
-1.3399596606171222   -0.1908456529953267   -0.1553309988194896
-0.9169365752155433   -0.22923414380388582   -0.22923414380388582
-0.9169365752155433   -0.22923414380388582   -0.22923414380388582
-0.9169365752155433   -0.22923414380388582   -0.22923414380388582
-0.9169365752155433   -0.22923414380388582   -0.22923414380388582
0.10889658196208471   0.007137996014950014   0.0008905788196004964
0.10889658196208471   0.007137996014950014   0.0008905788196004964
0.10889658196208471   0.007137996014950014   0.0008905788196004964
0.10889658196208471   0.007137996014950014   0.0008905788196004964
0.14152853705660767   0.03538213426415192   0.03538213426415192
0.14152853705660767   0.03538213426415192   0.03538213426415192
0.14152853705660767   0.03538213426415192   0.03538213426415192
0.14152853705660767   0.03538213426415192   0.03538213426415192
-0.8290991469102298   -0.14330476445249624   -0.03345626730564753
-0.8290991469102298   -0.14330476445249624   -0.03345626730564753
-0.8290991469102298   -0.14330476445249624   -0.03345626730564753
-0.8290991469102298   -0.14330476445249624   -0.03345626730564753
-0.35488700217062497   -0.09002875665369237   0.06026183165816841
-0.35488700217062497   -0.09002875665369237   0.06026183165816841
-0.35488700217062497   -0.09002875665369237   0.06026183165816841
-0.35488700217062497   -0.09002875665369237   0.06026183165816841
-0.8819410450651138   -0.22048526126627846   -0.22048526126627846
-0.8819410450651138   -0.22048526126627846   -0.22048526126627846
-0.8819410450651138   -0.22048526126627846   -0.22048526126627846
-0.8819410450651138   -0.22048526126627846   -0.22048526126627846
0.14404521494131878   0.06223741080776219   0.021110247144096036
0.14404521494131878   0.06223741080776219   0.021110247144096036
0.14404521494131878   0.06223741080776219   0.021110247144096036
0.14404521494131878   0.06223741080776219   0.021110247144096036
0.15913608010205474   0.039784020025513685   0.039784020025513685
0.15913608010205474   0.039784020025513685   0.039784020025513685
0.15913608010205474   0.039784020025513685   0.039784020025513685
0.15913608010205474   0.039784020025513685   0.039784020025513685
-0.7998599490162024   -0.09649002834295946   -0.02243673185799878
-0.7998599490162024   -0.09649002834295946   -0.02243673185799878
-0.7998599490162024   -0.09649002834295946   -0.02243673185799878
-0.7998599490162024   -0.09649002834295946   -0.02243673185799878
-0.34050696782337053   -0.05565155110168509   -0.020572116848288108
-0.34050696782337053   -0.05565155110168509   -0.020572116848288108
-0.34050696782337053   -0.05565155110168509   -0.020572116848288108
-0.34050696782337053   -0.05565155110168509   -0.020572116848288108
-0.862305107751126   -0.2155762769377815   -0.2155762769377815
-0.862305107751126   -0.2155762769377815   -0.2155762769377815
-0.862305107751126   -0.2155762769377815   -0.2155762769377815
-0.862305107751126   -0.2155762769377815   -0.2155762769377815
0.17226882377983377   0.10955785356319345   0.035673904876727794
0.17226882377983377   0.10955785356319345   0.035673904876727794
0.17226882377983377   0.10955785356319345   0.035673904876727794
0.17226882377983377   0.10955785356319345   0.035673904876727794
0.18284224229744017   0.04571056057436004   0.04571056057436004
0.18284224229744017   0.04571056057436004   0.04571056057436004
0.18284224229744017   0.04571056057436004   0.04571056057436004
0.18284224229744017   0.04571056057436004   0.04571056057436004
-0.7680379346928652   -0.04065586195228765   0.00041278730411790227
-0.7680379346928652   -0.04065586195228765   0.00041278730411790227
-0.7680379346928652   -0.04065586195228765   0.00041278730411790227
-0.7680379346928652   -0.04065586195228765   0.00041278730411790227
-0.3303973493074357   -0.022510891032307467   -0.10068440823408134
-0.3303973493074357   -0.022510891032307467   -0.10068440823408134
-0.3303973493074357   -0.022510891032307467   -0.10068440823408134
-0.3303973493074357   -0.022510891032307467   -0.10068440823408134
0.1192120744390831   0.029803018609770776   0.029803018609770776
0.1192120744390831   0.029803018609770776   0.029803018609770776
0.1192120744390831   0.029803018609770776   0.029803018609770776
0.1192120744390831   0.029803018609770776   0.029803018609770776
1.1476365923467235   0.10529172806486195   0.03535481552717636
1.1476365923467235   0.10529172806486195   0.03535481552717636
1.1476365923467235   0.10529172806486195   0.03535481552717636
1.1476365923467235   0.10529172806486195   0.03535481552717636
1.2460325791907394   0.31150814479768485   0.31150814479768485
1.2460325791907394   0.31150814479768485   0.31150814479768485
1.2460325791907394   0.31150814479768485   0.31150814479768485
1.2460325791907394   0.31150814479768485   0.31150814479768485
0.10782974159035805   -0.0808161002876755   -0.016913608515269914
0.10782974159035805   -0.0808161002876755   -0.016913608515269914
0.10782974159035805   -0.0808161002876755   -0.016913608515269914
0.10782974159035805   -0.0808161002876755   -0.016913608515269914
0.6544349404943332   0.08147347210660465   0.11890075969796049
0.6544349404943332   0.08147347210660465   0.11890075969796049
0.6544349404943332   0.08147347210660465   0.11890075969796049
0.6544349404943332   0.08147347210660465   0.11890075969796049
0.14152853705660814   0.035382134264152036   0.035382134264152036
0.14152853705660814   0.035382134264152036   0.035382134264152036
0.14152853705660814   0.035382134264152036   0.035382134264152036
0.14152853705660814   0.035382134264152036   0.035382134264152036
1.1611809986455315   0.1441571251669008   0.054601261702438085
1.1611809986455315   0.1441571251669008   0.054601261702438085
1.1611809986455315   0.1441571251669008   0.054601261702438085
1.1611809986455315   0.1441571251669008   0.054601261702438085
1.2406302823143496   0.3101575705785874   0.3101575705785874
1.2406302823143496   0.3101575705785874   0.3101575705785874
1.2406302823143496   0.3101575705785874   0.3101575705785874
1.2406302823143496   0.3101575705785874   0.3101575705785874
0.13623260706325394   -0.03504130712492384   9.198198194596344e-05
0.13623260706325394   -0.03504130712492384   9.198198194596344e-05
0.13623260706325394   -0.03504130712492384   9.198198194596344e-05
0.13623260706325394   -0.03504130712492384   9.198198194596344e-05
0.6495383147426946   0.10690208595385627   0.03093214417496203
0.6495383147426946   0.10690208595385627   0.03093214417496203
0.6495383147426946   0.10690208595385627   0.03093214417496203
0.6495383147426946   0.10690208595385627   0.03093214417496203
0.15913608010205502   0.039784020025513754   0.039784020025513754
0.15913608010205502   0.039784020025513754   0.039784020025513754
0.15913608010205502   0.039784020025513754   0.039784020025513754
0.15913608010205502   0.039784020025513754   0.039784020025513754
1.1670652466765827   0.18467068082918583   0.06781928213916358
1.1670652466765827   0.18467068082918583   0.06781928213916358
1.1670652466765827   0.18467068082918583   0.06781928213916358
1.1670652466765827   0.18467068082918583   0.06781928213916358
1.2645944095367943   0.31614860238419856   0.31614860238419856
1.2645944095367943   0.31614860238419856   0.31614860238419856
1.2645944095367943   0.31614860238419856   0.31614860238419856
1.2645944095367943   0.31614860238419856   0.31614860238419856
0.17348482147163202   0.025523736097691124   0.019110280921986935
0.17348482147163202   0.025523736097691124   0.019110280921986935
0.17348482147163202   0.025523736097691124   0.019110280921986935
0.17348482147163202   0.025523736097691124   0.019110280921986935
0.65955313807694   0.14500684143698753   -0.05063475273969768
0.65955313807694   0.14500684143698753   -0.05063475273969768
0.65955313807694   0.14500684143698753   -0.05063475273969768
0.65955313807694   0.14500684143698753   -0.05063475273969768
1.243896981809244   0.310974245452311   0.310974245452311
1.243896981809244   0.310974245452311   0.310974245452311
1.243896981809244   0.310974245452311   0.310974245452311
1.243896981809244   0.310974245452311   0.310974245452311
2.5798838256286176   0.1966338326510898   0.06736200700837042
2.5798838256286176   0.1966338326510898   0.06736200700837042
2.5798838256286176   0.1966338326510898   0.06736200700837042
2.5798838256286176   0.1966338326510898   0.06736200700837042
2.6369457326819803   0.6592364331704951   0.6592364331704951
2.6369457326819803   0.6592364331704951   0.6592364331704951
2.6369457326819803   0.6592364331704951   0.6592364331704951
2.6369457326819803   0.6592364331704951   0.6592364331704951
1.1075770267314515   -0.06295502457684177   -0.006306448124218891
1.1075770267314515   -0.06295502457684177   -0.006306448124218891
1.1075770267314515   -0.06295502457684177   -0.006306448124218891
1.1075770267314515   -0.06295502457684177   -0.006306448124218891
1.8400060884520166   0.2604026027461079   0.2077317319087199
1.8400060884520166   0.2604026027461079   0.2077317319087199
1.8400060884520166   0.2604026027461079   0.2077317319087199
1.8400060884520166   0.2604026027461079   0.2077317319087199
1.2460325791907385   0.3115081447976846   0.3115081447976846
1.2460325791907385   0.3115081447976846   0.3115081447976846
1.2460325791907385   0.3115081447976846   0.3115081447976846
1.2460325791907385   0.3115081447976846   0.3115081447976846
2.443662533546772   0.22994561712004574   0.12211125354490233
2.443662533546772   0.22994561712004574   0.12211125354490233
2.443662533546772   0.22994561712004574   0.12211125354490233
2.443662533546772   0.22994561712004574   0.12211125354490233
2.5580951842458086   0.6395237960614522   0.6395237960614522
2.5580951842458086   0.6395237960614522   0.6395237960614522
2.5580951842458086   0.6395237960614522   0.6395237960614522
2.5580951842458086   0.6395237960614522   0.6395237960614522
1.1113889997142332   -0.03475225727183057   0.008860985428432527
1.1113889997142332   -0.03475225727183057   0.008860985428432527
1.1113889997142332   -0.03475225727183057   0.008860985428432527
1.1113889997142332   -0.03475225727183057   0.008860985428432527
1.7853602039749188   0.2679010680791218   0.09961248406324309
1.7853602039749188   0.2679010680791218   0.09961248406324309
1.7853602039749188   0.2679010680791218   0.09961248406324309
1.7853602039749188   0.2679010680791218   0.09961248406324309
1.2406302823143496   0.3101575705785874   0.3101575705785874
1.2406302823143496   0.3101575705785874   0.3101575705785874
1.2406302823143496   0.3101575705785874   0.3101575705785874
1.2406302823143496   0.3101575705785874   0.3101575705785874
2.364923228419147   0.2306832949844902   0.08250451800512322
2.364923228419147   0.2306832949844902   0.08250451800512322
2.364923228419147   0.2306832949844902   0.08250451800512322
2.364923228419147   0.2306832949844902   0.08250451800512322
2.4407548313325123   0.6101887078331281   0.6101887078331281
2.4407548313325123   0.6101887078331281   0.6101887078331281
2.4407548313325123   0.6101887078331281   0.6101887078331281
2.4407548313325123   0.6101887078331281   0.6101887078331281
1.152450559042894   0.03634645321026811   0.03523149908864243
1.152450559042894   0.03634645321026811   0.03523149908864243
1.152450559042894   0.03634645321026811   0.03523149908864243
1.152450559042894   0.03634645321026811   0.03523149908864243
1.7094887555659715   0.29045375263881834   -0.02612648051438492
1.7094887555659715   0.29045375263881834   -0.02612648051438492
1.7094887555659715   0.29045375263881834   -0.02612648051438492
1.7094887555659715   0.29045375263881834   -0.02612648051438492
-2.501493896281243   -0.17911775519065387   0.028133808213843786
-2.501493896281243   -0.17911775519065387   0.028133808213843786
-2.501493896281243   -0.17911775519065387   0.028133808213843786
-2.501493896281243   -0.17911775519065387   0.028133808213843786
-1.5922125482064013   -0.03670607849669549   -0.010287721384424756
-1.5922125482064013   -0.03670607849669549   -0.010287721384424756
-1.5922125482064013   -0.03670607849669549   -0.010287721384424756
-1.5922125482064013   -0.03670607849669549   -0.010287721384424756
-1.6030259179682511   0.06473817763865936   0.033462284949698815
-1.6030259179682511   0.06473817763865936   0.033462284949698815
-1.6030259179682511   0.06473817763865936   0.033462284949698815
-1.6030259179682511   0.06473817763865936   0.033462284949698815
-2.538750140074217   -0.17316223861015378   -0.030049916989754427
-2.538750140074217   -0.17316223861015378   -0.030049916989754427
-2.538750140074217   -0.17316223861015378   -0.030049916989754427
-2.538750140074217   -0.17316223861015378   -0.030049916989754427
-1.9778492878657001   -0.06753689644469768   -0.007826637131515268
-1.9778492878657001   -0.06753689644469768   -0.007826637131515268
-1.9778492878657001   -0.06753689644469768   -0.007826637131515268
-1.9778492878657001   -0.06753689644469768   -0.007826637131515268
-2.5203078326413233   -0.12300898831081858   0.012008369875381161
-2.5203078326413233   -0.12300898831081858   0.012008369875381161
-2.5203078326413233   -0.12300898831081858   0.012008369875381161
-2.5203078326413233   -0.12300898831081858   0.012008369875381161
-1.6241333498939265   0.01191980284655042   -0.01925649988653927
-1.6241333498939265   0.01191980284655042   -0.01925649988653927
-1.6241333498939265   0.01191980284655042   -0.01925649988653927
-1.6241333498939265   0.01191980284655042   -0.01925649988653927
-1.6049657936931412   0.09228730959611597   0.0381067874919921
-1.6049657936931412   0.09228730959611597   0.0381067874919921
-1.6049657936931412   0.09228730959611597   0.0381067874919921
-1.6049657936931412   0.09228730959611597   0.0381067874919921
-2.5541807577543127   -0.15253642701238856   -0.03967202988163446
-2.5541807577543127   -0.15253642701238856   -0.03967202988163446
-2.5541807577543127   -0.15253642701238856   -0.03967202988163446
-2.5541807577543127   -0.15253642701238856   -0.03967202988163446
-2.0334277279042663   -0.04522448970399168   -0.01927706787808342
-2.0334277279042663   -0.04522448970399168   -0.01927706787808342
-2.0334277279042663   -0.04522448970399168   -0.01927706787808342
-2.0334277279042663   -0.04522448970399168   -0.01927706787808342
-2.508339918451975   -0.07384143744209981   0.11083717705974631
-2.508339918451975   -0.07384143744209981   0.11083717705974631
-2.508339918451975   -0.07384143744209981   0.11083717705974631
-2.508339918451975   -0.07384143744209981   0.11083717705974631
-1.6317067327545933   0.032692220266712424   -0.03600281848584885
-1.6317067327545933   0.032692220266712424   -0.03600281848584885
-1.6317067327545933   0.032692220266712424   -0.03600281848584885
-1.6317067327545933   0.032692220266712424   -0.03600281848584885
-1.5758052072684987   0.16079070762854913   0.06924342876280828
-1.5758052072684987   0.16079070762854913   0.06924342876280828
-1.5758052072684987   0.16079070762854913   0.06924342876280828
-1.5758052072684987   0.16079070762854913   0.06924342876280828
-2.4836537109342043   -0.12310322273320068   -0.06490716154528213
-2.4836537109342043   -0.12310322273320068   -0.06490716154528213
-2.4836537109342043   -0.12310322273320068   -0.06490716154528213
-2.4836537109342043   -0.12310322273320068   -0.06490716154528213
-1.955707707037308   0.018213560264769113   0.043334366722653464
-1.955707707037308   0.018213560264769113   0.043334366722653464
-1.955707707037308   0.018213560264769113   0.043334366722653464
-1.955707707037308   0.018213560264769113   0.043334366722653464
-1.6317750494869943   -0.21630927450192042   -0.02849703178216583
-1.6317750494869943   -0.21630927450192042   -0.02849703178216583
-1.6317750494869943   -0.21630927450192042   -0.02849703178216583
-1.6317750494869943   -0.21630927450192042   -0.02849703178216583
-0.7517120161777763   -0.016692749010091212   0.007983095904441028
-0.7517120161777763   -0.016692749010091212   0.007983095904441028
-0.7517120161777763   -0.016692749010091212   0.007983095904441028
-0.7517120161777763   -0.016692749010091212   0.007983095904441028
-0.7627454159601483   0.014489918751329045   0.011373415525133913
-0.7627454159601483   0.014489918751329045   0.011373415525133913
-0.7627454159601483   0.014489918751329045   0.011373415525133913
-0.7627454159601483   0.014489918751329045   0.011373415525133913
-1.6641332675599065   -0.1583380298451105   -0.048998255524808625
-1.6641332675599065   -0.1583380298451105   -0.048998255524808625
-1.6641332675599065   -0.1583380298451105   -0.048998255524808625
-1.6641332675599065   -0.1583380298451105   -0.048998255524808625
-1.2025567578281944   -0.09763062046161242   -0.027559129403351035
-1.2025567578281944   -0.09763062046161242   -0.027559129403351035
-1.2025567578281944   -0.09763062046161242   -0.027559129403351035
-1.2025567578281944   -0.09763062046161242   -0.027559129403351035
-1.6625714552205435   -0.17304618078366568   -0.026481042889444556
-1.6625714552205435   -0.17304618078366568   -0.026481042889444556
-1.6625714552205435   -0.17304618078366568   -0.026481042889444556
-1.6625714552205435   -0.17304618078366568   -0.026481042889444556
-0.7613410216535953   0.03216427633579824   0.000721029473423701
-0.7613410216535953   0.03216427633579824   0.000721029473423701
-0.7613410216535953   0.03216427633579824   0.000721029473423701
-0.7613410216535953   0.03216427633579824   0.000721029473423701
-0.7599003698227698   0.05299350866954508   0.015451891383189115
-0.7599003698227698   0.05299350866954508   0.015451891383189115
-0.7599003698227698   0.05299350866954508   0.015451891383189115
-0.7599003698227698   0.05299350866954508   0.015451891383189115
-1.6648527296073374   -0.11604687173695127   -0.05299371074592241
-1.6648527296073374   -0.11604687173695127   -0.05299371074592241
-1.6648527296073374   -0.11604687173695127   -0.05299371074592241
-1.6648527296073374   -0.11604687173695127   -0.05299371074592241
-1.2002543644943569   -0.05433973814187065   -0.01310130230999107
-1.2002543644943569   -0.05433973814187065   -0.01310130230999107
-1.2002543644943569   -0.05433973814187065   -0.01310130230999107
-1.2002543644943569   -0.05433973814187065   -0.01310130230999107
-1.6583469220541087   -0.1309070741639222   -0.00560447055280798
-1.6583469220541087   -0.1309070741639222   -0.00560447055280798
-1.6583469220541087   -0.1309070741639222   -0.00560447055280798
-1.6583469220541087   -0.1309070741639222   -0.00560447055280798
-0.7608986568707786   0.07336123160173691   -0.00990726678904029
-0.7608986568707786   0.07336123160173691   -0.00990726678904029
-0.7608986568707786   0.07336123160173691   -0.00990726678904029
-0.7608986568707786   0.07336123160173691   -0.00990726678904029
-0.7472022305364121   0.09167366128956567   0.03104583278377919
-0.7472022305364121   0.09167366128956567   0.03104583278377919
-0.7472022305364121   0.09167366128956567   0.03104583278377919
-0.7472022305364121   0.09167366128956567   0.03104583278377919
-1.6470582631988626   -0.0671829788603514   -0.05904816440011541
-1.6470582631988626   -0.0671829788603514   -0.05904816440011541
-1.6470582631988626   -0.0671829788603514   -0.05904816440011541
-1.6470582631988626   -0.0671829788603514   -0.05904816440011541
-1.1952721557859123   -0.013373666093103087   0.0060018907508498295
-1.1952721557859123   -0.013373666093103087   0.0060018907508498295
-1.1952721557859123   -0.013373666093103087   0.0060018907508498295
-1.1952721557859123   -0.013373666093103087   0.0060018907508498295
-0.7926875731669637   -0.18006203198758208   -0.03352540606401207
-0.7926875731669637   -0.18006203198758208   -0.03352540606401207
-0.7926875731669637   -0.18006203198758208   -0.03352540606401207
-0.7926875731669637   -0.18006203198758208   -0.03352540606401207
0.08229046270553897   0.018706701291659588   0.030880706559967573
0.08229046270553897   0.018706701291659588   0.030880706559967573
0.08229046270553897   0.018706701291659588   0.030880706559967573
0.08229046270553897   0.018706701291659588   0.030880706559967573
0.07852257605785676   0.045404655509795375   0.0024691095377239606
0.07852257605785676   0.045404655509795375   0.0024691095377239606
0.07852257605785676   0.045404655509795375   0.0024691095377239606
0.07852257605785676   0.045404655509795375   0.0024691095377239606
-0.7960582603333903   -0.11929440372090894   -0.02140648386884504
-0.7960582603333903   -0.11929440372090894   -0.02140648386884504
-0.7960582603333903   -0.11929440372090894   -0.02140648386884504
-0.7960582603333903   -0.11929440372090894   -0.02140648386884504
-0.36043517608180314   -0.05969338760157738   -0.011398934587673402
-0.36043517608180314   -0.05969338760157738   -0.011398934587673402
-0.36043517608180314   -0.05969338760157738   -0.011398934587673402
-0.36043517608180314   -0.05969338760157738   -0.011398934587673402
-0.801564652571457   -0.1372943182330248   -0.030938530547062592
-0.801564652571457   -0.1372943182330248   -0.030938530547062592
-0.801564652571457   -0.1372943182330248   -0.030938530547062592
-0.801564652571457   -0.1372943182330248   -0.030938530547062592
0.08708990795406388   0.0664655096800515   0.024244914848502816
0.08708990795406388   0.0664655096800515   0.024244914848502816
0.08708990795406388   0.0664655096800515   0.024244914848502816
0.08708990795406388   0.0664655096800515   0.024244914848502816
0.08472554541058314   0.08778560742632989   0.014355952561662527
0.08472554541058314   0.08778560742632989   0.014355952561662527
0.08472554541058314   0.08778560742632989   0.014355952561662527
0.08472554541058314   0.08778560742632989   0.014355952561662527
-0.7934947397336757   -0.07281990007670838   -0.02670654942509379
-0.7934947397336757   -0.07281990007670838   -0.02670654942509379
-0.7934947397336757   -0.07281990007670838   -0.02670654942509379
-0.7934947397336757   -0.07281990007670838   -0.02670654942509379
-0.3548048181187265   -0.014652988244320674   0.004244908261046112
-0.3548048181187265   -0.014652988244320674   0.004244908261046112
-0.3548048181187265   -0.014652988244320674   0.004244908261046112
-0.3548048181187265   -0.014652988244320674   0.004244908261046112
-0.7956213735745089   -0.09432240885351231   -0.015837209852456173
-0.7956213735745089   -0.09432240885351231   -0.015837209852456173
-0.7956213735745089   -0.09432240885351231   -0.015837209852456173
-0.7956213735745089   -0.09432240885351231   -0.015837209852456173
0.09014566198709388   0.11258159893881126   0.016660543931734856
0.09014566198709388   0.11258159893881126   0.016660543931734856
0.09014566198709388   0.11258159893881126   0.016660543931734856
0.09014566198709388   0.11258159893881126   0.016660543931734856
0.08669011035933658   0.13493386238888233   0.023633363957766152
0.08669011035933658   0.13493386238888233   0.023633363957766152
0.08669011035933658   0.13493386238888233   0.023633363957766152
0.08669011035933658   0.13493386238888233   0.023633363957766152
-0.7831029669169165   -0.02313651059213706   -0.033647677237042865
-0.7831029669169165   -0.02313651059213706   -0.033647677237042865
-0.7831029669169165   -0.02313651059213706   -0.033647677237042865
-0.7831029669169165   -0.02313651059213706   -0.033647677237042865
-0.34591725615009117   0.0324489349769114   0.021371074223238824
-0.34591725615009117   0.0324489349769114   0.021371074223238824
-0.34591725615009117   0.0324489349769114   0.021371074223238824
-0.34591725615009117   0.0324489349769114   0.021371074223238824
0.03774139840420264   -0.13199154713340713   -0.041166366521647325
0.03774139840420264   -0.13199154713340713   -0.041166366521647325
0.03774139840420264   -0.13199154713340713   -0.041166366521647325
0.03774139840420264   -0.13199154713340713   -0.041166366521647325
0.9441803340468492   0.06517205220884592   0.05667198444980813
0.9441803340468492   0.06517205220884592   0.05667198444980813
0.9441803340468492   0.06517205220884592   0.05667198444980813
0.9441803340468492   0.06517205220884592   0.05667198444980813
0.9430481017320276   0.08779796646038054   -0.009061634916659265
0.9430481017320276   0.08779796646038054   -0.009061634916659265
0.9430481017320276   0.08779796646038054   -0.009061634916659265
0.9430481017320276   0.08779796646038054   -0.009061634916659265
0.05422173434068507   -0.0792967201391705   0.0056662766008307545
0.05422173434068507   -0.0792967201391705   0.0056662766008307545
0.05422173434068507   -0.0792967201391705   0.0056662766008307545
0.05422173434068507   -0.0792967201391705   0.0056662766008307545
0.4887009087109511   -0.011309020642408282   0.0010359695819879833
0.4887009087109511   -0.011309020642408282   0.0010359695819879833
0.4887009087109511   -0.011309020642408282   0.0010359695819879833
0.4887009087109511   -0.011309020642408282   0.0010359695819879833
0.04351269091249954   -0.09644326738003886   -0.03073239329922792
0.04351269091249954   -0.09644326738003886   -0.03073239329922792
0.04351269091249954   -0.09644326738003886   -0.03073239329922792
0.04351269091249954   -0.09644326738003886   -0.03073239329922792
0.9592583299621555   0.11044569850319264   0.04934177419116822
0.9592583299621555   0.11044569850319264   0.04934177419116822
0.9592583299621555   0.11044569850319264   0.04934177419116822
0.9592583299621555   0.11044569850319264   0.04934177419116822
0.9505231476758929   0.12971464364191748   0.009581195203513686
0.9505231476758929   0.12971464364191748   0.009581195203513686
0.9505231476758929   0.12971464364191748   0.009581195203513686
0.9505231476758929   0.12971464364191748   0.009581195203513686
0.05618898770024251   -0.03776071452119906   -0.002780514042511603
0.05618898770024251   -0.03776071452119906   -0.002780514042511603
0.05618898770024251   -0.03776071452119906   -0.002780514042511603
0.05618898770024251   -0.03776071452119906   -0.002780514042511603
0.49525550495460435   0.028757776338798807   0.02026238087045583
0.49525550495460435   0.028757776338798807   0.02026238087045583
0.49525550495460435   0.028757776338798807   0.02026238087045583
0.49525550495460435   0.028757776338798807   0.02026238087045583
0.04838646614613824   -0.057116415809651794   -0.022437420524580212
0.04838646614613824   -0.057116415809651794   -0.022437420524580212
0.04838646614613824   -0.057116415809651794   -0.022437420524580212
0.04838646614613824   -0.057116415809651794   -0.022437420524580212
0.9623065303387301   0.1530512060391048   0.045161546120512326
0.9623065303387301   0.1530512060391048   0.045161546120512326
0.9623065303387301   0.1530512060391048   0.045161546120512326
0.9623065303387301   0.1530512060391048   0.045161546120512326
0.9352894128521099   0.17809228544903719   0.020148436298239314
0.9352894128521099   0.17809228544903719   0.020148436298239314
0.9352894128521099   0.17809228544903719   0.020148436298239314
0.9352894128521099   0.17809228544903719   0.020148436298239314
0.05571101472437778   0.01367871123368743   -0.01000696306183301
0.05571101472437778   0.01367871123368743   -0.01000696306183301
0.05571101472437778   0.01367871123368743   -0.01000696306183301
0.05571101472437778   0.01367871123368743   -0.01000696306183301
0.5026099617203101   0.07456322129167531   0.03805991120989058
0.5026099617203101   0.07456322129167531   0.03805991120989058
0.5026099617203101   0.07456322129167531   0.03805991120989058
0.5026099617203101   0.07456322129167531   0.03805991120989058
0.8697777567858405   -0.17407796037368112   -0.0760908892727088
0.8697777567858405   -0.17407796037368112   -0.0760908892727088
0.8697777567858405   -0.17407796037368112   -0.0760908892727088
0.8697777567858405   -0.17407796037368112   -0.0760908892727088
1.790966787680441   0.11829648141477161   0.055204329343105374
1.790966787680441   0.11829648141477161   0.055204329343105374
1.790966787680441   0.11829648141477161   0.055204329343105374
1.790966787680441   0.11829648141477161   0.055204329343105374
1.8112565630801116   0.05615013532439972   -0.11446018496666961
1.8112565630801116   0.05615013532439972   -0.11446018496666961
1.8112565630801116   0.05615013532439972   -0.11446018496666961
1.8112565630801116   0.05615013532439972   -0.11446018496666961
0.9267591336134601   -0.035718202475404165   0.03300969342627977
0.9267591336134601   -0.035718202475404165   0.03300969342627977
0.9267591336134601   -0.035718202475404165   0.03300969342627977
0.9267591336134601   -0.035718202475404165   0.03300969342627977
1.2825909791339503   -0.022399404101826725   -0.03208210972190378
1.2825909791339503   -0.022399404101826725   -0.03208210972190378
1.2825909791339503   -0.022399404101826725   -0.03208210972190378
1.2825909791339503   -0.022399404101826725   -0.03208210972190378
0.8943132884263318   -0.11444502467497716   -0.05049271030977705
0.8943132884263318   -0.11444502467497716   -0.05049271030977705
0.8943132884263318   -0.11444502467497716   -0.05049271030977705
0.8943132884263318   -0.11444502467497716   -0.05049271030977705
1.8601480751845354   0.15132262444127192   0.03482488643859258
1.8601480751845354   0.15132262444127192   0.03482488643859258
1.8601480751845354   0.15132262444127192   0.03482488643859258
1.8601480751845354   0.15132262444127192   0.03482488643859258
1.8312461654125185   0.10226536466765518   -0.025908070572425473
1.8312461654125185   0.10226536466765518   -0.025908070572425473
1.8312461654125185   0.10226536466765518   -0.025908070572425473
1.8312461654125185   0.10226536466765518   -0.025908070572425473
0.9230650510171936   -0.015007185958002323   0.017012541509936648
0.9230650510171936   -0.015007185958002323   0.017012541509936648
0.9230650510171936   -0.015007185958002323   0.017012541509936648
0.9230650510171936   -0.015007185958002323   0.017012541509936648
1.3497651548256584   0.03371723200663307   0.02217825308927239
1.3497651548256584   0.03371723200663307   0.02217825308927239
1.3497651548256584   0.03371723200663307   0.02217825308927239
1.3497651548256584   0.03371723200663307   0.02217825308927239
0.8970349338791299   -0.08752026129351079   -0.04062496884486617
0.8970349338791299   -0.08752026129351079   -0.04062496884486617
0.8970349338791299   -0.08752026129351079   -0.04062496884486617
0.8970349338791299   -0.08752026129351079   -0.04062496884486617
1.8550989028552716   0.17260106030785424   0.023019921001141384
1.8550989028552716   0.17260106030785424   0.023019921001141384
1.8550989028552716   0.17260106030785424   0.023019921001141384
1.8550989028552716   0.17260106030785424   0.023019921001141384
1.828223593750223   0.15652119453009705   -0.03966782901954011
1.828223593750223   0.15652119453009705   -0.03966782901954011
1.828223593750223   0.15652119453009705   -0.03966782901954011
1.828223593750223   0.15652119453009705   -0.03966782901954011
0.9040773914051966   0.032729281155601225   0.009451333357104776
0.9040773914051966   0.032729281155601225   0.009451333357104776
0.9040773914051966   0.032729281155601225   0.009451333357104776
0.9040773914051966   0.032729281155601225   0.009451333357104776
1.3152797121140791   0.0591024623286906   0.016438927159812433
1.3152797121140791   0.0591024623286906   0.016438927159812433
1.3152797121140791   0.0591024623286906   0.016438927159812433
1.3152797121140791   0.0591024623286906   0.016438927159812433
-1.9665240816930993   -0.08927634628692671   0.10117247315111488
-1.9665240816930993   -0.08927634628692671   0.10117247315111488
-1.9665240816930993   -0.08927634628692671   0.10117247315111488
-1.9665240816930993   -0.08927634628692671   0.10117247315111488
-1.3059055857840276   -0.049574058953805566   -0.02632547789259973
-1.3059055857840276   -0.049574058953805566   -0.02632547789259973
-1.3059055857840276   -0.049574058953805566   -0.02632547789259973
-1.3059055857840276   -0.049574058953805566   -0.02632547789259973
-1.2588494893114563   0.10580530849909525   0.08488716779372248
-1.2588494893114563   0.10580530849909525   0.08488716779372248
-1.2588494893114563   0.10580530849909525   0.08488716779372248
-1.2588494893114563   0.10580530849909525   0.08488716779372248
-1.9755915474432002   -0.14102939556121574   -0.041253728168030995
-1.9755915474432002   -0.14102939556121574   -0.041253728168030995
-1.9755915474432002   -0.14102939556121574   -0.041253728168030995
-1.9755915474432002   -0.14102939556121574   -0.041253728168030995
-1.5606580147518374   -0.02413174146660685   -0.002850940411437422
-1.5606580147518374   -0.02413174146660685   -0.002850940411437422
-1.5606580147518374   -0.02413174146660685   -0.002850940411437422
-1.5606580147518374   -0.02413174146660685   -0.002850940411437422
-1.9206306974764045   -0.020853451226409858   0.11337457733114255
-1.9206306974764045   -0.020853451226409858   0.11337457733114255
-1.9206306974764045   -0.020853451226409858   0.11337457733114255
-1.9206306974764045   -0.020853451226409858   0.11337457733114255
-1.3051533820768195   -0.005713678634277519   -0.035113308899720835
-1.3051533820768195   -0.005713678634277519   -0.035113308899720835
-1.3051533820768195   -0.005713678634277519   -0.035113308899720835
-1.3051533820768195   -0.005713678634277519   -0.035113308899720835
-1.253714311659481   0.1312291016886588   0.07868916752877078
-1.253714311659481   0.1312291016886588   0.07868916752877078
-1.253714311659481   0.1312291016886588   0.07868916752877078
-1.253714311659481   0.1312291016886588   0.07868916752877078
-1.9450006477182573   -0.11798370738782382   -0.056487626286699594
-1.9450006477182573   -0.11798370738782382   -0.056487626286699594
-1.9450006477182573   -0.11798370738782382   -0.056487626286699594
-1.9450006477182573   -0.11798370738782382   -0.056487626286699594
-1.563985458603298   0.0057390626631704245   0.01804025460680371
-1.563985458603298   0.0057390626631704245   0.01804025460680371
-1.563985458603298   0.0057390626631704245   0.01804025460680371
-1.563985458603298   0.0057390626631704245   0.01804025460680371
-1.8938186578417808   0.0031317684066810014   0.07830684730117846
-1.8938186578417808   0.0031317684066810014   0.07830684730117846
-1.8938186578417808   0.0031317684066810014   0.07830684730117846
-1.8938186578417808   0.0031317684066810014   0.07830684730117846
-1.302043137774919   0.012966789655197708   -0.04469265101494545
-1.302043137774919   0.012966789655197708   -0.04469265101494545
-1.302043137774919   0.012966789655197708   -0.04469265101494545
-1.302043137774919   0.012966789655197708   -0.04469265101494545
-1.2549265290485803   0.14811104332644032   0.062436986867298906
-1.2549265290485803   0.14811104332644032   0.062436986867298906
-1.2549265290485803   0.14811104332644032   0.062436986867298906
-1.2549265290485803   0.14811104332644032   0.062436986867298906
-1.9052908045026156   -0.09349822538430985   -0.07203751632702808
-1.9052908045026156   -0.09349822538430985   -0.07203751632702808
-1.9052908045026156   -0.09349822538430985   -0.07203751632702808
-1.9052908045026156   -0.09349822538430985   -0.07203751632702808
-1.5190400239885353   0.03248732555650968   0.0375146888782962
-1.5190400239885353   0.03248732555650968   0.0375146888782962
-1.5190400239885353   0.03248732555650968   0.0375146888782962
-1.5190400239885353   0.03248732555650968   0.0375146888782962
-1.3098204651828373   -0.12417153730006808   0.028697603459613707
-1.3098204651828373   -0.12417153730006808   0.028697603459613707
-1.3098204651828373   -0.12417153730006808   0.028697603459613707
-1.3098204651828373   -0.12417153730006808   0.028697603459613707
-0.6613806050585613   -0.02389192646494359   0.0012720231453615498
-0.6613806050585613   -0.02389192646494359   0.0012720231453615498
-0.6613806050585613   -0.02389192646494359   0.0012720231453615498
-0.6613806050585613   -0.02389192646494359   0.0012720231453615498
-0.6426296897893192   0.06498954063624882   0.04613601911140047
-0.6426296897893192   0.06498954063624882   0.04613601911140047
-0.6426296897893192   0.06498954063624882   0.04613601911140047
-0.6426296897893192   0.06498954063624882   0.04613601911140047
-1.3306490984783848   -0.12245516741759477   -0.04585040212422932
-1.3306490984783848   -0.12245516741759477   -0.04585040212422932
-1.3306490984783848   -0.12245516741759477   -0.04585040212422932
-1.3306490984783848   -0.12245516741759477   -0.04585040212422932
-0.9826143182221773   -0.048218509840149415   -0.0198980817171694
-0.9826143182221773   -0.048218509840149415   -0.0198980817171694
-0.9826143182221773   -0.048218509840149415   -0.0198980817171694
-0.9826143182221773   -0.048218509840149415   -0.0198980817171694
-1.3056881816625852   -0.07129129887770874   0.027790313414876578
-1.3056881816625852   -0.07129129887770874   0.027790313414876578
-1.3056881816625852   -0.07129129887770874   0.027790313414876578
-1.3056881816625852   -0.07129129887770874   0.027790313414876578
-0.6625313307046751   0.01888494799680676   -0.007267592825931611
-0.6625313307046751   0.01888494799680676   -0.007267592825931611
-0.6625313307046751   0.01888494799680676   -0.007267592825931611
-0.6625313307046751   0.01888494799680676   -0.007267592825931611
-0.6405874626354688   0.10738823021727587   0.03991653205334471
-0.6405874626354688   0.10738823021727587   0.03991653205334471
-0.6405874626354688   0.10738823021727587   0.03991653205334471
-0.6405874626354688   0.10738823021727587   0.03991653205334471
-1.3231011831353932   -0.08287996231462469   -0.05413612584750484
-1.3231011831353932   -0.08287996231462469   -0.05413612584750484
-1.3231011831353932   -0.08287996231462469   -0.05413612584750484
-1.3231011831353932   -0.08287996231462469   -0.05413612584750484
-0.9718799325042247   -0.005319845985779864   -6.477518190738801e-05
-0.9718799325042247   -0.005319845985779864   -6.477518190738801e-05
-0.9718799325042247   -0.005319845985779864   -6.477518190738801e-05
-0.9718799325042247   -0.005319845985779864   -6.477518190738801e-05
-1.2976303782406777   -0.028280060043454736   0.01861799635490049
-1.2976303782406777   -0.028280060043454736   0.01861799635490049
-1.2976303782406777   -0.028280060043454736   0.01861799635490049
-1.2976303782406777   -0.028280060043454736   0.01861799635490049
-0.661938569726134   0.05690802575015699   -0.016358798932855703
-0.661938569726134   0.05690802575015699   -0.016358798932855703
-0.661938569726134   0.05690802575015699   -0.016358798932855703
-0.661938569726134   0.05690802575015699   -0.016358798932855703
-0.6403908640616915   0.15194223222665812   0.029910491897761043
-0.6403908640616915   0.15194223222665812   0.029910491897761043
-0.6403908640616915   0.15194223222665812   0.029910491897761043
-0.6403908640616915   0.15194223222665812   0.029910491897761043
-1.3167228331128227   -0.0401762850949246   -0.05825720503255147
-1.3167228331128227   -0.0401762850949246   -0.05825720503255147
-1.3167228331128227   -0.0401762850949246   -0.05825720503255147
-1.3167228331128227   -0.0401762850949246   -0.05825720503255147
-0.9725039816391157   0.0340199834831654   0.015093836932195834
-0.9725039816391157   0.0340199834831654   0.015093836932195834
-0.9725039816391157   0.0340199834831654   0.015093836932195834
-0.9725039816391157   0.0340199834831654   0.015093836932195834
-0.6860249947772235   -0.1419174182495555   -0.003924433663341361
-0.6860249947772235   -0.1419174182495555   -0.003924433663341361
-0.6860249947772235   -0.1419174182495555   -0.003924433663341361
-0.6860249947772235   -0.1419174182495555   -0.003924433663341361
-0.02283113562474783   0.007048155874423686   0.02929686719477136
-0.02283113562474783   0.007048155874423686   0.02929686719477136
-0.02283113562474783   0.007048155874423686   0.02929686719477136
-0.02283113562474783   0.007048155874423686   0.02929686719477136
-0.025333562971617367   0.04193202579005783   0.014000966324215776
-0.025333562971617367   0.04193202579005783   0.014000966324215776
-0.025333562971617367   0.04193202579005783   0.014000966324215776
-0.025333562971617367   0.04193202579005783   0.014000966324215776
-0.6864790993621286   -0.09096016474503393   -0.017161323371370045
-0.6864790993621286   -0.09096016474503393   -0.017161323371370045
-0.6864790993621286   -0.09096016474503393   -0.017161323371370045
-0.6864790993621286   -0.09096016474503393   -0.017161323371370045
-0.3562561904973837   -0.0444831195628299   -0.011135064432099358
-0.3562561904973837   -0.0444831195628299   -0.011135064432099358
-0.3562561904973837   -0.0444831195628299   -0.011135064432099358
-0.3562561904973837   -0.0444831195628299   -0.011135064432099358
-0.6857400786941317   -0.09486228964547548   -0.009564095130938022
-0.6857400786941317   -0.09486228964547548   -0.009564095130938022
-0.6857400786941317   -0.09486228964547548   -0.009564095130938022
-0.6857400786941317   -0.09486228964547548   -0.009564095130938022
-0.022300907915235764   0.04960582641487914   0.021490440981302473
-0.022300907915235764   0.04960582641487914   0.021490440981302473
-0.022300907915235764   0.04960582641487914   0.021490440981302473
-0.022300907915235764   0.04960582641487914   0.021490440981302473
-0.022197381601450246   0.08812474211982645   0.006719303425354869
-0.022197381601450246   0.08812474211982645   0.006719303425354869
-0.022197381601450246   0.08812474211982645   0.006719303425354869
-0.022197381601450246   0.08812474211982645   0.006719303425354869
-0.6847451569353428   -0.04833030129776804   -0.025153407930980042
-0.6847451569353428   -0.04833030129776804   -0.025153407930980042
-0.6847451569353428   -0.04833030129776804   -0.025153407930980042
-0.6847451569353428   -0.04833030129776804   -0.025153407930980042
-0.35278895180626485   -0.00177029815217572   0.00488996389213873
-0.35278895180626485   -0.00177029815217572   0.00488996389213873
-0.35278895180626485   -0.00177029815217572   0.00488996389213873
-0.35278895180626485   -0.00177029815217572   0.00488996389213873
-0.6837147456495999   -0.04932410161240108   -0.019007551187632712
-0.6837147456495999   -0.04932410161240108   -0.019007551187632712
-0.6837147456495999   -0.04932410161240108   -0.019007551187632712
-0.6837147456495999   -0.04932410161240108   -0.019007551187632712
-0.020113430201670533   0.09223290511997942   0.01303089742410045
-0.020113430201670533   0.09223290511997942   0.01303089742410045
-0.020113430201670533   0.09223290511997942   0.01303089742410045
-0.020113430201670533   0.09223290511997942   0.01303089742410045
-0.021524851114390273   0.13569861700053484   -0.0010501550762171755
-0.021524851114390273   0.13569861700053484   -0.0010501550762171755
-0.021524851114390273   0.13569861700053484   -0.0010501550762171755
-0.021524851114390273   0.13569861700053484   -0.0010501550762171755
-0.6844019588475886   -0.004974723248237417   -0.033228026556825364
-0.6844019588475886   -0.004974723248237417   -0.033228026556825364
-0.6844019588475886   -0.004974723248237417   -0.033228026556825364
-0.6844019588475886   -0.004974723248237417   -0.033228026556825364
-0.35009460149903343   0.04098307722029525   0.019585361862021606
-0.35009460149903343   0.04098307722029525   0.019585361862021606
-0.35009460149903343   0.04098307722029525   0.019585361862021606
-0.35009460149903343   0.04098307722029525   0.019585361862021606
-0.06797713852341815   -0.15539236456666708   -0.03399262685748921
-0.06797713852341815   -0.15539236456666708   -0.03399262685748921
-0.06797713852341815   -0.15539236456666708   -0.03399262685748921
-0.06797713852341815   -0.15539236456666708   -0.03399262685748921
0.6133106911953609   0.04326655537359274   0.05569646218963917
0.6133106911953609   0.04326655537359274   0.05569646218963917
0.6133106911953609   0.04326655537359274   0.05569646218963917
0.6133106911953609   0.04326655537359274   0.05569646218963917
0.593249349783019   0.02298523235436066   -0.021951576373855055
0.593249349783019   0.02298523235436066   -0.021951576373855055
0.593249349783019   0.02298523235436066   -0.021951576373855055
0.593249349783019   0.02298523235436066   -0.021951576373855055
-0.04550604949607818   -0.05690141146137556   0.011971970953345143
-0.04550604949607818   -0.05690141146137556   0.011971970953345143
-0.04550604949607818   -0.05690141146137556   0.011971970953345143
-0.04550604949607818   -0.05690141146137556   0.011971970953345143
0.2694001249510378   -0.03595423567732444   -0.006280555644810667
0.2694001249510378   -0.03595423567732444   -0.006280555644810667
0.2694001249510378   -0.03595423567732444   -0.006280555644810667
0.2694001249510378   -0.03595423567732444   -0.006280555644810667
-0.06772809349546699   -0.11335656093963399   -0.04268309956534049
-0.06772809349546699   -0.11335656093963399   -0.04268309956534049
-0.06772809349546699   -0.11335656093963399   -0.04268309956534049
-0.06772809349546699   -0.11335656093963399   -0.04268309956534049
0.6197610316875123   0.08373001973772018   0.04986204576524874
0.6197610316875123   0.08373001973772018   0.04986204576524874
0.6197610316875123   0.08373001973772018   0.04986204576524874
0.6197610316875123   0.08373001973772018   0.04986204576524874
0.6028427219135605   0.06595837261055258   -0.03083881259707902
0.6028427219135605   0.06595837261055258   -0.03083881259707902
0.6028427219135605   0.06595837261055258   -0.03083881259707902
0.6028427219135605   0.06595837261055258   -0.03083881259707902
-0.044218829021447914   -0.018707402526575642   0.0034442109717690286
-0.044218829021447914   -0.018707402526575642   0.0034442109717690286
-0.044218829021447914   -0.018707402526575642   0.0034442109717690286
-0.044218829021447914   -0.018707402526575642   0.0034442109717690286
0.2717668411586485   0.0026836717231656093   0.009641717305997938
0.2717668411586485   0.0026836717231656093   0.009641717305997938
0.2717668411586485   0.0026836717231656093   0.009641717305997938
0.2717668411586485   0.0026836717231656093   0.009641717305997938
-0.06583113343003802   -0.07189464888191958   -0.051430064715837956
-0.06583113343003802   -0.07189464888191958   -0.051430064715837956
-0.06583113343003802   -0.07189464888191958   -0.051430064715837956
-0.06583113343003802   -0.07189464888191958   -0.051430064715837956
0.6291296616991772   0.12382025434292156   0.04273400459863003
0.6291296616991772   0.12382025434292156   0.04273400459863003
0.6291296616991772   0.12382025434292156   0.04273400459863003
0.6291296616991772   0.12382025434292156   0.04273400459863003
0.6087540269029502   0.11985090325716205   -0.032189015123032266
0.6087540269029502   0.11985090325716205   -0.032189015123032266
0.6087540269029502   0.11985090325716205   -0.032189015123032266
0.6087540269029502   0.11985090325716205   -0.032189015123032266
-0.04428063301759296   0.02593223047615411   -0.005062678067849491
-0.04428063301759296   0.02593223047615411   -0.005062678067849491
-0.04428063301759296   0.02593223047615411   -0.005062678067849491
-0.04428063301759296   0.02593223047615411   -0.005062678067849491
0.28115821620466325   0.045774807793381334   0.028552563207890277
0.28115821620466325   0.045774807793381334   0.028552563207890277
0.28115821620466325   0.045774807793381334   0.028552563207890277
0.28115821620466325   0.045774807793381334   0.028552563207890277
0.5494266988721073   -0.15428649252176854   -0.06617045153126327
0.5494266988721073   -0.15428649252176854   -0.06617045153126327
0.5494266988721073   -0.15428649252176854   -0.06617045153126327
0.5494266988721073   -0.15428649252176854   -0.06617045153126327
1.207877303645838   0.08974030661637722   0.06191851260748557
1.207877303645838   0.08974030661637722   0.06191851260748557
1.207877303645838   0.08974030661637722   0.06191851260748557
1.207877303645838   0.08974030661637722   0.06191851260748557
1.198458797144977   -0.005595334858067846   -0.08807563201855556
1.198458797144977   -0.005595334858067846   -0.08807563201855556
1.198458797144977   -0.005595334858067846   -0.08807563201855556
1.198458797144977   -0.005595334858067846   -0.08807563201855556
0.5987706913094419   -0.01291232293759767   0.041552686550217384
0.5987706913094419   -0.01291232293759767   0.041552686550217384
0.5987706913094419   -0.01291232293759767   0.041552686550217384
0.5987706913094419   -0.01291232293759767   0.041552686550217384
0.8454990114371428   -0.030075998143682198   -0.027724397291242507
0.8454990114371428   -0.030075998143682198   -0.027724397291242507
0.8454990114371428   -0.030075998143682198   -0.027724397291242507
0.8454990114371428   -0.030075998143682198   -0.027724397291242507
0.5499720763784482   -0.1339567456801103   -0.08139596536223402
0.5499720763784482   -0.1339567456801103   -0.08139596536223402
0.5499720763784482   -0.1339567456801103   -0.08139596536223402
0.5499720763784482   -0.1339567456801103   -0.08139596536223402
1.2507637799718625   0.11895545578033659   0.048898491477468005
1.2507637799718625   0.11895545578033659   0.048898491477468005
1.2507637799718625   0.11895545578033659   0.048898491477468005
1.2507637799718625   0.11895545578033659   0.048898491477468005
1.227815959311465   0.01891591153542624   -0.11812287931719197
1.227815959311465   0.01891591153542624   -0.11812287931719197
1.227815959311465   0.01891591153542624   -0.11812287931719197
1.227815959311465   0.01891591153542624   -0.11812287931719197
0.6031667134923755   0.005785283107397926   0.030954234800157333
0.6031667134923755   0.005785283107397926   0.030954234800157333
0.6031667134923755   0.005785283107397926   0.030954234800157333
0.6031667134923755   0.005785283107397926   0.030954234800157333
0.8837351544119715   -0.0035812970549991274   -0.008466766265932187
0.8837351544119715   -0.0035812970549991274   -0.008466766265932187
0.8837351544119715   -0.0035812970549991274   -0.008466766265932187
0.8837351544119715   -0.0035812970549991274   -0.008466766265932187
0.5562062594513835   -0.10949500252719505   -0.08856774977021635
0.5562062594513835   -0.10949500252719505   -0.08856774977021635
0.5562062594513835   -0.10949500252719505   -0.08856774977021635
0.5562062594513835   -0.10949500252719505   -0.08856774977021635
1.2825210079681317   0.1419407917856945   0.0323774837158839
1.2825210079681317   0.1419407917856945   0.0323774837158839
1.2825210079681317   0.1419407917856945   0.0323774837158839
1.2825210079681317   0.1419407917856945   0.0323774837158839
1.274432602460659   0.0826909859035441   -0.11109535395864326
1.274432602460659   0.0826909859035441   -0.11109535395864326
1.274432602460659   0.0826909859035441   -0.11109535395864326
1.274432602460659   0.0826909859035441   -0.11109535395864326
0.6051628619605371   0.04710789136646722   0.022598172055611206
0.6051628619605371   0.04710789136646722   0.022598172055611206
0.6051628619605371   0.04710789136646722   0.022598172055611206
0.6051628619605371   0.04710789136646722   0.022598172055611206
0.8902409783827053   0.026721679473470372   0.012835264142124596
0.8902409783827053   0.026721679473470372   0.012835264142124596
0.8902409783827053   0.026721679473470372   0.012835264142124596
0.8902409783827053   0.026721679473470372   0.012835264142124596
-1.4059470124095954   -0.045980246989804435   0.09168500855297218
-1.4059470124095954   -0.045980246989804435   0.09168500855297218
-1.4059470124095954   -0.045980246989804435   0.09168500855297218
-1.4059470124095954   -0.045980246989804435   0.09168500855297218
-0.9835159333761448   -0.06565136742408309   -0.034639243085018596
-0.9835159333761448   -0.06565136742408309   -0.034639243085018596
-0.9835159333761448   -0.06565136742408309   -0.034639243085018596
-0.9835159333761448   -0.06565136742408309   -0.034639243085018596
-0.9257496137570581   0.09282691923992703   0.07818591215154073
-0.9257496137570581   0.09282691923992703   0.07818591215154073
-0.9257496137570581   0.09282691923992703   0.07818591215154073
-0.9257496137570581   0.09282691923992703   0.07818591215154073
-1.4060585373799674   -0.11572600884383855   -0.05066669157246988
-1.4060585373799674   -0.11572600884383855   -0.05066669157246988
-1.4060585373799674   -0.11572600884383855   -0.05066669157246988
-1.4060585373799674   -0.11572600884383855   -0.05066669157246988
-1.1319530786172338   -0.018050962858081054   -0.002458179233250868
-1.1319530786172338   -0.018050962858081054   -0.002458179233250868
-1.1319530786172338   -0.018050962858081054   -0.002458179233250868
-1.1319530786172338   -0.018050962858081054   -0.002458179233250868
-1.3535197458031325   0.00907996824498064   0.08722128922288627
-1.3535197458031325   0.00907996824498064   0.08722128922288627
-1.3535197458031325   0.00907996824498064   0.08722128922288627
-1.3535197458031325   0.00907996824498064   0.08722128922288627
-0.9740147703600421   -0.027705422875037716   -0.04260752874840637
-0.9740147703600421   -0.027705422875037716   -0.04260752874840637
-0.9740147703600421   -0.027705422875037716   -0.04260752874840637
-0.9740147703600421   -0.027705422875037716   -0.04260752874840637
-0.9170328471372379   0.11212300494659394   0.06607813480436962
-0.9170328471372379   0.11212300494659394   0.06607813480436962
-0.9170328471372379   0.11212300494659394   0.06607813480436962
-0.9170328471372379   0.11212300494659394   0.06607813480436962
-1.3728059115785198   -0.0942180279154276   -0.06405698947317343
-1.3728059115785198   -0.0942180279154276   -0.06405698947317343
-1.3728059115785198   -0.0942180279154276   -0.06405698947317343
-1.3728059115785198   -0.0942180279154276   -0.06405698947317343
-1.1240594171004694   0.007402502721987447   0.01190378913905013
-1.1240594171004694   0.007402502721987447   0.01190378913905013
-1.1240594171004694   0.007402502721987447   0.01190378913905013
-1.1240594171004694   0.007402502721987447   0.01190378913905013
-1.3207137209276874   0.032173658667286775   0.07001227719827692
-1.3207137209276874   0.032173658667286775   0.07001227719827692
-1.3207137209276874   0.032173658667286775   0.07001227719827692
-1.3207137209276874   0.032173658667286775   0.07001227719827692
-0.9652606728996468   -0.010404316747694292   -0.052533672313379645
-0.9652606728996468   -0.010404316747694292   -0.052533672313379645
-0.9652606728996468   -0.010404316747694292   -0.052533672313379645
-0.9652606728996468   -0.010404316747694292   -0.052533672313379645
-0.9122054658297711   0.13089859448361502   0.056861244339766914
-0.9122054658297711   0.13089859448361502   0.056861244339766914
-0.9122054658297711   0.13089859448361502   0.056861244339766914
-0.9122054658297711   0.13089859448361502   0.056861244339766914
-1.3282611253513306   -0.06578918807203418   -0.07669804294338961
-1.3282611253513306   -0.06578918807203418   -0.07669804294338961
-1.3282611253513306   -0.06578918807203418   -0.07669804294338961
-1.3282611253513306   -0.06578918807203418   -0.07669804294338961
-1.0818925992081951   0.031244524536718693   0.03206141387961671
-1.0818925992081951   0.031244524536718693   0.03206141387961671
-1.0818925992081951   0.031244524536718693   0.03206141387961671
-1.0818925992081951   0.031244524536718693   0.03206141387961671
-0.9724808344790634   -0.07949116681904707   0.03437605079534452
-0.9724808344790634   -0.07949116681904707   0.03437605079534452
-0.9724808344790634   -0.07949116681904707   0.03437605079534452
-0.9724808344790634   -0.07949116681904707   0.03437605079534452
-0.5637452901139841   -0.04254211774259091   -0.005589995448986508
-0.5637452901139841   -0.04254211774259091   -0.005589995448986508
-0.5637452901139841   -0.04254211774259091   -0.005589995448986508
-0.5637452901139841   -0.04254211774259091   -0.005589995448986508
-0.5351050409772578   0.05425502995666538   0.042156527245944195
-0.5351050409772578   0.05425502995666538   0.042156527245944195
-0.5351050409772578   0.05425502995666538   0.042156527245944195
-0.5351050409772578   0.05425502995666538   0.042156527245944195
-0.9870982607285254   -0.09458747366265732   -0.04114292980321006
-0.9870982607285254   -0.09458747366265732   -0.04114292980321006
-0.9870982607285254   -0.09458747366265732   -0.04114292980321006
-0.9870982607285254   -0.09458747366265732   -0.04114292980321006
-0.7615267294070406   -0.03714491319657856   -0.015532347466454502
-0.7615267294070406   -0.03714491319657856   -0.015532347466454502
-0.7615267294070406   -0.03714491319657856   -0.015532347466454502
-0.7615267294070406   -0.03714491319657856   -0.015532347466454502
-0.9610844122766605   -0.03375365166142785   0.028092490454881047
-0.9610844122766605   -0.03375365166142785   0.028092490454881047
-0.9610844122766605   -0.03375365166142785   0.028092490454881047
-0.9610844122766605   -0.03375365166142785   0.028092490454881047
-0.5577823695541944   -0.003242272169638072   -0.013732813512444757
-0.5577823695541944   -0.003242272169638072   -0.013732813512444757
-0.5577823695541944   -0.003242272169638072   -0.013732813512444757
-0.5577823695541944   -0.003242272169638072   -0.013732813512444757
-0.5282984197641166   0.09382105779343262   0.03456621132150523
-0.5282984197641166   0.09382105779343262   0.03456621132150523
-0.5282984197641166   0.09382105779343262   0.03456621132150523
-0.5282984197641166   0.09382105779343262   0.03456621132150523
-0.9738165910065512   -0.05724230941075148   -0.04847527018485061
-0.9738165910065512   -0.05724230941075148   -0.04847527018485061
-0.9738165910065512   -0.05724230941075148   -0.04847527018485061
-0.9738165910065512   -0.05724230941075148   -0.04847527018485061
-0.7469048208653626   0.0017520002684670855   0.0011771527097555745
-0.7469048208653626   0.0017520002684670855   0.0011771527097555745
-0.7469048208653626   0.0017520002684670855   0.0011771527097555745
-0.7469048208653626   0.0017520002684670855   0.0011771527097555745
-0.9458339395163246   0.008533205958164147   0.025662471897365893
-0.9458339395163246   0.008533205958164147   0.025662471897365893
-0.9458339395163246   0.008533205958164147   0.025662471897365893
-0.9458339395163246   0.008533205958164147   0.025662471897365893
-0.552137664235438   0.032188949443422904   -0.022997902685091928
-0.552137664235438   0.032188949443422904   -0.022997902685091928
-0.552137664235438   0.032188949443422904   -0.022997902685091928
-0.552137664235438   0.032188949443422904   -0.022997902685091928
-0.5217221730551864   0.13597485726393066   0.027497846704088516
-0.5217221730551864   0.13597485726393066   0.027497846704088516
-0.5217221730551864   0.13597485726393066   0.027497846704088516
-0.5217221730551864   0.13597485726393066   0.027497846704088516
-0.9638732279579778   -0.017003043201790136   -0.05357592861586467
-0.9638732279579778   -0.017003043201790136   -0.05357592861586467
-0.9638732279579778   -0.017003043201790136   -0.05357592861586467
-0.9638732279579778   -0.017003043201790136   -0.05357592861586467
-0.741242972522931   0.03834558994663054   0.017086372947903633
-0.741242972522931   0.03834558994663054   0.017086372947903633
-0.741242972522931   0.03834558994663054   0.017086372947903633
-0.741242972522931   0.03834558994663054   0.017086372947903633
-0.5756649808033869   -0.10910341660664499   0.0013728499680560906
-0.5756649808033869   -0.10910341660664499   0.0013728499680560906
-0.5756649808033869   -0.10910341660664499   0.0013728499680560906
-0.5756649808033869   -0.10910341660664499   0.0013728499680560906
-0.14832222574901616   -0.012696738421266441   0.02347448110777283
-0.14832222574901616   -0.012696738421266441   0.02347448110777283
-0.14832222574901616   -0.012696738421266441   0.02347448110777283
-0.14832222574901616   -0.012696738421266441   0.02347448110777283
-0.14467440312079   0.022434120501711854   0.00800540662102028
-0.14467440312079   0.022434120501711854   0.00800540662102028
-0.14467440312079   0.022434120501711854   0.00800540662102028
-0.14467440312079   0.022434120501711854   0.00800540662102028
-0.569349831022241   -0.06384159411683113   -0.010970798905485697
-0.569349831022241   -0.06384159411683113   -0.010970798905485697
-0.569349831022241   -0.06384159411683113   -0.010970798905485697
-0.569349831022241   -0.06384159411683113   -0.010970798905485697
-0.3601150282186755   -0.039059605238337444   -0.011037182254126199
-0.3601150282186755   -0.039059605238337444   -0.011037182254126199
-0.3601150282186755   -0.039059605238337444   -0.011037182254126199
-0.3601150282186755   -0.039059605238337444   -0.011037182254126199
-0.5684221683760571   -0.06495944152651917   -0.005214638264873518
-0.5684221683760571   -0.06495944152651917   -0.005214638264873518
-0.5684221683760571   -0.06495944152651917   -0.005214638264873518
-0.5684221683760571   -0.06495944152651917   -0.005214638264873518
-0.14225716872048033   0.026896864957895193   0.01562883416638524
-0.14225716872048033   0.026896864957895193   0.01562883416638524
-0.14225716872048033   0.026896864957895193   0.01562883416638524
-0.14225716872048033   0.026896864957895193   0.01562883416638524
-0.1364555766422637   0.06677704660169577   0.0020937512732600062
-0.1364555766422637   0.06677704660169577   0.0020937512732600062
-0.1364555766422637   0.06677704660169577   0.0020937512732600062
-0.1364555766422637   0.06677704660169577   0.0020937512732600062
-0.5625365109789384   -0.02397333299642157   -0.018829853962749867
-0.5625365109789384   -0.02397333299642157   -0.018829853962749867
-0.5625365109789384   -0.02397333299642157   -0.018829853962749867
-0.5625365109789384   -0.02397333299642157   -0.018829853962749867
-0.3513368536567893   0.0007918737292942346   0.00470956313546746
-0.3513368536567893   0.0007918737292942346   0.00470956313546746
-0.3513368536567893   0.0007918737292942346   0.00470956313546746
-0.3513368536567893   0.0007918737292942346   0.00470956313546746
-0.5604463257807168   -0.020758588061882827   -0.011593672906180474
-0.5604463257807168   -0.020758588061882827   -0.011593672906180474
-0.5604463257807168   -0.020758588061882827   -0.011593672906180474
-0.5604463257807168   -0.020758588061882827   -0.011593672906180474
-0.13545745056439928   0.06665061294324316   0.007210815321034673
-0.13545745056439928   0.06665061294324316   0.007210815321034673
-0.13545745056439928   0.06665061294324316   0.007210815321034673
-0.13545745056439928   0.06665061294324316   0.007210815321034673
-0.12908378483136956   0.11176308954292447   -0.0048571366172504155
-0.12908378483136956   0.11176308954292447   -0.0048571366172504155
-0.12908378483136956   0.11176308954292447   -0.0048571366172504155
-0.12908378483136956   0.11176308954292447   -0.0048571366172504155
-0.5565547090005947   0.016357604806489345   -0.027047580565510244
-0.5565547090005947   0.016357604806489345   -0.027047580565510244
-0.5565547090005947   0.016357604806489345   -0.027047580565510244
-0.5565547090005947   0.016357604806489345   -0.027047580565510244
-0.34332205063298876   0.04083433969798461   0.019879977230920137
-0.34332205063298876   0.04083433969798461   0.019879977230920137
-0.34332205063298876   0.04083433969798461   0.019879977230920137
-0.34332205063298876   0.04083433969798461   0.019879977230920137
-0.18333125258440047   -0.13337883676531026   -0.030888554725106255
-0.18333125258440047   -0.13337883676531026   -0.030888554725106255
-0.18333125258440047   -0.13337883676531026   -0.030888554725106255
-0.18333125258440047   -0.13337883676531026   -0.030888554725106255
0.2616393426126379   0.02077438225128396   0.05090724535623385
0.2616393426126379   0.02077438225128396   0.05090724535623385
0.2616393426126379   0.02077438225128396   0.05090724535623385
0.2616393426126379   0.02077438225128396   0.05090724535623385
0.24344219993057015   -0.007179442910752509   -0.028366435720187915
0.24344219993057015   -0.007179442910752509   -0.028366435720187915
0.24344219993057015   -0.007179442910752509   -0.028366435720187915
0.24344219993057015   -0.007179442910752509   -0.028366435720187915
-0.15318862321404167   -0.030976768868790198   0.01884519552526273
-0.15318862321404167   -0.030976768868790198   0.01884519552526273
-0.15318862321404167   -0.030976768868790198   0.01884519552526273
-0.15318862321404167   -0.030976768868790198   0.01884519552526273
0.04048495224029225   -0.036644988069614554   -0.007854854511747712
0.04048495224029225   -0.036644988069614554   -0.007854854511747712
0.04048495224029225   -0.036644988069614554   -0.007854854511747712
0.04048495224029225   -0.036644988069614554   -0.007854854511747712
-0.17700399240355563   -0.09319756507646562   -0.03801085421463051
-0.17700399240355563   -0.09319756507646562   -0.03801085421463051
-0.17700399240355563   -0.09319756507646562   -0.03801085421463051
-0.17700399240355563   -0.09319756507646562   -0.03801085421463051
0.27123845258875495   0.05902223676559697   0.04441314789438663
0.27123845258875495   0.05902223676559697   0.04441314789438663
0.27123845258875495   0.05902223676559697   0.04441314789438663
0.27123845258875495   0.05902223676559697   0.04441314789438663
0.2587297807389088   0.03476607870493617   -0.032136992631028635
0.2587297807389088   0.03476607870493617   -0.032136992631028635
0.2587297807389088   0.03476607870493617   -0.032136992631028635
0.2587297807389088   0.03476607870493617   -0.032136992631028635
-0.14725725458071892   0.004677470149933381   0.010184938032745058
-0.14725725458071892   0.004677470149933381   0.010184938032745058
-0.14725725458071892   0.004677470149933381   0.010184938032745058
-0.14725725458071892   0.004677470149933381   0.010184938032745058
0.048613966507918424   -0.0005146568164084899   0.008162604836024913
0.048613966507918424   -0.0005146568164084899   0.008162604836024913
0.048613966507918424   -0.0005146568164084899   0.008162604836024913
0.048613966507918424   -0.0005146568164084899   0.008162604836024913
-0.17024011704033898   -0.053842402623159515   -0.04620950149226104
-0.17024011704033898   -0.053842402623159515   -0.04620950149226104
-0.17024011704033898   -0.053842402623159515   -0.04620950149226104
-0.17024011704033898   -0.053842402623159515   -0.04620950149226104
0.28516489348828894   0.09673820176779185   0.038066448053014304
0.28516489348828894   0.09673820176779185   0.038066448053014304
0.28516489348828894   0.09673820176779185   0.038066448053014304
0.28516489348828894   0.09673820176779185   0.038066448053014304
0.27103852927198363   0.08258223332975077   -0.037131826089442724
0.27103852927198363   0.08258223332975077   -0.037131826089442724
0.27103852927198363   0.08258223332975077   -0.037131826089442724
0.27103852927198363   0.08258223332975077   -0.037131826089442724
-0.1409176761409814   0.045789873967121544   0.0019466224104932664
-0.1409176761409814   0.045789873967121544   0.0019466224104932664
-0.1409176761409814   0.045789873967121544   0.0019466224104932664
-0.1409176761409814   0.045789873967121544   0.0019466224104932664
0.061180445053178815   0.038799599855240646   0.024752802400972676
0.061180445053178815   0.038799599855240646   0.024752802400972676
0.061180445053178815   0.038799599855240646   0.024752802400972676
0.061180445053178815   0.038799599855240646   0.024752802400972676
0.2081595068350268   -0.13477538793615806   -0.060942163344377714
0.2081595068350268   -0.13477538793615806   -0.060942163344377714
0.2081595068350268   -0.13477538793615806   -0.060942163344377714
0.2081595068350268   -0.13477538793615806   -0.060942163344377714
0.6261596727279511   0.06171157325156852   0.06590336986283954
0.6261596727279511   0.06171157325156852   0.06590336986283954
0.6261596727279511   0.06171157325156852   0.06590336986283954
0.6261596727279511   0.06171157325156852   0.06590336986283954
0.6199350880317313   -0.0330349784071933   -0.08022498752005001
0.6199350880317313   -0.0330349784071933   -0.08022498752005001
0.6199350880317313   -0.0330349784071933   -0.08022498752005001
0.6199350880317313   -0.0330349784071933   -0.08022498752005001
0.26261447394949283   0.011140080241937314   0.049175411221735535
0.26261447394949283   0.011140080241937314   0.049175411221735535
0.26261447394949283   0.011140080241937314   0.049175411221735535
0.26261447394949283   0.011140080241937314   0.049175411221735535
0.4068462184542043   -0.027849347600173963   -0.021469862550265572
0.4068462184542043   -0.027849347600173963   -0.021469862550265572
0.4068462184542043   -0.027849347600173963   -0.021469862550265572
0.4068462184542043   -0.027849347600173963   -0.021469862550265572
0.21399787211047405   -0.11227577302809855   -0.07049174470332224
0.21399787211047405   -0.11227577302809855   -0.07049174470332224
0.21399787211047405   -0.11227577302809855   -0.07049174470332224
0.21399787211047405   -0.11227577302809855   -0.07049174470332224
0.6726104865626588   0.09443967155475311   0.05567735517264864
0.6726104865626588   0.09443967155475311   0.05567735517264864
0.6726104865626588   0.09443967155475311   0.05567735517264864
0.6726104865626588   0.09443967155475311   0.05567735517264864
0.6537272396415198   -0.009534833512227378   -0.09620687444711354
0.6537272396415198   -0.009534833512227378   -0.09620687444711354
0.6537272396415198   -0.009534833512227378   -0.09620687444711354
0.6537272396415198   -0.009534833512227378   -0.09620687444711354
0.2715427227662853   0.02835353469501238   0.03834026151577562
0.2715427227662853   0.02835353469501238   0.03834026151577562
0.2715427227662853   0.02835353469501238   0.03834026151577562
0.2715427227662853   0.02835353469501238   0.03834026151577562
0.44100173840281326   -0.004158316265912634   -0.0025947182482530286
0.44100173840281326   -0.004158316265912634   -0.0025947182482530286
0.44100173840281326   -0.004158316265912634   -0.0025947182482530286
0.44100173840281326   -0.004158316265912634   -0.0025947182482530286
0.22331138025989208   -0.09272434480280381   -0.08173857151837201
0.22331138025989208   -0.09272434480280381   -0.08173857151837201
0.22331138025989208   -0.09272434480280381   -0.08173857151837201
0.22331138025989208   -0.09272434480280381   -0.08173857151837201
0.7061871564988411   0.11577162033651603   0.04078625599075337
0.7061871564988411   0.11577162033651603   0.04078625599075337
0.7061871564988411   0.11577162033651603   0.04078625599075337
0.7061871564988411   0.11577162033651603   0.04078625599075337
0.7056038936453006   0.04208087894909719   -0.10297792171600238
0.7056038936453006   0.04208087894909719   -0.10297792171600238
0.7056038936453006   0.04208087894909719   -0.10297792171600238
0.7056038936453006   0.04208087894909719   -0.10297792171600238
0.2806803710721324   0.06319809418735335   0.030461522053695598
0.2806803710721324   0.06319809418735335   0.030461522053695598
0.2806803710721324   0.06319809418735335   0.030461522053695598
0.2806803710721324   0.06319809418735335   0.030461522053695598
0.4580041274293588   0.02196097771647952   0.013641052185208502
0.4580041274293588   0.02196097771647952   0.013641052185208502
0.4580041274293588   0.02196097771647952   0.013641052185208502
0.4580041274293588   0.02196097771647952   0.013641052185208502
-0.8431176701584124   -0.014198468161886552   0.08222699000823153
-0.8431176701584124   -0.014198468161886552   0.08222699000823153
-0.8431176701584124   -0.014198468161886552   0.08222699000823153
-0.8431176701584124   -0.014198468161886552   0.08222699000823153
-0.6573700034382373   -0.08339113476889382   -0.04070254980516689
-0.6573700034382373   -0.08339113476889382   -0.04070254980516689
-0.6573700034382373   -0.08339113476889382   -0.04070254980516689
-0.6573700034382373   -0.08339113476889382   -0.04070254980516689
-0.5950471917771761   0.07067349409909897   0.07031947753941112
-0.5950471917771761   0.07067349409909897   0.07031947753941112
-0.5950471917771761   0.07067349409909897   0.07031947753941112
-0.5950471917771761   0.07067349409909897   0.07031947753941112
-0.8395427912599477   -0.09144251314597135   -0.055392204322421194
-0.8395427912599477   -0.09144251314597135   -0.055392204322421194
-0.8395427912599477   -0.09144251314597135   -0.055392204322421194
-0.8395427912599477   -0.09144251314597135   -0.055392204322421194
-0.7056729929588011   -0.01943669333815512   -0.01034364030718029
-0.7056729929588011   -0.01943669333815512   -0.01034364030718029
-0.7056729929588011   -0.01943669333815512   -0.01034364030718029
-0.7056729929588011   -0.01943669333815512   -0.01034364030718029
-0.7877045988035585   0.03379113845720874   0.07856510635634534
-0.7877045988035585   0.03379113845720874   0.07856510635634534
-0.7877045988035585   0.03379113845720874   0.07856510635634534
-0.7877045988035585   0.03379113845720874   0.07856510635634534
-0.6432863529612993   -0.050961126231814285   -0.04924170805028422
-0.6432863529612993   -0.050961126231814285   -0.04924170805028422
-0.6432863529612993   -0.050961126231814285   -0.04924170805028422
-0.6432863529612993   -0.050961126231814285   -0.04924170805028422
-0.580269454767251   0.08899706784425995   0.05948203251401112
-0.580269454767251   0.08899706784425995   0.05948203251401112
-0.580269454767251   0.08899706784425995   0.05948203251401112
-0.580269454767251   0.08899706784425995   0.05948203251401112
-0.8010238928348402   -0.07067923166702438   -0.06921580199757833
-0.8010238928348402   -0.07067923166702438   -0.06921580199757833
-0.8010238928348402   -0.07067923166702438   -0.06921580199757833
-0.8010238928348402   -0.07067923166702438   -0.06921580199757833
-0.6855375830552998   0.004551259690171144   0.004959288569267736
-0.6855375830552998   0.004551259690171144   0.004959288569267736
-0.6855375830552998   0.004551259690171144   0.004959288569267736
-0.6855375830552998   0.004551259690171144   0.004959288569267736
-0.749142492325412   0.05602370633860995   0.06348826254392292
-0.749142492325412   0.05602370633860995   0.06348826254392292
-0.749142492325412   0.05602370633860995   0.06348826254392292
-0.749142492325412   0.05602370633860995   0.06348826254392292
-0.6287431600538121   -0.03429817493850708   -0.05959125113601983
-0.6287431600538121   -0.03429817493850708   -0.05959125113601983
-0.6287431600538121   -0.03429817493850708   -0.05959125113601983
-0.6287431600538121   -0.03429817493850708   -0.05959125113601983
-0.5682949495195172   0.11180387794317034   0.051301111300819484
-0.5682949495195172   0.11180387794317034   0.051301111300819484
-0.5682949495195172   0.11180387794317034   0.051301111300819484
-0.5682949495195172   0.11180387794317034   0.051301111300819484
-0.7492726065566793   -0.03744082317011421   -0.08010456571649416
-0.7492726065566793   -0.03744082317011421   -0.08010456571649416
-0.7492726065566793   -0.03744082317011421   -0.08010456571649416
-0.7492726065566793   -0.03744082317011421   -0.08010456571649416
-0.6448862182669758   0.028195733515645333   0.02395230769318914
-0.6448862182669758   0.028195733515645333   0.02395230769318914
-0.6448862182669758   0.028195733515645333   0.02395230769318914
-0.6448862182669758   0.028195733515645333   0.02395230769318914
-0.6343571971246312   -0.04779369221344229   0.038764039207411775
-0.6343571971246312   -0.04779369221344229   0.038764039207411775
-0.6343571971246312   -0.04779369221344229   0.038764039207411775
-0.6343571971246312   -0.04779369221344229   0.038764039207411775
-0.46546838929182544   -0.06322956158865042   -0.012052427604378144
-0.46546838929182544   -0.06322956158865042   -0.012052427604378144
-0.46546838929182544   -0.06322956158865042   -0.012052427604378144
-0.46546838929182544   -0.06322956158865042   -0.012052427604378144
-0.430706500222134   0.032109064182128444   0.03594799891432743
-0.430706500222134   0.032109064182128444   0.03594799891432743
-0.430706500222134   0.032109064182128444   0.03594799891432743
-0.430706500222134   0.032109064182128444   0.03594799891432743
-0.6437068794889806   -0.0675114740491375   -0.03479399287136396
-0.6437068794889806   -0.0675114740491375   -0.03479399287136396
-0.6437068794889806   -0.0675114740491375   -0.03479399287136396
-0.6437068794889806   -0.0675114740491375   -0.03479399287136396
-0.5420523502693125   -0.033725191936280235   -0.014584843403541284
-0.5420523502693125   -0.033725191936280235   -0.014584843403541284
-0.5420523502693125   -0.033725191936280235   -0.014584843403541284
-0.5420523502693125   -0.033725191936280235   -0.014584843403541284
-0.617829408354781   -0.005907282897642571   0.03298917164812446
-0.617829408354781   -0.005907282897642571   0.03298917164812446
-0.617829408354781   -0.005907282897642571   0.03298917164812446
-0.617829408354781   -0.005907282897642571   0.03298917164812446
-0.45368111355035606   -0.02659226916339151   -0.020223734381258605
-0.45368111355035606   -0.02659226916339151   -0.020223734381258605
-0.45368111355035606   -0.02659226916339151   -0.020223734381258605
-0.45368111355035606   -0.02659226916339151   -0.020223734381258605
-0.4179618638311126   0.06937462341096805   0.02875466674829317
-0.4179618638311126   0.06937462341096805   0.02875466674829317
-0.4179618638311126   0.06937462341096805   0.02875466674829317
-0.4179618638311126   0.06937462341096805   0.02875466674829317
-0.6246307769358715   -0.03167428573831965   -0.041653224746499726
-0.6246307769358715   -0.03167428573831965   -0.041653224746499726
-0.6246307769358715   -0.03167428573831965   -0.041653224746499726
-0.6246307769358715   -0.03167428573831965   -0.041653224746499726
-0.5236316440848249   0.0022152148051093473   0.001512523232391233
-0.5236316440848249   0.0022152148051093473   0.001512523232391233
-0.5236316440848249   0.0022152148051093473   0.001512523232391233
-0.5236316440848249   0.0022152148051093473   0.001512523232391233
-0.5972349196977782   0.03374952835758491   0.02990224734805024
-0.5972349196977782   0.03374952835758491   0.02990224734805024
-0.5972349196977782   0.03374952835758491   0.02990224734805024
-0.5972349196977782   0.03374952835758491   0.02990224734805024
-0.4420064596286893   0.007302070755581758   -0.02939575958420559
-0.4420064596286893   0.007302070755581758   -0.02939575958420559
-0.4420064596286893   0.007302070755581758   -0.02939575958420559
-0.4420064596286893   0.007302070755581758   -0.02939575958420559
-0.4052581425232605   0.10981583537714373   0.021903378844087468
-0.4052581425232605   0.10981583537714373   0.021903378844087468
-0.4052581425232605   0.10981583537714373   0.021903378844087468
-0.4052581425232605   0.10981583537714373   0.021903378844087468
-0.6088773982744801   0.0074593410513582314   -0.0472665955821801
-0.6088773982744801   0.0074593410513582314   -0.0472665955821801
-0.6088773982744801   0.0074593410513582314   -0.0472665955821801
-0.6088773982744801   0.0074593410513582314   -0.0472665955821801
-0.5103078739620808   0.037438194476750994   0.01725414378418996
-0.5103078739620808   0.037438194476750994   0.01725414378418996
-0.5103078739620808   0.037438194476750994   0.01725414378418996
-0.5103078739620808   0.037438194476750994   0.01725414378418996
-0.46491879699543354   -0.07934812869526549   0.006814100984188935
-0.46491879699543354   -0.07934812869526549   0.006814100984188935
-0.46491879699543354   -0.07934812869526549   0.006814100984188935
-0.46491879699543354   -0.07934812869526549   0.006814100984188935
-0.27617589503600803   -0.033323152865675734   0.017087822703393367
-0.27617589503600803   -0.033323152865675734   0.017087822703393367
-0.27617589503600803   -0.033323152865675734   0.017087822703393367
-0.27617589503600803   -0.033323152865675734   0.017087822703393367
-0.2666824904391068   -0.0006725115086517394   0.002207273552277088
-0.2666824904391068   -0.0006725115086517394   0.002207273552277088
-0.2666824904391068   -0.0006725115086517394   0.002207273552277088
-0.2666824904391068   -0.0006725115086517394   0.002207273552277088
-0.4523643332198447   -0.036205331516536786   -0.0040267703755597645
-0.4523643332198447   -0.036205331516536786   -0.0040267703755597645
-0.4523643332198447   -0.036205331516536786   -0.0040267703755597645
-0.4523643332198447   -0.036205331516536786   -0.0040267703755597645
-0.36561550321131686   -0.035639471499172806   -0.01061892196410772
-0.36561550321131686   -0.035639471499172806   -0.01061892196410772
-0.36561550321131686   -0.035639471499172806   -0.01061892196410772
-0.36561550321131686   -0.035639471499172806   -0.01061892196410772
-0.45182694574018406   -0.03804324181506948   0.0004980773212714361
-0.45182694574018406   -0.03804324181506948   0.0004980773212714361
-0.45182694574018406   -0.03804324181506948   0.0004980773212714361
-0.45182694574018406   -0.03804324181506948   0.0004980773212714361
-0.2643332585764228   0.00405201813222348   0.009228903224819705
-0.2643332585764228   0.00405201813222348   0.009228903224819705
-0.2643332585764228   0.00405201813222348   0.009228903224819705
-0.2643332585764228   0.00405201813222348   0.009228903224819705
-0.2528414237082084   0.04099810133929857   -0.003667769554879196
-0.2528414237082084   0.04099810133929857   -0.003667769554879196
-0.2528414237082084   0.04099810133929857   -0.003667769554879196
-0.2528414237082084   0.04099810133929857   -0.003667769554879196
-0.43959670852284577   0.0017028885363918195   -0.011747821835799203
-0.43959670852284577   0.0017028885363918195   -0.011747821835799203
-0.43959670852284577   0.0017028885363918195   -0.011747821835799203
-0.43959670852284577   0.0017028885363918195   -0.011747821835799203
-0.3510169992455891   0.0018284774257200792   0.004990283430233939
-0.3510169992455891   0.0018284774257200792   0.004990283430233939
-0.3510169992455891   0.0018284774257200792   0.004990283430233939
-0.3510169992455891   0.0018284774257200792   0.004990283430233939
-0.43807197421850863   0.003501077327222102   -0.005922339104946474
-0.43807197421850863   0.003501077327222102   -0.005922339104946474
-0.43807197421850863   0.003501077327222102   -0.005922339104946474
-0.43807197421850863   0.003501077327222102   -0.005922339104946474
-0.25175575557937935   0.04181031498163077   0.0009483574469291191
-0.25175575557937935   0.04181031498163077   0.0009483574469291191
-0.25175575557937935   0.04181031498163077   0.0009483574469291191
-0.25175575557937935   0.04181031498163077   0.0009483574469291191
-0.23976846273480756   0.08305007107542668   -0.01037149548661058
-0.23976846273480756   0.08305007107542668   -0.01037149548661058
-0.23976846273480756   0.08305007107542668   -0.01037149548661058
-0.23976846273480756   0.08305007107542668   -0.01037149548661058
-0.427620916469813   0.03990367466001926   -0.01999833017154272
-0.427620916469813   0.03990367466001926   -0.01999833017154272
-0.427620916469813   0.03990367466001926   -0.01999833017154272
-0.427620916469813   0.03990367466001926   -0.01999833017154272
-0.33720717279257956   0.039430877199404205   0.01997145305527096
-0.33720717279257956   0.039430877199404205   0.01997145305527096
-0.33720717279257956   0.039430877199404205   0.01997145305527096
-0.33720717279257956   0.039430877199404205   0.01997145305527096
-0.2993811048374612   -0.10671952678657465   -0.025541852382978063
-0.2993811048374612   -0.10671952678657465   -0.025541852382978063
-0.2993811048374612   -0.10671952678657465   -0.025541852382978063
-0.2993811048374612   -0.10671952678657465   -0.025541852382978063
-0.09215284703332165   -0.0015686004170465482   0.04480683027166675
-0.09215284703332165   -0.0015686004170465482   0.04480683027166675
-0.09215284703332165   -0.0015686004170465482   0.04480683027166675
-0.09215284703332165   -0.0015686004170465482   0.04480683027166675
-0.10483088740511741   -0.03164853774121842   -0.03287138464581797
-0.10483088740511741   -0.03164853774121842   -0.03287138464581797
-0.10483088740511741   -0.03164853774121842   -0.03287138464581797
-0.10483088740511741   -0.03164853774121842   -0.03287138464581797
-0.26267720060684024   -0.004075817464504694   0.025637028669460896
-0.26267720060684024   -0.004075817464504694   0.025637028669460896
-0.26267720060684024   -0.004075817464504694   0.025637028669460896
-0.26267720060684024   -0.004075817464504694   0.025637028669460896
-0.18973212957940822   -0.034431415351621565   -0.007662735135597057
-0.18973212957940822   -0.034431415351621565   -0.007662735135597057
-0.18973212957940822   -0.034431415351621565   -0.007662735135597057
-0.18973212957940822   -0.034431415351621565   -0.007662735135597057
-0.28704582216762664   -0.0679780225702957   -0.032303874028682296
-0.28704582216762664   -0.0679780225702957   -0.032303874028682296
-0.28704582216762664   -0.0679780225702957   -0.032303874028682296
-0.28704582216762664   -0.0679780225702957   -0.032303874028682296
-0.07722754843840343   0.03548838477050245   0.03800838767602911
-0.07722754843840343   0.03548838477050245   0.03800838767602911
-0.07722754843840343   0.03548838477050245   0.03800838767602911
-0.07722754843840343   0.03548838477050245   0.03800838767602911
-0.08459999064567097   0.007770976780493145   -0.03700479274951939
-0.08459999064567097   0.007770976780493145   -0.03700479274951939
-0.08459999064567097   0.007770976780493145   -0.03700479274951939
-0.08459999064567097   0.007770976780493145   -0.03700479274951939
-0.2508952772791117   0.029962473393385994   0.017098590536514566
-0.2508952772791117   0.029962473393385994   0.017098590536514566
-0.2508952772791117   0.029962473393385994   0.017098590536514566
-0.2508952772791117   0.029962473393385994   0.017098590536514566
-0.17420677138448576   0.00046160166768230426   0.00824343123791463
-0.17420677138448576   0.00046160166768230426   0.00824343123791463
-0.17420677138448576   0.00046160166768230426   0.00824343123791463
-0.17420677138448576   0.00046160166768230426   0.00824343123791463
-0.27449051220988074   -0.030824325939363968   -0.04009078478458293
-0.27449051220988074   -0.030824325939363968   -0.04009078478458293
-0.27449051220988074   -0.030824325939363968   -0.04009078478458293
-0.27449051220988074   -0.030824325939363968   -0.04009078478458293
-0.05799369683736809   0.07156883499077485   0.03222881808171525
-0.05799369683736809   0.07156883499077485   0.03222881808171525
-0.05799369683736809   0.07156883499077485   0.03222881808171525
-0.05799369683736809   0.07156883499077485   0.03222881808171525
-0.0674863632485331   0.05179637847284467   -0.04145216795333942
-0.0674863632485331   0.05179637847284467   -0.04145216795333942
-0.0674863632485331   0.05179637847284467   -0.04145216795333942
-0.0674863632485331   0.05179637847284467   -0.04145216795333942
-0.23883386560226633   0.06848407400458087   0.008867487246941447
-0.23883386560226633   0.06848407400458087   0.008867487246941447
-0.23883386560226633   0.06848407400458087   0.008867487246941447
-0.23883386560226633   0.06848407400458087   0.008867487246941447
-0.1581315009531051   0.036842341722874525   0.024154539314791012
-0.1581315009531051   0.036842341722874525   0.024154539314791012
-0.1581315009531051   0.036842341722874525   0.024154539314791012
-0.1581315009531051   0.036842341722874525   0.024154539314791012
-0.13485514080558952   -0.11477225935754234   -0.05550097964917687
-0.13485514080558952   -0.11477225935754234   -0.05550097964917687
-0.13485514080558952   -0.11477225935754234   -0.05550097964917687
-0.13485514080558952   -0.11477225935754234   -0.05550097964917687
0.046993076098675396   0.034008503599872814   0.0682976807848471
0.046993076098675396   0.034008503599872814   0.0682976807848471
0.046993076098675396   0.034008503599872814   0.0682976807848471
0.046993076098675396   0.034008503599872814   0.0682976807848471
0.04736026208297457   -0.05644334349896931   -0.07348749561626393
0.04736026208297457   -0.05644334349896931   -0.07348749561626393
0.04736026208297457   -0.05644334349896931   -0.07348749561626393
0.04736026208297457   -0.05644334349896931   -0.07348749561626393
-0.07366727783403121   0.03540038439454951   0.05589774107384362
-0.07366727783403121   0.03540038439454951   0.05589774107384362
-0.07366727783403121   0.03540038439454951   0.05589774107384362
-0.07366727783403121   0.03540038439454951   0.05589774107384362
-0.03008026896960439   -0.024339496490451962   -0.013006843628898302
-0.03008026896960439   -0.024339496490451962   -0.013006843628898302
-0.03008026896960439   -0.024339496490451962   -0.013006843628898302
-0.03008026896960439   -0.024339496490451962   -0.013006843628898302
-0.12237902735545292   -0.08845485557595276   -0.06380576656276506
-0.12237902735545292   -0.08845485557595276   -0.06380576656276506
-0.12237902735545292   -0.08845485557595276   -0.06380576656276506
-0.12237902735545292   -0.08845485557595276   -0.06380576656276506
0.09953063113365944   0.0708705160007976   0.06005049013739348
0.09953063113365944   0.0708705160007976   0.06005049013739348
0.09953063113365944   0.0708705160007976   0.06005049013739348
0.09953063113365944   0.0708705160007976   0.06005049013739348
0.08607997345905354   -0.03386500398062174   -0.08728968255514785
0.08607997345905354   -0.03386500398062174   -0.08728968255514785
0.08607997345905354   -0.03386500398062174   -0.08728968255514785
0.08607997345905354   -0.03386500398062174   -0.08728968255514785
-0.059431235664110856   0.05178332138499006   0.04482663755378518
-0.059431235664110856   0.05178332138499006   0.04482663755378518
-0.059431235664110856   0.05178332138499006   0.04482663755378518
-0.059431235664110856   0.05178332138499006   0.04482663755378518
0.0017731385127406415   -0.0011130783548625863   0.004234636647360383
0.0017731385127406415   -0.0011130783548625863   0.004234636647360383
0.0017731385127406415   -0.0011130783548625863   0.004234636647360383
0.0017731385127406415   -0.0011130783548625863   0.004234636647360383
-0.1074861508241845   -0.06987767974879615   -0.07378693711279768
-0.1074861508241845   -0.06987767974879615   -0.07378693711279768
-0.1074861508241845   -0.06987767974879615   -0.07378693711279768
-0.1074861508241845   -0.06987767974879615   -0.07378693711279768
0.13759606194728272   0.09125717048132313   0.045168585424056974
0.13759606194728272   0.09125717048132313   0.045168585424056974
0.13759606194728272   0.09125717048132313   0.045168585424056974
0.13759606194728272   0.09125717048132313   0.045168585424056974
0.14032507827980953   0.010340244243834786   -0.09347243487158968
0.14032507827980953   0.010340244243834786   -0.09347243487158968
0.14032507827980953   0.010340244243834786   -0.09347243487158968
0.14032507827980953   0.010340244243834786   -0.09347243487158968
-0.04613041661734766   0.08069686378989045   0.03642707988554261
-0.04613041661734766   0.08069686378989045   0.03642707988554261
-0.04613041661734766   0.08069686378989045   0.03642707988554261
-0.04613041661734766   0.08069686378989045   0.03642707988554261
0.03044671194591902   0.02329768645698755   0.02108161628704501
0.03044671194591902   0.02329768645698755   0.02108161628704501
0.03044671194591902   0.02329768645698755   0.02108161628704501
0.03044671194591902   0.02329768645698755   0.02108161628704501
-0.27977353553046846   0.015873644441901112   0.07802487834104915
-0.27977353553046846   0.015873644441901112   0.07802487834104915
-0.27977353553046846   0.015873644441901112   0.07802487834104915
-0.27977353553046846   0.015873644441901112   0.07802487834104915
-0.3320326364213596   -0.10174488964261605   -0.04601054380288967
-0.3320326364213596   -0.10174488964261605   -0.04601054380288967
-0.3320326364213596   -0.10174488964261605   -0.04601054380288967
-0.3320326364213596   -0.10174488964261605   -0.04601054380288967
-0.2650858683114554   0.047306055357296886   0.06389371524542764
-0.2650858683114554   0.047306055357296886   0.06389371524542764
-0.2650858683114554   0.047306055357296886   0.06389371524542764
-0.2650858683114554   0.047306055357296886   0.06389371524542764
-0.2716648233617382   -0.0669857730288116   -0.0592788430970052
-0.2716648233617382   -0.0669857730288116   -0.0592788430970052
-0.2716648233617382   -0.0669857730288116   -0.0592788430970052
-0.2716648233617382   -0.0669857730288116   -0.0592788430970052
-0.2798621576654094   -0.02152994298438205   -0.02131634362059113
-0.2798621576654094   -0.02152994298438205   -0.02131634362059113
-0.2798621576654094   -0.02152994298438205   -0.02131634362059113
-0.2798621576654094   -0.02152994298438205   -0.02131634362059113
-0.22027174768694568   0.058025240735617344   0.07267552151252894
-0.22027174768694568   0.058025240735617344   0.07267552151252894
-0.22027174768694568   0.058025240735617344   0.07267552151252894
-0.22027174768694568   0.058025240735617344   0.07267552151252894
-0.3132621018545328   -0.0744881162754176   -0.05519328083724065
-0.3132621018545328   -0.0744881162754176   -0.05519328083724065
-0.3132621018545328   -0.0744881162754176   -0.05519328083724065
-0.3132621018545328   -0.0744881162754176   -0.05519328083724065
-0.24440514890940118   0.06524273866549045   0.0537753057395567
-0.24440514890940118   0.06524273866549045   0.0537753057395567
-0.24440514890940118   0.06524273866549045   0.0537753057395567
-0.24440514890940118   0.06524273866549045   0.0537753057395567
-0.22740416944119352   -0.0467149912371334   -0.07385133841618624
-0.22740416944119352   -0.0467149912371334   -0.07385133841618624
-0.22740416944119352   -0.0467149912371334   -0.07385133841618624
-0.22740416944119352   -0.0467149912371334   -0.07385133841618624
-0.24720880617811483   0.0013906381958294217   -0.0044112412499999806
-0.24720880617811483   0.0013906381958294217   -0.0044112412499999806
-0.24720880617811483   0.0013906381958294217   -0.0044112412499999806
-0.24720880617811483   0.0013906381958294217   -0.0044112412499999806
-0.17571021847605373   0.07983945719893468   0.05806396797343994
-0.17571021847605373   0.07983945719893468   0.05806396797343994
-0.17571021847605373   0.07983945719893468   0.05806396797343994
-0.17571021847605373   0.07983945719893468   0.05806396797343994
-0.29306424703902306   -0.058276856935061475   -0.06600058930799702
-0.29306424703902306   -0.058276856935061475   -0.06600058930799702
-0.29306424703902306   -0.058276856935061475   -0.06600058930799702
-0.29306424703902306   -0.058276856935061475   -0.06600058930799702
-0.22548100421132872   0.09262768067322552   0.04644635115482321
-0.22548100421132872   0.09262768067322552   0.04644635115482321
-0.22548100421132872   0.09262768067322552   0.04644635115482321
-0.22548100421132872   0.09262768067322552   0.04644635115482321
-0.16832637438600326   -0.008181976758599135   -0.0831982665106052
-0.16832637438600326   -0.008181976758599135   -0.0831982665106052
-0.16832637438600326   -0.008181976758599135   -0.0831982665106052
-0.16832637438600326   -0.008181976758599135   -0.0831982665106052
-0.2079399364091671   0.025330905418611438   0.013693321252278762
-0.2079399364091671   0.025330905418611438   0.013693321252278762
-0.2079399364091671   0.025330905418611438   0.013693321252278762
-0.2079399364091671   0.025330905418611438   0.013693321252278762
-0.2972783109172722   -0.018314851314897865   0.04433104538982567
-0.2972783109172722   -0.018314851314897865   0.04433104538982567
-0.2972783109172722   -0.018314851314897865   0.04433104538982567
-0.2972783109172722   -0.018314851314897865   0.04433104538982567
-0.36864823611429604   -0.08298980416879002   -0.017977157352517495
-0.36864823611429604   -0.08298980416879002   -0.017977157352517495
-0.36864823611429604   -0.08298980416879002   -0.017977157352517495
-0.36864823611429604   -0.08298980416879002   -0.017977157352517495
-0.3285987028686235   0.008398379425838834   0.02964709788316058
-0.3285987028686235   0.008398379425838834   0.02964709788316058
-0.3285987028686235   0.008398379425838834   0.02964709788316058
-0.3285987028686235   0.008398379425838834   0.02964709788316058
-0.30062555152413023   -0.039265413804770756   -0.027233231655875045
-0.30062555152413023   -0.039265413804770756   -0.027233231655875045
-0.30062555152413023   -0.039265413804770756   -0.027233231655875045
-0.30062555152413023   -0.039265413804770756   -0.027233231655875045
-0.32401225154151503   -0.03051371666568422   -0.01501689877369187
-0.32401225154151503   -0.03051371666568422   -0.01501689877369187
-0.32401225154151503   -0.03051371666568422   -0.01501689877369187
-0.32401225154151503   -0.03051371666568422   -0.01501689877369187
-0.27541855597687004   0.02084354640223912   0.03869278587341232
-0.27541855597687004   0.02084354640223912   0.03869278587341232
-0.27541855597687004   0.02084354640223912   0.03869278587341232
-0.27541855597687004   0.02084354640223912   0.03869278587341232
-0.3512866130204421   -0.049191495385731   -0.026202578064364344
-0.3512866130204421   -0.049191495385731   -0.026202578064364344
-0.3512866130204421   -0.049191495385731   -0.026202578064364344
-0.3512866130204421   -0.049191495385731   -0.026202578064364344
-0.310130096472201   0.044080708205338104   0.02262106450811857
-0.310130096472201   0.044080708205338104   0.02262106450811857
-0.310130096472201   0.044080708205338104   0.02262106450811857
-0.310130096472201   0.044080708205338104   0.02262106450811857
-0.27594209022560856   -0.0048625057663439775   -0.03380415640964132
-0.27594209022560856   -0.0048625057663439775   -0.03380415640964132
-0.27594209022560856   -0.0048625057663439775   -0.03380415640964132
-0.27594209022560856   -0.0048625057663439775   -0.03380415640964132
-0.3019571538418911   0.0027930715478376444   0.0005898321207302437
-0.3019571538418911   0.0027930715478376444   0.0005898321207302437
-0.3019571538418911   0.0027930715478376444   0.0005898321207302437
-0.3019571538418911   0.0027930715478376444   0.0005898321207302437
-0.24950986130584535   0.05864953235129319   0.034844950071533064
-0.24950986130584535   0.05864953235129319   0.034844950071533064
-0.24950986130584535   0.05864953235129319   0.034844950071533064
-0.24950986130584535   0.05864953235129319   0.034844950071533064
-0.33387736193049955   -0.01674636645083452   -0.03528818812720304
-0.33387736193049955   -0.01674636645083452   -0.03528818812720304
-0.33387736193049955   -0.01674636645083452   -0.03528818812720304
-0.33387736193049955   -0.01674636645083452   -0.03528818812720304
-0.291572586632019   0.0835622319469676   0.015943047253405805
-0.291572586632019   0.0835622319469676   0.015943047253405805
-0.291572586632019   0.0835622319469676   0.015943047253405805
-0.291572586632019   0.0835622319469676   0.015943047253405805
-0.25463377459507214   0.03330775278460818   -0.039997572875273245
-0.25463377459507214   0.03330775278460818   -0.039997572875273245
-0.25463377459507214   0.03330775278460818   -0.039997572875273245
-0.25463377459507214   0.03330775278460818   -0.039997572875273245
-0.2811066971195495   0.03717567222116318   0.01646937783049773
-0.2811066971195495   0.03717567222116318   0.01646937783049773
-0.2811066971195495   0.03717567222116318   0.01646937783049773
-0.2811066971195495   0.03717567222116318   0.01646937783049773
-0.3560104864076573   -0.050219398565254585   0.012441185577134915
-0.3560104864076573   -0.050219398565254585   0.012441185577134915
-0.3560104864076573   -0.050219398565254585   0.012441185577134915
-0.3560104864076573   -0.050219398565254585   0.012441185577134915
-0.40516773189695243   -0.052348748372047914   0.010879386301463071
-0.40516773189695243   -0.052348748372047914   0.010879386301463071
-0.40516773189695243   -0.052348748372047914   0.010879386301463071
-0.40516773189695243   -0.052348748372047914   0.010879386301463071
-0.3903582839121347   -0.023766221332939756   -0.0038372687652846616
-0.3903582839121347   -0.023766221332939756   -0.0038372687652846616
-0.3903582839121347   -0.023766221332939756   -0.0038372687652846616
-0.3903582839121347   -0.023766221332939756   -0.0038372687652846616
-0.33692440495625114   -0.007123835701658657   0.0035408025725171266
-0.33692440495625114   -0.007123835701658657   0.0035408025725171266
-0.33692440495625114   -0.007123835701658657   0.0035408025725171266
-0.33692440495625114   -0.007123835701658657   0.0035408025725171266
-0.37267323889017157   -0.0314728492576634   -0.0099600029560247
-0.37267323889017157   -0.0314728492576634   -0.0099600029560247
-0.37267323889017157   -0.0314728492576634   -0.0099600029560247
-0.37267323889017157   -0.0314728492576634   -0.0099600029560247
-0.3372020449882376   -0.011134805377433402   0.006163572088356625
-0.3372020449882376   -0.011134805377433402   0.006163572088356625
-0.3372020449882376   -0.011134805377433402   0.006163572088356625
-0.3372020449882376   -0.011134805377433402   0.006163572088356625
-0.3877061518579939   -0.01738075963501229   0.003037929807491775
-0.3877061518579939   -0.01738075963501229   0.003037929807491775
-0.3877061518579939   -0.01738075963501229   0.003037929807491775
-0.3877061518579939   -0.01738075963501229   0.003037929807491775
-0.37096041477347347   0.015831588880436495   -0.009740613864948084
-0.37096041477347347   0.015831588880436495   -0.009740613864948084
-0.37096041477347347   0.015831588880436495   -0.009740613864948084
-0.37096041477347347   0.015831588880436495   -0.009740613864948084
-0.31851816035617814   0.028810034789945357   -0.00404858149637595
-0.31851816035617814   0.028810034789945357   -0.00404858149637595
-0.31851816035617814   0.028810034789945357   -0.00404858149637595
-0.31851816035617814   0.028810034789945357   -0.00404858149637595
-0.35241054132978233   0.003927472398350826   0.005446686527133553
-0.35241054132978233   0.003927472398350826   0.005446686527133553
-0.35241054132978233   0.003927472398350826   0.005446686527133553
-0.35241054132978233   0.003927472398350826   0.005446686527133553
-0.3178791364613972   0.028322734891114892   -0.00036616212364043096
-0.3178791364613972   0.028322734891114892   -0.00036616212364043096
-0.3178791364613972   0.028322734891114892   -0.00036616212364043096
-0.3178791364613972   0.028322734891114892   -0.00036616212364043096
-0.3695285929764339   0.018389734471088312   -0.0051396504704053665
-0.3695285929764339   0.018389734471088312   -0.0051396504704053665
-0.3695285929764339   0.018389734471088312   -0.0051396504704053665
-0.3695285929764339   0.018389734471088312   -0.0051396504704053665
-0.35238679378366256   0.05566894020156363   -0.016406125149940567
-0.35238679378366256   0.05566894020156363   -0.016406125149940567
-0.35238679378366256   0.05566894020156363   -0.016406125149940567
-0.35238679378366256   0.05566894020156363   -0.016406125149940567
-0.3009713397686256   0.06489101993500261   -0.012379506417660585
-0.3009713397686256   0.06489101993500261   -0.012379506417660585
-0.3009713397686256   0.06489101993500261   -0.012379506417660585
-0.3009713397686256   0.06489101993500261   -0.012379506417660585
-0.3330828364695706   0.03939215628803201   0.020132686522386693
-0.3330828364695706   0.03939215628803201   0.020132686522386693
-0.3330828364695706   0.03939215628803201   0.020132686522386693
-0.3330828364695706   0.03939215628803201   0.020132686522386693
-0.41683533408675694   -0.07952328207165817   -0.020284090947953144
-0.41683533408675694   -0.07952328207165817   -0.020284090947953144
-0.41683533408675694   -0.07952328207165817   -0.020284090947953144
-0.41683533408675694   -0.07952328207165817   -0.020284090947953144
-0.4447716298026667   -0.022340966508522936   0.03846189930697139
-0.4447716298026667   -0.022340966508522936   0.03846189930697139
-0.4447716298026667   -0.022340966508522936   0.03846189930697139
-0.4447716298026667   -0.022340966508522936   0.03846189930697139
-0.4519024392380726   -0.05459806723106047   -0.037748981532085626
-0.4519024392380726   -0.05459806723106047   -0.037748981532085626
-0.4519024392380726   -0.05459806723106047   -0.037748981532085626
-0.4519024392380726   -0.05459806723106047   -0.037748981532085626
-0.3735809933332782   0.023847065922875665   0.032435896873182476
-0.3735809933332782   0.023847065922875665   0.032435896873182476
-0.3735809933332782   0.023847065922875665   0.032435896873182476
-0.3735809933332782   0.023847065922875665   0.032435896873182476
-0.42002432377766363   -0.031005145234390193   -0.0062575934535988465
-0.42002432377766363   -0.031005145234390193   -0.0062575934535988465
-0.42002432377766363   -0.031005145234390193   -0.0062575934535988465
-0.42002432377766363   -0.031005145234390193   -0.0062575934535988465
-0.39853693759259   -0.04172876857970487   -0.026767989920799276
-0.39853693759259   -0.04172876857970487   -0.026767989920799276
-0.39853693759259   -0.04172876857970487   -0.026767989920799276
-0.39853693759259   -0.04172876857970487   -0.026767989920799276
-0.4244566102839426   0.013467651966339186   0.031414444041164516
-0.4244566102839426   0.013467651966339186   0.031414444041164516
-0.4244566102839426   0.013467651966339186   0.031414444041164516
-0.4244566102839426   0.013467651966339186   0.031414444041164516
-0.42649533239645676   -0.017047734324294128   -0.04235239293454095
-0.42649533239645676   -0.017047734324294128   -0.04235239293454095
-0.42649533239645676   -0.017047734324294128   -0.04235239293454095
-0.42649533239645676   -0.017047734324294128   -0.04235239293454095
-0.35611010836197543   0.05625768053273145   0.024084826540244214
-0.35611010836197543   0.05625768053273145   0.024084826540244214
-0.35611010836197543   0.05625768053273145   0.024084826540244214
-0.35611010836197543   0.05625768053273145   0.024084826540244214
-0.39701184393733147   0.0030818297835807085   0.00964408996873232
-0.39701184393733147   0.0030818297835807085   0.00964408996873232
-0.39701184393733147   0.0030818297835807085   0.00964408996873232
-0.39701184393733147   0.0030818297835807085   0.00964408996873232
-0.38029310633274815   -0.006209422567350298   -0.03436306021354116
-0.38029310633274815   -0.006209422567350298   -0.03436306021354116
-0.38029310633274815   -0.006209422567350298   -0.03436306021354116
-0.38029310633274815   -0.006209422567350298   -0.03436306021354116
-0.3997959825878094   0.04793572061366892   0.026160901170734854
-0.3997959825878094   0.04793572061366892   0.026160901170734854
-0.3997959825878094   0.04793572061366892   0.026160901170734854
-0.3997959825878094   0.04793572061366892   0.026160901170734854
-0.40425996933173286   0.024330953256496493   -0.046472012764013956
-0.40425996933173286   0.024330953256496493   -0.046472012764013956
-0.40425996933173286   0.024330953256496493   -0.046472012764013956
-0.40425996933173286   0.024330953256496493   -0.046472012764013956
-0.3385909616756778   0.092393372246682   0.015848603344864483
-0.3385909616756778   0.092393372246682   0.015848603344864483
-0.3385909616756778   0.092393372246682   0.015848603344864483
-0.3385909616756778   0.092393372246682   0.015848603344864483
-0.3774531517525444   0.03691844669936169   0.02485258509701556
-0.3774531517525444   0.03691844669936169   0.02485258509701556
-0.3774531517525444   0.03691844669936169   0.02485258509701556
-0.3774531517525444   0.03691844669936169   0.02485258509701556
-0.4770782759623638   -0.09462313547442792   -0.05078916252561838
-0.4770782759623638   -0.09462313547442792   -0.05078916252561838
-0.4770782759623638   -0.09462313547442792   -0.05078916252561838
-0.4770782759623638   -0.09462313547442792   -0.05078916252561838
-0.5272238758230114   0.007396378735085807   0.06915880815508602
-0.5272238758230114   0.007396378735085807   0.06915880815508602
-0.5272238758230114   0.007396378735085807   0.06915880815508602
-0.5272238758230114   0.007396378735085807   0.06915880815508602
-0.5200673947851369   -0.07858584378418587   -0.0676332828687276
-0.5200673947851369   -0.07858584378418587   -0.0676332828687276
-0.5200673947851369   -0.07858584378418587   -0.0676332828687276
-0.5200673947851369   -0.07858584378418587   -0.0676332828687276
-0.4091057782481259   0.05964416105583466   0.06199209513074995
-0.4091057782481259   0.05964416105583466   0.06199209513074995
-0.4091057782481259   0.05964416105583466   0.06199209513074995
-0.4091057782481259   0.05964416105583466   0.06199209513074995
-0.4640078574625223   -0.020294168372927843   -0.0031293089336862263
-0.4640078574625223   -0.020294168372927843   -0.0031293089336862263
-0.4640078574625223   -0.020294168372927843   -0.0031293089336862263
-0.4640078574625223   -0.020294168372927843   -0.0031293089336862263
-0.4578948904959915   -0.06423878946929934   -0.05807051558344882
-0.4578948904959915   -0.06423878946929934   -0.05807051558344882
-0.4578948904959915   -0.06423878946929934   -0.05807051558344882
-0.4578948904959915   -0.06423878946929934   -0.05807051558344882
-0.46864604402040455   0.04792934525781545   0.06295828191293253
-0.46864604402040455   0.04792934525781545   0.06295828191293253
-0.46864604402040455   0.04792934525781545   0.06295828191293253
-0.46864604402040455   0.04792934525781545   0.06295828191293253
-0.47621666554286357   -0.05666011102201204   -0.0806050946024726
-0.47621666554286357   -0.05666011102201204   -0.0806050946024726
-0.47621666554286357   -0.05666011102201204   -0.0806050946024726
-0.47621666554286357   -0.05666011102201204   -0.0806050946024726
-0.3894498792623763   0.07508739879946531   0.0507397396121024
-0.3894498792623763   0.07508739879946531   0.0507397396121024
-0.3894498792623763   0.07508739879946531   0.0507397396121024
-0.3894498792623763   0.07508739879946531   0.0507397396121024
-0.4342963855270703   0.002615608774173106   0.01213297021318132
-0.4342963855270703   0.002615608774173106   0.01213297021318132
-0.4342963855270703   0.002615608774173106   0.01213297021318132
-0.4342963855270703   0.002615608774173106   0.01213297021318132
-0.43728977675573977   -0.04619015346261588   -0.06718219559263786
-0.43728977675573977   -0.04619015346261588   -0.06718219559263786
-0.43728977675573977   -0.04619015346261588   -0.06718219559263786
-0.43728977675573977   -0.04619015346261588   -0.06718219559263786
-0.4256184971050859   0.06737571218448692   0.0483499243799201
-0.4256184971050859   0.06737571218448692   0.0483499243799201
-0.4256184971050859   0.06737571218448692   0.0483499243799201
-0.4256184971050859   0.06737571218448692   0.0483499243799201
-0.41868341289748223   -0.01871552101196179   -0.08808184784355338
-0.41868341289748223   -0.01871552101196179   -0.08808184784355338
-0.41868341289748223   -0.01871552101196179   -0.08808184784355338
-0.41868341289748223   -0.01871552101196179   -0.08808184784355338
-0.3718436748090602   0.09814682875174463   0.04179358435410039
-0.3718436748090602   0.09814682875174463   0.04179358435410039
-0.3718436748090602   0.09814682875174463   0.04179358435410039
-0.3718436748090602   0.09814682875174463   0.04179358435410039
-0.39371483984681127   0.025514897665118552   0.02979402482736533
-0.39371483984681127   0.025514897665118552   0.02979402482736533
-0.39371483984681127   0.025514897665118552   0.02979402482736533
-0.39371483984681127   0.025514897665118552   0.02979402482736533
0.28861652558436146   0.046689549769484404   0.07551249125187394
0.28861652558436146   0.046689549769484404   0.07551249125187394
0.28861652558436146   0.046689549769484404   0.07551249125187394
0.28861652558436146   0.046689549769484404   0.07551249125187394
-0.007165882981669546   -0.12138377224908711   -0.04989549441647224
-0.007165882981669546   -0.12138377224908711   -0.04989549441647224
-0.007165882981669546   -0.12138377224908711   -0.04989549441647224
-0.007165882981669546   -0.12138377224908711   -0.04989549441647224
0.06428467257596154   0.02372945204494672   0.05834778633408665
0.06428467257596154   0.02372945204494672   0.05834778633408665
0.06428467257596154   0.02372945204494672   0.05834778633408665
0.06428467257596154   0.02372945204494672   0.05834778633408665
0.30119779763168064   -0.04261865219779622   -0.06243698376815472
0.30119779763168064   -0.04261865219779622   -0.06243698376815472
0.30119779763168064   -0.04261865219779622   -0.06243698376815472
0.30119779763168064   -0.04261865219779622   -0.06243698376815472
0.1472620715887577   -0.023619647206172736   -0.035952473500657035
0.1472620715887577   -0.023619647206172736   -0.035952473500657035
0.1472620715887577   -0.023619647206172736   -0.035952473500657035
0.1472620715887577   -0.023619647206172736   -0.035952473500657035
0.3525030981338616   0.08333146099891779   0.06813940554603501
0.3525030981338616   0.08333146099891779   0.06813940554603501
0.3525030981338616   0.08333146099891779   0.06813940554603501
0.3525030981338616   0.08333146099891779   0.06813940554603501
0.016129931996513778   -0.09907010122903247   -0.059626363289169135
0.016129931996513778   -0.09907010122903247   -0.059626363289169135
0.016129931996513778   -0.09907010122903247   -0.059626363289169135
0.016129931996513778   -0.09907010122903247   -0.059626363289169135
0.09037436401623407   0.04135136484998802   0.04870190856199329
0.09037436401623407   0.04135136484998802   0.04870190856199329
0.09037436401623407   0.04135136484998802   0.04870190856199329
0.09037436401623407   0.04135136484998802   0.04870190856199329
0.35109718815619806   -0.022710346090993858   -0.07812543143492764
0.35109718815619806   -0.022710346090993858   -0.07812543143492764
0.35109718815619806   -0.022710346090993858   -0.07812543143492764
0.35109718815619806   -0.022710346090993858   -0.07812543143492764
0.19228513691469853   -0.0016428039249044846   -0.01688148391829568
0.19228513691469853   -0.0016428039249044846   -0.01688148391829568
0.19228513691469853   -0.0016428039249044846   -0.01688148391829568
0.19228513691469853   -0.0016428039249044846   -0.01688148391829568
0.4029713579717195   0.1048644968658533   0.053670574685829836
0.4029713579717195   0.1048644968658533   0.053670574685829836
0.4029713579717195   0.1048644968658533   0.053670574685829836
0.4029713579717195   0.1048644968658533   0.053670574685829836
0.041584356806932274   -0.08313931550064431   -0.07075744713388335
0.041584356806932274   -0.08313931550064431   -0.07075744713388335
0.041584356806932274   -0.08313931550064431   -0.07075744713388335
0.041584356806932274   -0.08313931550064431   -0.07075744713388335
0.11569675534314777   0.0736913531254603   0.04214525318054092
0.11569675534314777   0.0736913531254603   0.04214525318054092
0.11569675534314777   0.0736913531254603   0.04214525318054092
0.11569675534314777   0.0736913531254603   0.04214525318054092
0.4173297172687854   0.02185299203366161   -0.0861644374883169
0.4173297172687854   0.02185299203366161   -0.0861644374883169
0.4173297172687854   0.02185299203366161   -0.0861644374883169
0.4173297172687854   0.02185299203366161   -0.0861644374883169
0.23010884924631458   0.022977241466116252   0.0011587603174292816
0.23010884924631458   0.022977241466116252   0.0011587603174292816
0.23010884924631458   0.022977241466116252   0.0011587603174292816
0.23010884924631458   0.022977241466116252   0.0011587603174292816
0.03984447703895767   0.012548897183230146   0.05122363625434271
0.03984447703895767   0.012548897183230146   0.05122363625434271
0.03984447703895767   0.012548897183230146   0.05122363625434271
0.03984447703895767   0.012548897183230146   0.05122363625434271
-0.27480000571123403   -0.10304192439926232   -0.022886648997408353
-0.27480000571123403   -0.10304192439926232   -0.022886648997408353
-0.27480000571123403   -0.10304192439926232   -0.022886648997408353
-0.27480000571123403   -0.10304192439926232   -0.022886648997408353
-0.22969079889509025   -0.014947248711220204   0.023422841182837745
-0.22969079889509025   -0.014947248711220204   0.023422841182837745
-0.22969079889509025   -0.014947248711220204   0.023422841182837745
-0.22969079889509025   -0.014947248711220204   0.023422841182837745
0.04184953718029233   -0.011902318887540734   -0.01819611971177004
0.04184953718029233   -0.011902318887540734   -0.01819611971177004
0.04184953718029233   -0.011902318887540734   -0.01819611971177004
0.04184953718029233   -0.011902318887540734   -0.01819611971177004
-0.10796138545157243   -0.026696713490955846   -0.01729136950886534
-0.10796138545157243   -0.026696713490955846   -0.01729136950886534
-0.10796138545157243   -0.026696713490955846   -0.01729136950886534
-0.10796138545157243   -0.026696713490955846   -0.01729136950886534
0.06670555700572199   0.04873648861495167   0.045445171912883914
0.06670555700572199   0.04873648861495167   0.045445171912883914
0.06670555700572199   0.04873648861495167   0.045445171912883914
0.06670555700572199   0.04873648861495167   0.045445171912883914
-0.2522549662316759   -0.073294203724863   -0.031051040486443846
-0.2522549662316759   -0.073294203724863   -0.031051040486443846
-0.2522549662316759   -0.073294203724863   -0.031051040486443846
-0.2522549662316759   -0.073294203724863   -0.031051040486443846
-0.2058985414856111   0.019218439924513976   0.016557023304650975
-0.2058985414856111   0.019218439924513976   0.016557023304650975
-0.2058985414856111   0.019218439924513976   0.016557023304650975
-0.2058985414856111   0.019218439924513976   0.016557023304650975
0.07154690725928411   0.020537448015034987   -0.02462145838780222
0.07154690725928411   0.020537448015034987   -0.02462145838780222
0.07154690725928411   0.020537448015034987   -0.02462145838780222
0.07154690725928411   0.020537448015034987   -0.02462145838780222
-0.08274496984274761   0.003455721374511323   -0.002092264934089893
-0.08274496984274761   0.003455721374511323   -0.002092264934089893
-0.08274496984274761   0.003455721374511323   -0.002092264934089893
-0.08274496984274761   0.003455721374511323   -0.002092264934089893
0.09744700343968825   0.08471619862874588   0.040700271900506374
0.09744700343968825   0.08471619862874588   0.040700271900506374
0.09744700343968825   0.08471619862874588   0.040700271900506374
0.09744700343968825   0.08471619862874588   0.040700271900506374
-0.22959377800270264   -0.04275545102588373   -0.03994526833040907
-0.22959377800270264   -0.04275545102588373   -0.03994526833040907
-0.22959377800270264   -0.04275545102588373   -0.03994526833040907
-0.22959377800270264   -0.04275545102588373   -0.03994526833040907
-0.18196610174953445   0.05784319725896011   0.010011976650948719
-0.18196610174953445   0.05784319725896011   0.010011976650948719
-0.18196610174953445   0.05784319725896011   0.010011976650948719
-0.18196610174953445   0.05784319725896011   0.010011976650948719
0.09770218432650381   0.05730814146051593   -0.03144439023773695
0.09770218432650381   0.05730814146051593   -0.03144439023773695
0.09770218432650381   0.05730814146051593   -0.03144439023773695
0.09770218432650381   0.05730814146051593   -0.03144439023773695
-0.05487126997648097   0.03673335135283222   0.014106748428789137
-0.05487126997648097   0.03673335135283222   0.014106748428789137
-0.05487126997648097   0.03673335135283222   0.014106748428789137
-0.05487126997648097   0.03673335135283222   0.014106748428789137
-0.24988827574346026   -0.019785599261004944   0.018415675703206808
-0.24988827574346026   -0.019785599261004944   0.018415675703206808
-0.24988827574346026   -0.019785599261004944   0.018415675703206808
-0.24988827574346026   -0.019785599261004944   0.018415675703206808
-0.537595485702291   -0.07314960787992977   0.004763389587304065
-0.537595485702291   -0.07314960787992977   0.004763389587304065
-0.537595485702291   -0.07314960787992977   0.004763389587304065
-0.537595485702291   -0.07314960787992977   0.004763389587304065
-0.5167513328646787   -0.045823852751439756   -0.010132354767960844
-0.5167513328646787   -0.045823852751439756   -0.010132354767960844
-0.5167513328646787   -0.045823852751439756   -0.010132354767960844
-0.5167513328646787   -0.045823852751439756   -0.010132354767960844
-0.2252820335958556   0.01907840721856236   0.011441011749233104
-0.2252820335958556   0.01907840721856236   0.011441011749233104
-0.2252820335958556   0.01907840721856236   0.011441011749233104
-0.2252820335958556   0.01907840721856236   0.011441011749233104
-0.382938474994462   -0.027468675228704387   -0.010058546057834784
-0.382938474994462   -0.027468675228704387   -0.010058546057834784
-0.382938474994462   -0.027468675228704387   -0.010058546057834784
-0.382938474994462   -0.027468675228704387   -0.010058546057834784
-0.2255827058793609   0.016866295924391567   0.012149761625876748
-0.2255827058793609   0.016866295924391567   0.012149761625876748
-0.2255827058793609   0.016866295924391567   0.012149761625876748
-0.2255827058793609   0.016866295924391567   0.012149761625876748
-0.5144863072716699   -0.041647388147766   -0.002983691406594439
-0.5144863072716699   -0.041647388147766   -0.002983691406594439
-0.5144863072716699   -0.041647388147766   -0.002983691406594439
-0.5144863072716699   -0.041647388147766   -0.002983691406594439
-0.4917362677261754   -0.00821068611730573   -0.01593407866260343
-0.4917362677261754   -0.00821068611730573   -0.01593407866260343
-0.4917362677261754   -0.00821068611730573   -0.01593407866260343
-0.4917362677261754   -0.00821068611730573   -0.01593407866260343
-0.20172483524079615   0.05244180666377925   0.004202187789460413
-0.20172483524079615   0.05244180666377925   0.004202187789460413
-0.20172483524079615   0.05244180666377925   0.004202187789460413
-0.20172483524079615   0.05244180666377925   0.004202187789460413
-0.357113126337598   0.005573439450489215   0.0052507825664809896
-0.357113126337598   0.005573439450489215   0.0052507825664809896
-0.357113126337598   0.005573439450489215   0.0052507825664809896
-0.357113126337598   0.005573439450489215   0.0052507825664809896
-0.20112627661562787   0.05418790446095212   0.005448883118128869
-0.20112627661562787   0.05418790446095212   0.005448883118128869
-0.20112627661562787   0.05418790446095212   0.005448883118128869
-0.20112627661562787   0.05418790446095212   0.005448883118128869
-0.49076614078765185   -0.008388098350785841   -0.010906031736509347
-0.49076614078765185   -0.008388098350785841   -0.010906031736509347
-0.49076614078765185   -0.008388098350785841   -0.010906031736509347
-0.49076614078765185   -0.008388098350785841   -0.010906031736509347
-0.4677315437177667   0.029503378048050574   -0.022557511903279717
-0.4677315437177667   0.029503378048050574   -0.022557511903279717
-0.4677315437177667   0.029503378048050574   -0.022557511903279717
-0.4677315437177667   0.029503378048050574   -0.022557511903279717
-0.17918269262889402   0.08590348380298697   -0.004131264289873433
-0.17918269262889402   0.08590348380298697   -0.004131264289873433
-0.17918269262889402   0.08590348380298697   -0.004131264289873433
-0.17918269262889402   0.08590348380298697   -0.004131264289873433
-0.332631991458559   0.038523632726995716   0.01956068221223265
-0.332631991458559   0.038523632726995716   0.01956068221223265
-0.332631991458559   0.038523632726995716   0.01956068221223265
-0.332631991458559   0.038523632726995716   0.01956068221223265
-0.5373248072858857   -0.05162545592390076   -0.015407370286694325
-0.5373248072858857   -0.05162545592390076   -0.015407370286694325
-0.5373248072858857   -0.05162545592390076   -0.015407370286694325
-0.5373248072858857   -0.05162545592390076   -0.015407370286694325
-0.7975780366647545   -0.04505839828757596   0.03191762565886092
-0.7975780366647545   -0.04505839828757596   0.03191762565886092
-0.7975780366647545   -0.04505839828757596   0.03191762565886092
-0.7975780366647545   -0.04505839828757596   0.03191762565886092
-0.7977603403031114   -0.07605157577501062   -0.042877964646415835
-0.7977603403031114   -0.07605157577501062   -0.042877964646415835
-0.7977603403031114   -0.07605157577501062   -0.042877964646415835
-0.7977603403031114   -0.07605157577501062   -0.042877964646415835
-0.4880300813709626   0.04861971493301692   0.039030335016158886
-0.4880300813709626   0.04861971493301692   0.039030335016158886
-0.4880300813709626   0.04861971493301692   0.039030335016158886
-0.4880300813709626   0.04861971493301692   0.039030335016158886
-0.6515134151054656   -0.02783206938553863   -0.004227945922097662
-0.6515134151054656   -0.02783206938553863   -0.004227945922097662
-0.6515134151054656   -0.02783206938553863   -0.004227945922097662
-0.6515134151054656   -0.02783206938553863   -0.004227945922097662
-0.5128080467006131   -0.014777899554202667   -0.021461877144870137
-0.5128080467006131   -0.014777899554202667   -0.021461877144870137
-0.5128080467006131   -0.014777899554202667   -0.021461877144870137
-0.5128080467006131   -0.014777899554202667   -0.021461877144870137
-0.7713605567416777   -0.011032143056002003   0.02410152044174872
-0.7713605567416777   -0.011032143056002003   0.02410152044174872
-0.7713605567416777   -0.011032143056002003   0.02410152044174872
-0.7713605567416777   -0.011032143056002003   0.02410152044174872
-0.7664368713194905   -0.04016631779026758   -0.04770840211726661
-0.7664368713194905   -0.04016631779026758   -0.04770840211726661
-0.7664368713194905   -0.04016631779026758   -0.04770840211726661
-0.7664368713194905   -0.04016631779026758   -0.04770840211726661
-0.46489771434148014   0.0789870811121419   0.031060921031425354
-0.46489771434148014   0.0789870811121419   0.031060921031425354
-0.46489771434148014   0.0789870811121419   0.031060921031425354
-0.46489771434148014   0.0789870811121419   0.031060921031425354
-0.6205589648073147   0.0054730276353908425   0.011543236358928944
-0.6205589648073147   0.0054730276353908425   0.011543236358928944
-0.6205589648073147   0.0054730276353908425   0.011543236358928944
-0.6205589648073147   0.0054730276353908425   0.011543236358928944
-0.4888551113758411   0.019119931680222774   -0.028858914708460012
-0.4888551113758411   0.019119931680222774   -0.028858914708460012
-0.4888551113758411   0.019119931680222774   -0.028858914708460012
-0.4888551113758411   0.019119931680222774   -0.028858914708460012
-0.7406551073966063   0.021525198530174178   0.019508901176712855
-0.7406551073966063   0.021525198530174178   0.019508901176712855
-0.7406551073966063   0.021525198530174178   0.019508901176712855
-0.7406551073966063   0.021525198530174178   0.019508901176712855
-0.7384121527985055   -0.0010109187975875233   -0.05135166075365535
-0.7384121527985055   -0.0010109187975875233   -0.05135166075365535
-0.7384121527985055   -0.0010109187975875233   -0.05135166075365535
-0.7384121527985055   -0.0010109187975875233   -0.05135166075365535
-0.44200533312322504   0.11254430804245451   0.02303261107502403
-0.44200533312322504   0.11254430804245451   0.02303261107502403
-0.44200533312322504   0.11254430804245451   0.02303261107502403
-0.44200533312322504   0.11254430804245451   0.02303261107502403
-0.597356888196245   0.03655013568658377   0.025682933690724292
-0.597356888196245   0.03655013568658377   0.025682933690724292
-0.597356888196245   0.03655013568658377   0.025682933690724292
-0.597356888196245   0.03655013568658377   0.025682933690724292
-0.8191404771439341   -0.07417441513752933   -0.04677855988708371
-0.8191404771439341   -0.07417441513752933   -0.04677855988708371
-0.8191404771439341   -0.07417441513752933   -0.04677855988708371
-0.8191404771439341   -0.07417441513752933   -0.04677855988708371
-1.0938528103777294   -0.019153469892680547   0.06906730991461427
-1.0938528103777294   -0.019153469892680547   0.06906730991461427
-1.0938528103777294   -0.019153469892680547   0.06906730991461427
-1.0938528103777294   -0.019153469892680547   0.06906730991461427
-1.078503991234852   -0.09911374864845879   -0.06239924040399117
-1.078503991234852   -0.09911374864845879   -0.06239924040399117
-1.078503991234852   -0.09911374864845879   -0.06239924040399117
-1.078503991234852   -0.09911374864845879   -0.06239924040399117
-0.7439289926928832   0.08214006959913628   0.06808712803057763
-0.7439289926928832   0.08214006959913628   0.06808712803057763
-0.7439289926928832   0.08214006959913628   0.06808712803057763
-0.7439289926928832   0.08214006959913628   0.06808712803057763
-0.8936069256145814   -0.01584437220166604   0.007383886326969881
-0.8936069256145814   -0.01584437220166604   0.007383886326969881
-0.8936069256145814   -0.01584437220166604   0.007383886326969881
-0.8936069256145814   -0.01584437220166604   0.007383886326969881
-0.7925607209698086   -0.04002627938802855   -0.05290516436688205
-0.7925607209698086   -0.04002627938802855   -0.05290516436688205
-0.7925607209698086   -0.04002627938802855   -0.05290516436688205
-0.7925607209698086   -0.04002627938802855   -0.05290516436688205
-1.0284018400103674   0.024523023286262324   0.06447474378369203
-1.0284018400103674   0.024523023286262324   0.06447474378369203
-1.0284018400103674   0.024523023286262324   0.06447474378369203
-1.0284018400103674   0.024523023286262324   0.06447474378369203
-1.028981574906931   -0.07781856970318043   -0.0742584072565717
-1.028981574906931   -0.07781856970318043   -0.0742584072565717
-1.028981574906931   -0.07781856970318043   -0.0742584072565717
-1.028981574906931   -0.07781856970318043   -0.0742584072565717
-0.7184085900855216   0.09614028656510318   0.05612639969720039
-0.7184085900855216   0.09614028656510318   0.05612639969720039
-0.7184085900855216   0.09614028656510318   0.05612639969720039
-0.7184085900855216   0.09614028656510318   0.05612639969720039
-0.8654722735655258   0.006497520540635959   0.020125956590841515
-0.8654722735655258   0.006497520540635959   0.020125956590841515
-0.8654722735655258   0.006497520540635959   0.020125956590841515
-0.8654722735655258   0.006497520540635959   0.020125956590841515
-0.7655792580713484   -0.022503129681763823   -0.061083523985059694
-0.7655792580713484   -0.022503129681763823   -0.061083523985059694
-0.7655792580713484   -0.022503129681763823   -0.061083523985059694
-0.7655792580713484   -0.022503129681763823   -0.061083523985059694
-0.98001102965816   0.042624723806626685   0.05015102547745645
-0.98001102965816   0.042624723806626685   0.05015102547745645
-0.98001102965816   0.042624723806626685   0.05015102547745645
-0.98001102965816   0.042624723806626685   0.05015102547745645
-0.9679955025333856   -0.04600247655465406   -0.08280111445356764
-0.9679955025333856   -0.04600247655465406   -0.08280111445356764
-0.9679955025333856   -0.04600247655465406   -0.08280111445356764
-0.9679955025333856   -0.04600247655465406   -0.08280111445356764
-0.6959746983257971   0.1130706246062119   0.04675406820608241
-0.6959746983257971   0.1130706246062119   0.04675406820608241
-0.6959746983257971   0.1130706246062119   0.04675406820608241
-0.6959746983257971   0.1130706246062119   0.04675406820608241
-0.8129276659253182   0.02743580297476389   0.03806231367900448
-0.8129276659253182   0.02743580297476389   0.03806231367900448
-0.8129276659253182   0.02743580297476389   0.03806231367900448
-0.8129276659253182   0.02743580297476389   0.03806231367900448
0.8691952989362004   0.07896334625441878   0.07547891618319225
0.8691952989362004   0.07896334625441878   0.07547891618319225
0.8691952989362004   0.07896334625441878   0.07547891618319225
0.8691952989362004   0.07896334625441878   0.07547891618319225
0.31843609901271236   -0.1446484872620463   -0.04968683950072795
0.31843609901271236   -0.1446484872620463   -0.04968683950072795
0.31843609901271236   -0.1446484872620463   -0.04968683950072795
0.31843609901271236   -0.1446484872620463   -0.04968683950072795
0.39334366575903396   -0.000839008189997284   0.054315368143486656
0.39334366575903396   -0.000839008189997284   0.054315368143486656
0.39334366575903396   -0.000839008189997284   0.054315368143486656
0.39334366575903396   -0.000839008189997284   0.054315368143486656
0.8850432185224985   -0.020185599502029472   -0.06342872301869085
0.8850432185224985   -0.020185599502029472   -0.06342872301869085
0.8850432185224985   -0.020185599502029472   -0.06342872301869085
0.8850432185224985   -0.020185599502029472   -0.06342872301869085
0.5785824540897614   -0.02621197030905499   -0.05589910049450502
0.5785824540897614   -0.02621197030905499   -0.05589910049450502
0.5785824540897614   -0.02621197030905499   -0.05589910049450502
0.5785824540897614   -0.02621197030905499   -0.05589910049450502
0.9369140881355856   0.11013333980463108   0.06560668574007408
0.9369140881355856   0.11013333980463108   0.06560668574007408
0.9369140881355856   0.11013333980463108   0.06560668574007408
0.9369140881355856   0.11013333980463108   0.06560668574007408
0.3451413238685057   -0.1274894197740996   -0.06004592972504869
0.3451413238685057   -0.1274894197740996   -0.06004592972504869
0.3451413238685057   -0.1274894197740996   -0.06004592972504869
0.3451413238685057   -0.1274894197740996   -0.06004592972504869
0.4229313242269955   0.01624078592781021   0.044796092588295325
0.4229313242269955   0.01624078592781021   0.044796092588295325
0.4229313242269955   0.01624078592781021   0.044796092588295325
0.4229313242269955   0.01624078592781021   0.044796092588295325
0.9389437718438846   -0.0007707695962211603   -0.07991816196430182
0.9389437718438846   -0.0007707695962211603   -0.07991816196430182
0.9389437718438846   -0.0007707695962211603   -0.07991816196430182
0.9389437718438846   -0.0007707695962211603   -0.07991816196430182
0.6348515483955445   -0.005236541866862621   -0.033846846044306954
0.6348515483955445   -0.005236541866862621   -0.033846846044306954
0.6348515483955445   -0.005236541866862621   -0.033846846044306954
0.6348515483955445   -0.005236541866862621   -0.033846846044306954
0.9913945988444188   0.1310727191850512   0.050492484257086925
0.9913945988444188   0.1310727191850512   0.050492484257086925
0.9913945988444188   0.1310727191850512   0.050492484257086925
0.9913945988444188   0.1310727191850512   0.050492484257086925
0.3743864657291691   -0.11169673435074741   -0.06999067962227885
0.3743864657291691   -0.11169673435074741   -0.06999067962227885
0.3743864657291691   -0.11169673435074741   -0.06999067962227885
0.3743864657291691   -0.11169673435074741   -0.06999067962227885
0.45247724643517906   0.05388040014894028   0.03882507392168281
0.45247724643517906   0.05388040014894028   0.03882507392168281
0.45247724643517906   0.05388040014894028   0.03882507392168281
0.45247724643517906   0.05388040014894028   0.03882507392168281
1.0097159404249312   0.04986512133128776   -0.08621498008710686
1.0097159404249312   0.04986512133128776   -0.08621498008710686
1.0097159404249312   0.04986512133128776   -0.08621498008710686
1.0097159404249312   0.04986512133128776   -0.08621498008710686
0.6696150061772969   0.020273253366211635   -0.014761452136476044
0.6696150061772969   0.020273253366211635   -0.014761452136476044
0.6696150061772969   0.020273253366211635   -0.014761452136476044
0.6696150061772969   0.020273253366211635   -0.014761452136476044
0.3782006946203381   0.044194229768006084   0.060293421507348476
0.3782006946203381   0.044194229768006084   0.060293421507348476
0.3782006946203381   0.044194229768006084   0.060293421507348476
0.3782006946203381   0.044194229768006084   0.060293421507348476
-0.18409420245112246   -0.13495814332171574   -0.02602274283696457
-0.18409420245112246   -0.13495814332171574   -0.02602274283696457
-0.18409420245112246   -0.13495814332171574   -0.02602274283696457
-0.18409420245112246   -0.13495814332171574   -0.02602274283696457
-0.13255629346145104   -0.03948975563234272   0.01827252720593267
-0.13255629346145104   -0.03948975563234272   0.01827252720593267
-0.13255629346145104   -0.03948975563234272   0.01827252720593267
-0.13255629346145104   -0.03948975563234272   0.01827252720593267
0.38125007631476543   0.0010022994333779706   -0.007993886701232172
0.38125007631476543   0.0010022994333779706   -0.007993886701232172
0.38125007631476543   0.0010022994333779706   -0.007993886701232172
0.38125007631476543   0.0010022994333779706   -0.007993886701232172
0.10572564284714558   -0.02856165085525131   -0.023829747453091226
0.10572564284714558   -0.02856165085525131   -0.023829747453091226
0.10572564284714558   -0.02856165085525131   -0.023829747453091226
0.10572564284714558   -0.02856165085525131   -0.023829747453091226
0.40858951201373234   0.07585501522241749   0.05385057600456393
0.40858951201373234   0.07585501522241749   0.05385057600456393
0.40858951201373234   0.07585501522241749   0.05385057600456393
0.40858951201373234   0.07585501522241749   0.05385057600456393
-0.15768836449251336   -0.11213510675348037   -0.03474247682824513
-0.15768836449251336   -0.11213510675348037   -0.03474247682824513
-0.15768836449251336   -0.11213510675348037   -0.03474247682824513
-0.15768836449251336   -0.11213510675348037   -0.03474247682824513
-0.10498995498472971   -0.007534866931899737   0.011553829121537981
-0.10498995498472971   -0.007534866931899737   0.011553829121537981
-0.10498995498472971   -0.007534866931899737   0.011553829121537981
-0.10498995498472971   -0.007534866931899737   0.011553829121537981
0.41367928431751105   0.029680943874259354   -0.014904264905576128
0.41367928431751105   0.029680943874259354   -0.014904264905576128
0.41367928431751105   0.029680943874259354   -0.014904264905576128
0.41367928431751105   0.029680943874259354   -0.014904264905576128
0.1323637109214383   -0.00330727373069575   -0.00947800201109305
0.1323637109214383   -0.00330727373069575   -0.00947800201109305
0.1323637109214383   -0.00330727373069575   -0.00947800201109305
0.1323637109214383   -0.00330727373069575   -0.00947800201109305
0.4421115824835258   0.10913525724766066   0.04780291255109638
0.4421115824835258   0.10913525724766066   0.04780291255109638
0.4421115824835258   0.10913525724766066   0.04780291255109638
0.4421115824835258   0.10913525724766066   0.04780291255109638
-0.13120951827158878   -0.08477644542614733   -0.042302408818509746
-0.13120951827158878   -0.08477644542614733   -0.042302408818509746
-0.13120951827158878   -0.08477644542614733   -0.042302408818509746
-0.13120951827158878   -0.08477644542614733   -0.042302408818509746
-0.077772193923754   0.029475178745968018   0.004865174439750643
-0.077772193923754   0.029475178745968018   0.004865174439750643
-0.077772193923754   0.029475178745968018   0.004865174439750643
-0.077772193923754   0.029475178745968018   0.004865174439750643
0.44244531295314393   0.0638211416398238   -0.02127533497936872
0.44244531295314393   0.0638211416398238   -0.02127533497936872
0.44244531295314393   0.0638211416398238   -0.02127533497936872
0.44244531295314393   0.0638211416398238   -0.02127533497936872
0.16525069835416714   0.027655381999882565   0.007274849404049983
0.16525069835416714   0.027655381999882565   0.007274849404049983
0.16525069835416714   0.027655381999882565   0.007274849404049983
0.16525069835416714   0.027655381999882565   0.007274849404049983
-0.14485932014160666   0.0095697103271076   0.02562381506179117
-0.14485932014160666   0.0095697103271076   0.02562381506179117
-0.14485932014160666   0.0095697103271076   0.02562381506179117
-0.14485932014160666   0.0095697103271076   0.02562381506179117
-0.6766448296956488   -0.11914510239835008   -0.003426923317561512
-0.6766448296956488   -0.11914510239835008   -0.003426923317561512
-0.6766448296956488   -0.11914510239835008   -0.003426923317561512
-0.6766448296956488   -0.11914510239835008   -0.003426923317561512
-0.6439492587983956   -0.0701236758989296   -0.015902178635717294
-0.6439492587983956   -0.0701236758989296   -0.015902178635717294
-0.6439492587983956   -0.0701236758989296   -0.015902178635717294
-0.6439492587983956   -0.0701236758989296   -0.015902178635717294
-0.1213707543593857   0.017664076365155844   0.017046390718756837
-0.1213707543593857   0.017664076365155844   0.017046390718756837
-0.1213707543593857   0.017664076365155844   0.017046390718756837
-0.1213707543593857   0.017664076365155844   0.017046390718756837
-0.3974048646061032   -0.036639917787119856   -0.014874367363447822
-0.3974048646061032   -0.036639917787119856   -0.014874367363447822
-0.3974048646061032   -0.036639917787119856   -0.014874367363447822
-0.3974048646061032   -0.036639917787119856   -0.014874367363447822
-0.11592944055886814   0.0425367755778446   0.01938026050865986
-0.11592944055886814   0.0425367755778446   0.01938026050865986
-0.11592944055886814   0.0425367755778446   0.01938026050865986
-0.11592944055886814   0.0425367755778446   0.01938026050865986
-0.6479184140146109   -0.09352421652732112   -0.012347414088402698
-0.6479184140146109   -0.09352421652732112   -0.012347414088402698
-0.6479184140146109   -0.09352421652732112   -0.012347414088402698
-0.6479184140146109   -0.09352421652732112   -0.012347414088402698
-0.6135685539649322   -0.03506407006466551   -0.02148347712862741
-0.6135685539649322   -0.03506407006466551   -0.02148347712862741
-0.6135685539649322   -0.03506407006466551   -0.02148347712862741
-0.6135685539649322   -0.03506407006466551   -0.02148347712862741
-0.09453881068895345   0.0466335236544653   0.009641160014055884
-0.09453881068895345   0.0466335236544653   0.009641160014055884
-0.09453881068895345   0.0466335236544653   0.009641160014055884
-0.09453881068895345   0.0466335236544653   0.009641160014055884
-0.36676389853255903   -0.0073049306606425   -0.0002292912716951867
-0.36676389853255903   -0.0073049306606425   -0.0002292912716951867
-0.36676389853255903   -0.0073049306606425   -0.0002292912716951867
-0.36676389853255903   -0.0073049306606425   -0.0002292912716951867
-0.08797335446146455   0.0768100485191241   0.012291916286839892
-0.08797335446146455   0.0768100485191241   0.012291916286839892
-0.08797335446146455   0.0768100485191241   0.012291916286839892
-0.08797335446146455   0.0768100485191241   0.012291916286839892
-0.618766148768102   -0.06387273350500337   -0.01866278770413896
-0.618766148768102   -0.06387273350500337   -0.01866278770413896
-0.618766148768102   -0.06387273350500337   -0.01866278770413896
-0.618766148768102   -0.06387273350500337   -0.01866278770413896
-0.585289646004177   -0.0001232048291940624   -0.028157754075495645
-0.585289646004177   -0.0001232048291940624   -0.028157754075495645
-0.585289646004177   -0.0001232048291940624   -0.028157754075495645
-0.585289646004177   -0.0001232048291940624   -0.028157754075495645
-0.06892480578716523   0.07622289258754814   0.002354401281113902
-0.06892480578716523   0.07622289258754814   0.002354401281113902
-0.06892480578716523   0.07622289258754814   0.002354401281113902
-0.06892480578716523   0.07622289258754814   0.002354401281113902
-0.3386148964974879   0.021919183144858634   0.013707482460191309
-0.3386148964974879   0.021919183144858634   0.013707482460191309
-0.3386148964974879   0.021919183144858634   0.013707482460191309
-0.3386148964974879   0.021919183144858634   0.013707482460191309
-0.6593154461090327   -0.02581202238730701   -0.010113085395519916
-0.6593154461090327   -0.02581202238730701   -0.010113085395519916
-0.6593154461090327   -0.02581202238730701   -0.010113085395519916
-0.6593154461090327   -0.02581202238730701   -0.010113085395519916
-1.1578938377593775   -0.09649933867944616   0.022390654458251426
-1.1578938377593775   -0.09649933867944616   0.022390654458251426
-1.1578938377593775   -0.09649933867944616   0.022390654458251426
-1.1578938377593775   -0.09649933867944616   0.022390654458251426
-1.1419544320681978   -0.09954210100262947   -0.04785439396483807
-1.1419544320681978   -0.09954210100262947   -0.04785439396483807
-1.1419544320681978   -0.09954210100262947   -0.04785439396483807
-1.1419544320681978   -0.09954210100262947   -0.04785439396483807
-0.6092045556363124   0.04483959108483329   0.04285807019094262
-0.6092045556363124   0.04483959108483329   0.04285807019094262
-0.6092045556363124   0.04483959108483329   0.04285807019094262
-0.6092045556363124   0.04483959108483329   0.04285807019094262
-0.8859199941548684   -0.038671253436471625   -0.005182696799769328
-0.8859199941548684   -0.038671253436471625   -0.005182696799769328
-0.8859199941548684   -0.038671253436471625   -0.005182696799769328
-0.8859199941548684   -0.038671253436471625   -0.005182696799769328
-0.6278648999123883   0.009771560167150972   -0.015375620271755222
-0.6278648999123883   0.009771560167150972   -0.015375620271755222
-0.6278648999123883   0.009771560167150972   -0.015375620271755222
-0.6278648999123883   0.009771560167150972   -0.015375620271755222
-1.1232246413672247   -0.06440462366004854   0.010657082197445773
-1.1232246413672247   -0.06440462366004854   0.010657082197445773
-1.1232246413672247   -0.06440462366004854   0.010657082197445773
-1.1232246413672247   -0.06440462366004854   0.010657082197445773
-1.1022642930848408   -0.06528435258953327   -0.052929668733589966
-1.1022642930848408   -0.06528435258953327   -0.052929668733589966
-1.1022642930848408   -0.06528435258953327   -0.052929668733589966
-1.1022642930848408   -0.06528435258953327   -0.052929668733589966
-0.580915650224924   0.07246582460979495   0.03425114689695814
-0.580915650224924   0.07246582460979495   0.03425114689695814
-0.580915650224924   0.07246582460979495   0.03425114689695814
-0.580915650224924   0.07246582460979495   0.03425114689695814
-0.845552976158474   -0.006245149588698123   0.009500931133877892
-0.845552976158474   -0.006245149588698123   0.009500931133877892
-0.845552976158474   -0.006245149588698123   0.009500931133877892
-0.845552976158474   -0.006245149588698123   0.009500931133877892
-0.5984324783999349   0.041578758517089004   -0.02244592788539028
-0.5984324783999349   0.041578758517089004   -0.02244592788539028
-0.5984324783999349   0.041578758517089004   -0.02244592788539028
-0.5984324783999349   0.041578758517089004   -0.02244592788539028
-1.0838271247299283   -0.033476946316914585   0.007448766768353522
-1.0838271247299283   -0.033476946316914585   0.007448766768353522
-1.0838271247299283   -0.033476946316914585   0.007448766768353522
-1.0838271247299283   -0.033476946316914585   0.007448766768353522
-1.066773234516288   -0.02814557004355675   -0.055648877961969344
-1.066773234516288   -0.02814557004355675   -0.055648877961969344
-1.066773234516288   -0.02814557004355675   -0.055648877961969344
-1.066773234516288   -0.02814557004355675   -0.055648877961969344
-0.5535168808708302   0.10285104515477761   0.027731821607271372
-0.5535168808708302   0.10285104515477761   0.027731821607271372
-0.5535168808708302   0.10285104515477761   0.027731821607271372
-0.5535168808708302   0.10285104515477761   0.027731821607271372
-0.8182183555939344   0.021482581493671632   0.02217001378707583
-0.8182183555939344   0.021482581493671632   0.02217001378707583
-0.8182183555939344   0.021482581493671632   0.02217001378707583
-0.8182183555939344   0.021482581493671632   0.02217001378707583
-1.1627888502253554   -0.055392407629453355   -0.043191338921630906
-1.1627888502253554   -0.055392407629453355   -0.043191338921630906
-1.1627888502253554   -0.055392407629453355   -0.043191338921630906
-1.1627888502253554   -0.055392407629453355   -0.043191338921630906
-1.6571328724225332   -0.05973825551120088   0.07485498597663995
-1.6571328724225332   -0.05973825551120088   0.07485498597663995
-1.6571328724225332   -0.05973825551120088   0.07485498597663995
-1.6571328724225332   -0.05973825551120088   0.07485498597663995
-1.6251747148100435   -0.11916643315528536   -0.05719966362436997
-1.6251747148100435   -0.11916643315528536   -0.05719966362436997
-1.6251747148100435   -0.11916643315528536   -0.05719966362436997
-1.6251747148100435   -0.11916643315528536   -0.05719966362436997
-1.0787126406777787   0.0927380836451305   0.07607437833948626
-1.0787126406777787   0.0927380836451305   0.07607437833948626
-1.0787126406777787   0.0927380836451305   0.07607437833948626
-1.0787126406777787   0.0927380836451305   0.07607437833948626
-1.3197078916005907   -0.016316134815385908   0.01525978343139895
-1.3197078916005907   -0.016316134815385908   0.01525978343139895
-1.3197078916005907   -0.016316134815385908   0.01525978343139895
-1.3197078916005907   -0.016316134815385908   0.01525978343139895
-1.1255588970460897   -0.017405917374169022   -0.04801290248276385
-1.1255588970460897   -0.017405917374169022   -0.04801290248276385
-1.1255588970460897   -0.017405917374169022   -0.04801290248276385
-1.1255588970460897   -0.017405917374169022   -0.04801290248276385
-1.5775612071777694   -0.008255180872020429   0.0699566222537224
-1.5775612071777694   -0.008255180872020429   0.0699566222537224
-1.5775612071777694   -0.008255180872020429   0.0699566222537224
-1.5775612071777694   -0.008255180872020429   0.0699566222537224
-1.5651413683777373   -0.09790323160644465   -0.06735841286832282
-1.5651413683777373   -0.09790323160644465   -0.06735841286832282
-1.5651413683777373   -0.09790323160644465   -0.06735841286832282
-1.5651413683777373   -0.09790323160644465   -0.06735841286832282
-1.045395783855415   0.10585395532682307   0.06027456949718168
-1.045395783855415   0.10585395532682307   0.06027456949718168
-1.045395783855415   0.10585395532682307   0.06027456949718168
-1.045395783855415   0.10585395532682307   0.06027456949718168
-1.2886713952112858   0.006890530369226322   0.027489468021309887
-1.2886713952112858   0.006890530369226322   0.027489468021309887
-1.2886713952112858   0.006890530369226322   0.027489468021309887
-1.2886713952112858   0.006890530369226322   0.027489468021309887
-1.0895984299133592   -0.00024991869420532   -0.05463478677151039
-1.0895984299133592   -0.00024991869420532   -0.05463478677151039
-1.0895984299133592   -0.00024991869420532   -0.05463478677151039
-1.0895984299133592   -0.00024991869420532   -0.05463478677151039
-1.5201751575619755   0.008964207172388106   0.0506052024316285
-1.5201751575619755   0.008964207172388106   0.0506052024316285
-1.5201751575619755   0.008964207172388106   0.0506052024316285
-1.5201751575619755   0.008964207172388106   0.0506052024316285
-1.4995431206526026   -0.07234368853845524   -0.0767490751904479
-1.4995431206526026   -0.07234368853845524   -0.0767490751904479
-1.4995431206526026   -0.07234368853845524   -0.0767490751904479
-1.4995431206526026   -0.07234368853845524   -0.0767490751904479
-1.0161067759206475   0.11820801598256553   0.05132982899010529
-1.0161067759206475   0.11820801598256553   0.05132982899010529
-1.0161067759206475   0.11820801598256553   0.05132982899010529
-1.0161067759206475   0.11820801598256553   0.05132982899010529
-1.2225183483669677   0.026190764478859208   0.045954540776165446
-1.2225183483669677   0.026190764478859208   0.045954540776165446
-1.2225183483669677   0.026190764478859208   0.045954540776165446
-1.2225183483669677   0.026190764478859208   0.045954540776165446
1.460011695248514   0.10908793576107986   0.07741967937913416
1.460011695248514   0.10908793576107986   0.07741967937913416
1.460011695248514   0.10908793576107986   0.07741967937913416
1.460011695248514   0.10908793576107986   0.07741967937913416
0.6441502074858331   -0.172083385148476   -0.03554570533717319
0.6441502074858331   -0.172083385148476   -0.03554570533717319
0.6441502074858331   -0.172083385148476   -0.03554570533717319
0.6441502074858331   -0.172083385148476   -0.03554570533717319
0.7183646962925055   -0.03019775402371022   0.053189026602898294
0.7183646962925055   -0.03019775402371022   0.053189026602898294
0.7183646962925055   -0.03019775402371022   0.053189026602898294
0.7183646962925055   -0.03019775402371022   0.053189026602898294
1.476186149868717   -0.002848708785502363   -0.055735648676355456
1.476186149868717   -0.002848708785502363   -0.055735648676355456
1.476186149868717   -0.002848708785502363   -0.055735648676355456
1.476186149868717   -0.002848708785502363   -0.055735648676355456
1.0117252199183202   -0.030730467370496367   -0.07918519080333593
1.0117252199183202   -0.030730467370496367   -0.07918519080333593
1.0117252199183202   -0.030730467370496367   -0.07918519080333593
1.0117252199183202   -0.030730467370496367   -0.07918519080333593
1.52765300678548   0.13397674014890934   0.0647731869730426
1.52765300678548   0.13397674014890934   0.0647731869730426
1.52765300678548   0.13397674014890934   0.0647731869730426
1.52765300678548   0.13397674014890934   0.0647731869730426
0.6718389535149433   -0.16208208881892427   -0.047555352489691206
0.6718389535149433   -0.16208208881892427   -0.047555352489691206
0.6718389535149433   -0.16208208881892427   -0.047555352489691206
0.6718389535149433   -0.16208208881892427   -0.047555352489691206
0.7474130000669194   -0.014491701734219542   0.043007949122610065
0.7474130000669194   -0.014491701734219542   0.043007949122610065
0.7474130000669194   -0.014491701734219542   0.043007949122610065
0.7474130000669194   -0.014491701734219542   0.043007949122610065
1.5269099244037132   0.014472211602299556   -0.06965641376114913
1.5269099244037132   0.014472211602299556   -0.06965641376114913
1.5269099244037132   0.014472211602299556   -0.06965641376114913
1.5269099244037132   0.014472211602299556   -0.06965641376114913
1.0753962565026691   -0.01221334406562799   -0.05385355337492784
1.0753962565026691   -0.01221334406562799   -0.05385355337492784
1.0753962565026691   -0.01221334406562799   -0.05385355337492784
1.0753962565026691   -0.01221334406562799   -0.05385355337492784
1.578077770925406   0.1526422239190668   0.04801280653054389
1.578077770925406   0.1526422239190668   0.04801280653054389
1.578077770925406   0.1526422239190668   0.04801280653054389
1.578077770925406   0.1526422239190668   0.04801280653054389
0.70057125156392   -0.1483356160322922   -0.057356879094314556
0.70057125156392   -0.1483356160322922   -0.057356879094314556
0.70057125156392   -0.1483356160322922   -0.057356879094314556
0.70057125156392   -0.1483356160322922   -0.057356879094314556
0.7737240593506206   0.0274510190919576   0.037706389790553074
0.7737240593506206   0.0274510190919576   0.037706389790553074
0.7737240593506206   0.0274510190919576   0.037706389790553074
0.7737240593506206   0.0274510190919576   0.037706389790553074
1.5893029189665648   0.06514700337194806   -0.07295020133425831
1.5893029189665648   0.06514700337194806   -0.07295020133425831
1.5893029189665648   0.06514700337194806   -0.07295020133425831
1.5893029189665648   0.06514700337194806   -0.07295020133425831
1.0992565552402698   0.012706408875745173   -0.0363105666054878
1.0992565552402698   0.012706408875745173   -0.0363105666054878
1.0992565552402698   0.012706408875745173   -0.0363105666054878
1.0992565552402698   0.012706408875745173   -0.0363105666054878
0.712590273949142   0.06374795740993384   0.0708232844209543
0.712590273949142   0.06374795740993384   0.0708232844209543
0.712590273949142   0.06374795740993384   0.0708232844209543
0.712590273949142   0.06374795740993384   0.0708232844209543
-0.08785532363333765   -0.21208574884848272   -0.020233173203365935
-0.08785532363333765   -0.21208574884848272   -0.020233173203365935
-0.08785532363333765   -0.21208574884848272   -0.020233173203365935
-0.08785532363333765   -0.21208574884848272   -0.020233173203365935
-0.023910926810412476   -0.07482293297949935   0.018040954359620533
-0.023910926810412476   -0.07482293297949935   0.018040954359620533
-0.023910926810412476   -0.07482293297949935   0.018040954359620533
-0.023910926810412476   -0.07482293297949935   0.018040954359620533
0.7065964538264019   -0.039341800593305   0.003491860841974656
0.7065964538264019   -0.039341800593305   0.003491860841974656
0.7065964538264019   -0.039341800593305   0.003491860841974656
0.7065964538264019   -0.039341800593305   0.003491860841974656
0.3179995872334573   -0.0591826423341459   -0.03776684891158271
0.3179995872334573   -0.0591826423341459   -0.03776684891158271
0.3179995872334573   -0.0591826423341459   -0.03776684891158271
0.3179995872334573   -0.0591826423341459   -0.03776684891158271
0.7438445883537227   0.08766510479871914   0.06272562808655816
0.7438445883537227   0.08766510479871914   0.06272562808655816
0.7438445883537227   0.08766510479871914   0.06272562808655816
0.7438445883537227   0.08766510479871914   0.06272562808655816
-0.0585578423335257   -0.199228619367312   -0.03078793686813291
-0.0585578423335257   -0.199228619367312   -0.03078793686813291
-0.0585578423335257   -0.199228619367312   -0.03078793686813291
-0.0585578423335257   -0.199228619367312   -0.03078793686813291
0.005711789653074973   -0.046727903132498846   0.011018994725068945
0.005711789653074973   -0.046727903132498846   0.011018994725068945
0.005711789653074973   -0.046727903132498846   0.011018994725068945
0.005711789653074973   -0.046727903132498846   0.011018994725068945
0.73692729949368   -0.0181591582897056   -0.005753097188100409
0.73692729949368   -0.0181591582897056   -0.005753097188100409
0.73692729949368   -0.0181591582897056   -0.005753097188100409
0.73692729949368   -0.0181591582897056   -0.005753097188100409
0.3437407895303724   -0.04193523152364437   -0.024486932082526457
0.3437407895303724   -0.04193523152364437   -0.024486932082526457
0.3437407895303724   -0.04193523152364437   -0.024486932082526457
0.3437407895303724   -0.04193523152364437   -0.024486932082526457
0.7761767545696873   0.11635691240521306   0.05597810749701705
0.7761767545696873   0.11635691240521306   0.05597810749701705
0.7761767545696873   0.11635691240521306   0.05597810749701705
0.7761767545696873   0.11635691240521306   0.05597810749701705
-0.031992748139676806   -0.1796990565441724   -0.044532540827016374
-0.031992748139676806   -0.1796990565441724   -0.044532540827016374
-0.031992748139676806   -0.1796990565441724   -0.044532540827016374
-0.031992748139676806   -0.1796990565441724   -0.044532540827016374
0.028963148231311343   -0.01383618916167602   0.0039201757349647546
0.028963148231311343   -0.01383618916167602   0.0039201757349647546
0.028963148231311343   -0.01383618916167602   0.0039201757349647546
0.028963148231311343   -0.01383618916167602   0.0039201757349647546
0.7596415990988876   0.008850661670579851   -0.014105554046746523
0.7596415990988876   0.008850661670579851   -0.014105554046746523
0.7596415990988876   0.008850661670579851   -0.014105554046746523
0.7596415990988876   0.008850661670579851   -0.014105554046746523
0.3752437495668194   -0.016141927617421434   -0.010246828184125848
0.3752437495668194   -0.016141927617421434   -0.010246828184125848
0.3752437495668194   -0.016141927617421434   -0.010246828184125848
0.3752437495668194   -0.016141927617421434   -0.010246828184125848
-0.03080810621388251   0.017742549975500597   0.035174615069926425
-0.03080810621388251   0.017742549975500597   0.035174615069926425
-0.03080810621388251   0.017742549975500597   0.035174615069926425
-0.03080810621388251   0.017742549975500597   0.035174615069926425
-0.8142216597916466   -0.2662289650354673   -0.016287824509572987
-0.8142216597916466   -0.2662289650354673   -0.016287824509572987
-0.8142216597916466   -0.2662289650354673   -0.016287824509572987
-0.8142216597916466   -0.2662289650354673   -0.016287824509572987
-0.7495058080827882   -0.11479815856909117   -0.017129730229137222
-0.7495058080827882   -0.11479815856909117   -0.017129730229137222
-0.7495058080827882   -0.11479815856909117   -0.017129730229137222
-0.7495058080827882   -0.11479815856909117   -0.017129730229137222
-0.02773919024282788   -0.0917754158553235   0.015852120073367705
-0.02773919024282788   -0.0917754158553235   0.015852120073367705
-0.02773919024282788   -0.0917754158553235   0.015852120073367705
-0.02773919024282788   -0.0917754158553235   0.015852120073367705
-0.4074188279403254   -0.10766784180459851   -0.033745016973391107
-0.4074188279403254   -0.10766784180459851   -0.033745016973391107
-0.4074188279403254   -0.10766784180459851   -0.033745016973391107
-0.4074188279403254   -0.10766784180459851   -0.033745016973391107
0.002092511713472557   0.04466207852991528   0.028573135469631084
0.002092511713472557   0.04466207852991528   0.028573135469631084
0.002092511713472557   0.04466207852991528   0.028573135469631084
0.002092511713472557   0.04466207852991528   0.028573135469631084
-0.7774600171981206   -0.24935816011336145   -0.022340774261529344
-0.7774600171981206   -0.24935816011336145   -0.022340774261529344
-0.7774600171981206   -0.24935816011336145   -0.022340774261529344
-0.7774600171981206   -0.24935816011336145   -0.022340774261529344
-0.7127662381967625   -0.08360689684768906   -0.023333514988906855
-0.7127662381967625   -0.08360689684768906   -0.023333514988906855
-0.7127662381967625   -0.08360689684768906   -0.023333514988906855
-0.7127662381967625   -0.08360689684768906   -0.023333514988906855
-0.00013923858849112375   -0.07142129780799776   0.0064572481927363395
-0.00013923858849112375   -0.07142129780799776   0.0064572481927363395
-0.00013923858849112375   -0.07142129780799776   0.0064572481927363395
-0.00013923858849112375   -0.07142129780799776   0.0064572481927363395
-0.37175370340610175   -0.08524765058648016   -0.01874846670918029
-0.37175370340610175   -0.08524765058648016   -0.01874846670918029
-0.37175370340610175   -0.08524765058648016   -0.01874846670918029
-0.37175370340610175   -0.08524765058648016   -0.01874846670918029
0.03220058973575807   0.07450015844816389   0.022234933557821707
0.03220058973575807   0.07450015844816389   0.022234933557821707
0.03220058973575807   0.07450015844816389   0.022234933557821707
0.03220058973575807   0.07450015844816389   0.022234933557821707
-0.7451234900569749   -0.22954577663980097   -0.039180894497857166
-0.7451234900569749   -0.22954577663980097   -0.039180894497857166
-0.7451234900569749   -0.22954577663980097   -0.039180894497857166
-0.7451234900569749   -0.22954577663980097   -0.039180894497857166
-0.6868050331860036   -0.0538783715893732   -0.030271692204593026
-0.6868050331860036   -0.0538783715893732   -0.030271692204593026
-0.6868050331860036   -0.0538783715893732   -0.030271692204593026
-0.6868050331860036   -0.0538783715893732   -0.030271692204593026
0.017987145600029095   -0.055166063177399985   -0.009629963405720426
0.017987145600029095   -0.055166063177399985   -0.009629963405720426
0.017987145600029095   -0.055166063177399985   -0.009629963405720426
0.017987145600029095   -0.055166063177399985   -0.009629963405720426
-0.3455930181152296   -0.06434202547626038   -0.00936656699370326
-0.3455930181152296   -0.06434202547626038   -0.00936656699370326
-0.3455930181152296   -0.06434202547626038   -0.00936656699370326
-0.3455930181152296   -0.06434202547626038   -0.00936656699370326
-0.7623724573468155   -0.02210612412730026   -0.0011646531935847054
-0.7623724573468155   -0.02210612412730026   -0.0011646531935847054
-0.7623724573468155   -0.02210612412730026   -0.0011646531935847054
-0.7623724573468155   -0.02210612412730026   -0.0011646531935847054
-1.543886243176074   -0.28622801877508774   -0.013113632327186672
-1.543886243176074   -0.28622801877508774   -0.013113632327186672
-1.543886243176074   -0.28622801877508774   -0.013113632327186672
-1.543886243176074   -0.28622801877508774   -0.013113632327186672
-1.4743558992601087   -0.14696111427012054   -0.050994112960030175
-1.4743558992601087   -0.14696111427012054   -0.050994112960030175
-1.4743558992601087   -0.14696111427012054   -0.050994112960030175
-1.4743558992601087   -0.14696111427012054   -0.050994112960030175
-0.7354588918436161   -0.09533652474124527   0.03364321713887748
-0.7354588918436161   -0.09533652474124527   0.03364321713887748
-0.7354588918436161   -0.09533652474124527   0.03364321713887748
-0.7354588918436161   -0.09533652474124527   0.03364321713887748
-1.1191213141774299   -0.12940412387573624   -0.023789009248033597
-1.1191213141774299   -0.12940412387573624   -0.023789009248033597
-1.1191213141774299   -0.12940412387573624   -0.023789009248033597
-1.1191213141774299   -0.12940412387573624   -0.023789009248033597
-0.7217863669718543   0.012571231775689806   -0.005901915019248957
-0.7217863669718543   0.012571231775689806   -0.005901915019248957
-0.7217863669718543   0.012571231775689806   -0.005901915019248957
-0.7217863669718543   0.012571231775689806   -0.005901915019248957
-1.4886320522979393   -0.25547249895311974   -0.013863493466171325
-1.4886320522979393   -0.25547249895311974   -0.013863493466171325
-1.4886320522979393   -0.25547249895311974   -0.013863493466171325
-1.4886320522979393   -0.25547249895311974   -0.013863493466171325
-1.4218464667774078   -0.1143831663652185   -0.05906299142562524
-1.4218464667774078   -0.1143831663652185   -0.05906299142562524
-1.4218464667774078   -0.1143831663652185   -0.05906299142562524
-1.4218464667774078   -0.1143831663652185   -0.05906299142562524
-0.6997733442230084   -0.07087011193665527   0.02889416996883471
-0.6997733442230084   -0.07087011193665527   0.02889416996883471
-0.6997733442230084   -0.07087011193665527   0.02889416996883471
-0.6997733442230084   -0.07087011193665527   0.02889416996883471
-1.0651724986368205   -0.09814888244113368   -0.007834728551912452
-1.0651724986368205   -0.09814888244113368   -0.007834728551912452
-1.0651724986368205   -0.09814888244113368   -0.007834728551912452
-1.0651724986368205   -0.09814888244113368   -0.007834728551912452
-0.6849580303588603   0.042689370561837275   -0.010588743208921954
-0.6849580303588603   0.042689370561837275   -0.010588743208921954
-0.6849580303588603   0.042689370561837275   -0.010588743208921954
-0.6849580303588603   0.042689370561837275   -0.010588743208921954
-1.4391996360509933   -0.23048050427315284   -0.029731499885607027
-1.4391996360509933   -0.23048050427315284   -0.029731499885607027
-1.4391996360509933   -0.23048050427315284   -0.029731499885607027
-1.4391996360509933   -0.23048050427315284   -0.029731499885607027
-1.3792297866611891   -0.08002622457879105   -0.060941621270274346
-1.3792297866611891   -0.08002622457879105   -0.060941621270274346
-1.3792297866611891   -0.08002622457879105   -0.060941621270274346
-1.3792297866611891   -0.08002622457879105   -0.060941621270274346
-0.6792710167089058   -0.05531561409015684   0.00883563268168568
-0.6792710167089058   -0.05531561409015684   0.00883563268168568
-0.6792710167089058   -0.05531561409015684   0.00883563268168568
-0.6792710167089058   -0.05531561409015684   0.00883563268168568
-1.0353733340465177   -0.07909205200512803   -0.0026316692836319475
-1.0353733340465177   -0.07909205200512803   -0.0026316692836319475
-1.0353733340465177   -0.07909205200512803   -0.0026316692836319475
-1.0353733340465177   -0.07909205200512803   -0.0026316692836319475
-1.5016902889717962   -0.05107759336045725   -0.03728428672042708
-1.5016902889717962   -0.05107759336045725   -0.03728428672042708
-1.5016902889717962   -0.05107759336045725   -0.03728428672042708
-1.5016902889717962   -0.05107759336045725   -0.03728428672042708
-2.2643342100118646   -0.1934023116928803   0.08574941691935192
-2.2643342100118646   -0.1934023116928803   0.08574941691935192
-2.2643342100118646   -0.1934023116928803   0.08574941691935192
-2.2643342100118646   -0.1934023116928803   0.08574941691935192
-2.186450512903421   -0.15399640069932757   -0.049860171157162264
-2.186450512903421   -0.15399640069932757   -0.049860171157162264
-2.186450512903421   -0.15399640069932757   -0.049860171157162264
-2.186450512903421   -0.15399640069932757   -0.049860171157162264
-1.4109267135685195   0.040389019898701806   0.07880168132908168
-1.4109267135685195   0.040389019898701806   0.07880168132908168
-1.4109267135685195   0.040389019898701806   0.07880168132908168
-1.4109267135685195   0.040389019898701806   0.07880168132908168
-1.7585066145762454   -0.06072936966424192   0.008343803145514986
-1.7585066145762454   -0.06072936966424192   0.008343803145514986
-1.7585066145762454   -0.06072936966424192   0.008343803145514986
-1.7585066145762454   -0.06072936966424192   0.008343803145514986
-1.4437807622057297   -0.00375527060000852   -0.04132427135824068
-1.4437807622057297   -0.00375527060000852   -0.04132427135824068
-1.4437807622057297   -0.00375527060000852   -0.04132427135824068
-1.4437807622057297   -0.00375527060000852   -0.04132427135824068
-2.148297176005546   -0.10455282193995602   0.09146293457281963
-2.148297176005546   -0.10455282193995602   0.09146293457281963
-2.148297176005546   -0.10455282193995602   0.09146293457281963
-2.148297176005546   -0.10455282193995602   0.09146293457281963
-2.1029103940308915   -0.12957949624604997   -0.05937807819170712
-2.1029103940308915   -0.12957949624604997   -0.05937807819170712
-2.1029103940308915   -0.12957949624604997   -0.05937807819170712
-2.1029103940308915   -0.12957949624604997   -0.05937807819170712
-1.3589901902174026   0.06472987189051804   0.07610535311866323
-1.3589901902174026   0.06472987189051804   0.07610535311866323
-1.3589901902174026   0.06472987189051804   0.07610535311866323
-1.3589901902174026   0.06472987189051804   0.07610535311866323
-1.7091264375250952   -0.024498144023819113   0.03500480255302395
-1.7091264375250952   -0.024498144023819113   0.03500480255302395
-1.7091264375250952   -0.024498144023819113   0.03500480255302395
-1.7091264375250952   -0.024498144023819113   0.03500480255302395
-1.3930114338057706   0.015351427375649818   -0.044622420308296315
-1.3930114338057706   0.015351427375649818   -0.044622420308296315
-1.3930114338057706   0.015351427375649818   -0.044622420308296315
-1.3930114338057706   0.015351427375649818   -0.044622420308296315
-2.0678216622948935   -0.07913356358354134   0.06561964782579531
-2.0678216622948935   -0.07913356358354134   0.06561964782579531
-2.0678216622948935   -0.07913356358354134   0.06561964782579531
-2.0678216622948935   -0.07913356358354134   0.06561964782579531
-2.016519937729267   -0.10649156373379232   -0.07175490778306483
-2.016519937729267   -0.10649156373379232   -0.07175490778306483
-2.016519937729267   -0.10649156373379232   -0.07175490778306483
-2.016519937729267   -0.10649156373379232   -0.07175490778306483
-1.320479114996885   0.0938973394105137   0.058888173061947345
-1.320479114996885   0.0938973394105137   0.058888173061947345
-1.320479114996885   0.0938973394105137   0.058888173061947345
-1.320479114996885   0.0938973394105137   0.058888173061947345
-1.6162745852610103   0.006482563271999919   0.06169279313074523
-1.6162745852610103   0.006482563271999919   0.06169279313074523
-1.6162745852610103   0.006482563271999919   0.06169279313074523
-1.6162745852610103   0.006482563271999919   0.06169279313074523
1.994331694988995   0.11953613941724323   0.07237042998824926
1.994331694988995   0.11953613941724323   0.07237042998824926
1.994331694988995   0.11953613941724323   0.07237042998824926
1.994331694988995   0.11953613941724323   0.07237042998824926
0.9508568837608812   -0.17816577919923465   0.016266730277072705
0.9508568837608812   -0.17816577919923465   0.016266730277072705
0.9508568837608812   -0.17816577919923465   0.016266730277072705
0.9508568837608812   -0.17816577919923465   0.016266730277072705
1.0033948117741782   -0.07512069599906335   0.05569575335037846
1.0033948117741782   -0.07512069599906335   0.05569575335037846
1.0033948117741782   -0.07512069599906335   0.05569575335037846
1.0033948117741782   -0.07512069599906335   0.05569575335037846
2.004884120148312   0.016882480201861116   -0.016041535212892116
2.004884120148312   0.016882480201861116   -0.016041535212892116
2.004884120148312   0.016882480201861116   -0.016041535212892116
2.004884120148312   0.016882480201861116   -0.016041535212892116
1.4022252875906955   -0.0383152735248693   -0.09322788245648692
1.4022252875906955   -0.0383152735248693   -0.09322788245648692
1.4022252875906955   -0.0383152735248693   -0.09322788245648692
1.4022252875906955   -0.0383152735248693   -0.09322788245648692
2.042775576282152   0.1330632928034085   0.05723493285476046
2.042775576282152   0.1330632928034085   0.05723493285476046
2.042775576282152   0.1330632928034085   0.05723493285476046
2.042775576282152   0.1330632928034085   0.05723493285476046
0.9746002485165791   -0.18220461572436925   0.01880685678768873
0.9746002485165791   -0.18220461572436925   0.01880685678768873
0.9746002485165791   -0.18220461572436925   0.01880685678768873
0.9746002485165791   -0.18220461572436925   0.01880685678768873
1.0233125718548077   -0.06383835246545677   0.04238811844897501
1.0233125718548077   -0.06383835246545677   0.04238811844897501
1.0233125718548077   -0.06383835246545677   0.04238811844897501
1.0233125718548077   -0.06383835246545677   0.04238811844897501
2.040062319819851   0.02960531675972705   -0.004839328203357321
2.040062319819851   0.02960531675972705   -0.004839328203357321
2.040062319819851   0.02960531675972705   -0.004839328203357321
2.040062319819851   0.02960531675972705   -0.004839328203357321
1.4601152544430647   -0.03031069877162801   -0.06367456695813162
1.4601152544430647   -0.03031069877162801   -0.06367456695813162
1.4601152544430647   -0.03031069877162801   -0.06367456695813162
1.4601152544430647   -0.03031069877162801   -0.06367456695813162
2.072116058918372   0.14537638172271472   0.03965830232625642
2.072116058918372   0.14537638172271472   0.03965830232625642
2.072116058918372   0.14537638172271472   0.03965830232625642
2.072116058918372   0.14537638172271472   0.03965830232625642
0.9975870174798782   -0.17328123270485157   0.023203226813722527
0.9975870174798782   -0.17328123270485157   0.023203226813722527
0.9975870174798782   -0.17328123270485157   0.023203226813722527
0.9975870174798782   -0.17328123270485157   0.023203226813722527
1.0526181140533346   -0.019849993772763724   0.03874961785547425
1.0526181140533346   -0.019849993772763724   0.03874961785547425
1.0526181140533346   -0.019849993772763724   0.03874961785547425
1.0526181140533346   -0.019849993772763724   0.03874961785547425
2.0766376896822183   0.058730267154232185   -0.0007204097294547795
2.0766376896822183   0.058730267154232185   -0.0007204097294547795
2.0766376896822183   0.058730267154232185   -0.0007204097294547795
2.0766376896822183   0.058730267154232185   -0.0007204097294547795
1.46734758273566   -0.014007330585594613   -0.04757669515994358
1.46734758273566   -0.014007330585594613   -0.04757669515994358
1.46734758273566   -0.014007330585594613   -0.04757669515994358
1.46734758273566   -0.014007330585594613   -0.04757669515994358
1.0034776819154083   0.025390396060030712   0.07581454579044314
1.0034776819154083   0.025390396060030712   0.07581454579044314
1.0034776819154083   0.025390396060030712   0.07581454579044314
1.0034776819154083   0.025390396060030712   0.07581454579044314
0.05311963575297682   -0.35505179148129945   0.036514637176639164
0.05311963575297682   -0.35505179148129945   0.036514637176639164
0.05311963575297682   -0.35505179148129945   0.036514637176639164
0.05311963575297682   -0.35505179148129945   0.036514637176639164
0.12161117067494512   -0.1502310149025064   0.0340310724474856
0.12161117067494512   -0.1502310149025064   0.0340310724474856
0.12161117067494512   -0.1502310149025064   0.0340310724474856
0.12161117067494512   -0.1502310149025064   0.0340310724474856
0.9777162699617012   -0.17090784589013386   0.023090194179057333
0.9777162699617012   -0.17090784589013386   0.023090194179057333
0.9777162699617012   -0.17090784589013386   0.023090194179057333
0.9777162699617012   -0.17090784589013386   0.023090194179057333
0.5214640628112821   -0.1592564819365539   -0.05965300681395854
0.5214640628112821   -0.1592564819365539   -0.05965300681395854
0.5214640628112821   -0.1592564819365539   -0.05965300681395854
0.5214640628112821   -0.1592564819365539   -0.05965300681395854
1.0272925034054932   0.03675978354640794   0.06330373196148498
1.0272925034054932   0.03675978354640794   0.06330373196148498
1.0272925034054932   0.03675978354640794   0.06330373196148498
1.0272925034054932   0.03675978354640794   0.06330373196148498
0.08512276538444677   -0.34481081618574894   0.046168847278236336
0.08512276538444677   -0.34481081618574894   0.046168847278236336
0.08512276538444677   -0.34481081618574894   0.046168847278236336
0.08512276538444677   -0.34481081618574894   0.046168847278236336
0.14915734095106678   -0.12962746440434458   0.024675330781379165
0.14915734095106678   -0.12962746440434458   0.024675330781379165
0.14915734095106678   -0.12962746440434458   0.024675330781379165
0.14915734095106678   -0.12962746440434458   0.024675330781379165
1.001290206119036   -0.16012319512365902   0.0285611324283217
1.001290206119036   -0.16012319512365902   0.0285611324283217
1.001290206119036   -0.16012319512365902   0.0285611324283217
1.001290206119036   -0.16012319512365902   0.0285611324283217
0.5449211438483448   -0.15137421638744822   -0.02982704682079515
0.5449211438483448   -0.15137421638744822   -0.02982704682079515
0.5449211438483448   -0.15137421638744822   -0.02982704682079515
0.5449211438483448   -0.15137421638744822   -0.02982704682079515
1.0495034638002632   0.05617294929281988   0.0533312764179766
1.0495034638002632   0.05617294929281988   0.0533312764179766
1.0495034638002632   0.05617294929281988   0.0533312764179766
1.0495034638002632   0.05617294929281988   0.0533312764179766
0.11353624208458685   -0.3333314500060719   0.05027382205070671
0.11353624208458685   -0.3333314500060719   0.05027382205070671
0.11353624208458685   -0.3333314500060719   0.05027382205070671
0.11353624208458685   -0.3333314500060719   0.05027382205070671
0.19143110015315973   -0.09869991591785349   0.01635205695681472
0.19143110015315973   -0.09869991591785349   0.01635205695681472
0.19143110015315973   -0.09869991591785349   0.01635205695681472
0.19143110015315973   -0.09869991591785349   0.01635205695681472
1.0270959365132062   -0.1437271006494139   0.035015837031475344
1.0270959365132062   -0.1437271006494139   0.035015837031475344
1.0270959365132062   -0.1437271006494139   0.035015837031475344
1.0270959365132062   -0.1437271006494139   0.035015837031475344
0.5860216432098322   -0.13227160334916238   0.004879461525700984
0.5860216432098322   -0.13227160334916238   0.004879461525700984
0.5860216432098322   -0.13227160334916238   0.004879461525700984
0.5860216432098322   -0.13227160334916238   0.004879461525700984
0.11303784432594544   -0.0677572679983369   0.04881115655851969
0.11303784432594544   -0.0677572679983369   0.04881115655851969
0.11303784432594544   -0.0677572679983369   0.04881115655851969
0.11303784432594544   -0.0677572679983369   0.04881115655851969
-0.8520567152292564   -0.609987294733778   0.0528582494588746
-0.8520567152292564   -0.609987294733778   0.0528582494588746
-0.8520567152292564   -0.609987294733778   0.0528582494588746
-0.8520567152292564   -0.609987294733778   0.0528582494588746
-0.7437541289772082   -0.23743597154665771   0.0035642803510769205
-0.7437541289772082   -0.23743597154665771   0.0035642803510769205
-0.7437541289772082   -0.23743597154665771   0.0035642803510769205
-0.7437541289772082   -0.23743597154665771   0.0035642803510769205
0.060054114195008085   -0.4440809300133415   0.020095705158636623
0.060054114195008085   -0.4440809300133415   0.020095705158636623
0.060054114195008085   -0.4440809300133415   0.020095705158636623
0.060054114195008085   -0.4440809300133415   0.020095705158636623
-0.36684334273771746   -0.342253690742958   -0.0715820141342217
-0.36684334273771746   -0.342253690742958   -0.0715820141342217
-0.36684334273771746   -0.342253690742958   -0.0715820141342217
-0.36684334273771746   -0.342253690742958   -0.0715820141342217
0.14188221953177907   -0.05332541462436747   0.03848071645351644
0.14188221953177907   -0.05332541462436747   0.03848071645351644
0.14188221953177907   -0.05332541462436747   0.03848071645351644
0.14188221953177907   -0.05332541462436747   0.03848071645351644
-0.8066479535183886   -0.6092572061400368   0.06091639223855699
-0.8066479535183886   -0.6092572061400368   0.06091639223855699
-0.8066479535183886   -0.6092572061400368   0.06091639223855699
-0.8066479535183886   -0.6092572061400368   0.06091639223855699
-0.7019802065657977   -0.21307872610882556   1.1074665842578796e-05
-0.7019802065657977   -0.21307872610882556   1.1074665842578796e-05
-0.7019802065657977   -0.21307872610882556   1.1074665842578796e-05
-0.7019802065657977   -0.21307872610882556   1.1074665842578796e-05
0.08909147092929331   -0.43433852946349005   0.02905704573165674
0.08909147092929331   -0.43433852946349005   0.02905704573165674
0.08909147092929331   -0.43433852946349005   0.02905704573165674
0.08909147092929331   -0.43433852946349005   0.02905704573165674
-0.3245392006683857   -0.3305939301339162   -0.02670752816648543
-0.3245392006683857   -0.3305939301339162   -0.02670752816648543
-0.3245392006683857   -0.3305939301339162   -0.02670752816648543
-0.3245392006683857   -0.3305939301339162   -0.02670752816648543
0.16825333085654431   -0.03410722531386702   0.024635041218289213
0.16825333085654431   -0.03410722531386702   0.024635041218289213
0.16825333085654431   -0.03410722531386702   0.024635041218289213
0.16825333085654431   -0.03410722531386702   0.024635041218289213
-0.7640460749628477   -0.5962140387282449   0.07281704530002356
-0.7640460749628477   -0.5962140387282449   0.07281704530002356
-0.7640460749628477   -0.5962140387282449   0.07281704530002356
-0.7640460749628477   -0.5962140387282449   0.07281704530002356
-0.633047396034824   -0.18501904468366642   -0.00786032930219953
-0.633047396034824   -0.18501904468366642   -0.00786032930219953
-0.633047396034824   -0.18501904468366642   -0.00786032930219953
-0.633047396034824   -0.18501904468366642   -0.00786032930219953
0.1344207231599383   -0.4070972934951174   0.03969754956796827
0.1344207231599383   -0.4070972934951174   0.03969754956796827
0.1344207231599383   -0.4070972934951174   0.03969754956796827
0.1344207231599383   -0.4070972934951174   0.03969754956796827
-0.26963248781376803   -0.30445121210436316   0.020275142764713733
-0.26963248781376803   -0.30445121210436316   0.020275142764713733
-0.26963248781376803   -0.30445121210436316   0.020275142764713733
-0.26963248781376803   -0.30445121210436316   0.020275142764713733
-0.7604303799765761   -0.12226132789336887   0.023263958881860756
-0.7604303799765761   -0.12226132789336887   0.023263958881860756
-0.7604303799765761   -0.12226132789336887   0.023263958881860756
-0.7604303799765761   -0.12226132789336887   0.023263958881860756
-1.8962603466158954   -0.9496837106037882   -0.04482897056852696
-1.8962603466158954   -0.9496837106037882   -0.04482897056852696
-1.8962603466158954   -0.9496837106037882   -0.04482897056852696
-1.8962603466158954   -0.9496837106037882   -0.04482897056852696
-1.7175096142351454   -0.30895193042096203   -0.05238308886817689
-1.7175096142351454   -0.30895193042096203   -0.05238308886817689
-1.7175096142351454   -0.30895193042096203   -0.05238308886817689
-1.7175096142351454   -0.30895193042096203   -0.05238308886817689
-0.8526398343769499   -0.7941994189753164   0.015899200781026662
-0.8526398343769499   -0.7941994189753164   0.015899200781026662
-0.8526398343769499   -0.7941994189753164   0.015899200781026662
-0.8526398343769499   -0.7941994189753164   0.015899200781026662
-1.3052305591533426   -0.5617181520235001   -0.07518277279775157
-1.3052305591533426   -0.5617181520235001   -0.07518277279775157
-1.3052305591533426   -0.5617181520235001   -0.07518277279775157
-1.3052305591533426   -0.5617181520235001   -0.07518277279775157
-0.7110749143199702   -0.09273624687180333   0.022260628962412758
-0.7110749143199702   -0.09273624687180333   0.022260628962412758
-0.7110749143199702   -0.09273624687180333   0.022260628962412758
-0.7110749143199702   -0.09273624687180333   0.022260628962412758
-1.8547897339347348   -1.0061303021670773   -0.041605315619993144
-1.8547897339347348   -1.0061303021670773   -0.041605315619993144
-1.8547897339347348   -1.0061303021670773   -0.041605315619993144
-1.8547897339347348   -1.0061303021670773   -0.041605315619993144
-1.6619088328278804   -0.2797509516746915   -0.05337454011647448
-1.6619088328278804   -0.2797509516746915   -0.05337454011647448
-1.6619088328278804   -0.2797509516746915   -0.05337454011647448
-1.6619088328278804   -0.2797509516746915   -0.05337454011647448
-0.812146686809954   -0.7879734495600089   0.024073396896249155
-0.812146686809954   -0.7879734495600089   0.024073396896249155
-0.812146686809954   -0.7879734495600089   0.024073396896249155
-0.812146686809954   -0.7879734495600089   0.024073396896249155
-1.2468992514026764   -0.5465465380934753   -0.05276954781830806
-1.2468992514026764   -0.5465465380934753   -0.05276954781830806
-1.2468992514026764   -0.5465465380934753   -0.05276954781830806
-1.2468992514026764   -0.5465465380934753   -0.05276954781830806
-0.671780006486981   -0.06955300716083126   0.007486356111935748
-0.671780006486981   -0.06955300716083126   0.007486356111935748
-0.671780006486981   -0.06955300716083126   0.007486356111935748
-0.671780006486981   -0.06955300716083126   0.007486356111935748
-1.8022023785268346   -0.9980982594498498   -0.03649496083607412
-1.8022023785268346   -0.9980982594498498   -0.03649496083607412
-1.8022023785268346   -0.9980982594498498   -0.03649496083607412
-1.8022023785268346   -0.9980982594498498   -0.03649496083607412
-1.5751820526827622   -0.24836596280494144   -0.0605050749183194
-1.5751820526827622   -0.24836596280494144   -0.0605050749183194
-1.5751820526827622   -0.24836596280494144   -0.0605050749183194
-1.5751820526827622   -0.24836596280494144   -0.0605050749183194
-0.7245414519577938   -0.7085920260394903   0.058242372438784995
-0.7245414519577938   -0.7085920260394903   0.058242372438784995
-0.7245414519577938   -0.7085920260394903   0.058242372438784995
-0.7245414519577938   -0.7085920260394903   0.058242372438784995
-1.181816044107769   -0.4954330422962232   -0.029398564876636328
-1.181816044107769   -0.4954330422962232   -0.029398564876636328
-1.181816044107769   -0.4954330422962232   -0.029398564876636328
-1.181816044107769   -0.4954330422962232   -0.029398564876636328
-1.7206131595936247   -0.10421944517106885   -0.012057300889892736
-1.7206131595936247   -0.10421944517106885   -0.012057300889892736
-1.7206131595936247   -0.10421944517106885   -0.012057300889892736
-1.7206131595936247   -0.10421944517106885   -0.012057300889892736
-3.0367837051909854   -0.6011611021135225   0.030978194623373187
-3.0367837051909854   -0.6011611021135225   0.030978194623373187
-3.0367837051909854   -0.6011611021135225   0.030978194623373187
-3.0367837051909854   -0.6011611021135225   0.030978194623373187
-2.9171707914158884   -0.28942460348037874   -0.06402235771895194
-2.9171707914158884   -0.28942460348037874   -0.06402235771895194
-2.9171707914158884   -0.28942460348037874   -0.06402235771895194
-2.9171707914158884   -0.28942460348037874   -0.06402235771895194
-1.682391833509406   -0.3113563248616413   0.12561020920119956
-1.682391833509406   -0.3113563248616413   0.12561020920119956
-1.682391833509406   -0.3113563248616413   0.12561020920119956
-1.682391833509406   -0.3113563248616413   0.12561020920119956
-2.244472466184558   -0.34871719957728337   0.0321791867325193
-2.244472466184558   -0.34871719957728337   0.0321791867325193
-2.244472466184558   -0.34871719957728337   0.0321791867325193
-2.244472466184558   -0.34871719957728337   0.0321791867325193
-1.6497774995496253   -0.023063635613037925   0.00038918975150754875
-1.6497774995496253   -0.023063635613037925   0.00038918975150754875
-1.6497774995496253   -0.023063635613037925   0.00038918975150754875
-1.6497774995496253   -0.023063635613037925   0.00038918975150754875
-2.96118333097637   -0.5891154983296883   0.015605839327928247
-2.96118333097637   -0.5891154983296883   0.015605839327928247
-2.96118333097637   -0.5891154983296883   0.015605839327928247
-2.96118333097637   -0.5891154983296883   0.015605839327928247
-2.851262632332457   -0.26519750585118695   -0.08125909347480748
-2.851262632332457   -0.26519750585118695   -0.08125909347480748
-2.851262632332457   -0.26519750585118695   -0.08125909347480748
-2.851262632332457   -0.26519750585118695   -0.08125909347480748
-1.6251545128550642   -0.29575140079702245   0.14639750886995206
-1.6251545128550642   -0.29575140079702245   0.14639750886995206
-1.6251545128550642   -0.29575140079702245   0.14639750886995206
-1.6251545128550642   -0.29575140079702245   0.14639750886995206
-2.2096663015865423   -0.2871800237760972   0.030931084731094474
-2.2096663015865423   -0.2871800237760972   0.030931084731094474
-2.2096663015865423   -0.2871800237760972   0.030931084731094474
-2.2096663015865423   -0.2871800237760972   0.030931084731094474
-1.5987843251080844   -0.0016255136248147783   -0.015877439567357834
-1.5987843251080844   -0.0016255136248147783   -0.015877439567357834
-1.5987843251080844   -0.0016255136248147783   -0.015877439567357834
-1.5987843251080844   -0.0016255136248147783   -0.015877439567357834
-2.881823362897207   -0.5635139358411626   0.0642536836913941
-2.881823362897207   -0.5635139358411626   0.0642536836913941
-2.881823362897207   -0.5635139358411626   0.0642536836913941
-2.881823362897207   -0.5635139358411626   0.0642536836913941
-2.714401178644507   -0.21483189216342102   -0.09083592116010425
-2.714401178644507   -0.21483189216342102   -0.09083592116010425
-2.714401178644507   -0.21483189216342102   -0.09083592116010425
-2.714401178644507   -0.21483189216342102   -0.09083592116010425
-1.5361295038314393   -0.27495629954968   0.16134800608303937
-1.5361295038314393   -0.27495629954968   0.16134800608303937
-1.5361295038314393   -0.27495629954968   0.16134800608303937
-1.5361295038314393   -0.27495629954968   0.16134800608303937
-2.077337999299251   -0.21953404343616092   0.06338296418454012
-2.077337999299251   -0.21953404343616092   0.06338296418454012
-2.077337999299251   -0.21953404343616092   0.06338296418454012
-2.077337999299251   -0.21953404343616092   0.06338296418454012
2.18439198444621   0.0714422950038286   0.030772000607081018
2.18439198444621   0.0714422950038286   0.030772000607081018
2.18439198444621   0.0714422950038286   0.030772000607081018
2.18439198444621   0.0714422950038286   0.030772000607081018
1.11556308517537   -0.05866918605923205   0.022702579819655802
1.11556308517537   -0.05866918605923205   0.022702579819655802
1.11556308517537   -0.05866918605923205   0.022702579819655802
1.11556308517537   -0.05866918605923205   0.022702579819655802
1.0719066205163141   -0.15758619373787375   0.044592594720431256
1.0719066205163141   -0.15758619373787375   0.044592594720431256
1.0719066205163141   -0.15758619373787375   0.044592594720431256
1.0719066205163141   -0.15758619373787375   0.044592594720431256
2.168526281895633   0.12219139897747067   0.016451431380840292
2.168526281895633   0.12219139897747067   0.016451431380840292
2.168526281895633   0.12219139897747067   0.016451431380840292
2.168526281895633   0.12219139897747067   0.016451431380840292
1.54795135159795   -0.022019656397947562   -0.057147781917132996
1.54795135159795   -0.022019656397947562   -0.057147781917132996
1.54795135159795   -0.022019656397947562   -0.057147781917132996
1.54795135159795   -0.022019656397947562   -0.057147781917132996
2.1565366586087182   0.05513353143438887   0.023561182489348492
2.1565366586087182   0.05513353143438887   0.023561182489348492
2.1565366586087182   0.05513353143438887   0.023561182489348492
2.1565366586087182   0.05513353143438887   0.023561182489348492
1.0803200829635036   -0.09410448703451851   0.023178200253023917
1.0803200829635036   -0.09410448703451851   0.023178200253023917
1.0803200829635036   -0.09410448703451851   0.023178200253023917
1.0803200829635036   -0.09410448703451851   0.023178200253023917
1.0440792094869815   -0.16124450545921543   0.036894671034799986
1.0440792094869815   -0.16124450545921543   0.036894671034799986
1.0440792094869815   -0.16124450545921543   0.036894671034799986
1.0440792094869815   -0.16124450545921543   0.036894671034799986
2.143086322454898   0.11687817771556414   0.02843291096835135
2.143086322454898   0.11687817771556414   0.02843291096835135
2.143086322454898   0.11687817771556414   0.02843291096835135
2.143086322454898   0.11687817771556414   0.02843291096835135
1.543277299236478   -0.030378512999757024   -0.06619145322129376
1.543277299236478   -0.030378512999757024   -0.06619145322129376
1.543277299236478   -0.030378512999757024   -0.06619145322129376
1.543277299236478   -0.030378512999757024   -0.06619145322129376
2.125239760058932   0.04902027149085064   0.0070580052132116905
2.125239760058932   0.04902027149085064   0.0070580052132116905
2.125239760058932   0.04902027149085064   0.0070580052132116905
2.125239760058932   0.04902027149085064   0.0070580052132116905
1.0555079942370125   -0.0998043768804463   0.03259846620618494
1.0555079942370125   -0.0998043768804463   0.03259846620618494
1.0555079942370125   -0.0998043768804463   0.03259846620618494
1.0555079942370125   -0.0998043768804463   0.03259846620618494
1.0147138019368862   -0.14713902333304618   0.03185702557948519
1.0147138019368862   -0.14713902333304618   0.03185702557948519
1.0147138019368862   -0.14713902333304618   0.03185702557948519
1.0147138019368862   -0.14713902333304618   0.03185702557948519
2.1038750794071897   0.11814216256315274   0.04085955556336769
2.1038750794071897   0.11814216256315274   0.04085955556336769
2.1038750794071897   0.11814216256315274   0.04085955556336769
2.1038750794071897   0.11814216256315274   0.04085955556336769
1.485235094135792   -0.030633500597156083   -0.08940289152359954
1.485235094135792   -0.030633500597156083   -0.08940289152359954
1.485235094135792   -0.030633500597156083   -0.08940289152359954
1.485235094135792   -0.030633500597156083   -0.08940289152359954
1.1054931913862935   -0.14095268568913355   0.05463661050417587
1.1054931913862935   -0.14095268568913355   0.05463661050417587
1.1054931913862935   -0.14095268568913355   0.05463661050417587
1.1054931913862935   -0.14095268568913355   0.05463661050417587
0.21524363355099163   -0.13165744437948287   0.011765039130269411
0.21524363355099163   -0.13165744437948287   0.011765039130269411
0.21524363355099163   -0.13165744437948287   0.011765039130269411
0.21524363355099163   -0.13165744437948287   0.011765039130269411
0.13996537127744083   -0.33135128744504083   0.05862388508878291
0.13996537127744083   -0.33135128744504083   0.05862388508878291
0.13996537127744083   -0.33135128744504083   0.05862388508878291
0.13996537127744083   -0.33135128744504083   0.05862388508878291
1.1115410330418294   0.04295538083778169   0.04222308277235042
1.1115410330418294   0.04295538083778169   0.04222308277235042
1.1115410330418294   0.04295538083778169   0.04222308277235042
1.1115410330418294   0.04295538083778169   0.04222308277235042
0.6331794727487743   -0.14081252124870952   -0.002420895949725152
0.6331794727487743   -0.14081252124870952   -0.002420895949725152
0.6331794727487743   -0.14081252124870952   -0.002420895949725152
0.6331794727487743   -0.14081252124870952   -0.002420895949725152
1.074244431330601   -0.14706763453447597   0.045763089588471265
1.074244431330601   -0.14706763453447597   0.045763089588471265
1.074244431330601   -0.14706763453447597   0.045763089588471265
1.074244431330601   -0.14706763453447597   0.045763089588471265
0.1678436256129733   -0.15074661944848286   0.017410488769883624
0.1678436256129733   -0.15074661944848286   0.017410488769883624
0.1678436256129733   -0.15074661944848286   0.017410488769883624
0.1678436256129733   -0.15074661944848286   0.017410488769883624
0.10625634159370231   -0.33434442641973205   0.05248884047329053
0.10625634159370231   -0.33434442641973205   0.05248884047329053
0.10625634159370231   -0.33434442641973205   0.05248884047329053
0.10625634159370231   -0.33434442641973205   0.05248884047329053
1.0858774863737752   0.03460914305630977   0.05003240695324375
1.0858774863737752   0.03460914305630977   0.05003240695324375
1.0858774863737752   0.03460914305630977   0.05003240695324375
1.0858774863737752   0.03460914305630977   0.05003240695324375
0.5874059334015752   -0.15009061982772032   -0.030384248811216957
0.5874059334015752   -0.15009061982772032   -0.030384248811216957
0.5874059334015752   -0.15009061982772032   -0.030384248811216957
0.5874059334015752   -0.15009061982772032   -0.030384248811216957
1.04667925347585   -0.14918961252830842   0.0378399980482252
1.04667925347585   -0.14918961252830842   0.0378399980482252
1.04667925347585   -0.14918961252830842   0.0378399980482252
1.04667925347585   -0.14918961252830842   0.0378399980482252
0.13522013900038798   -0.16078010632634923   0.023743507413336112
0.13522013900038798   -0.16078010632634923   0.023743507413336112
0.13522013900038798   -0.16078010632634923   0.023743507413336112
0.13522013900038798   -0.16078010632634923   0.023743507413336112
0.0685342451145167   -0.3342236081290264   0.04109499103210221
0.0685342451145167   -0.3342236081290264   0.04109499103210221
0.0685342451145167   -0.3342236081290264   0.04109499103210221
0.0685342451145167   -0.3342236081290264   0.04109499103210221
1.0567519941486327   0.03508401811714465   0.059824945188026515
1.0567519941486327   0.03508401811714465   0.059824945188026515
1.0567519941486327   0.03508401811714465   0.059824945188026515
1.0567519941486327   0.03508401811714465   0.059824945188026515
0.5594317884349882   -0.14897203996478386   -0.0541773457161865
0.5594317884349882   -0.14897203996478386   -0.0541773457161865
0.5594317884349882   -0.14897203996478386   -0.0541773457161865
0.5594317884349882   -0.14897203996478386   -0.0541773457161865
0.16767831254053814   -0.40679645094324723   0.049077440641762254
0.16767831254053814   -0.40679645094324723   0.049077440641762254
0.16767831254053814   -0.40679645094324723   0.049077440641762254
0.16767831254053814   -0.40679645094324723   0.049077440641762254
-0.6502364708500378   -0.20437389853912954   0.0007869792592242637
-0.6502364708500378   -0.20437389853912954   0.0007869792592242637
-0.6502364708500378   -0.20437389853912954   0.0007869792592242637
-0.6502364708500378   -0.20437389853912954   0.0007869792592242637
-0.7864268369572549   -0.6039582546494952   0.06719003313013144
-0.7864268369572549   -0.6039582546494952   0.06719003313013144
-0.7864268369572549   -0.6039582546494952   0.06719003313013144
-0.7864268369572549   -0.6039582546494952   0.06719003313013144
0.19289978005861694   -0.03473592979839206   0.026680571348012445
0.19289978005861694   -0.03473592979839206   0.026680571348012445
0.19289978005861694   -0.03473592979839206   0.026680571348012445
0.19289978005861694   -0.03473592979839206   0.026680571348012445
-0.2654112330617173   -0.3080679091757397   0.011571080289113148
-0.2654112330617173   -0.3080679091757397   0.011571080289113148
-0.2654112330617173   -0.3080679091757397   0.011571080289113148
-0.2654112330617173   -0.3080679091757397   0.011571080289113148
0.11556638070811054   -0.42995174065252295   0.0352293854496136
0.11556638070811054   -0.42995174065252295   0.0352293854496136
0.11556638070811054   -0.42995174065252295   0.0352293854496136
0.11556638070811054   -0.42995174065252295   0.0352293854496136
-0.7222680519809512   -0.22191705816956553   0.005942761531713248
-0.7222680519809512   -0.22191705816956553   0.005942761531713248
-0.7222680519809512   -0.22191705816956553   0.005942761531713248
-0.7222680519809512   -0.22191705816956553   0.005942761531713248
-0.8333908746153269   -0.6137109977805314   0.054677049691070095
-0.8333908746153269   -0.6137109977805314   0.054677049691070095
-0.8333908746153269   -0.6137109977805314   0.054677049691070095
-0.8333908746153269   -0.6137109977805314   0.054677049691070095
0.16131778189104606   -0.04400252364576544   0.037454139186041936
0.16131778189104606   -0.04400252364576544   0.037454139186041936
0.16131778189104606   -0.04400252364576544   0.037454139186041936
0.16131778189104606   -0.04400252364576544   0.037454139186041936
-0.32409134960614516   -0.32682792538769556   -0.027631252135731595
-0.32409134960614516   -0.32682792538769556   -0.027631252135731595
-0.32409134960614516   -0.32682792538769556   -0.027631252135731595
-0.32409134960614516   -0.32682792538769556   -0.027631252135731595
0.07965957388091599   -0.43750350243463354   0.02266407792426056
0.07965957388091599   -0.43750350243463354   0.02266407792426056
0.07965957388091599   -0.43750350243463354   0.02266407792426056
0.07965957388091599   -0.43750350243463354   0.02266407792426056
-0.7673950192733193   -0.23587237165977776   0.006817700280345899
-0.7673950192733193   -0.23587237165977776   0.006817700280345899
-0.7673950192733193   -0.23587237165977776   0.006817700280345899
-0.7673950192733193   -0.23587237165977776   0.006817700280345899
-0.8842744701029912   -0.6095552158935086   0.04610313083894192
-0.8842744701029912   -0.6095552158935086   0.04610313083894192
-0.8842744701029912   -0.6095552158935086   0.04610313083894192
-0.8842744701029912   -0.6095552158935086   0.04610313083894192
0.12617545987793619   -0.049177613444953416   0.044255070165124526
0.12617545987793619   -0.049177613444953416   0.044255070165124526
0.12617545987793619   -0.049177613444953416   0.044255070165124526
0.12617545987793619   -0.049177613444953416   0.044255070165124526
-0.37169101856302555   -0.3339703437421765   -0.06677190440063259
-0.37169101856302555   -0.3339703437421765   -0.06677190440063259
-0.37169101856302555   -0.3339703437421765   -0.06677190440063259
-0.37169101856302555   -0.3339703437421765   -0.06677190440063259
-0.7372986510254593   -0.6972542845028302   0.058356464345822784
-0.7372986510254593   -0.6972542845028302   0.058356464345822784
-0.7372986510254593   -0.6972542845028302   0.058356464345822784
-0.7372986510254593   -0.6972542845028302   0.058356464345822784
-1.6345137769714986   -0.25447102360735196   -0.037899917665298516
-1.6345137769714986   -0.25447102360735196   -0.037899917665298516
-1.6345137769714986   -0.25447102360735196   -0.037899917665298516
-1.6345137769714986   -0.25447102360735196   -0.037899917665298516
-1.8724901415799076   -1.011850997979404   -0.0525083870364524
-1.8724901415799076   -1.011850997979404   -0.0525083870364524
-1.8724901415799076   -1.011850997979404   -0.0525083870364524
-1.8724901415799076   -1.011850997979404   -0.0525083870364524
-0.6859324909780392   -0.057349205470618836   0.02305271384732602
-0.6859324909780392   -0.057349205470618836   0.02305271384732602
-0.6859324909780392   -0.057349205470618836   0.02305271384732602
-0.6859324909780392   -0.057349205470618836   0.02305271384732602
-1.220766382958584   -0.4856594919249734   -0.04192117579430148
-1.220766382958584   -0.4856594919249734   -0.04192117579430148
-1.220766382958584   -0.4856594919249734   -0.04192117579430148
-1.220766382958584   -0.4856594919249734   -0.04192117579430148
-0.8330685107498359   -0.789550260418792   0.019573669936516186
-0.8330685107498359   -0.789550260418792   0.019573669936516186
-0.8330685107498359   -0.789550260418792   0.019573669936516186
-0.8330685107498359   -0.789550260418792   0.019573669936516186
-1.7215730618225806   -0.2758688830456996   -0.03390510318353659
-1.7215730618225806   -0.2758688830456996   -0.03390510318353659
-1.7215730618225806   -0.2758688830456996   -0.03390510318353659
-1.7215730618225806   -0.2758688830456996   -0.03390510318353659
-1.9283401074604922   -1.0281715406747003   -0.06072363802666912
-1.9283401074604922   -1.0281715406747003   -0.06072363802666912
-1.9283401074604922   -1.0281715406747003   -0.06072363802666912
-1.9283401074604922   -1.0281715406747003   -0.06072363802666912
-0.7292068616674965   -0.07254357881552743   0.03442969546521164
-0.7292068616674965   -0.07254357881552743   0.03442969546521164
-0.7292068616674965   -0.07254357881552743   0.03442969546521164
-0.7292068616674965   -0.07254357881552743   0.03442969546521164
-1.2890047757445253   -0.5380418461089904   -0.05923941721434603
-1.2890047757445253   -0.5380418461089904   -0.05923941721434603
-1.2890047757445253   -0.5380418461089904   -0.05923941721434603
-1.2890047757445253   -0.5380418461089904   -0.05923941721434603
-0.8810627954246544   -0.8050417175745136   0.007648165438407101
-0.8810627954246544   -0.8050417175745136   0.007648165438407101
-0.8810627954246544   -0.8050417175745136   0.007648165438407101
-0.8810627954246544   -0.8050417175745136   0.007648165438407101
-1.7767010017181633   -0.29589022993054304   -0.03480942005919929
-1.7767010017181633   -0.29589022993054304   -0.03480942005919929
-1.7767010017181633   -0.29589022993054304   -0.03480942005919929
-1.7767010017181633   -0.29589022993054304   -0.03480942005919929
-1.9759895708769206   -0.9842257018690592   -0.068477887789933
-1.9759895708769206   -0.9842257018690592   -0.068477887789933
-1.9759895708769206   -0.9842257018690592   -0.068477887789933
-1.9759895708769206   -0.9842257018690592   -0.068477887789933
-0.7840091342622308   -0.09399563122106855   0.031870225370305205
-0.7840091342622308   -0.09399563122106855   0.031870225370305205
-0.7840091342622308   -0.09399563122106855   0.031870225370305205
-0.7840091342622308   -0.09399563122106855   0.031870225370305205
-1.3518268861505882   -0.5559215427486351   -0.07577006905018888
-1.3518268861505882   -0.5559215427486351   -0.07577006905018888
-1.3518268861505882   -0.5559215427486351   -0.07577006905018888
-1.3518268861505882   -0.5559215427486351   -0.07577006905018888
-1.6054995872201236   -0.2921332632893228   0.1448332707735197
-1.6054995872201236   -0.2921332632893228   0.1448332707735197
-1.6054995872201236   -0.2921332632893228   0.1448332707735197
-1.6054995872201236   -0.2921332632893228   0.1448332707735197
-2.8282661142030343   -0.21176580148856983   -0.0503526229273053
-2.8282661142030343   -0.21176580148856983   -0.0503526229273053
-2.8282661142030343   -0.21176580148856983   -0.0503526229273053
-2.8282661142030343   -0.21176580148856983   -0.0503526229273053
-3.0016346798052562   -0.59237384576709   0.039765450969806014
-3.0016346798052562   -0.59237384576709   0.039765450969806014
-3.0016346798052562   -0.59237384576709   0.039765450969806014
-3.0016346798052562   -0.59237384576709   0.039765450969806014
-1.6520291740588908   0.023711870792099854   0.014233581797112316
-1.6520291740588908   0.023711870792099854   0.014233581797112316
-1.6520291740588908   0.023711870792099854   0.014233581797112316
-1.6520291740588908   0.023711870792099854   0.014233581797112316
-2.1636627823255608   -0.20809645376076352   0.04351399894221319
-2.1636627823255608   -0.20809645376076352   0.04351399894221319
-2.1636627823255608   -0.20809645376076352   0.04351399894221319
-2.1636627823255608   -0.20809645376076352   0.04351399894221319
-1.696637324085154   -0.313622103604541   0.12852680606242958
-1.696637324085154   -0.313622103604541   0.12852680606242958
-1.696637324085154   -0.313622103604541   0.12852680606242958
-1.696637324085154   -0.313622103604541   0.12852680606242958
-2.9494186793004533   -0.2474320208919038   -0.04409637138134355
-2.9494186793004533   -0.2474320208919038   -0.04409637138134355
-2.9494186793004533   -0.2474320208919038   -0.04409637138134355
-2.9494186793004533   -0.2474320208919038   -0.04409637138134355
-3.07527931732168   -0.6176394949160159   -0.012918157258399185
-3.07527931732168   -0.6176394949160159   -0.012918157258399185
-3.07527931732168   -0.6176394949160159   -0.012918157258399185
-3.07527931732168   -0.6176394949160159   -0.012918157258399185
-1.7040002206969382   0.006684177888044429   0.02612007722834095
-1.7040002206969382   0.006684177888044429   0.02612007722834095
-1.7040002206969382   0.006684177888044429   0.02612007722834095
-1.7040002206969382   0.006684177888044429   0.02612007722834095
-2.293290221427916   -0.27476514703540134   0.017948903328189596
-2.293290221427916   -0.27476514703540134   0.017948903328189596
-2.293290221427916   -0.27476514703540134   0.017948903328189596
-2.293290221427916   -0.27476514703540134   0.017948903328189596
-1.7551886444782203   -0.3297210847113714   0.1065832209213441
-1.7551886444782203   -0.3297210847113714   0.1065832209213441
-1.7551886444782203   -0.3297210847113714   0.1065832209213441
-1.7551886444782203   -0.3297210847113714   0.1065832209213441
-3.008835924942169   -0.26597926371836417   -0.032361426558471226
-3.008835924942169   -0.26597926371836417   -0.032361426558471226
-3.008835924942169   -0.26597926371836417   -0.032361426558471226
-3.008835924942169   -0.26597926371836417   -0.032361426558471226
-3.1394314688995983   -0.6279159623417605   -0.0001483428092040118
-3.1394314688995983   -0.6279159623417605   -0.0001483428092040118
-3.1394314688995983   -0.6279159623417605   -0.0001483428092040118
-3.1394314688995983   -0.6279159623417605   -0.0001483428092040118
-1.7769642255455798   -0.06824403680310231   0.010667173800807145
-1.7769642255455798   -0.06824403680310231   0.010667173800807145
-1.7769642255455798   -0.06824403680310231   0.010667173800807145
-1.7769642255455798   -0.06824403680310231   0.010667173800807145
-2.3213465400963136   -0.33203507562891144   0.028342597352626567
-2.3213465400963136   -0.33203507562891144   0.028342597352626567
-2.3213465400963136   -0.33203507562891144   0.028342597352626567
-2.3213465400963136   -0.33203507562891144   0.028342597352626567
1.9124752586878984   0.08784721048760946   -0.041627610958679666
1.9124752586878984   0.08784721048760946   -0.041627610958679666
1.9124752586878984   0.08784721048760946   -0.041627610958679666
1.9124752586878984   0.08784721048760946   -0.041627610958679666
0.9628449867222044   -0.019257546813297388   0.020520430406375835
0.9628449867222044   -0.019257546813297388   0.020520430406375835
0.9628449867222044   -0.019257546813297388   0.020520430406375835
0.9628449867222044   -0.019257546813297388   0.020520430406375835
0.9014612800873307   -0.1418632046433114   -0.036756584914767625
0.9014612800873307   -0.1418632046433114   -0.036756584914767625
0.9014612800873307   -0.1418632046433114   -0.036756584914767625
0.9014612800873307   -0.1418632046433114   -0.036756584914767625
1.8902950246035402   0.1381244770434339   0.02400868611833619
1.8902950246035402   0.1381244770434339   0.02400868611833619
1.8902950246035402   0.1381244770434339   0.02400868611833619
1.8902950246035402   0.1381244770434339   0.02400868611833619
1.3425018327093818   0.0032906311539376842   -0.051861800246371395
1.3425018327093818   0.0032906311539376842   -0.051861800246371395
1.3425018327093818   0.0032906311539376842   -0.051861800246371395
1.3425018327093818   0.0032906311539376842   -0.051861800246371395
1.8591970653169907   0.04863661894281934   -0.04199325221377873
1.8591970653169907   0.04863661894281934   -0.04199325221377873
1.8591970653169907   0.04863661894281934   -0.04199325221377873
1.8591970653169907   0.04863661894281934   -0.04199325221377873
0.9308286097936924   -0.05410597612288254   0.02232283509660188
0.9308286097936924   -0.05410597612288254   0.02232283509660188
0.9308286097936924   -0.05410597612288254   0.02232283509660188
0.9308286097936924   -0.05410597612288254   0.02232283509660188
0.8684153555309907   -0.1498114244043777   -0.03034413270745045
0.8684153555309907   -0.1498114244043777   -0.03034413270745045
0.8684153555309907   -0.1498114244043777   -0.03034413270745045
0.8684153555309907   -0.1498114244043777   -0.03034413270745045
1.8443786819441539   0.12687046756222992   0.035069247619126526
1.8443786819441539   0.12687046756222992   0.035069247619126526
1.8443786819441539   0.12687046756222992   0.035069247619126526
1.8443786819441539   0.12687046756222992   0.035069247619126526
1.3243984747612916   -0.013476576668683238   -0.061951046644848524
1.3243984747612916   -0.013476576668683238   -0.061951046644848524
1.3243984747612916   -0.013476576668683238   -0.061951046644848524
1.3243984747612916   -0.013476576668683238   -0.061951046644848524
1.813053720508819   0.038540047278015244   -0.03322513927333387
1.813053720508819   0.038540047278015244   -0.03322513927333387
1.813053720508819   0.038540047278015244   -0.03322513927333387
1.813053720508819   0.038540047278015244   -0.03322513927333387
0.8973434348105412   -0.06387788627594423   0.028362725561868543
0.8973434348105412   -0.06387788627594423   0.028362725561868543
0.8973434348105412   -0.06387788627594423   0.028362725561868543
0.8973434348105412   -0.06387788627594423   0.028362725561868543
0.8364014156062344   -0.14768424597759172   -0.020798823339399752
0.8364014156062344   -0.14768424597759172   -0.020798823339399752
0.8364014156062344   -0.14768424597759172   -0.020798823339399752
0.8364014156062344   -0.14768424597759172   -0.020798823339399752
1.7875179819266624   0.11917524993420964   0.0456045679547932
1.7875179819266624   0.11917524993420964   0.0456045679547932
1.7875179819266624   0.11917524993420964   0.0456045679547932
1.7875179819266624   0.11917524993420964   0.0456045679547932
1.2587899745051183   -0.0235269263256489   -0.08139720450789117
1.2587899745051183   -0.0235269263256489   -0.08139720450789117
1.2587899745051183   -0.0235269263256489   -0.08139720450789117
1.2587899745051183   -0.0235269263256489   -0.08139720450789117
0.967953961415291   0.01824430398252075   0.00856345307599058
0.967953961415291   0.01824430398252075   0.00856345307599058
0.967953961415291   0.01824430398252075   0.00856345307599058
0.967953961415291   0.01824430398252075   0.00856345307599058
0.09356051232148216   -0.05791275151751396   -0.0021518731810948113
0.09356051232148216   -0.05791275151751396   -0.0021518731810948113
0.09356051232148216   -0.05791275151751396   -0.0021518731810948113
0.09356051232148216   -0.05791275151751396   -0.0021518731810948113
0.035719296107889535   -0.18772421979163248   -0.035353183440780755
0.035719296107889535   -0.18772421979163248   -0.035353183440780755
0.035719296107889535   -0.18772421979163248   -0.035353183440780755
0.035719296107889535   -0.18772421979163248   -0.035353183440780755
0.9691303491282045   0.11174711949670471   0.04797843614957638
0.9691303491282045   0.11174711949670471   0.04797843614957638
0.9691303491282045   0.11174711949670471   0.04797843614957638
0.9691303491282045   0.11174711949670471   0.04797843614957638
0.5071099856001758   -0.026442446670385297   -0.020137735864346473
0.5071099856001758   -0.026442446670385297   -0.020137735864346473
0.5071099856001758   -0.026442446670385297   -0.020137735864346473
0.5071099856001758   -0.026442446670385297   -0.020137735864346473
0.9407996085383233   0.003314041601656992   0.01475781109522279
0.9407996085383233   0.003314041601656992   0.01475781109522279
0.9407996085383233   0.003314041601656992   0.01475781109522279
0.9407996085383233   0.003314041601656992   0.01475781109522279
0.06512135130226761   -0.07821982729208543   0.0021527000315625655
0.06512135130226761   -0.07821982729208543   0.0021527000315625655
0.06512135130226761   -0.07821982729208543   0.0021527000315625655
0.06512135130226761   -0.07821982729208543   0.0021527000315625655
0.0038565646589323807   -0.19671775269120118   -0.024581150069468014
0.0038565646589323807   -0.19671775269120118   -0.024581150069468014
0.0038565646589323807   -0.19671775269120118   -0.024581150069468014
0.0038565646589323807   -0.19671775269120118   -0.024581150069468014
0.9341493189520124   0.09558840653369827   0.052925853459582214
0.9341493189520124   0.09558840653369827   0.052925853459582214
0.9341493189520124   0.09558840653369827   0.052925853459582214
0.9341493189520124   0.09558840653369827   0.052925853459582214
0.4704574252612078   -0.04130825396204167   -0.028513043102376207
0.4704574252612078   -0.04130825396204167   -0.028513043102376207
0.4704574252612078   -0.04130825396204167   -0.028513043102376207
0.4704574252612078   -0.04130825396204167   -0.028513043102376207
0.907408548594221   -0.006774203541155238   0.02158461174548497
0.907408548594221   -0.006774203541155238   0.02158461174548497
0.907408548594221   -0.006774203541155238   0.02158461174548497
0.907408548594221   -0.006774203541155238   0.02158461174548497
0.030443962078287944   -0.09450851555478447   0.00614659989089307
0.030443962078287944   -0.09450851555478447   0.00614659989089307
0.030443962078287944   -0.09450851555478447   0.00614659989089307
0.030443962078287944   -0.09450851555478447   0.00614659989089307
-0.030354395667966435   -0.19765137972374314   -0.01674565419981331
-0.030354395667966435   -0.19765137972374314   -0.01674565419981331
-0.030354395667966435   -0.19765137972374314   -0.01674565419981331
-0.030354395667966435   -0.19765137972374314   -0.01674565419981331
0.8988567775036803   0.08529397401212974   0.05849976615811146
0.8988567775036803   0.08529397401212974   0.05849976615811146
0.8988567775036803   0.08529397401212974   0.05849976615811146
0.8988567775036803   0.08529397401212974   0.05849976615811146
0.44175186809258216   -0.047262464049084976   -0.03572106784269091
0.44175186809258216   -0.047262464049084976   -0.03572106784269091
0.44175186809258216   -0.047262464049084976   -0.03572106784269091
0.44175186809258216   -0.047262464049084976   -0.03572106784269091
0.09523820836661606   -0.05480965620185829   0.0031335117289190313
0.09523820836661606   -0.05480965620185829   0.0031335117289190313
0.09523820836661606   -0.05480965620185829   0.0031335117289190313
0.09523820836661606   -0.05480965620185829   0.0031335117289190313
-0.7466515049306599   -0.08632217168082172   -0.023501239616044344
-0.7466515049306599   -0.08632217168082172   -0.023501239616044344
-0.7466515049306599   -0.08632217168082172   -0.023501239616044344
-0.7466515049306599   -0.08632217168082172   -0.023501239616044344
-0.8109547013606256   -0.24889512268630895   -0.04026091167232937
-0.8109547013606256   -0.24889512268630895   -0.04026091167232937
-0.8109547013606256   -0.24889512268630895   -0.04026091167232937
-0.8109547013606256   -0.24889512268630895   -0.04026091167232937
0.10219944232189412   0.08180405392926726   0.027519273908344057
0.10219944232189412   0.08180405392926726   0.027519273908344057
0.10219944232189412   0.08180405392926726   0.027519273908344057
0.10219944232189412   0.08180405392926726   0.027519273908344057
-0.3410552851528577   -0.07336362038246835   -0.019998914004035785
-0.3410552851528577   -0.07336362038246835   -0.019998914004035785
-0.3410552851528577   -0.07336362038246835   -0.019998914004035785
-0.3410552851528577   -0.07336362038246835   -0.019998914004035785
0.07129949846520911   -0.06118948222986909   0.016013090784053816
0.07129949846520911   -0.06118948222986909   0.016013090784053816
0.07129949846520911   -0.06118948222986909   0.016013090784053816
0.07129949846520911   -0.06118948222986909   0.016013090784053816
-0.7776927106396566   -0.1035395396628919   -0.019306541090900985
-0.7776927106396566   -0.1035395396628919   -0.019306541090900985
-0.7776927106396566   -0.1035395396628919   -0.019306541090900985
-0.7776927106396566   -0.1035395396628919   -0.019306541090900985
-0.8483245452408668   -0.25874879375690396   -0.026634884237737723
-0.8483245452408668   -0.25874879375690396   -0.026634884237737723
-0.8483245452408668   -0.25874879375690396   -0.026634884237737723
-0.8483245452408668   -0.25874879375690396   -0.026634884237737723
0.06724135958455285   0.06450367060082898   0.03112140126660285
0.06724135958455285   0.06450367060082898   0.03112140126660285
0.06724135958455285   0.06450367060082898   0.03112140126660285
0.06724135958455285   0.06450367060082898   0.03112140126660285
-0.3719666493377363   -0.08367554185803104   -0.02399188678041171
-0.3719666493377363   -0.08367554185803104   -0.02399188678041171
-0.3719666493377363   -0.08367554185803104   -0.02399188678041171
-0.3719666493377363   -0.08367554185803104   -0.02399188678041171
0.03821221496155738   -0.0716821625986537   0.022161511351109477
0.03821221496155738   -0.0716821625986537   0.022161511351109477
0.03821221496155738   -0.0716821625986537   0.022161511351109477
0.03821221496155738   -0.0716821625986537   0.022161511351109477
-0.8188018554266978   -0.12206941536625085   -0.015700813557545643
-0.8188018554266978   -0.12206941536625085   -0.015700813557545643
-0.8188018554266978   -0.12206941536625085   -0.015700813557545643
-0.8188018554266978   -0.12206941536625085   -0.015700813557545643
-0.889794077245045   -0.2659583982281075   -0.023679316627664787
-0.889794077245045   -0.2659583982281075   -0.023679316627664787
-0.889794077245045   -0.2659583982281075   -0.023679316627664787
-0.889794077245045   -0.2659583982281075   -0.023679316627664787
0.029429572492209836   0.049731151493907555   0.034791655383416435
0.029429572492209836   0.049731151493907555   0.034791655383416435
0.029429572492209836   0.049731151493907555   0.034791655383416435
0.029429572492209836   0.049731151493907555   0.034791655383416435
-0.41213114287623376   -0.09602199369852553   -0.03360569451209557
-0.41213114287623376   -0.09602199369852553   -0.03360569451209557
-0.41213114287623376   -0.09602199369852553   -0.03360569451209557
-0.41213114287623376   -0.09602199369852553   -0.03360569451209557
-0.7352851450633535   -0.06470303007061329   0.011711418110263506
-0.7352851450633535   -0.06470303007061329   0.011711418110263506
-0.7352851450633535   -0.06470303007061329   0.011711418110263506
-0.7352851450633535   -0.06470303007061329   0.011711418110263506
-1.5665553990776704   -0.10101748933609389   -0.04144950153175973
-1.5665553990776704   -0.10101748933609389   -0.04144950153175973
-1.5665553990776704   -0.10101748933609389   -0.04144950153175973
-1.5665553990776704   -0.10101748933609389   -0.04144950153175973
-1.6396645990674947   -0.2607430680527011   -0.04018449097356824
-1.6396645990674947   -0.2607430680527011   -0.04018449097356824
-1.6396645990674947   -0.2607430680527011   -0.04018449097356824
-1.6396645990674947   -0.2607430680527011   -0.04018449097356824
-0.7390818762482921   0.06244247562202518   0.007765615580998184
-0.7390818762482921   0.06244247562202518   0.007765615580998184
-0.7390818762482921   0.06244247562202518   0.007765615580998184
-0.7390818762482921   0.06244247562202518   0.007765615580998184
-1.1604990845014018   -0.08678694607759324   -0.016824407947841367
-1.1604990845014018   -0.08678694607759324   -0.016824407947841367
-1.1604990845014018   -0.08678694607759324   -0.016824407947841367
-1.1604990845014018   -0.08678694607759324   -0.016824407947841367
-0.7618020678995161   -0.07151019752916976   0.02811733047607925
-0.7618020678995161   -0.07151019752916976   0.02811733047607925
-0.7618020678995161   -0.07151019752916976   0.02811733047607925
-0.7618020678995161   -0.07151019752916976   0.02811733047607925
-1.6123091472923972   -0.12215513477762882   -0.041995165373166686
-1.6123091472923972   -0.12215513477762882   -0.041995165373166686
-1.6123091472923972   -0.12215513477762882   -0.041995165373166686
-1.6123091472923972   -0.12215513477762882   -0.041995165373166686
-1.6913742160757603   -0.2775013544533635   -0.0281918283157046
-1.6913742160757603   -0.2775013544533635   -0.0281918283157046
-1.6913742160757603   -0.2775013544533635   -0.0281918283157046
-1.6913742160757603   -0.2775013544533635   -0.0281918283157046
-0.7806474472538166   0.043492827018135616   0.009508984922472916
-0.7806474472538166   0.043492827018135616   0.009508984922472916
-0.7806474472538166   0.043492827018135616   0.009508984922472916
-0.7806474472538166   0.043492827018135616   0.009508984922472916
-1.1932203267020307   -0.09608284005806866   -0.016884366961095826
-1.1932203267020307   -0.09608284005806866   -0.016884366961095826
-1.1932203267020307   -0.09608284005806866   -0.016884366961095826
-1.1932203267020307   -0.09608284005806866   -0.016884366961095826
-0.8030856126877383   -0.08836922596534681   0.029180210736348085
-0.8030856126877383   -0.08836922596534681   0.029180210736348085
-0.8030856126877383   -0.08836922596534681   0.029180210736348085
-0.8030856126877383   -0.08836922596534681   0.029180210736348085
-1.6658303717223433   -0.1425336225503861   -0.0354403384516087
-1.6658303717223433   -0.1425336225503861   -0.0354403384516087
-1.6658303717223433   -0.1425336225503861   -0.0354403384516087
-1.6658303717223433   -0.1425336225503861   -0.0354403384516087
-1.7498948064154511   -0.29958420596696145   -0.030186976205939228
-1.7498948064154511   -0.29958420596696145   -0.030186976205939228
-1.7498948064154511   -0.29958420596696145   -0.030186976205939228
-1.7498948064154511   -0.29958420596696145   -0.030186976205939228
-0.8255666027285188   0.020116281392919627   0.011383376333923709
-0.8255666027285188   0.020116281392919627   0.011383376333923709
-0.8255666027285188   0.020116281392919627   0.011383376333923709
-0.8255666027285188   0.020116281392919627   0.011383376333923709
-1.2512361698609182   -0.1187076231650106   -0.02742227015917613
-1.2512361698609182   -0.1187076231650106   -0.02742227015917613
-1.2512361698609182   -0.1187076231650106   -0.02742227015917613
-1.2512361698609182   -0.1187076231650106   -0.02742227015917613
-1.5134425042301183   0.07157411813788322   0.05152336523202352
-1.5134425042301183   0.07157411813788322   0.05152336523202352
-1.5134425042301183   0.07157411813788322   0.05152336523202352
-1.5134425042301183   0.07157411813788322   0.05152336523202352
-2.3467419239299394   -0.11693366938411409   -0.031627760169951474
-2.3467419239299394   -0.11693366938411409   -0.031627760169951474
-2.3467419239299394   -0.11693366938411409   -0.031627760169951474
-2.3467419239299394   -0.11693366938411409   -0.031627760169951474
-2.404606955074856   -0.1190665915950983   0.052919050877024955
-2.404606955074856   -0.1190665915950983   0.052919050877024955
-2.404606955074856   -0.1190665915950983   0.052919050877024955
-2.404606955074856   -0.1190665915950983   0.052919050877024955
-1.572285789340916   0.048632142769835296   -0.012665653163222226
-1.572285789340916   0.048632142769835296   -0.012665653163222226
-1.572285789340916   0.048632142769835296   -0.012665653163222226
-1.572285789340916   0.048632142769835296   -0.012665653163222226
-1.8679673115780007   0.0014480959027577955   0.04739368786336917
-1.8679673115780007   0.0014480959027577955   0.04739368786336917
-1.8679673115780007   0.0014480959027577955   0.04739368786336917
-1.8679673115780007   0.0014480959027577955   0.04739368786336917
-1.5558505761150987   0.05310782097382677   0.06503473476186608
-1.5558505761150987   0.05310782097382677   0.06503473476186608
-1.5558505761150987   0.05310782097382677   0.06503473476186608
-1.5558505761150987   0.05310782097382677   0.06503473476186608
-2.4199651674107296   -0.12246526890915321   -0.020473333488289405
-2.4199651674107296   -0.12246526890915321   -0.020473333488289405
-2.4199651674107296   -0.12246526890915321   -0.020473333488289405
-2.4199651674107296   -0.12246526890915321   -0.020473333488289405
-2.47767019049459   -0.13888113063074198   0.07196350443206075
-2.47767019049459   -0.13888113063074198   0.07196350443206075
-2.47767019049459   -0.13888113063074198   0.07196350443206075
-2.47767019049459   -0.13888113063074198   0.07196350443206075
-1.62584892143062   0.03517115308492247   -0.0132378626283009
-1.62584892143062   0.03517115308492247   -0.0132378626283009
-1.62584892143062   0.03517115308492247   -0.0132378626283009
-1.62584892143062   0.03517115308492247   -0.0132378626283009
-1.9621516835813342   -0.021750125400554265   0.025855770803938707
-1.9621516835813342   -0.021750125400554265   0.025855770803938707
-1.9621516835813342   -0.021750125400554265   0.025855770803938707
-1.9621516835813342   -0.021750125400554265   0.025855770803938707
-1.61082591256541   0.03292057585434177   0.06412775892832913
-1.61082591256541   0.03292057585434177   0.06412775892832913
-1.61082591256541   0.03292057585434177   0.06412775892832913
-1.61082591256541   0.03292057585434177   0.06412775892832913
-2.4955222464313955   -0.13945960047175826   -0.01671830541092871
-2.4955222464313955   -0.13945960047175826   -0.01671830541092871
-2.4955222464313955   -0.13945960047175826   -0.01671830541092871
-2.4955222464313955   -0.13945960047175826   -0.01671830541092871
-2.5815201885150563   -0.21878036402399414   0.06254150066582409
-2.5815201885150563   -0.21878036402399414   0.06254150066582409
-2.5815201885150563   -0.21878036402399414   0.06254150066582409
-2.5815201885150563   -0.21878036402399414   0.06254150066582409
-1.6876038303674383   -0.005856663551911501   -0.012459638380931795
-1.6876038303674383   -0.005856663551911501   -0.012459638380931795
-1.6876038303674383   -0.005856663551911501   -0.012459638380931795
-1.6876038303674383   -0.005856663551911501   -0.012459638380931795
-2.0023653313199343   -0.05094068930685647   0.006882643746097039
-2.0023653313199343   -0.05094068930685647   0.006882643746097039
-2.0023653313199343   -0.05094068930685647   0.006882643746097039
-2.0023653313199343   -0.05094068930685647   0.006882643746097039
1.548968857835832   0.08279880499935632   -0.05532168164402135
1.548968857835832   0.08279880499935632   -0.05532168164402135
1.548968857835832   0.08279880499935632   -0.05532168164402135
1.548968857835832   0.08279880499935632   -0.05532168164402135
0.7680579198518086   -0.0006755667579166069   0.020073580240017347
0.7680579198518086   -0.0006755667579166069   0.020073580240017347
0.7680579198518086   -0.0006755667579166069   0.020073580240017347
0.7680579198518086   -0.0006755667579166069   0.020073580240017347
0.7018647955840368   -0.1145084642456681   -0.050725791307731485
0.7018647955840368   -0.1145084642456681   -0.050725791307731485
0.7018647955840368   -0.1145084642456681   -0.050725791307731485
0.7018647955840368   -0.1145084642456681   -0.050725791307731485
1.519743133989341   0.12530444201711835   0.025171289014390204
1.519743133989341   0.12530444201711835   0.025171289014390204
1.519743133989341   0.12530444201711835   0.025171289014390204
1.519743133989341   0.12530444201711835   0.025171289014390204
1.075998294101617   0.009509217025318178   -0.03540877386833803
1.075998294101617   0.009509217025318178   -0.03540877386833803
1.075998294101617   0.009509217025318178   -0.03540877386833803
1.075998294101617   0.009509217025318178   -0.03540877386833803
1.4874097510414062   0.04208954030476525   -0.05328072401291556
1.4874097510414062   0.04208954030476525   -0.05328072401291556
1.4874097510414062   0.04208954030476525   -0.05328072401291556
1.4874097510414062   0.04208954030476525   -0.05328072401291556
0.7328102567423811   -0.03268148432290788   0.02217453456121867
0.7328102567423811   -0.03268148432290788   0.02217453456121867
0.7328102567423811   -0.03268148432290788   0.02217453456121867
0.7328102567423811   -0.03268148432290788   0.02217453456121867
0.668756860754881   -0.12408521885079868   -0.04408736325674339
0.668756860754881   -0.12408521885079868   -0.04408736325674339
0.668756860754881   -0.12408521885079868   -0.04408736325674339
0.668756860754881   -0.12408521885079868   -0.04408736325674339
1.470218222364714   0.11214642834019273   0.034401805391767654
1.470218222364714   0.11214642834019273   0.034401805391767654
1.470218222364714   0.11214642834019273   0.034401805391767654
1.470218222364714   0.11214642834019273   0.034401805391767654
1.0500587378621256   -0.00773999183191823   -0.046544786108943303
1.0500587378621256   -0.00773999183191823   -0.046544786108943303
1.0500587378621256   -0.00773999183191823   -0.046544786108943303
1.0500587378621256   -0.00773999183191823   -0.046544786108943303
1.4385780849181868   0.030305006610910845   -0.04195746011156171
1.4385780849181868   0.030305006610910845   -0.04195746011156171
1.4385780849181868   0.030305006610910845   -0.04195746011156171
1.4385780849181868   0.030305006610910845   -0.04195746011156171
0.6991536166581317   -0.04348717866478016   0.027298376073485398
0.6991536166581317   -0.04348717866478016   0.027298376073485398
0.6991536166581317   -0.04348717866478016   0.027298376073485398
0.6991536166581317   -0.04348717866478016   0.027298376073485398
0.6385211273915978   -0.12694819405947486   -0.036015797478625794
0.6385211273915978   -0.12694819405947486   -0.036015797478625794
0.6385211273915978   -0.12694819405947486   -0.036015797478625794
0.6385211273915978   -0.12694819405947486   -0.036015797478625794
1.4143866635242697   0.10059284320131784   0.04279901655396107
1.4143866635242697   0.10059284320131784   0.04279901655396107
1.4143866635242697   0.10059284320131784   0.04279901655396107
1.4143866635242697   0.10059284320131784   0.04279901655396107
0.9897106064980229   -0.019626258428361215   -0.06322975247894884
0.9897106064980229   -0.019626258428361215   -0.06322975247894884
0.9897106064980229   -0.019626258428361215   -0.06322975247894884
0.9897106064980229   -0.019626258428361215   -0.06322975247894884
0.7812004810279284   0.08088981727709971   0.0042210020856001465
0.7812004810279284   0.08088981727709971   0.0042210020856001465
0.7812004810279284   0.08088981727709971   0.0042210020856001465
0.7812004810279284   0.08088981727709971   0.0042210020856001465
0.026958148079083567   -0.02551591846594705   -0.003157560926421119
0.026958148079083567   -0.02551591846594705   -0.003157560926421119
0.026958148079083567   -0.02551591846594705   -0.003157560926421119
0.026958148079083567   -0.02551591846594705   -0.003157560926421119
-0.022934118148649145   -0.10316157394052597   -0.03450056375972335
-0.022934118148649145   -0.10316157394052597   -0.03450056375972335
-0.022934118148649145   -0.10316157394052597   -0.03450056375972335
-0.022934118148649145   -0.10316157394052597   -0.03450056375972335
0.7661033405456965   0.11345057627042478   0.042507892984463086
0.7661033405456965   0.11345057627042478   0.042507892984463086
0.7661033405456965   0.11345057627042478   0.042507892984463086
0.7661033405456965   0.11345057627042478   0.042507892984463086
0.3817904544894204   0.016159043052933086   -0.004381759358036251
0.3817904544894204   0.016159043052933086   -0.004381759358036251
0.3817904544894204   0.016159043052933086   -0.004381759358036251
0.3817904544894204   0.016159043052933086   -0.004381759358036251
0.7485972937729062   0.059775390228264946   0.008652845162674304
0.7485972937729062   0.059775390228264946   0.008652845162674304
0.7485972937729062   0.059775390228264946   0.008652845162674304
0.7485972937729062   0.059775390228264946   0.008652845162674304
-0.005118168681305742   -0.049176485203812306   0.0005940948402799982
-0.005118168681305742   -0.049176485203812306   0.0005940948402799982
-0.005118168681305742   -0.049176485203812306   0.0005940948402799982
-0.005118168681305742   -0.049176485203812306   0.0005940948402799982
-0.0542974265542448   -0.1186495117455564   -0.029816992430433814
-0.0542974265542448   -0.1186495117455564   -0.029816992430433814
-0.0542974265542448   -0.1186495117455564   -0.029816992430433814
-0.0542974265542448   -0.1186495117455564   -0.029816992430433814
0.7305758095197157   0.09388184977946544   0.04704031193716034
0.7305758095197157   0.09388184977946544   0.04704031193716034
0.7305758095197157   0.09388184977946544   0.04704031193716034
0.7305758095197157   0.09388184977946544   0.04704031193716034
0.3434926254069549   -0.0031214004755158037   -0.015339589030022957
0.3434926254069549   -0.0031214004755158037   -0.015339589030022957
0.3434926254069549   -0.0031214004755158037   -0.015339589030022957
0.3434926254069549   -0.0031214004755158037   -0.015339589030022957
0.7137245823921905   0.04354291145467713   0.013123114624322616
0.7137245823921905   0.04354291145467713   0.013123114624322616
0.7137245823921905   0.04354291145467713   0.013123114624322616
0.7137245823921905   0.04354291145467713   0.013123114624322616
-0.0374156469543168   -0.06828002094836932   0.00422241477201905
-0.0374156469543168   -0.06828002094836932   0.00422241477201905
-0.0374156469543168   -0.06828002094836932   0.00422241477201905
-0.0374156469543168   -0.06828002094836932   0.00422241477201905
-0.08534482703735759   -0.12798769905412075   -0.023706994632103028
-0.08534482703735759   -0.12798769905412075   -0.023706994632103028
-0.08534482703735759   -0.12798769905412075   -0.023706994632103028
-0.08534482703735759   -0.12798769905412075   -0.023706994632103028
0.6967862982572863   0.07736626222005136   0.05099560057028273
0.6967862982572863   0.07736626222005136   0.05099560057028273
0.6967862982572863   0.07736626222005136   0.05099560057028273
0.6967862982572863   0.07736626222005136   0.05099560057028273
0.31515563982119776   -0.015470622613245666   -0.023421836124392966
0.31515563982119776   -0.015470622613245666   -0.023421836124392966
0.31515563982119776   -0.015470622613245666   -0.023421836124392966
0.31515563982119776   -0.015470622613245666   -0.023421836124392966
0.05255509103246214   0.08173470209160039   0.01757653328292429
0.05255509103246214   0.08173470209160039   0.01757653328292429
0.05255509103246214   0.08173470209160039   0.01757653328292429
0.05255509103246214   0.08173470209160039   0.01757653328292429
-0.6911173837087117   -0.04468687553920575   -0.0237848766010142
-0.6911173837087117   -0.04468687553920575   -0.0237848766010142
-0.6911173837087117   -0.04468687553920575   -0.0237848766010142
-0.6911173837087117   -0.04468687553920575   -0.0237848766010142
-0.730042958420102   -0.09451177103786931   -0.021817450185342584
-0.730042958420102   -0.09451177103786931   -0.021817450185342584
-0.730042958420102   -0.09451177103786931   -0.021817450185342584
-0.730042958420102   -0.09451177103786931   -0.021817450185342584
0.027295640341705528   0.0928946112768602   0.020592043474664624
0.027295640341705528   0.0928946112768602   0.020592043474664624
0.027295640341705528   0.0928946112768602   0.020592043474664624
0.027295640341705528   0.0928946112768602   0.020592043474664624
-0.3349080562963121   0.010437157913209746   0.0012670127354886852
-0.3349080562963121   0.010437157913209746   0.0012670127354886852
-0.3349080562963121   0.010437157913209746   0.0012670127354886852
-0.3349080562963121   0.010437157913209746   0.0012670127354886852
0.021951650966207478   0.06466998537605484   0.022096722497978945
0.021951650966207478   0.06466998537605484   0.022096722497978945
0.021951650966207478   0.06466998537605484   0.022096722497978945
0.021951650966207478   0.06466998537605484   0.022096722497978945
-0.7238441067221774   -0.06543228281463916   -0.019902679918949232
-0.7238441067221774   -0.06543228281463916   -0.019902679918949232
-0.7238441067221774   -0.06543228281463916   -0.019902679918949232
-0.7238441067221774   -0.06543228281463916   -0.019902679918949232
-0.76370215830791   -0.11153064350978233   -0.018106651393929408
-0.76370215830791   -0.11153064350978233   -0.018106651393929408
-0.76370215830791   -0.11153064350978233   -0.018106651393929408
-0.76370215830791   -0.11153064350978233   -0.018106651393929408
-0.005052405345975303   0.07276338109770952   0.024995220767650494
-0.005052405345975303   0.07276338109770952   0.024995220767650494
-0.005052405345975303   0.07276338109770952   0.024995220767650494
-0.005052405345975303   0.07276338109770952   0.024995220767650494
-0.3671545792705797   -0.006210837830153165   -0.00697313882766868
-0.3671545792705797   -0.006210837830153165   -0.00697313882766868
-0.3671545792705797   -0.006210837830153165   -0.00697313882766868
-0.3671545792705797   -0.006210837830153165   -0.00697313882766868
-0.009618298294278653   0.04824440516375306   0.026684731960087454
-0.009618298294278653   0.04824440516375306   0.026684731960087454
-0.009618298294278653   0.04824440516375306   0.026684731960087454
-0.009618298294278653   0.04824440516375306   0.026684731960087454
-0.7584010693229621   -0.08627647153917696   -0.01685537843979518
-0.7584010693229621   -0.08627647153917696   -0.01685537843979518
-0.7584010693229621   -0.08627647153917696   -0.01685537843979518
-0.7584010693229621   -0.08627647153917696   -0.01685537843979518
-0.7971352953532328   -0.12492799671435917   -0.011939217812474591
-0.7971352953532328   -0.12492799671435917   -0.011939217812474591
-0.7971352953532328   -0.12492799671435917   -0.011939217812474591
-0.7971352953532328   -0.12492799671435917   -0.011939217812474591
-0.03856434732396301   0.05379918832748749   0.028408516553260793
-0.03856434732396301   0.05379918832748749   0.028408516553260793
-0.03856434732396301   0.05379918832748749   0.028408516553260793
-0.03856434732396301   0.05379918832748749   0.028408516553260793
-0.40185077084496934   -0.023142518532863296   -0.015975360417132302
-0.40185077084496934   -0.023142518532863296   -0.015975360417132302
-0.40185077084496934   -0.023142518532863296   -0.015975360417132302
-0.40185077084496934   -0.023142518532863296   -0.015975360417132302
-0.6516708740640674   0.0966678959913119   0.03209290009170046
-0.6516708740640674   0.0966678959913119   0.03209290009170046
-0.6516708740640674   0.0966678959913119   0.03209290009170046
-0.6516708740640674   0.0966678959913119   0.03209290009170046
-1.3852463908487924   -0.06147241191685052   -0.03899021612109794
-1.3852463908487924   -0.06147241191685052   -0.03899021612109794
-1.3852463908487924   -0.06147241191685052   -0.03899021612109794
-1.3852463908487924   -0.06147241191685052   -0.03899021612109794
-1.4155994672248977   -0.07565117619612544   -0.0061850525332106665
-1.4155994672248977   -0.07565117619612544   -0.0061850525332106665
-1.4155994672248977   -0.07565117619612544   -0.0061850525332106665
-1.4155994672248977   -0.07565117619612544   -0.0061850525332106665
-0.6929613676616109   0.07024585904417138   -0.001167126474918033
-0.6929613676616109   0.07024585904417138   -0.001167126474918033
-0.6929613676616109   0.07024585904417138   -0.001167126474918033
-0.6929613676616109   0.07024585904417138   -0.001167126474918033
-1.0288856458939988   0.010637388048235469   0.007492849380089761
-1.0288856458939988   0.010637388048235469   0.007492849380089761
-1.0288856458939988   0.010637388048235469   0.007492849380089761
-1.0288856458939988   0.010637388048235469   0.007492849380089761
-0.6837396722157628   0.07916269606003029   0.036024513738462605
-0.6837396722157628   0.07916269606003029   0.036024513738462605
-0.6837396722157628   0.07916269606003029   0.036024513738462605
-0.6837396722157628   0.07916269606003029   0.036024513738462605
-1.4236571881603177   -0.08340403870156235   -0.038720794704880025
-1.4236571881603177   -0.08340403870156235   -0.038720794704880025
-1.4236571881603177   -0.08340403870156235   -0.038720794704880025
-1.4236571881603177   -0.08340403870156235   -0.038720794704880025
-1.4570534886492505   -0.09478414539920399   -0.00546983576885246
-1.4570534886492505   -0.09478414539920399   -0.00546983576885246
-1.4570534886492505   -0.09478414539920399   -0.00546983576885246
-1.4570534886492505   -0.09478414539920399   -0.00546983576885246
-0.7270164072616646   0.05103511982620165   0.002756340501321536
-0.7270164072616646   0.05103511982620165   0.002756340501321536
-0.7270164072616646   0.05103511982620165   0.002756340501321536
-0.7270164072616646   0.05103511982620165   0.002756340501321536
-1.0579274071428697   -0.00460209053791491   0.0007317555318564206
-1.0579274071428697   -0.00460209053791491   0.0007317555318564206
-1.0579274071428697   -0.00460209053791491   0.0007317555318564206
-1.0579274071428697   -0.00460209053791491   0.0007317555318564206
-0.7169180103397838   0.06266133866986634   0.04162210626706044
-0.7169180103397838   0.06266133866986634   0.04162210626706044
-0.7169180103397838   0.06266133866986634   0.04162210626706044
-0.7169180103397838   0.06266133866986634   0.04162210626706044
-1.4647916238119918   -0.10405010248373384   -0.0348945544980288
-1.4647916238119918   -0.10405010248373384   -0.0348945544980288
-1.4647916238119918   -0.10405010248373384   -0.0348945544980288
-1.4647916238119918   -0.10405010248373384   -0.0348945544980288
-1.4952264178072598   -0.1152655432513838   0.004134068191208727
-1.4952264178072598   -0.1152655432513838   0.004134068191208727
-1.4952264178072598   -0.1152655432513838   0.004134068191208727
-1.4952264178072598   -0.1152655432513838   0.004134068191208727
-0.7631055251579321   0.028185509790524726   0.005096126659151379
-0.7631055251579321   0.028185509790524726   0.005096126659151379
-0.7631055251579321   0.028185509790524726   0.005096126659151379
-0.7631055251579321   0.028185509790524726   0.005096126659151379
-1.1032095152672659   -0.025965893933780404   -0.008348955605742482
-1.1032095152672659   -0.025965893933780404   -0.008348955605742482
-1.1032095152672659   -0.025965893933780404   -0.008348955605742482
-1.1032095152672659   -0.025965893933780404   -0.008348955605742482
-1.3360583659383192   0.10052007795923162   0.04495741855517639
-1.3360583659383192   0.10052007795923162   0.04495741855517639
-1.3360583659383192   0.10052007795923162   0.04495741855517639
-1.3360583659383192   0.10052007795923162   0.04495741855517639
-2.0447156842109204   -0.0945616468375845   -0.036011903827472824
-2.0447156842109204   -0.0945616468375845   -0.036011903827472824
-2.0447156842109204   -0.0945616468375845   -0.036011903827472824
-2.0447156842109204   -0.0945616468375845   -0.036011903827472824
-2.072870858859767   -0.041296982455334974   0.038273790229838636
-2.072870858859767   -0.041296982455334974   0.038273790229838636
-2.072870858859767   -0.041296982455334974   0.038273790229838636
-2.072870858859767   -0.041296982455334974   0.038273790229838636
-1.3948856320980687   0.041963774076992144   -0.020230827172184565
-1.3948856320980687   0.041963774076992144   -0.020230827172184565
-1.3948856320980687   0.041963774076992144   -0.020230827172184565
-1.3948856320980687   0.041963774076992144   -0.020230827172184565
-1.6364877329878942   0.020954470292651017   0.03756360736026303
-1.6364877329878942   0.020954470292651017   0.03756360736026303
-1.6364877329878942   0.020954470292651017   0.03756360736026303
-1.6364877329878942   0.020954470292651017   0.03756360736026303
-1.3684468787790605   0.10226533184567493   0.05166138165416073
-1.3684468787790605   0.10226533184567493   0.05166138165416073
-1.3684468787790605   0.10226533184567493   0.05166138165416073
-1.3684468787790605   0.10226533184567493   0.05166138165416073
-2.0977486941964276   -0.10003762224166607   -0.027374746667117186
-2.0977486941964276   -0.10003762224166607   -0.027374746667117186
-2.0977486941964276   -0.10003762224166607   -0.027374746667117186
-2.0977486941964276   -0.10003762224166607   -0.027374746667117186
-2.1243539503323374   -0.05130613273742618   0.052880737161734685
-2.1243539503323374   -0.05130613273742618   0.052880737161734685
-2.1243539503323374   -0.05130613273742618   0.052880737161734685
-2.1243539503323374   -0.05130613273742618   0.052880737161734685
-1.4344198032502071   0.030922463174756942   -0.018008017347593705
-1.4344198032502071   0.030922463174756942   -0.018008017347593705
-1.4344198032502071   0.030922463174756942   -0.018008017347593705
-1.4344198032502071   0.030922463174756942   -0.018008017347593705
-1.7072309001327026   0.010329996677606035   0.024099731576516834
-1.7072309001327026   0.010329996677606035   0.024099731576516834
-1.7072309001327026   0.010329996677606035   0.024099731576516834
-1.7072309001327026   0.010329996677606035   0.024099731576516834
-1.4052193887119242   0.09477327988168521   0.06414323863688996
-1.4052193887119242   0.09477327988168521   0.06414323863688996
-1.4052193887119242   0.09477327988168521   0.06414323863688996
-1.4052193887119242   0.09477327988168521   0.06414323863688996
-2.152048119004789   -0.11365070357851892   -0.023245535359391403
-2.152048119004789   -0.11365070357851892   -0.023245535359391403
-2.152048119004789   -0.11365070357851892   -0.023245535359391403
-2.152048119004789   -0.11365070357851892   -0.023245535359391403
-2.194179602585616   -0.09415777253004715   0.05261058894656811
-2.194179602585616   -0.09415777253004715   0.05261058894656811
-2.194179602585616   -0.09415777253004715   0.05261058894656811
-2.194179602585616   -0.09415777253004715   0.05261058894656811
-1.4768075829142722   -0.002124645644586143   -0.01691265495065497
-1.4768075829142722   -0.002124645644586143   -0.01691265495065497
-1.4768075829142722   -0.002124645644586143   -0.01691265495065497
-1.4768075829142722   -0.002124645644586143   -0.01691265495065497
-1.7279403482984537   -0.0049351316646934484   0.019616058833418243
-1.7279403482984537   -0.0049351316646934484   0.019616058833418243
-1.7279403482984537   -0.0049351316646934484   0.019616058833418243
-1.7279403482984537   -0.0049351316646934484   0.019616058833418243
1.1733557130295007   0.06514151990980988   -0.05613877959903913
1.1733557130295007   0.06514151990980988   -0.05613877959903913
1.1733557130295007   0.06514151990980988   -0.05613877959903913
1.1733557130295007   0.06514151990980988   -0.05613877959903913
0.5581025502296587   0.011308986006884264   0.02143149125922452
0.5581025502296587   0.011308986006884264   0.02143149125922452
0.5581025502296587   0.011308986006884264   0.02143149125922452
0.5581025502296587   0.011308986006884264   0.02143149125922452
0.49571848662093304   -0.09519435819828763   -0.05329806469423193
0.49571848662093304   -0.09519435819828763   -0.05329806469423193
0.49571848662093304   -0.09519435819828763   -0.05329806469423193
0.49571848662093304   -0.09519435819828763   -0.05329806469423193
1.1478678214635192   0.10791103884944661   0.02649733726691643
1.1478678214635192   0.10791103884944661   0.02649733726691643
1.1478678214635192   0.10791103884944661   0.02649733726691643
1.1478678214635192   0.10791103884944661   0.02649733726691643
0.8001846010817983   0.010826165357449014   -0.023658765370463943
0.8001846010817983   0.010826165357449014   -0.023658765370463943
0.8001846010817983   0.010826165357449014   -0.023658765370463943
0.8001846010817983   0.010826165357449014   -0.023658765370463943
1.1161652826744806   0.028944791987913776   -0.0530491098167344
1.1161652826744806   0.028944791987913776   -0.0530491098167344
1.1161652826744806   0.028944791987913776   -0.0530491098167344
1.1161652826744806   0.028944791987913776   -0.0530491098167344
0.5267954369374218   -0.016853699809310035   0.02374602849923057
0.5267954369374218   -0.016853699809310035   0.02374602849923057
0.5267954369374218   -0.016853699809310035   0.02374602849923057
0.5267954369374218   -0.016853699809310035   0.02374602849923057
0.46656909830726495   -0.10455337250197412   -0.04544807476161773
0.46656909830726495   -0.10455337250197412   -0.04544807476161773
0.46656909830726495   -0.10455337250197412   -0.04544807476161773
0.46656909830726495   -0.10455337250197412   -0.04544807476161773
1.1025449777665095   0.09453834215686849   0.03483620577565014
1.1025449777665095   0.09453834215686849   0.03483620577565014
1.1025449777665095   0.09453834215686849   0.03483620577565014
1.1025449777665095   0.09453834215686849   0.03483620577565014
0.774054022947561   -0.005392048676898187   -0.03325458305476403
0.774054022947561   -0.005392048676898187   -0.03325458305476403
0.774054022947561   -0.005392048676898187   -0.03325458305476403
0.774054022947561   -0.005392048676898187   -0.03325458305476403
1.0715849474215973   0.01704524292900278   -0.042470846721035634
1.0715849474215973   0.01704524292900278   -0.042470846721035634
1.0715849474215973   0.01704524292900278   -0.042470846721035634
1.0715849474215973   0.01704524292900278   -0.042470846721035634
0.49674146551227455   -0.027847936414015007   0.028708325175467626
0.49674146551227455   -0.027847936414015007   0.028708325175467626
0.49674146551227455   -0.027847936414015007   0.028708325175467626
0.49674146551227455   -0.027847936414015007   0.028708325175467626
0.44029306357535225   -0.11035514568883405   -0.03784732794788105
0.44029306357535225   -0.11035514568883405   -0.03784732794788105
0.44029306357535225   -0.11035514568883405   -0.03784732794788105
0.44029306357535225   -0.11035514568883405   -0.03784732794788105
1.0514404547784557   0.0800335871965154   0.041372088733361165
1.0514404547784557   0.0800335871965154   0.041372088733361165
1.0514404547784557   0.0800335871965154   0.041372088733361165
1.0514404547784557   0.0800335871965154   0.041372088733361165
0.7225149674082184   -0.01766026884167146   -0.04743383184740633
0.7225149674082184   -0.01766026884167146   -0.04743383184740633
0.7225149674082184   -0.01766026884167146   -0.04743383184740633
0.7225149674082184   -0.01766026884167146   -0.04743383184740633
0.5673719146751374   0.08251317244770488   -0.003425872954191946
0.5673719146751374   0.08251317244770488   -0.003425872954191946
0.5673719146751374   0.08251317244770488   -0.003425872954191946
0.5673719146751374   0.08251317244770488   -0.003425872954191946
-0.036940901872353105   -0.007964457108325322   -0.00025715113531082093
-0.036940901872353105   -0.007964457108325322   -0.00025715113531082093
-0.036940901872353105   -0.007964457108325322   -0.00025715113531082093
-0.036940901872353105   -0.007964457108325322   -0.00025715113531082093
-0.08088650424984464   -0.0712225341931037   -0.03386781453763811
-0.08088650424984464   -0.0712225341931037   -0.03386781453763811
-0.08088650424984464   -0.0712225341931037   -0.03386781453763811
-0.08088650424984464   -0.0712225341931037   -0.03386781453763811
0.552565776224351   0.09806807155648291   0.037675953568082815
0.552565776224351   0.09806807155648291   0.037675953568082815
0.552565776224351   0.09806807155648291   0.037675953568082815
0.552565776224351   0.09806807155648291   0.037675953568082815
0.24666874862655175   0.024214759411985906   0.0017501709174058012
0.24666874862655175   0.024214759411985906   0.0017501709174058012
0.24666874862655175   0.024214759411985906   0.0017501709174058012
0.24666874862655175   0.024214759411985906   0.0017501709174058012
0.5376513873442966   0.05957751931510125   0.0015945614092036948
0.5376513873442966   0.05957751931510125   0.0015945614092036948
0.5376513873442966   0.05957751931510125   0.0015945614092036948
0.5376513873442966   0.05957751931510125   0.0015945614092036948
-0.06571612537836519   -0.03247599196028816   0.0032375375869436495
-0.06571612537836519   -0.03247599196028816   0.0032375375869436495
-0.06571612537836519   -0.03247599196028816   0.0032375375869436495
-0.06571612537836519   -0.03247599196028816   0.0032375375869436495
-0.10834416515823787   -0.0889097594025273   -0.02799775929484972
-0.10834416515823787   -0.0889097594025273   -0.02799775929484972
-0.10834416515823787   -0.0889097594025273   -0.02799775929484972
-0.10834416515823787   -0.0889097594025273   -0.02799775929484972
0.5201990097494931   0.07695885577003105   0.04118925417751315
0.5201990097494931   0.07695885577003105   0.04118925417751315
0.5201990097494931   0.07695885577003105   0.04118925417751315
0.5201990097494931   0.07695885577003105   0.04118925417751315
0.2128403904514506   0.0033449569168114493   -0.008728679232083706
0.2128403904514506   0.0033449569168114493   -0.008728679232083706
0.2128403904514506   0.0033449569168114493   -0.008728679232083706
0.2128403904514506   0.0033449569168114493   -0.008728679232083706
0.505778129167456   0.04060249394088099   0.005441213096482617
0.505778129167456   0.04060249394088099   0.005441213096482617
0.505778129167456   0.04060249394088099   0.005441213096482617
0.505778129167456   0.04060249394088099   0.005441213096482617
-0.09413170218547834   -0.052761815182651425   0.006916611349072094
-0.09413170218547834   -0.052761815182651425   0.006916611349072094
-0.09413170218547834   -0.052761815182651425   0.006916611349072094
-0.09413170218547834   -0.052761815182651425   0.006916611349072094
-0.1354443472561673   -0.10377547001711601   -0.02248241510210056
-0.1354443472561673   -0.10377547001711601   -0.02248241510210056
-0.1354443472561673   -0.10377547001711601   -0.02248241510210056
-0.1354443472561673   -0.10377547001711601   -0.02248241510210056
0.4903155278829104   0.05743093580722989   0.044478912093843935
0.4903155278829104   0.05743093580722989   0.044478912093843935
0.4903155278829104   0.05743093580722989   0.044478912093843935
0.4903155278829104   0.05743093580722989   0.044478912093843935
0.18687755426292985   -0.012487117373203183   -0.01746281302449023
0.18687755426292985   -0.012487117373203183   -0.01746281302449023
0.18687755426292985   -0.012487117373203183   -0.01746281302449023
0.18687755426292985   -0.012487117373203183   -0.01746281302449023
-0.012871875339114103   0.0984532552828585   0.013670269139700358
-0.012871875339114103   0.0984532552828585   0.013670269139700358
-0.012871875339114103   0.0984532552828585   0.013670269139700358
-0.012871875339114103   0.0984532552828585   0.013670269139700358
-0.6193045638617393   -0.0268020903857253   -0.020542356022084023
-0.6193045638617393   -0.0268020903857253   -0.020542356022084023
-0.6193045638617393   -0.0268020903857253   -0.020542356022084023
-0.6193045638617393   -0.0268020903857253   -0.020542356022084023
-0.6476283864757097   -0.04941514915715646   -0.016032731878003473
-0.6476283864757097   -0.04941514915715646   -0.016032731878003473
-0.6476283864757097   -0.04941514915715646   -0.016032731878003473
-0.6476283864757097   -0.04941514915715646   -0.016032731878003473
-0.040744687710822014   0.07920312570475818   0.01641560825961217
-0.040744687710822014   0.07920312570475818   0.01641560825961217
-0.040744687710822014   0.07920312570475818   0.01641560825961217
-0.040744687710822014   0.07920312570475818   0.01641560825961217
-0.32935550602878244   0.025531757938589167   0.006461830555346746
-0.32935550602878244   0.025531757938589167   0.006461830555346746
-0.32935550602878244   0.025531757938589167   0.006461830555346746
-0.32935550602878244   0.025531757938589167   0.006461830555346746
-0.040195454967749296   0.07912580254665093   0.019239095133083972
-0.040195454967749296   0.07912580254665093   0.019239095133083972
-0.040195454967749296   0.07912580254665093   0.019239095133083972
-0.040195454967749296   0.07912580254665093   0.019239095133083972
-0.6476469920340175   -0.048807198814285954   -0.01673371001241294
-0.6476469920340175   -0.048807198814285954   -0.01673371001241294
-0.6476469920340175   -0.048807198814285954   -0.01673371001241294
-0.6476469920340175   -0.048807198814285954   -0.01673371001241294
-0.6757527965615941   -0.06855763912888053   -0.010909489149680974
-0.6757527965615941   -0.06855763912888053   -0.010909489149680974
-0.6757527965615941   -0.06855763912888053   -0.010909489149680974
-0.6757527965615941   -0.06855763912888053   -0.010909489149680974
-0.06937024241091645   0.05746681872228379   0.0204952763169478
-0.06937024241091645   0.05746681872228379   0.0204952763169478
-0.06937024241091645   0.05746681872228379   0.0204952763169478
-0.06937024241091645   0.05746681872228379   0.0204952763169478
-0.3577693542563932   0.006650603288422013   -0.002042041087630401
-0.3577693542563932   0.006650603288422013   -0.002042041087630401
-0.3577693542563932   0.006650603288422013   -0.002042041087630401
-0.3577693542563932   0.006650603288422013   -0.002042041087630401
-0.06825396647475519   0.05986059971869261   0.02368287500134376
-0.06825396647475519   0.05986059971869261   0.02368287500134376
-0.06825396647475519   0.05986059971869261   0.02368287500134376
-0.06825396647475519   0.05986059971869261   0.02368287500134376
-0.6767126258529262   -0.07079497348045823   -0.013471301254752436
-0.6767126258529262   -0.07079497348045823   -0.013471301254752436
-0.6767126258529262   -0.07079497348045823   -0.013471301254752436
-0.6767126258529262   -0.07079497348045823   -0.013471301254752436
-0.7035474749671236   -0.08604688912912   -0.005838743086615979
-0.7035474749671236   -0.08604688912912   -0.005838743086615979
-0.7035474749671236   -0.08604688912912   -0.005838743086615979
-0.7035474749671236   -0.08604688912912   -0.005838743086615979
-0.09811159511332707   0.03644406649579676   0.023961809099192197
-0.09811159511332707   0.03644406649579676   0.023961809099192197
-0.09811159511332707   0.03644406649579676   0.023961809099192197
-0.09811159511332707   0.03644406649579676   0.023961809099192197
-0.38748374979684097   -0.012390234189997712   -0.011511483730707765
-0.38748374979684097   -0.012390234189997712   -0.011511483730707765
-0.38748374979684097   -0.012390234189997712   -0.011511483730707765
-0.38748374979684097   -0.012390234189997712   -0.011511483730707765
-0.5812755037763919   0.11306664960469051   0.029734204414228804
-0.5812755037763919   0.11306664960469051   0.029734204414228804
-0.5812755037763919   0.11306664960469051   0.029734204414228804
-0.5812755037763919   0.11306664960469051   0.029734204414228804
-1.1882737769516076   -0.04604005901727823   -0.03704740315275936
-1.1882737769516076   -0.04604005901727823   -0.03704740315275936
-1.1882737769516076   -0.04604005901727823   -0.03704740315275936
-1.1882737769516076   -0.04604005901727823   -0.03704740315275936
-1.203755825266381   -0.030999095110466862   0.0034025603566609636
-1.203755825266381   -0.030999095110466862   0.0034025603566609636
-1.203755825266381   -0.030999095110466862   0.0034025603566609636
-1.203755825266381   -0.030999095110466862   0.0034025603566609636
-0.6241194831579508   0.056867964464849846   -0.004771328911211417
-0.6241194831579508   0.056867964464849846   -0.004771328911211417
-0.6241194831579508   0.056867964464849846   -0.004771328911211417
-0.6241194831579508   0.056867964464849846   -0.004771328911211417
-0.8935187747281629   0.024365498003580927   0.010952128951755888
-0.8935187747281629   0.024365498003580927   0.010952128951755888
-0.8935187747281629   0.024365498003580927   0.010952128951755888
-0.8935187747281629   0.024365498003580927   0.010952128951755888
-0.6086475236707865   0.09436111644599998   0.035095316543456836
-0.6086475236707865   0.09436111644599998   0.035095316543456836
-0.6086475236707865   0.09436111644599998   0.035095316543456836
-0.6086475236707865   0.09436111644599998   0.035095316543456836
-1.2190827513000542   -0.06834721363813842   -0.03588395128404929
-1.2190827513000542   -0.06834721363813842   -0.03588395128404929
-1.2190827513000542   -0.06834721363813842   -0.03588395128404929
-1.2190827513000542   -0.06834721363813842   -0.03588395128404929
-1.236504573654798   -0.050349660797273016   0.00532060377708151
-1.236504573654798   -0.050349660797273016   0.00532060377708151
-1.236504573654798   -0.050349660797273016   0.00532060377708151
-1.236504573654798   -0.050349660797273016   0.00532060377708151
-0.6526365475746678   0.0367369150114725   -0.0006227983553908426
-0.6526365475746678   0.0367369150114725   -0.0006227983553908426
-0.6526365475746678   0.0367369150114725   -0.0006227983553908426
-0.6526365475746678   0.0367369150114725   -0.0006227983553908426
-0.917558234970177   0.007516631351315001   0.0030355237891822387
-0.917558234970177   0.007516631351315001   0.0030355237891822387
-0.917558234970177   0.007516631351315001   0.0030355237891822387
-0.917558234970177   0.007516631351315001   0.0030355237891822387
-0.6365195057535079   0.07660258098329131   0.040096744778589516
-0.6365195057535079   0.07660258098329131   0.040096744778589516
-0.6365195057535079   0.07660258098329131   0.040096744778589516
-0.6365195057535079   0.07660258098329131   0.040096744778589516
-1.2517914845281286   -0.08938519582125884   -0.032078415565586806
-1.2517914845281286   -0.08938519582125884   -0.032078415565586806
-1.2517914845281286   -0.08938519582125884   -0.032078415565586806
-1.2517914845281286   -0.08938519582125884   -0.032078415565586806
-1.2662126744702202   -0.07117593148994658   0.011396069569082845
-1.2662126744702202   -0.07117593148994658   0.011396069569082845
-1.2662126744702202   -0.07117593148994658   0.011396069569082845
-1.2662126744702202   -0.07117593148994658   0.011396069569082845
-0.6819519387959466   0.013710181489517997   0.0023818671506387404
-0.6819519387959466   0.013710181489517997   0.0023818671506387404
-0.6819519387959466   0.013710181489517997   0.0023818671506387404
-0.6819519387959466   0.013710181489517997   0.0023818671506387404
-0.9541452121312921   -0.013602959442823859   -0.00701155409577877
-0.9541452121312921   -0.013602959442823859   -0.00701155409577877
-0.9541452121312921   -0.013602959442823859   -0.00701155409577877
-0.9541452121312921   -0.013602959442823859   -0.00701155409577877
-1.142968811907854   0.10139798416522627   0.04203937888350444
-1.142968811907854   0.10139798416522627   0.04203937888350444
-1.142968811907854   0.10139798416522627   0.04203937888350444
-1.142968811907854   0.10139798416522627   0.04203937888350444
-1.7292184489546267   -0.07976908070115762   -0.04085906358022258
-1.7292184489546267   -0.07976908070115762   -0.04085906358022258
-1.7292184489546267   -0.07976908070115762   -0.04085906358022258
-1.7292184489546267   -0.07976908070115762   -0.04085906358022258
-1.7485009881550284   -0.016962977864290074   0.038750769178363904
-1.7485009881550284   -0.016962977864290074   0.038750769178363904
-1.7485009881550284   -0.016962977864290074   0.038750769178363904
-1.7485009881550284   -0.016962977864290074   0.038750769178363904
-1.197296649026998   0.028619426839572026   -0.023920080396467133
-1.197296649026998   0.028619426839572026   -0.023920080396467133
-1.197296649026998   0.028619426839572026   -0.023920080396467133
-1.197296649026998   0.028619426839572026   -0.023920080396467133
-1.3901617821331373   0.022826924263727677   0.03402499610924692
-1.3901617821331373   0.022826924263727677   0.03402499610924692
-1.3901617821331373   0.022826924263727677   0.03402499610924692
-1.3901617821331373   0.022826924263727677   0.03402499610924692
-1.1681298768510908   0.10122311002113249   0.04931009730150429
-1.1681298768510908   0.10122311002113249   0.04931009730150429
-1.1681298768510908   0.10122311002113249   0.04931009730150429
-1.1681298768510908   0.10122311002113249   0.04931009730150429
-1.7771738122182412   -0.08907271293314689   -0.032503616068818894
-1.7771738122182412   -0.08907271293314689   -0.032503616068818894
-1.7771738122182412   -0.08907271293314689   -0.032503616068818894
-1.7771738122182412   -0.08907271293314689   -0.032503616068818894
-1.7913684697030694   -0.02717073136491599   0.04847467640690414
-1.7913684697030694   -0.02717073136491599   0.04847467640690414
-1.7913684697030694   -0.02717073136491599   0.04847467640690414
-1.7913684697030694   -0.02717073136491599   0.04847467640690414
-1.228081882116717   0.017582279491645092   -0.020497878821424995
-1.228081882116717   0.017582279491645092   -0.020497878821424995
-1.228081882116717   0.017582279491645092   -0.020497878821424995
-1.228081882116717   0.017582279491645092   -0.020497878821424995
-1.449995234688197   0.011431823850228284   0.020668392118389514
-1.449995234688197   0.011431823850228284   0.020668392118389514
-1.449995234688197   0.011431823850228284   0.020668392118389514
-1.449995234688197   0.011431823850228284   0.020668392118389514
-1.1971425641521125   0.09361309380211835   0.058167896691117084
-1.1971425641521125   0.09361309380211835   0.058167896691117084
-1.1971425641521125   0.09361309380211835   0.058167896691117084
-1.1971425641521125   0.09361309380211835   0.058167896691117084
-1.8214941809998062   -0.10238793900751852   -0.026936672434153833
-1.8214941809998062   -0.10238793900751852   -0.026936672434153833
-1.8214941809998062   -0.10238793900751852   -0.026936672434153833
-1.8214941809998062   -0.10238793900751852   -0.026936672434153833
-1.8479443897718428   -0.06344625602644705   0.04761609999761115
-1.8479443897718428   -0.06344625602644705   0.04761609999761115
-1.8479443897718428   -0.06344625602644705   0.04761609999761115
-1.8479443897718428   -0.06344625602644705   0.04761609999761115
-1.2605855431675148   -0.01307001439844091   -0.01857419100889965
-1.2605855431675148   -0.01307001439844091   -0.01857419100889965
-1.2605855431675148   -0.01307001439844091   -0.01857419100889965
-1.2605855431675148   -0.01307001439844091   -0.01857419100889965
-1.4654865376181103   -0.002731634319196763   0.01620193190068976
-1.4654865376181103   -0.002731634319196763   0.01620193190068976
-1.4654865376181103   -0.002731634319196763   0.01620193190068976
-1.4654865376181103   -0.002731634319196763   0.01620193190068976
0.8052102039616235   0.04554264552162156   -0.05450786489902735
0.8052102039616235   0.04554264552162156   -0.05450786489902735
0.8052102039616235   0.04554264552162156   -0.05450786489902735
0.8052102039616235   0.04554264552162156   -0.05450786489902735
0.34394468894231583   0.02207780156864269   0.023411526724087188
0.34394468894231583   0.02207780156864269   0.023411526724087188
0.34394468894231583   0.02207780156864269   0.023411526724087188
0.34394468894231583   0.02207780156864269   0.023411526724087188
0.28774894876364976   -0.07957542540727225   -0.05081611131680842
0.28774894876364976   -0.07957542540727225   -0.05081611131680842
0.28774894876364976   -0.07957542540727225   -0.05081611131680842
0.28774894876364976   -0.07957542540727225   -0.05081611131680842
0.786262196289945   0.09154777143592532   0.028442497407478624
0.786262196289945   0.09154777143592532   0.028442497407478624
0.786262196289945   0.09154777143592532   0.028442497407478624
0.786262196289945   0.09154777143592532   0.028442497407478624
0.5263549245236119   0.011677314771510156   -0.014383054897677707
0.5263549245236119   0.011677314771510156   -0.014383054897677707
0.5263549245236119   0.011677314771510156   -0.014383054897677707
0.5263549245236119   0.011677314771510156   -0.014383054897677707
0.7548650330498308   0.013843253534904343   -0.05083880089207805
0.7548650330498308   0.013843253534904343   -0.05083880089207805
0.7548650330498308   0.013843253534904343   -0.05083880089207805
0.7548650330498308   0.013843253534904343   -0.05083880089207805
0.3185563951315095   -0.0024606243785104953   0.02610631949373505
0.3185563951315095   -0.0024606243785104953   0.02610631949373505
0.3185563951315095   -0.0024606243785104953   0.02610631949373505
0.3185563951315095   -0.0024606243785104953   0.02610631949373505
0.2638070131213687   -0.08882570332053469   -0.04324605696622492
0.2638070131213687   -0.08882570332053469   -0.04324605696622492
0.2638070131213687   -0.08882570332053469   -0.04324605696622492
0.2638070131213687   -0.08882570332053469   -0.04324605696622492
0.7468748242911776   0.07842351251937887   0.03664620224428736
0.7468748242911776   0.07842351251937887   0.03664620224428736
0.7468748242911776   0.07842351251937887   0.03664620224428736
0.7468748242911776   0.07842351251937887   0.03664620224428736
0.501577795585129   -0.0035737544462115106   -0.023450184898973804
0.501577795585129   -0.0035737544462115106   -0.023450184898973804
0.501577795585129   -0.0035737544462115106   -0.023450184898973804
0.501577795585129   -0.0035737544462115106   -0.023450184898973804
0.7159952530946058   0.001996273186260833   -0.041324414405459725
0.7159952530946058   0.001996273186260833   -0.041324414405459725
0.7159952530946058   0.001996273186260833   -0.041324414405459725
0.7159952530946058   0.001996273186260833   -0.041324414405459725
0.2938175266840963   -0.013267521621265502   0.03124832914814677
0.2938175266840963   -0.013267521621265502   0.03124832914814677
0.2938175266840963   -0.013267521621265502   0.03124832914814677
0.2938175266840963   -0.013267521621265502   0.03124832914814677
0.24240245567791005   -0.09725667528331913   -0.03604122456526579
0.24240245567791005   -0.09725667528331913   -0.03604122456526579
0.24240245567791005   -0.09725667528331913   -0.03604122456526579
0.24240245567791005   -0.09725667528331913   -0.03604122456526579
0.7009007664956715   0.06114979525350575   0.041817941622913406
0.7009007664956715   0.06114979525350575   0.041817941622913406
0.7009007664956715   0.06114979525350575   0.041817941622913406
0.7009007664956715   0.06114979525350575   0.041817941622913406
0.4597335964769157   -0.016098251547768935   -0.035888227881846424
0.4597335964769157   -0.016098251547768935   -0.035888227881846424
0.4597335964769157   -0.016098251547768935   -0.035888227881846424
0.4597335964769157   -0.016098251547768935   -0.035888227881846424
0.34622545295561197   0.06674906146347233   -0.0098559131042671
0.34622545295561197   0.06674906146347233   -0.0098559131042671
0.34622545295561197   0.06674906146347233   -0.0098559131042671
0.34622545295561197   0.06674906146347233   -0.0098559131042671
-0.10643387106274185   0.0058308189418267015   0.0031948210318871826
-0.10643387106274185   0.0058308189418267015   0.0031948210318871826
-0.10643387106274185   0.0058308189418267015   0.0031948210318871826
-0.10643387106274185   0.0058308189418267015   0.0031948210318871826
-0.14485133481695836   -0.05520813606865506   -0.03128797351629764
-0.14485133481695836   -0.05520813606865506   -0.03128797351629764
-0.14485133481695836   -0.05520813606865506   -0.03128797351629764
-0.14485133481695836   -0.05520813606865506   -0.03128797351629764
0.33659529751057293   0.08026176573877582   0.03357844127176524
0.33659529751057293   0.08026176573877582   0.03357844127176524
0.33659529751057293   0.08026176573877582   0.03357844127176524
0.33659529751057293   0.08026176573877582   0.03357844127176524
0.10551631089075748   0.02322366218246936   0.004043280947972119
0.10551631089075748   0.02322366218246936   0.004043280947972119
0.10551631089075748   0.02322366218246936   0.004043280947972119
0.10551631089075748   0.02322366218246936   0.004043280947972119
0.3214128975292954   0.04323995543723482   -0.005311748333085612
0.3214128975292954   0.04323995543723482   -0.005311748333085612
0.3214128975292954   0.04323995543723482   -0.005311748333085612
0.3214128975292954   0.04323995543723482   -0.005311748333085612
-0.12989256375433172   -0.01840995468576835   0.006707700413948994
-0.12989256375433172   -0.01840995468576835   0.006707700413948994
-0.12989256375433172   -0.01840995468576835   0.006707700413948994
-0.12989256375433172   -0.01840995468576835   0.006707700413948994
-0.1671206250782347   -0.07380474460751209   -0.02530911288247486
-0.1671206250782347   -0.07380474460751209   -0.02530911288247486
-0.1671206250782347   -0.07380474460751209   -0.02530911288247486
-0.1671206250782347   -0.07380474460751209   -0.02530911288247486
0.3092847796040621   0.05881079238563565   0.03650627974107473
0.3092847796040621   0.05881079238563565   0.03650627974107473
0.3092847796040621   0.05881079238563565   0.03650627974107473
0.3092847796040621   0.05881079238563565   0.03650627974107473
0.07806127774530054   0.002203817621094159   -0.006054226646965924
0.07806127774530054   0.002203817621094159   -0.006054226646965924
0.07806127774530054   0.002203817621094159   -0.006054226646965924
0.07806127774530054   0.002203817621094159   -0.006054226646965924
0.29458230084870146   0.023298832353621346   -0.0014941540037195413
0.29458230084870146   0.023298832353621346   -0.0014941540037195413
0.29458230084870146   0.023298832353621346   -0.0014941540037195413
0.29458230084870146   0.023298832353621346   -0.0014941540037195413
-0.15298492542157555   -0.03885956367420419   0.01042420446751313
-0.15298492542157555   -0.03885956367420419   0.01042420446751313
-0.15298492542157555   -0.03885956367420419   0.01042420446751313
-0.15298492542157555   -0.03885956367420419   0.01042420446751313
-0.18909496230284203   -0.0913038335169411   -0.01978444434125868
-0.18909496230284203   -0.0913038335169411   -0.01978444434125868
-0.18909496230284203   -0.0913038335169411   -0.01978444434125868
-0.18909496230284203   -0.0913038335169411   -0.01978444434125868
0.2846393412424259   0.038183609658279376   0.03970291831572166
0.2846393412424259   0.038183609658279376   0.03970291831572166
0.2846393412424259   0.038183609658279376   0.03970291831572166
0.2846393412424259   0.038183609658279376   0.03970291831572166
0.056006860734658874   -0.015258521664199318   -0.014977780283815238
0.056006860734658874   -0.015258521664199318   -0.014977780283815238
0.056006860734658874   -0.015258521664199318   -0.014977780283815238
0.056006860734658874   -0.015258521664199318   -0.014977780283815238
-0.08974021721613332   0.08476502665763194   0.007728882549124665
-0.08974021721613332   0.08476502665763194   0.007728882549124665
-0.08974021721613332   0.08476502665763194   0.007728882549124665
-0.08974021721613332   0.08476502665763194   0.007728882549124665
-0.5501431618908633   -0.01382637186324498   -0.01672074786759582
-0.5501431618908633   -0.01382637186324498   -0.01672074786759582
-0.5501431618908633   -0.01382637186324498   -0.01672074786759582
-0.5501431618908633   -0.01382637186324498   -0.01672074786759582
-0.5721106435598442   -0.032814393639459025   -0.012306032612451698
-0.5721106435598442   -0.032814393639459025   -0.012306032612451698
-0.5721106435598442   -0.032814393639459025   -0.012306032612451698
-0.5721106435598442   -0.032814393639459025   -0.012306032612451698
-0.11270909353300243   0.06120123673779636   0.013013860097029019
-0.11270909353300243   0.06120123673779636   0.013013860097029019
-0.11270909353300243   0.06120123673779636   0.013013860097029019
-0.11270909353300243   0.06120123673779636   0.013013860097029019
-0.3303699153220169   0.024447837110359152   0.0065273256250886515
-0.3303699153220169   0.024447837110359152   0.0065273256250886515
-0.3303699153220169   0.024447837110359152   0.0065273256250886515
-0.3303699153220169   0.024447837110359152   0.0065273256250886515
-0.11201765248616447   0.06433322625964623   0.013339075809370687
-0.11201765248616447   0.06433322625964623   0.013339075809370687
-0.11201765248616447   0.06433322625964623   0.013339075809370687
-0.11201765248616447   0.06433322625964623   0.013339075809370687
-0.5728639376823661   -0.03600823623698721   -0.012878660627525115
-0.5728639376823661   -0.03600823623698721   -0.012878660627525115
-0.5728639376823661   -0.03600823623698721   -0.012878660627525115
-0.5728639376823661   -0.03600823623698721   -0.012878660627525115
-0.5946093308700626   -0.05307604357946662   -0.00697994673265798
-0.5946093308700626   -0.05307604357946662   -0.00697994673265798
-0.5946093308700626   -0.05307604357946662   -0.00697994673265798
-0.5946093308700626   -0.05307604357946662   -0.00697994673265798
-0.13607723089791793   0.039125296241008155   0.01697781717058672
-0.13607723089791793   0.039125296241008155   0.01697781717058672
-0.13607723089791793   0.039125296241008155   0.01697781717058672
-0.13607723089791793   0.039125296241008155   0.01697781717058672
-0.3535016810796256   0.004723994683149407   -0.002155131548104837
-0.3535016810796256   0.004723994683149407   -0.002155131548104837
-0.3535016810796256   0.004723994683149407   -0.002155131548104837
-0.3535016810796256   0.004723994683149407   -0.002155131548104837
-0.13490396876588262   0.043879085835209775   0.018090338236563693
-0.13490396876588262   0.043879085835209775   0.018090338236563693
-0.13490396876588262   0.043879085835209775   0.018090338236563693
-0.13490396876588262   0.043879085835209775   0.018090338236563693
-0.596140817013857   -0.05818805718542884   -0.009525363845659201
-0.596140817013857   -0.05818805718542884   -0.009525363845659201
-0.596140817013857   -0.05818805718542884   -0.009525363845659201
-0.596140817013857   -0.05818805718542884   -0.009525363845659201
-0.6167300258476166   -0.07243243623168685   -0.001802273803936402
-0.6167300258476166   -0.07243243623168685   -0.001802273803936402
-0.6167300258476166   -0.07243243623168685   -0.001802273803936402
-0.6167300258476166   -0.07243243623168685   -0.001802273803936402
-0.15924679778388215   0.017674001672252034   0.02047854306434323
-0.15924679778388215   0.017674001672252034   0.02047854306434323
-0.15924679778388215   0.017674001672252034   0.02047854306434323
-0.15924679778388215   0.017674001672252034   0.02047854306434323
-0.37758542626272196   -0.015022189001080516   -0.011565920542730805
-0.37758542626272196   -0.015022189001080516   -0.011565920542730805
-0.37758542626272196   -0.015022189001080516   -0.011565920542730805
-0.37758542626272196   -0.015022189001080516   -0.011565920542730805
-0.5190088333188284   0.10020609580474187   0.024918427324591482
-0.5190088333188284   0.10020609580474187   0.024918427324591482
-0.5190088333188284   0.10020609580474187   0.024918427324591482
-0.5190088333188284   0.10020609580474187   0.024918427324591482
-0.9859612694528767   -0.0333751060384766   -0.03404731496779121
-0.9859612694528767   -0.0333751060384766   -0.03404731496779121
-0.9859612694528767   -0.0333751060384766   -0.03404731496779121
-0.9859612694528767   -0.0333751060384766   -0.03404731496779121
-0.994219323604682   -0.014586914560664355   0.008054116407948834
-0.994219323604682   -0.014586914560664355   0.008054116407948834
-0.994219323604682   -0.014586914560664355   0.008054116407948834
-0.994219323604682   -0.014586914560664355   0.008054116407948834
-0.556563931383527   0.03987730168595949   -0.00726416705628774
-0.556563931383527   0.03987730168595949   -0.00726416705628774
-0.556563931383527   0.03987730168595949   -0.00726416705628774
-0.556563931383527   0.03987730168595949   -0.00726416705628774
-0.7594105447812523   0.023256315287315532   0.009480979233959998
-0.7594105447812523   0.023256315287315532   0.009480979233959998
-0.7594105447812523   0.023256315287315532   0.009480979233959998
-0.7594105447812523   0.023256315287315532   0.009480979233959998
-0.540873049500535   0.08057085482291781   0.030496689221724785
-0.540873049500535   0.08057085482291781   0.030496689221724785
-0.540873049500535   0.08057085482291781   0.030496689221724785
-0.540873049500535   0.08057085482291781   0.030496689221724785
-1.0105944813211998   -0.05596474353115005   -0.03244384320416257
-1.0105944813211998   -0.05596474353115005   -0.03244384320416257
-1.0105944813211998   -0.05596474353115005   -0.03244384320416257
-1.0105944813211998   -0.05596474353115005   -0.03244384320416257
-1.0207397537234895   -0.03465452953691184   0.010523185051509142
-1.0207397537234895   -0.03465452953691184   0.010523185051509142
-1.0207397537234895   -0.03465452953691184   0.010523185051509142
-1.0207397537234895   -0.03465452953691184   0.010523185051509142
-0.579303001147769   0.019533736977123933   -0.0030580786777836197
-0.579303001147769   0.019533736977123933   -0.0030580786777836197
-0.579303001147769   0.019533736977123933   -0.0030580786777836197
-0.579303001147769   0.019533736977123933   -0.0030580786777836197
-0.7788923593759236   0.005366884283721229   0.0007750336139625141
-0.7788923593759236   0.005366884283721229   0.0007750336139625141
-0.7788923593759236   0.005366884283721229   0.0007750336139625141
-0.7788923593759236   0.005366884283721229   0.0007750336139625141
-0.5630482023392079   0.061940895165062085   0.0358087571770953
-0.5630482023392079   0.061940895165062085   0.0358087571770953
-0.5630482023392079   0.061940895165062085   0.0358087571770953
-0.5630482023392079   0.061940895165062085   0.0358087571770953
-1.0370535742605647   -0.07712070945336447   -0.02857973771742977
-1.0370535742605647   -0.07712070945336447   -0.02857973771742977
-1.0370535742605647   -0.07712070945336447   -0.02857973771742977
-1.0370535742605647   -0.07712070945336447   -0.02857973771742977
-1.0443559338757071   -0.0560310877195124   0.016079516185247434
-1.0443559338757071   -0.0560310877195124   0.016079516185247434
-1.0443559338757071   -0.0560310877195124   0.016079516185247434
-1.0443559338757071   -0.0560310877195124   0.016079516185247434
-0.6024390843554552   -0.0030271639149422602   0.00024716134011780466
-0.6024390843554552   -0.0030271639149422602   0.00024716134011780466
-0.6024390843554552   -0.0030271639149422602   0.00024716134011780466
-0.6024390843554552   -0.0030271639149422602   0.00024716134011780466
-0.8081128194212365   -0.015389393017304992   -0.00932655296663238
-0.8081128194212365   -0.015389393017304992   -0.00932655296663238
-0.8081128194212365   -0.015389393017304992   -0.00932655296663238
-0.8081128194212365   -0.015389393017304992   -0.00932655296663238
-0.9460681542110176   0.09286785167017805   0.03917530353284978
-0.9460681542110176   0.09286785167017805   0.03917530353284978
-0.9460681542110176   0.09286785167017805   0.03917530353284978
-0.9460681542110176   0.09286785167017805   0.03917530353284978
-1.3958132763252025   -0.06425026881167639   -0.04424507035753816
-1.3958132763252025   -0.06425026881167639   -0.04424507035753816
-1.3958132763252025   -0.06425026881167639   -0.04424507035753816
-1.3958132763252025   -0.06425026881167639   -0.04424507035753816
-1.4093175361512191   -0.0012351536269172292   0.03882790439530739
-1.4093175361512191   -0.0012351536269172292   0.03882790439530739
-1.4093175361512191   -0.0012351536269172292   0.03882790439530739
-1.4093175361512191   -0.0012351536269172292   0.03882790439530739
-0.9955133695309349   0.013566404993095388   -0.02656943277708884
-0.9955133695309349   0.013566404993095388   -0.02656943277708884
-0.9955133695309349   0.013566404993095388   -0.02656943277708884
-0.9955133695309349   0.013566404993095388   -0.02656943277708884
-1.134469231551878   0.021567840068014182   0.028705666067630753
-1.134469231551878   0.021567840068014182   0.028705666067630753
-1.134469231551878   0.021567840068014182   0.028705666067630753
-1.134469231551878   0.021567840068014182   0.028705666067630753
-0.965885067074639   0.088927880174025   0.04621060432346662
-0.965885067074639   0.088927880174025   0.04621060432346662
-0.965885067074639   0.088927880174025   0.04621060432346662
-0.965885067074639   0.088927880174025   0.04621060432346662
-1.4395296519137317   -0.07718044211406994   -0.036287385930118835
-1.4395296519137317   -0.07718044211406994   -0.036287385930118835
-1.4395296519137317   -0.07718044211406994   -0.036287385930118835
-1.4395296519137317   -0.07718044211406994   -0.036287385930118835
-1.4467820165806256   -0.01227116094560926   0.048935053456212046
-1.4467820165806256   -0.01227116094560926   0.048935053456212046
-1.4467820165806256   -0.01227116094560926   0.048935053456212046
-1.4467820165806256   -0.01227116094560926   0.048935053456212046
-1.019959771301169   0.0024104334334248134   -0.022641865807241562
-1.019959771301169   0.0024104334334248134   -0.022641865807241562
-1.019959771301169   0.0024104334334248134   -0.022641865807241562
-1.019959771301169   0.0024104334334248134   -0.022641865807241562
-1.1849709079030308   0.008880480860434636   0.015016995004692973
-1.1849709079030308   0.008880480860434636   0.015016995004692973
-1.1849709079030308   0.008880480860434636   0.015016995004692973
-1.1849709079030308   0.008880480860434636   0.015016995004692973
-0.9889441075339044   0.08039898955416508   0.05444789690834288
-0.9889441075339044   0.08039898955416508   0.05444789690834288
-0.9889441075339044   0.08039898955416508   0.05444789690834288
-0.9889441075339044   0.08039898955416508   0.05444789690834288
-1.4782195639135798   -0.09068160063203276   -0.029842243522149405
-1.4782195639135798   -0.09068160063203276   -0.029842243522149405
-1.4782195639135798   -0.09068160063203276   -0.029842243522149405
-1.4782195639135798   -0.09068160063203276   -0.029842243522149405
-1.4969018102298863   -0.046798491359238026   0.04909969124948625
-1.4969018102298863   -0.046798491359238026   0.04909969124948625
-1.4969018102298863   -0.046798491359238026   0.04909969124948625
-1.4969018102298863   -0.046798491359238026   0.04909969124948625
-1.0455370918867457   -0.02583755186457601   -0.020019809724908633
-1.0455370918867457   -0.02583755186457601   -0.020019809724908633
-1.0455370918867457   -0.02583755186457601   -0.020019809724908633
-1.0455370918867457   -0.02583755186457601   -0.020019809724908633
-1.199293447185541   -0.00558942935121004   0.008499114687611074
-1.199293447185541   -0.00558942935121004   0.008499114687611074
-1.199293447185541   -0.00558942935121004   0.008499114687611074
-1.199293447185541   -0.00558942935121004   0.008499114687611074
0.44254552224857446   0.026451650570290593   -0.053320061573922425
0.44254552224857446   0.026451650570290593   -0.053320061573922425
0.44254552224857446   0.026451650570290593   -0.053320061573922425
0.44254552224857446   0.026451650570290593   -0.053320061573922425
0.1285422869107376   0.03206259053965782   0.02551572255448255
0.1285422869107376   0.03206259053965782   0.02551572255448255
0.1285422869107376   0.03206259053965782   0.02551572255448255
0.1285422869107376   0.03206259053965782   0.02551572255448255
0.0789020830785847   -0.06501589754199998   -0.04701573427078751
0.0789020830785847   -0.06501589754199998   -0.04701573427078751
0.0789020830785847   -0.06501589754199998   -0.04701573427078751
0.0789020830785847   -0.06501589754199998   -0.04701573427078751
0.43031707599089164   0.07553579801227267   0.030700797148722196
0.43031707599089164   0.07553579801227267   0.030700797148722196
0.43031707599089164   0.07553579801227267   0.030700797148722196
0.43031707599089164   0.07553579801227267   0.030700797148722196
0.25429584339962963   0.012594320938995304   -0.005887086898593917
0.25429584339962963   0.012594320938995304   -0.005887086898593917
0.25429584339962963   0.012594320938995304   -0.005887086898593917
0.25429584339962963   0.012594320938995304   -0.005887086898593917
0.3990201098370542   -0.001365660381485237   -0.04888257522671031
0.3990201098370542   -0.001365660381485237   -0.04888257522671031
0.3990201098370542   -0.001365660381485237   -0.04888257522671031
0.3990201098370542   -0.001365660381485237   -0.04888257522671031
0.10922226475497501   0.010908776374314852   0.028660500194849704
0.10922226475497501   0.010908776374314852   0.028660500194849704
0.10922226475497501   0.010908776374314852   0.028660500194849704
0.10922226475497501   0.010908776374314852   0.028660500194849704
0.06016085215619101   -0.07423401583500129   -0.03992746739262695
0.06016085215619101   -0.07423401583500129   -0.03992746739262695
0.06016085215619101   -0.07423401583500129   -0.03992746739262695
0.06016085215619101   -0.07423401583500129   -0.03992746739262695
0.3966298053631322   0.06281510137571968   0.03943417812875646
0.3966298053631322   0.06281510137571968   0.03943417812875646
0.3966298053631322   0.06281510137571968   0.03943417812875646
0.3966298053631322   0.06281510137571968   0.03943417812875646
0.23076330427477396   -0.0018022047582796977   -0.015231111922428561
0.23076330427477396   -0.0018022047582796977   -0.015231111922428561
0.23076330427477396   -0.0018022047582796977   -0.015231111922428561
0.23076330427477396   -0.0018022047582796977   -0.015231111922428561
0.36551303731508805   -0.013204164559868406   -0.040130396175878116
0.36551303731508805   -0.013204164559868406   -0.040130396175878116
0.36551303731508805   -0.013204164559868406   -0.040130396175878116
0.36551303731508805   -0.013204164559868406   -0.040130396175878116
0.08996995432570971   0.00047758422206435613   0.03440644339790232
0.08996995432570971   0.00047758422206435613   0.03440644339790232
0.08996995432570971   0.00047758422206435613   0.03440644339790232
0.08996995432570971   0.00047758422206435613   0.03440644339790232
0.043402481624954546   -0.08536425536781878   -0.03325402661299237
0.043402481624954546   -0.08536425536781878   -0.03325402661299237
0.043402481624954546   -0.08536425536781878   -0.03325402661299237
0.043402481624954546   -0.08536425536781878   -0.03325402661299237
0.3549181900584539   0.042457832313658024   0.04377733712064244
0.3549181900584539   0.042457832313658024   0.04377733712064244
0.3549181900584539   0.042457832313658024   0.04377733712064244
0.3549181900584539   0.042457832313658024   0.04377733712064244
0.1982640420371721   -0.014628072991087773   -0.026649936597858376
0.1982640420371721   -0.014628072991087773   -0.026649936597858376
0.1982640420371721   -0.014628072991087773   -0.026649936597858376
0.1982640420371721   -0.014628072991087773   -0.026649936597858376
0.12355337631598078   0.04809671352938638   -0.015462953409031067
0.12355337631598078   0.04809671352938638   -0.015462953409031067
0.12355337631598078   0.04809671352938638   -0.015462953409031067
0.12355337631598078   0.04809671352938638   -0.015462953409031067
-0.18010071403669792   0.015528467377380048   0.006204697368505896
-0.18010071403669792   0.015528467377380048   0.006204697368505896
-0.18010071403669792   0.015528467377380048   0.006204697368505896
-0.18010071403669792   0.015528467377380048   0.006204697368505896
-0.21207558229554171   -0.04167503695563312   -0.02743469239416482
-0.21207558229554171   -0.04167503695563312   -0.02743469239416482
-0.21207558229554171   -0.04167503695563312   -0.02743469239416482
-0.21207558229554171   -0.04167503695563312   -0.02743469239416482
0.11907842587239455   0.05969970826448332   0.029150373891779095
0.11907842587239455   0.05969970826448332   0.029150373891779095
0.11907842587239455   0.05969970826448332   0.029150373891779095
0.11907842587239455   0.05969970826448332   0.029150373891779095
-0.03844387294774635   0.019551676989535423   0.0049525199100183175
-0.03844387294774635   0.019551676989535423   0.0049525199100183175
-0.03844387294774635   0.019551676989535423   0.0049525199100183175
-0.03844387294774635   0.019551676989535423   0.0049525199100183175
0.10398550585833619   0.024751012975973263   -0.01136553089000292
0.10398550585833619   0.024751012975973263   -0.01136553089000292
0.10398550585833619   0.024751012975973263   -0.01136553089000292
0.10398550585833619   0.024751012975973263   -0.01136553089000292
-0.19781526186559195   -0.007558941251233006   0.00975081405118393
-0.19781526186559195   -0.007558941251233006   0.00975081405118393
-0.19781526186559195   -0.007558941251233006   0.00975081405118393
-0.19781526186559195   -0.007558941251233006   0.00975081405118393
-0.22884126778854938   -0.06041216972109992   -0.021482483399961
-0.22884126778854938   -0.06041216972109992   -0.021482483399961
-0.22884126778854938   -0.06041216972109992   -0.021482483399961
-0.22884126778854938   -0.06041216972109992   -0.021482483399961
0.09708109183377733   0.038657670687131315   0.031782044473173454
0.09708109183377733   0.038657670687131315   0.031782044473173454
0.09708109183377733   0.038657670687131315   0.031782044473173454
0.09708109183377733   0.038657670687131315   0.031782044473173454
-0.05915750549299263   -0.0006559616367814401   -0.004730413575689209
-0.05915750549299263   -0.0006559616367814401   -0.004730413575689209
-0.05915750549299263   -0.0006559616367814401   -0.004730413575689209
-0.05915750549299263   -0.0006559616367814401   -0.004730413575689209
0.08243430662751465   0.004650499723255527   -0.00744471059426555
0.08243430662751465   0.004650499723255527   -0.00744471059426555
0.08243430662751465   0.004650499723255527   -0.00744471059426555
0.08243430662751465   0.004650499723255527   -0.00744471059426555
-0.21527211651508088   -0.027482632690020062   0.013433735936305511
-0.21527211651508088   -0.027482632690020062   0.013433735936305511
-0.21527211651508088   -0.027482632690020062   0.013433735936305511
-0.21527211651508088   -0.027482632690020062   0.013433735936305511
-0.2454790391316924   -0.07900124082044009   -0.016102953703757375
-0.2454790391316924   -0.07900124082044009   -0.016102953703757375
-0.2454790391316924   -0.07900124082044009   -0.016102953703757375
-0.2454790391316924   -0.07900124082044009   -0.016102953703757375
0.0778212398375311   0.017995271188515696   0.035480237893556935
0.0778212398375311   0.017995271188515696   0.035480237893556935
0.0778212398375311   0.017995271188515696   0.035480237893556935
0.0778212398375311   0.017995271188515696   0.035480237893556935
-0.07708631635273373   -0.018753649295295233   -0.013875454358367576
-0.07708631635273373   -0.018753649295295233   -0.013875454358367576
-0.07708631635273373   -0.018753649295295233   -0.013875454358367576
-0.07708631635273373   -0.018753649295295233   -0.013875454358367576
-0.1708132073330504   0.06584825689555249   0.0023224413685710363
-0.1708132073330504   0.06584825689555249   0.0023224413685710363
-0.1708132073330504   0.06584825689555249   0.0023224413685710363
-0.1708132073330504   0.06584825689555249   0.0023224413685710363
-0.48464501893412176   -0.0057651634483189135   -0.013316793176752242
-0.48464501893412176   -0.0057651634483189135   -0.013316793176752242
-0.48464501893412176   -0.0057651634483189135   -0.013316793176752242
-0.48464501893412176   -0.0057651634483189135   -0.013316793176752242
-0.49974513627543093   -0.020399914067153357   -0.007955851185290984
-0.49974513627543093   -0.020399914067153357   -0.007955851185290984
-0.49974513627543093   -0.020399914067153357   -0.007955851185290984
-0.49974513627543093   -0.020399914067153357   -0.007955851185290984
-0.1885401963862408   0.039296743977981434   0.009270456218717544
-0.1885401963862408   0.039296743977981434   0.009270456218717544
-0.1885401963862408   0.039296743977981434   0.009270456218717544
-0.1885401963862408   0.039296743977981434   0.009270456218717544
-0.33513960537977827   0.019330262830697373   0.005135148031328942
-0.33513960537977827   0.019330262830697373   0.005135148031328942
-0.33513960537977827   0.019330262830697373   0.005135148031328942
-0.33513960537977827   0.019330262830697373   0.005135148031328942
-0.18764057171537968   0.04518769482676296   0.007877628724245331
-0.18764057171537968   0.04518769482676296   0.007877628724245331
-0.18764057171537968   0.04518769482676296   0.007877628724245331
-0.18764057171537968   0.04518769482676296   0.007877628724245331
-0.5013738508468916   -0.02701995481653474   -0.009479383293212594
-0.5013738508468916   -0.02701995481653474   -0.009479383293212594
-0.5013738508468916   -0.02701995481653474   -0.009479383293212594
-0.5013738508468916   -0.02701995481653474   -0.009479383293212594
-0.5164377951931397   -0.04085493440480213   -0.0025627717632429707
-0.5164377951931397   -0.04085493440480213   -0.0025627717632429707
-0.5164377951931397   -0.04085493440480213   -0.0025627717632429707
-0.5164377951931397   -0.04085493440480213   -0.0025627717632429707
-0.20623722149695572   0.017956139968124812   0.013169438368782689
-0.20623722149695572   0.017956139968124812   0.013169438368782689
-0.20623722149695572   0.017956139968124812   0.013169438368782689
-0.20623722149695572   0.017956139968124812   0.013169438368782689
-0.3525557692569711   -9.698531818828904e-05   -0.0035458961949636006
-0.3525557692569711   -9.698531818828904e-05   -0.0035458961949636006
-0.3525557692569711   -9.698531818828904e-05   -0.0035458961949636006
-0.3525557692569711   -9.698531818828904e-05   -0.0035458961949636006
-0.20503085205116942   0.02447541140783948   0.012682014158003265
-0.20503085205116942   0.02447541140783948   0.012682014158003265
-0.20503085205116942   0.02447541140783948   0.012682014158003265
-0.20503085205116942   0.02447541140783948   0.012682014158003265
-0.5186806500815085   -0.04841069128710014   -0.006221289322789224
-0.5186806500815085   -0.04841069128710014   -0.006221289322789224
-0.5186806500815085   -0.04841069128710014   -0.006221289322789224
-0.5186806500815085   -0.04841069128710014   -0.006221289322789224
-0.5328103117723664   -0.06060285417746728   0.0026577778042308313
-0.5328103117723664   -0.06060285417746728   0.0026577778042308313
-0.5328103117723664   -0.06060285417746728   0.0026577778042308313
-0.5328103117723664   -0.06060285417746728   0.0026577778042308313
-0.2236309315330557   -0.0026017966681092727   0.01673814013709241
-0.2236309315330557   -0.0026017966681092727   0.01673814013709241
-0.2236309315330557   -0.0026017966681092727   0.01673814013709241
-0.2236309315330557   -0.0026017966681092727   0.01673814013709241
-0.37088029171648146   -0.019570728403909943   -0.012971223100656369
-0.37088029171648146   -0.019570728403909943   -0.012971223100656369
-0.37088029171648146   -0.019570728403909943   -0.012971223100656369
-0.37088029171648146   -0.019570728403909943   -0.012971223100656369
-0.4601707613076526   0.08270860407131617   0.02058072743595847
-0.4601707613076526   0.08270860407131617   0.02058072743595847
-0.4601707613076526   0.08270860407131617   0.02058072743595847
-0.4601707613076526   0.08270860407131617   0.02058072743595847
-0.7825208623071285   -0.023239167140733402   -0.030392459794441995
-0.7825208623071285   -0.023239167140733402   -0.030392459794441995
-0.7825208623071285   -0.023239167140733402   -0.030392459794441995
-0.7825208623071285   -0.023239167140733402   -0.030392459794441995
-0.7840156067379624   -0.0016217002261381674   0.012692498737659375
-0.7840156067379624   -0.0016217002261381674   0.012692498737659375
-0.7840156067379624   -0.0016217002261381674   0.012692498737659375
-0.7840156067379624   -0.0016217002261381674   0.012692498737659375
-0.49195119171768475   0.020199127150070814   -0.009585169613787019
-0.49195119171768475   0.020199127150070814   -0.009585169613787019
-0.49195119171768475   0.020199127150070814   -0.009585169613787019
-0.49195119171768475   0.020199127150070814   -0.009585169613787019
-0.6264581897590006   0.01947468287568735   0.006762012977563001
-0.6264581897590006   0.01947468287568735   0.006762012977563001
-0.6264581897590006   0.01947468287568735   0.006762012977563001
-0.6264581897590006   0.01947468287568735   0.006762012977563001
-0.47632145482486243   0.06260929900752124   0.02615334299287715
-0.47632145482486243   0.06260929900752124   0.02615334299287715
-0.47632145482486243   0.06260929900752124   0.02615334299287715
-0.47632145482486243   0.06260929900752124   0.02615334299287715
-0.8010453154213036   -0.04543184387411178   -0.028645901031081195
-0.8010453154213036   -0.04543184387411178   -0.028645901031081195
-0.8010453154213036   -0.04543184387411178   -0.028645901031081195
-0.8010453154213036   -0.04543184387411178   -0.028645901031081195
-0.8045655621276757   -0.021787689182443892   0.01559735150428393
-0.8045655621276757   -0.021787689182443892   0.01559735150428393
-0.8045655621276757   -0.021787689182443892   0.01559735150428393
-0.8045655621276757   -0.021787689182443892   0.01559735150428393
-0.5087315886354493   0.0005502220900147625   -0.005436895469614275
-0.5087315886354493   0.0005502220900147625   -0.005436895469614275
-0.5087315886354493   0.0005502220900147625   -0.005436895469614275
-0.5087315886354493   0.0005502220900147625   -0.005436895469614275
-0.6412601489848003   0.0013689059224963607   -0.002339483481169219
-0.6412601489848003   0.0013689059224963607   -0.002339483481169219
-0.6412601489848003   0.0013689059224963607   -0.002339483481169219
-0.6412601489848003   0.0013689059224963607   -0.002339483481169219
-0.4926862921949128   0.043780546889895175   0.03155926193319417
-0.4926862921949128   0.043780546889895175   0.03155926193319417
-0.4926862921949128   0.043780546889895175   0.03155926193319417
-0.4926862921949128   0.043780546889895175   0.03155926193319417
-0.8214836300927914   -0.0658907855068987   -0.02488989199683954
-0.8214836300927914   -0.0658907855068987   -0.02488989199683954
-0.8214836300927914   -0.0658907855068987   -0.02488989199683954
-0.8214836300927914   -0.0658907855068987   -0.02488989199683954
-0.8223176068391791   -0.04280623036271511   0.02123035158497734
-0.8223176068391791   -0.04280623036271511   0.02123035158497734
-0.8223176068391791   -0.04280623036271511   0.02123035158497734
-0.8223176068391791   -0.04280623036271511   0.02123035158497734
-0.5257218375878453   -0.020462764070000847   -0.0020399413806367686
-0.5257218375878453   -0.020462764070000847   -0.0020399413806367686
-0.5257218375878453   -0.020462764070000847   -0.0020399413806367686
-0.5257218375878453   -0.020462764070000847   -0.0020399413806367686
-0.6632728624932636   -0.01835756190984411   -0.01225830849357204
-0.6632728624932636   -0.01835756190984411   -0.01225830849357204
-0.6632728624932636   -0.01835756190984411   -0.01225830849357204
-0.6632728624932636   -0.01835756190984411   -0.01225830849357204
-0.7482213297291739   0.0814086181416338   0.03645741781297146
-0.7482213297291739   0.0814086181416338   0.03645741781297146
-0.7482213297291739   0.0814086181416338   0.03645741781297146
-0.7482213297291739   0.0814086181416338   0.03645741781297146
-1.053003141872977   -0.048453699322741406   -0.046143262244101924
-1.053003141872977   -0.048453699322741406   -0.046143262244101924
-1.053003141872977   -0.048453699322741406   -0.046143262244101924
-1.053003141872977   -0.048453699322741406   -0.046143262244101924
-1.0607187555779602   0.013504158177038761   0.03832471918965315
-1.0607187555779602   0.013504158177038761   0.03832471918965315
-1.0607187555779602   0.013504158177038761   0.03832471918965315
-1.0607187555779602   0.013504158177038761   0.03832471918965315
-0.7923462792905797   -0.002394045407159179   -0.028188518844417407
-0.7923462792905797   -0.002394045407159179   -0.028188518844417407
-0.7923462792905797   -0.002394045407159179   -0.028188518844417407
-0.7923462792905797   -0.002394045407159179   -0.028188518844417407
-0.8743104375169496   0.019529434824331948   0.021168280250697565
-0.8743104375169496   0.019529434824331948   0.021168280250697565
-0.8743104375169496   0.019529434824331948   0.021168280250697565
-0.8743104375169496   0.019529434824331948   0.021168280250697565
-0.7627966940389002   0.07404724920690758   0.04311811279990913
-0.7627966940389002   0.07404724920690758   0.04311811279990913
-0.7627966940389002   0.07404724920690758   0.04311811279990913
-0.7627966940389002   0.07404724920690758   0.04311811279990913
-1.0917582602817995   -0.06442705588918249   -0.03894159026331423
-1.0917582602817995   -0.06442705588918249   -0.03894159026331423
-1.0917582602817995   -0.06442705588918249   -0.03894159026331423
-1.0917582602817995   -0.06442705588918249   -0.03894159026331423
-1.0927226391941807   0.002175264607914479   0.048945157958187935
-1.0927226391941807   0.002175264607914479   0.048945157958187935
-1.0927226391941807   0.002175264607914479   0.048945157958187935
-1.0927226391941807   0.002175264607914479   0.048945157958187935
-0.8108370016403984   -0.013358054784759266   -0.02418948045702985
-0.8108370016403984   -0.013358054784759266   -0.02418948045702985
-0.8108370016403984   -0.013358054784759266   -0.02418948045702985
-0.8108370016403984   -0.013358054784759266   -0.02418948045702985
-0.9152125179945876   0.006130500643206527   0.007626222305055545
-0.9152125179945876   0.006130500643206527   0.007626222305055545
-0.9152125179945876   0.006130500643206527   0.007626222305055545
-0.9152125179945876   0.006130500643206527   0.007626222305055545
-0.7800344718021417   0.06518074107048547   0.05128437287902484
-0.7800344718021417   0.06518074107048547   0.05128437287902484
-0.7800344718021417   0.06518074107048547   0.05128437287902484
-0.7800344718021417   0.06518074107048547   0.05128437287902484
-1.124935298718307   -0.07777366093319926   -0.03216921412132132
-1.124935298718307   -0.07777366093319926   -0.03216921412132132
-1.124935298718307   -0.07777366093319926   -0.03216921412132132
-1.124935298718307   -0.07777366093319926   -0.03216921412132132
-1.1369814541680985   -0.030014711109577152   0.0505387563314384
-1.1369814541680985   -0.030014711109577152   0.0505387563314384
-1.1369814541680985   -0.030014711109577152   0.0505387563314384
-1.1369814541680985   -0.030014711109577152   0.0505387563314384
-0.8299174325263085   -0.03848042652602812   -0.021094580687368893
-0.8299174325263085   -0.03848042652602812   -0.021094580687368893
-0.8299174325263085   -0.03848042652602812   -0.021094580687368893
-0.8299174325263085   -0.03848042652602812   -0.021094580687368893
-0.9285517666673605   -0.008118827664753414   -0.0004297265256449634
-0.9285517666673605   -0.008118827664753414   -0.0004297265256449634
-0.9285517666673605   -0.008118827664753414   -0.0004297265256449634
-0.9285517666673605   -0.008118827664753414   -0.0004297265256449634
0.07976017069416531   0.006561952169621219   -0.05320535307915336
0.07976017069416531   0.006561952169621219   -0.05320535307915336
0.07976017069416531   0.006561952169621219   -0.05320535307915336
0.07976017069416531   0.006561952169621219   -0.05320535307915336
-0.08663335143988901   0.03989305692166607   0.027209255677292342
-0.08663335143988901   0.03989305692166607   0.027209255677292342
-0.08663335143988901   0.03989305692166607   0.027209255677292342
-0.08663335143988901   0.03989305692166607   0.027209255677292342
-0.12999314421758726   -0.051236647723948245   -0.04285121132390352
-0.12999314421758726   -0.051236647723948245   -0.04285121132390352
-0.12999314421758726   -0.051236647723948245   -0.04285121132390352
-0.12999314421758726   -0.051236647723948245   -0.04285121132390352
0.0731905577189765   0.05638238659041482   0.03340814056293728
0.0731905577189765   0.05638238659041482   0.03340814056293728
0.0731905577189765   0.05638238659041482   0.03340814056293728
0.0731905577189765   0.05638238659041482   0.03340814056293728
-0.017737961275361154   0.012373751931025117   0.004622215690793503
-0.017737961275361154   0.012373751931025117   0.004622215690793503
-0.017737961275361154   0.012373751931025117   0.004622215690793503
-0.017737961275361154   0.012373751931025117   0.004622215690793503
0.04216867481071057   -0.01774818260925408   -0.0475707047787227
0.04216867481071057   -0.01774818260925408   -0.0475707047787227
0.04216867481071057   -0.01774818260925408   -0.0475707047787227
0.04216867481071057   -0.01774818260925408   -0.0475707047787227
-0.1008041583846184   0.021061024400422415   0.030796045716570155
-0.1008041583846184   0.021061024400422415   0.030796045716570155
-0.1008041583846184   0.021061024400422415   0.030796045716570155
-0.1008041583846184   0.021061024400422415   0.030796045716570155
-0.1442817893212337   -0.06051923579787062   -0.03632591305482915
-0.1442817893212337   -0.06051923579787062   -0.03632591305482915
-0.1442817893212337   -0.06051923579787062   -0.03632591305482915
-0.1442817893212337   -0.06051923579787062   -0.03632591305482915
0.043777948000649436   0.04377559232385192   0.045822690885513155
0.043777948000649436   0.04377559232385192   0.045822690885513155
0.043777948000649436   0.04377559232385192   0.045822690885513155
0.043777948000649436   0.04377559232385192   0.045822690885513155
-0.04094099752319965   -0.0015340029797047423   -0.006099157276453755
-0.04094099752319965   -0.0015340029797047423   -0.006099157276453755
-0.04094099752319965   -0.0015340029797047423   -0.006099157276453755
-0.04094099752319965   -0.0015340029797047423   -0.006099157276453755
0.012038222988519828   -0.029841765912672538   -0.03925857593861049
0.012038222988519828   -0.029841765912672538   -0.03925857593861049
0.012038222988519828   -0.029841765912672538   -0.03925857593861049
0.012038222988519828   -0.029841765912672538   -0.03925857593861049
-0.11508590891146812   0.010554277836292664   0.03857997535983444
-0.11508590891146812   0.010554277836292664   0.03857997535983444
-0.11508590891146812   0.010554277836292664   0.03857997535983444
-0.11508590891146812   0.010554277836292664   0.03857997535983444
-0.15736877120096746   -0.07477749070076048   -0.030112316691997987
-0.15736877120096746   -0.07477749070076048   -0.030112316691997987
-0.15736877120096746   -0.07477749070076048   -0.030112316691997987
-0.15736877120096746   -0.07477749070076048   -0.030112316691997987
0.0029303588897510767   0.017356593601714893   0.05224485905299578
0.0029303588897510767   0.017356593601714893   0.05224485905299578
0.0029303588897510767   0.017356593601714893   0.05224485905299578
0.0029303588897510767   0.017356593601714893   0.05224485905299578
-0.06587838754657575   -0.015532786829886793   -0.01846531233542292
-0.06587838754657575   -0.015532786829886793   -0.01846531233542292
-0.06587838754657575   -0.015532786829886793   -0.01846531233542292
-0.06587838754657575   -0.015532786829886793   -0.01846531233542292
-0.09903134390647277   0.02626989331910893   -0.021157543053069244
-0.09903134390647277   0.02626989331910893   -0.021157543053069244
-0.09903134390647277   0.02626989331910893   -0.021157543053069244
-0.09903134390647277   0.02626989331910893   -0.021157543053069244
-0.2548168240537815   0.010721172736476686   0.007097841544605809
-0.2548168240537815   0.010721172736476686   0.007097841544605809
-0.2548168240537815   0.010721172736476686   0.007097841544605809
-0.2548168240537815   0.010721172736476686   0.007097841544605809
-0.27719023399259984   -0.029841540110939   -0.022287208120338152
-0.27719023399259984   -0.029841540110939   -0.022287208120338152
-0.27719023399259984   -0.029841540110939   -0.022287208120338152
-0.27719023399259984   -0.029841540110939   -0.022287208120338152
-0.10181941713757346   0.025489454332329353   0.021291322019888155
-0.10181941713757346   0.025489454332329353   0.021291322019888155
-0.10181941713757346   0.025489454332329353   0.021291322019888155
-0.10181941713757346   0.025489454332329353   0.021291322019888155
-0.1828417855325081   0.00763956118450574   0.004073474694469713
-0.1828417855325081   0.00763956118450574   0.004073474694469713
-0.1828417855325081   0.00763956118450574   0.004073474694469713
-0.1828417855325081   0.00763956118450574   0.004073474694469713
-0.1138927914865063   0.003798475779884153   -0.017384571172332518
-0.1138927914865063   0.003798475779884153   -0.017384571172332518
-0.1138927914865063   0.003798475779884153   -0.017384571172332518
-0.1138927914865063   0.003798475779884153   -0.017384571172332518
-0.26662227773134245   -0.009655979646166782   0.010367012721176473
-0.26662227773134245   -0.009655979646166782   0.010367012721176473
-0.26662227773134245   -0.009655979646166782   0.010367012721176473
-0.26662227773134245   -0.009655979646166782   0.010367012721176473
-0.28831528578417853   -0.0480682231536999   -0.016451047113026744
-0.28831528578417853   -0.0480682231536999   -0.016451047113026744
-0.28831528578417853   -0.0480682231536999   -0.016451047113026744
-0.28831528578417853   -0.0480682231536999   -0.016451047113026744
-0.11904199909519414   0.005347941319272506   0.024005860958225017
-0.11904199909519414   0.005347941319272506   0.024005860958225017
-0.11904199909519414   0.005347941319272506   0.024005860958225017
-0.11904199909519414   0.005347941319272506   0.024005860958225017
-0.19689546583944903   -0.010654132913042694   -0.005105752744246381
-0.19689546583944903   -0.010654132913042694   -0.005105752744246381
-0.19689546583944903   -0.010654132913042694   -0.005105752744246381
-0.19689546583944903   -0.010654132913042694   -0.005105752744246381
-0.13068029419130314   -0.01584879171094576   -0.012988881492102202
-0.13068029419130314   -0.01584879171094576   -0.012988881492102202
-0.13068029419130314   -0.01584879171094576   -0.012988881492102202
-0.13068029419130314   -0.01584879171094576   -0.012988881492102202
-0.2782931263378159   -0.028487625773232956   0.014079152738319481
-0.2782931263378159   -0.028487625773232956   0.014079152738319481
-0.2782931263378159   -0.028487625773232956   0.014079152738319481
-0.2782931263378159   -0.028487625773232956   0.014079152738319481
-0.29951367359492204   -0.0668243425677272   -0.011282917455204381
-0.29951367359492204   -0.0668243425677272   -0.011282917455204381
-0.29951367359492204   -0.0668243425677272   -0.011282917455204381
-0.29951367359492204   -0.0668243425677272   -0.011282917455204381
-0.1334459471298478   -0.015060665988383976   0.029784978951223184
-0.1334459471298478   -0.015060665988383976   0.029784978951223184
-0.1334459471298478   -0.015060665988383976   0.029784978951223184
-0.1334459471298478   -0.015060665988383976   0.029784978951223184
-0.21093257796558257   -0.028747553305814466   -0.014440903417568287
-0.21093257796558257   -0.028747553305814466   -0.014440903417568287
-0.21093257796558257   -0.028747553305814466   -0.014440903417568287
-0.21093257796558257   -0.028747553305814466   -0.014440903417568287
-0.25016004499048944   0.043346476579392994   -0.0022435669818498573
-0.25016004499048944   0.043346476579392994   -0.0022435669818498573
-0.25016004499048944   0.043346476579392994   -0.0022435669818498573
-0.25016004499048944   0.043346476579392994   -0.0022435669818498573
-0.4214695989295663   -0.014445861528030263   -0.011914295492664269
-0.4214695989295663   -0.014445861528030263   -0.011914295492664269
-0.4214695989295663   -0.014445861528030263   -0.011914295492664269
-0.4214695989295663   -0.014445861528030263   -0.011914295492664269
-0.4259020065789057   -0.01053410511198341   -0.0025219790384418683
-0.4259020065789057   -0.01053410511198341   -0.0025219790384418683
-0.4259020065789057   -0.01053410511198341   -0.0025219790384418683
-0.4259020065789057   -0.01053410511198341   -0.0025219790384418683
-0.2656155663546406   0.0024589428511511136   0.0032856471073689775
-0.2656155663546406   0.0024589428511511136   0.0032856471073689775
-0.2656155663546406   0.0024589428511511136   0.0032856471073689775
-0.2656155663546406   0.0024589428511511136   0.0032856471073689775
-0.34007410887634376   0.004873467189166716   0.0013923077503580072
-0.34007410887634376   0.004873467189166716   0.0013923077503580072
-0.34007410887634376   0.004873467189166716   0.0013923077503580072
-0.34007410887634376   0.004873467189166716   0.0013923077503580072
-0.26141155297203916   0.023517760659487637   0.003246896212038563
-0.26141155297203916   0.023517760659487637   0.003246896212038563
-0.26141155297203916   0.023517760659487637   0.003246896212038563
-0.26141155297203916   0.023517760659487637   0.003246896212038563
-0.43155436653549684   -0.03304126949430841   -0.008276614439072467
-0.43155436653549684   -0.03304126949430841   -0.008276614439072467
-0.43155436653549684   -0.03304126949430841   -0.008276614439072467
-0.43155436653549684   -0.03304126949430841   -0.008276614439072467
-0.43633369325204097   -0.030115118977954006   0.0029096153934738238
-0.43633369325204097   -0.030115118977954006   0.0029096153934738238
-0.43633369325204097   -0.030115118977954006   0.0029096153934738238
-0.43633369325204097   -0.030115118977954006   0.0029096153934738238
-0.2774131999953036   -0.016790721266641738   0.006781879944289155
-0.2774131999953036   -0.016790721266641738   0.006781879944289155
-0.2774131999953036   -0.016790721266641738   0.006781879944289155
-0.2774131999953036   -0.016790721266641738   0.006781879944289155
-0.3513821396546545   -0.012934855495602804   -0.0070379867754406834
-0.3513821396546545   -0.012934855495602804   -0.0070379867754406834
-0.3513821396546545   -0.012934855495602804   -0.0070379867754406834
-0.3513821396546545   -0.012934855495602804   -0.0070379867754406834
-0.2730809290422902   0.00357001122820632   0.008082502214508822
-0.2730809290422902   0.00357001122820632   0.008082502214508822
-0.2730809290422902   0.00357001122820632   0.008082502214508822
-0.2730809290422902   0.00357001122820632   0.008082502214508822
-0.44241208385264674   -0.05222197112039166   -0.005375485467117365
-0.44241208385264674   -0.05222197112039166   -0.005375485467117365
-0.44241208385264674   -0.05222197112039166   -0.005375485467117365
-0.44241208385264674   -0.05222197112039166   -0.005375485467117365
-0.4464932674790154   -0.04889815291010408   0.008118694873108803
-0.4464932674790154   -0.04889815291010408   0.008118694873108803
-0.4464932674790154   -0.04889815291010408   0.008118694873108803
-0.4464932674790154   -0.04889815291010408   0.008118694873108803
-0.28874307937359556   -0.0349508135017534   0.01069652458545936
-0.28874307937359556   -0.0349508135017534   0.01069652458545936
-0.28874307937359556   -0.0349508135017534   0.01069652458545936
-0.28874307937359556   -0.0349508135017534   0.01069652458545936
-0.36355048552897307   -0.030853614008339143   -0.016198423018519252
-0.36355048552897307   -0.030853614008339143   -0.016198423018519252
-0.36355048552897307   -0.030853614008339143   -0.016198423018519252
-0.36355048552897307   -0.030853614008339143   -0.016198423018519252
-0.4001893137562197   0.06276157358128881   0.017279695264749793
-0.4001893137562197   0.06276157358128881   0.017279695264749793
-0.4001893137562197   0.06276157358128881   0.017279695264749793
-0.4001893137562197   0.06276157358128881   0.017279695264749793
-0.5815525003549262   -0.024031599506840376   -0.026725952205709048
-0.5815525003549262   -0.024031599506840376   -0.026725952205709048
-0.5815525003549262   -0.024031599506840376   -0.026725952205709048
-0.5815525003549262   -0.024031599506840376   -0.026725952205709048
-0.5737528297381354   0.009330864060665411   0.017875152959636535
-0.5737528297381354   0.009330864060665411   0.017875152959636535
-0.5737528297381354   0.009330864060665411   0.017875152959636535
-0.5737528297381354   0.009330864060665411   0.017875152959636535
-0.4273550551891888   -0.008432593969051203   -0.01188873323279277
-0.4273550551891888   -0.008432593969051203   -0.01188873323279277
-0.4273550551891888   -0.008432593969051203   -0.01188873323279277
-0.4273550551891888   -0.008432593969051203   -0.01188873323279277
-0.49399538796466846   0.009976214051017854   0.0023821920803632733
-0.49399538796466846   0.009976214051017854   0.0023821920803632733
-0.49399538796466846   0.009976214051017854   0.0023821920803632733
-0.49399538796466846   0.009976214051017854   0.0023821920803632733
-0.41012705048317943   0.0430372738211407   0.02278142250706526
-0.41012705048317943   0.0430372738211407   0.02278142250706526
-0.41012705048317943   0.0430372738211407   0.02278142250706526
-0.41012705048317943   0.0430372738211407   0.02278142250706526
-0.5930958962787798   -0.04425406556416245   -0.025255250118758038
-0.5930958962787798   -0.04425406556416245   -0.025255250118758038
-0.5930958962787798   -0.04425406556416245   -0.025255250118758038
-0.5930958962787798   -0.04425406556416245   -0.025255250118758038
-0.5877333333032618   -0.009939765537661405   0.02111491105981745
-0.5877333333032618   -0.009939765537661405   0.02111491105981745
-0.5877333333032618   -0.009939765537661405   0.02111491105981745
-0.5877333333032618   -0.009939765537661405   0.02111491105981745
-0.43769647573845794   -0.025935528029800883   -0.008083887986763363
-0.43769647573845794   -0.025935528029800883   -0.008083887986763363
-0.43769647573845794   -0.025935528029800883   -0.008083887986763363
-0.43769647573845794   -0.025935528029800883   -0.008083887986763363
-0.5034917087877537   -0.007184267487376633   -0.006756279694273847
-0.5034917087877537   -0.007184267487376633   -0.006756279694273847
-0.5034917087877537   -0.007184267487376633   -0.006756279694273847
-0.5034917087877537   -0.007184267487376633   -0.006756279694273847
-0.42027485341072773   0.024955572794415487   0.028133122827670182
-0.42027485341072773   0.024955572794415487   0.028133122827670182
-0.42027485341072773   0.024955572794415487   0.028133122827670182
-0.42027485341072773   0.024955572794415487   0.028133122827670182
-0.6068251414809717   -0.06250105221186443   -0.0217828431545366
-0.6068251414809717   -0.06250105221186443   -0.0217828431545366
-0.6068251414809717   -0.06250105221186443   -0.0217828431545366
-0.6068251414809717   -0.06250105221186443   -0.0217828431545366
-0.5990980984240665   -0.029350993409848425   0.026895172756315838
-0.5990980984240665   -0.029350993409848425   0.026895172756315838
-0.5990980984240665   -0.029350993409848425   0.026895172756315838
-0.5990980984240665   -0.029350993409848425   0.026895172756315838
-0.4480758978306359   -0.043857296463717894   -0.004835313331380481
-0.4480758978306359   -0.043857296463717894   -0.004835313331380481
-0.4480758978306359   -0.043857296463717894   -0.004835313331380481
-0.4480758978306359   -0.043857296463717894   -0.004835313331380481
-0.5177869989537012   -0.024687412165660366   -0.016122301193083458
-0.5177869989537012   -0.024687412165660366   -0.016122301193083458
-0.5177869989537012   -0.024687412165660366   -0.016122301193083458
-0.5177869989537012   -0.024687412165660366   -0.016122301193083458
-0.5509635645705159   0.06801691169039567   0.03417021551910631
-0.5509635645705159   0.06801691169039567   0.03417021551910631
-0.5509635645705159   0.06801691169039567   0.03417021551910631
-0.5509635645705159   0.06801691169039567   0.03417021551910631
-0.7091482628140996   -0.03547327791977817   -0.04470034721439544
-0.7091482628140996   -0.03547327791977817   -0.04470034721439544
-0.7091482628140996   -0.03547327791977817   -0.04470034721439544
-0.7091482628140996   -0.03547327791977817   -0.04470034721439544
-0.7097067825814698   0.027305112082599725   0.037667771895267134
-0.7097067825814698   0.027305112082599725   0.037667771895267134
-0.7097067825814698   0.027305112082599725   0.037667771895267134
-0.7097067825814698   0.027305112082599725   0.037667771895267134
-0.5886682085133713   -0.02002341909987232   -0.027347457756004646
-0.5886682085133713   -0.02002341909987232   -0.027347457756004646
-0.5886682085133713   -0.02002341909987232   -0.027347457756004646
-0.5886682085133713   -0.02002341909987232   -0.027347457756004646
-0.6137422268397298   0.01613748405288748   0.011873367882209399
-0.6137422268397298   0.01613748405288748   0.011873367882209399
-0.6137422268397298   0.01613748405288748   0.011873367882209399
-0.6137422268397298   0.01613748405288748   0.011873367882209399
-0.5595593576447058   0.05786309849032452   0.04031027899712565
-0.5595593576447058   0.05786309849032452   0.04031027899712565
-0.5595593576447058   0.05786309849032452   0.04031027899712565
-0.5595593576447058   0.05786309849032452   0.04031027899712565
-0.7410126541114133   -0.05277842616887493   -0.038778047502975824
-0.7410126541114133   -0.05277842616887493   -0.038778047502975824
-0.7410126541114133   -0.05277842616887493   -0.038778047502975824
-0.7410126541114133   -0.05277842616887493   -0.038778047502975824
-0.7351351734583758   0.016326973540513073   0.04853383298730928
-0.7351351734583758   0.016326973540513073   0.04853383298730928
-0.7351351734583758   0.016326973540513073   0.04853383298730928
-0.7351351734583758   0.016326973540513073   0.04853383298730928
-0.6007769327111449   -0.030085172687390416   -0.02395767882987669
-0.6007769327111449   -0.030085172687390416   -0.02395767882987669
-0.6007769327111449   -0.030085172687390416   -0.02395767882987669
-0.6007769327111449   -0.030085172687390416   -0.02395767882987669
-0.6440116207769699   0.0027893413328765326   -0.0008047766395416905
-0.6440116207769699   0.0027893413328765326   -0.0008047766395416905
-0.6440116207769699   0.0027893413328765326   -0.0008047766395416905
-0.6440116207769699   0.0027893413328765326   -0.0008047766395416905
-0.5704558935758173   0.04922377645953033   0.04833856769984104
-0.5704558935758173   0.04922377645953033   0.04833856769984104
-0.5704558935758173   0.04922377645953033   0.04833856769984104
-0.5704558935758173   0.04922377645953033   0.04833856769984104
-0.7676951136927952   -0.06522087670549238   -0.03271801793876672
-0.7676951136927952   -0.06522087670549238   -0.03271801793876672
-0.7676951136927952   -0.06522087670549238   -0.03271801793876672
-0.7676951136927952   -0.06522087670549238   -0.03271801793876672
-0.7727132381106652   -0.012556964029225376   0.051318537381001506
-0.7727132381106652   -0.012556964029225376   0.051318537381001506
-0.7727132381106652   -0.012556964029225376   0.051318537381001506
-0.7727132381106652   -0.012556964029225376   0.051318537381001506
-0.6129352628678453   -0.05094748823575054   -0.020694154636688535
-0.6129352628678453   -0.05094748823575054   -0.020694154636688535
-0.6129352628678453   -0.05094748823575054   -0.020694154636688535
-0.6129352628678453   -0.05094748823575054   -0.020694154636688535
-0.6556321913187243   -0.01043499621682456   -0.009803780236194486
-0.6556321913187243   -0.01043499621682456   -0.009803780236194486
-0.6556321913187243   -0.01043499621682456   -0.009803780236194486
-0.6556321913187243   -0.01043499621682456   -0.009803780236194486
-0.30040339346746087   -0.019604404185204573   -0.05650800782947407
-0.30040339346746087   -0.019604404185204573   -0.05650800782947407
-0.30040339346746087   -0.019604404185204573   -0.05650800782947407
-0.30040339346746087   -0.019604404185204573   -0.05650800782947407
-0.297507891698028   0.04326493951367241   0.02541807974333653
-0.297507891698028   0.04326493951367241   0.02541807974333653
-0.297507891698028   0.04326493951367241   0.02541807974333653
-0.297507891698028   0.04326493951367241   0.02541807974333653
-0.33479182897341425   -0.03955825948270829   -0.03831270311028752
-0.33479182897341425   -0.03955825948270829   -0.03831270311028752
-0.33479182897341425   -0.03955825948270829   -0.03831270311028752
-0.33479182897341425   -0.03955825948270829   -0.03831270311028752
-0.306629840034897   0.022650419484542397   0.03818597012202507
-0.306629840034897   0.022650419484542397   0.03818597012202507
-0.306629840034897   0.022650419484542397   0.03818597012202507
-0.306629840034897   0.022650419484542397   0.03818597012202507
-0.2942795172480588   0.0072990633789030285   0.025932088999340873
-0.2942795172480588   0.0072990633789030285   0.025932088999340873
-0.2942795172480588   0.0072990633789030285   0.025932088999340873
-0.2942795172480588   0.0072990633789030285   0.025932088999340873
-0.33661495613061093   -0.041731818722074314   -0.0473573721499241
-0.33661495613061093   -0.041731818722074314   -0.0473573721499241
-0.33661495613061093   -0.041731818722074314   -0.0473573721499241
-0.33661495613061093   -0.041731818722074314   -0.0473573721499241
-0.3085294815538777   0.021101210047732175   0.03233956445695463
-0.3085294815538777   0.021101210047732175   0.03233956445695463
-0.3085294815538777   0.021101210047732175   0.03233956445695463
-0.3085294815538777   0.021101210047732175   0.03233956445695463
-0.34601906426891826   -0.049833517057540744   -0.03242584375188243
-0.34601906426891826   -0.049833517057540744   -0.03242584375188243
-0.34601906426891826   -0.049833517057540744   -0.03242584375188243
-0.34601906426891826   -0.049833517057540744   -0.03242584375188243
-0.33555262506689687   0.008664150229546357   0.07099634217159352
-0.33555262506689687   0.008664150229546357   0.07099634217159352
-0.33555262506689687   0.008664150229546357   0.07099634217159352
-0.33555262506689687   0.008664150229546357   0.07099634217159352
-0.3209345748852428   -0.01035312975863923   0.010369655227277612
-0.3209345748852428   -0.01035312975863923   0.010369655227277612
-0.3209345748852428   -0.01035312975863923   0.010369655227277612
-0.3209345748852428   -0.01035312975863923   0.010369655227277612
-0.3699711003019918   -0.05552094355720006   -0.03691094021713579
-0.3699711003019918   -0.05552094355720006   -0.03691094021713579
-0.3699711003019918   -0.05552094355720006   -0.03691094021713579
-0.3699711003019918   -0.05552094355720006   -0.03691094021713579
-0.3204146306626613   0.005537535100372623   0.04022527212148927
-0.3204146306626613   0.005537535100372623   0.04022527212148927
-0.3204146306626613   0.005537535100372623   0.04022527212148927
-0.3204146306626613   0.005537535100372623   0.04022527212148927
-0.35521214550920155   -0.06982510895216153   -0.02552114931740296
-0.35521214550920155   -0.06982510895216153   -0.02552114931740296
-0.35521214550920155   -0.06982510895216153   -0.02552114931740296
-0.35521214550920155   -0.06982510895216153   -0.02552114931740296
-0.38050651827218424   -0.03755566739739766   0.06644023767554158
-0.38050651827218424   -0.03755566739739766   0.06644023767554158
-0.38050651827218424   -0.03755566739739766   0.06644023767554158
-0.38050651827218424   -0.03755566739739766   0.06644023767554158
-0.34404335496892746   -0.031219892484253615   -0.014290728266494026
-0.34404335496892746   -0.031219892484253615   -0.014290728266494026
-0.34404335496892746   -0.031219892484253615   -0.014290728266494026
-0.34404335496892746   -0.031219892484253615   -0.014290728266494026
-0.31893213843846535   -0.009340917782018246   -0.02909729666315974
-0.31893213843846535   -0.009340917782018246   -0.02909729666315974
-0.31893213843846535   -0.009340917782018246   -0.02909729666315974
-0.31893213843846535   -0.009340917782018246   -0.02909729666315974
-0.32339227164126955   -0.0397387312161101   -0.0016936147150525905
-0.32339227164126955   -0.0397387312161101   -0.0016936147150525905
-0.32339227164126955   -0.0397387312161101   -0.0016936147150525905
-0.32339227164126955   -0.0397387312161101   -0.0016936147150525905
-0.32575053635747214   -0.02646006355032659   -0.01452514817349289
-0.32575053635747214   -0.02646006355032659   -0.01452514817349289
-0.32575053635747214   -0.02646006355032659   -0.01452514817349289
-0.32575053635747214   -0.02646006355032659   -0.01452514817349289
-0.3301310651233055   -0.0540063337483318   -0.0005608095941198126
-0.3301310651233055   -0.0540063337483318   -0.0005608095941198126
-0.3301310651233055   -0.0540063337483318   -0.0005608095941198126
-0.3301310651233055   -0.0540063337483318   -0.0005608095941198126
-0.3217927671609415   -0.03379312744725589   -0.0011442692056268054
-0.3217927671609415   -0.03379312744725589   -0.0011442692056268054
-0.3217927671609415   -0.03379312744725589   -0.0011442692056268054
-0.3217927671609415   -0.03379312744725589   -0.0011442692056268054
-0.3301474444305503   -0.02947018625497854   -0.025178853623696262
-0.3301474444305503   -0.02947018625497854   -0.025178853623696262
-0.3301474444305503   -0.02947018625497854   -0.025178853623696262
-0.3301474444305503   -0.02947018625497854   -0.025178853623696262
-0.327810475788261   -0.05307252978170976   0.0017876209039459784
-0.327810475788261   -0.05307252978170976   0.0017876209039459784
-0.327810475788261   -0.05307252978170976   0.0017876209039459784
-0.327810475788261   -0.05307252978170976   0.0017876209039459784
-0.3312168125178728   -0.04376284710238279   -0.009373267727372764
-0.3312168125178728   -0.04376284710238279   -0.009373267727372764
-0.3312168125178728   -0.04376284710238279   -0.009373267727372764
-0.3312168125178728   -0.04376284710238279   -0.009373267727372764
-0.3421017613296478   -0.07006476050443722   0.007391914391366732
-0.3421017613296478   -0.07006476050443722   0.007391914391366732
-0.3421017613296478   -0.07006476050443722   0.007391914391366732
-0.3421017613296478   -0.07006476050443722   0.007391914391366732
-0.3291943657717168   -0.047771744064660004   -0.00915768597972532
-0.3291943657717168   -0.047771744064660004   -0.00915768597972532
-0.3291943657717168   -0.047771744064660004   -0.00915768597972532
-0.3291943657717168   -0.047771744064660004   -0.00915768597972532
-0.34289647164072234   -0.04796117076264042   -0.01868522690580302
-0.34289647164072234   -0.04796117076264042   -0.01868522690580302
-0.34289647164072234   -0.04796117076264042   -0.01868522690580302
-0.34289647164072234   -0.04796117076264042   -0.01868522690580302
-0.33307741854157596   -0.06852175317896003   0.006082608230680835
-0.33307741854157596   -0.06852175317896003   0.006082608230680835
-0.33307741854157596   -0.06852175317896003   0.006082608230680835
-0.33307741854157596   -0.06852175317896003   0.006082608230680835
-0.3361243848132704   -0.06240756674555411   -0.00427108715123557
-0.3361243848132704   -0.06240756674555411   -0.00427108715123557
-0.3361243848132704   -0.06240756674555411   -0.00427108715123557
-0.3361243848132704   -0.06240756674555411   -0.00427108715123557
-0.3512628758640441   -0.09045668842076612   0.01485677837698496
-0.3512628758640441   -0.09045668842076612   0.01485677837698496
-0.3512628758640441   -0.09045668842076612   0.01485677837698496
-0.3512628758640441   -0.09045668842076612   0.01485677837698496
-0.33937291486401994   -0.06465626092372374   -0.019349868572600796
-0.33937291486401994   -0.06465626092372374   -0.019349868572600796
-0.33937291486401994   -0.06465626092372374   -0.019349868572600796
-0.33937291486401994   -0.06465626092372374   -0.019349868572600796
-0.3145209224043514   0.00825967743852915   -0.005335277185097492
-0.3145209224043514   0.00825967743852915   -0.005335277185097492
-0.3145209224043514   0.00825967743852915   -0.005335277185097492
-0.3145209224043514   0.00825967743852915   -0.005335277185097492
-0.3559626298129788   -0.06758056205302133   -0.017064273804487207
-0.3559626298129788   -0.06758056205302133   -0.017064273804487207
-0.3559626298129788   -0.06758056205302133   -0.017064273804487207
-0.3559626298129788   -0.06758056205302133   -0.017064273804487207
-0.3414323657181548   -0.012463626824979854   0.004489598090228289
-0.3414323657181548   -0.012463626824979854   0.004489598090228289
-0.3414323657181548   -0.012463626824979854   0.004489598090228289
-0.3414323657181548   -0.012463626824979854   0.004489598090228289
-0.3342688904783203   -0.07304649174068191   -0.010530490587377048
-0.3342688904783203   -0.07304649174068191   -0.010530490587377048
-0.3342688904783203   -0.07304649174068191   -0.010530490587377048
-0.3342688904783203   -0.07304649174068191   -0.010530490587377048
-0.3363109468328356   -0.037354621685779146   -0.007610516770980735
-0.3363109468328356   -0.037354621685779146   -0.007610516770980735
-0.3363109468328356   -0.037354621685779146   -0.007610516770980735
-0.3363109468328356   -0.037354621685779146   -0.007610516770980735
-0.31935177365376355   -0.008953089726001617   -3.8308479274704044e-05
-0.31935177365376355   -0.008953089726001617   -3.8308479274704044e-05
-0.31935177365376355   -0.008953089726001617   -3.8308479274704044e-05
-0.31935177365376355   -0.008953089726001617   -3.8308479274704044e-05
-0.35823468334467345   -0.07844222964162176   -0.013543387225723168
-0.35823468334467345   -0.07844222964162176   -0.013543387225723168
-0.35823468334467345   -0.07844222964162176   -0.013543387225723168
-0.35823468334467345   -0.07844222964162176   -0.013543387225723168
-0.34536191082878565   -0.02981543052288506   0.009607044496554546
-0.34536191082878565   -0.02981543052288506   0.009607044496554546
-0.34536191082878565   -0.02981543052288506   0.009607044496554546
-0.34536191082878565   -0.02981543052288506   0.009607044496554546
-0.3393852347331374   -0.08672116748116457   -0.007257058424920306
-0.3393852347331374   -0.08672116748116457   -0.007257058424920306
-0.3393852347331374   -0.08672116748116457   -0.007257058424920306
-0.3393852347331374   -0.08672116748116457   -0.007257058424920306
-0.34048413652374426   -0.050572057841263854   -0.014482003383791433
-0.34048413652374426   -0.050572057841263854   -0.014482003383791433
-0.34048413652374426   -0.050572057841263854   -0.014482003383791433
-0.34048413652374426   -0.050572057841263854   -0.014482003383791433
-0.3248854200843305   -0.02661447650476237   0.005135323842710766
-0.3248854200843305   -0.02661447650476237   0.005135323842710766
-0.3248854200843305   -0.02661447650476237   0.005135323842710766
-0.3248854200843305   -0.02661447650476237   0.005135323842710766
-0.3619676348293082   -0.09202803085100278   -0.011208975177940488
-0.3619676348293082   -0.09202803085100278   -0.011208975177940488
-0.3619676348293082   -0.09202803085100278   -0.011208975177940488
-0.3619676348293082   -0.09202803085100278   -0.011208975177940488
-0.34856206968830006   -0.04613138975397927   0.014612633639034566
-0.34856206968830006   -0.04613138975397927   0.014612633639034566
-0.34856206968830006   -0.04613138975397927   0.014612633639034566
-0.34856206968830006   -0.04613138975397927   0.014612633639034566
-0.34319733312676876   -0.09983864284476276   -0.0022047526195183454
-0.34319733312676876   -0.09983864284476276   -0.0022047526195183454
-0.34319733312676876   -0.09983864284476276   -0.0022047526195183454
-0.34319733312676876   -0.09983864284476276   -0.0022047526195183454
-0.34545703211095374   -0.06439518953443527   -0.022031845672956678
-0.34545703211095374   -0.06439518953443527   -0.022031845672956678
-0.34545703211095374   -0.06439518953443527   -0.022031845672956678
-0.34545703211095374   -0.06439518953443527   -0.022031845672956678
-0.3286782674893798   0.03520319388292284   0.01657378187756385
-0.3286782674893798   0.03520319388292284   0.01657378187756385
-0.3286782674893798   0.03520319388292284   0.01657378187756385
-0.3286782674893798   0.03520319388292284   0.01657378187756385
-0.3885837319368674   -0.05042723533971655   -0.02378438952423214
-0.3885837319368674   -0.05042723533971655   -0.02378438952423214
-0.3885837319368674   -0.05042723533971655   -0.02378438952423214
-0.3885837319368674   -0.05042723533971655   -0.02378438952423214
-0.3676399313896574   0.010479951807454368   0.022958871850203625
-0.3676399313896574   0.010479951807454368   0.022958871850203625
-0.3676399313896574   0.010479951807454368   0.022958871850203625
-0.3676399313896574   0.010479951807454368   0.022958871850203625
-0.3539711874097532   -0.056265220232923005   -0.014402916959822543
-0.3539711874097532   -0.056265220232923005   -0.014402916959822543
-0.3539711874097532   -0.056265220232923005   -0.014402916959822543
-0.3539711874097532   -0.056265220232923005   -0.014402916959822543
-0.3596857944242221   -0.014874542037352223   -0.004545136625463207
-0.3596857944242221   -0.014874542037352223   -0.004545136625463207
-0.3596857944242221   -0.014874542037352223   -0.004545136625463207
-0.3596857944242221   -0.014874542037352223   -0.004545136625463207
-0.33202543427849485   0.017352668793631912   0.021707959669915813
-0.33202543427849485   0.017352668793631912   0.021707959669915813
-0.33202543427849485   0.017352668793631912   0.021707959669915813
-0.33202543427849485   0.017352668793631912   0.021707959669915813
-0.392089146856746   -0.0656413995549284   -0.023165854122856655
-0.392089146856746   -0.0656413995549284   -0.023165854122856655
-0.392089146856746   -0.0656413995549284   -0.023165854122856655
-0.392089146856746   -0.0656413995549284   -0.023165854122856655
-0.37445059712106243   -0.0064631772331787685   0.02603198737898231
-0.37445059712106243   -0.0064631772331787685   0.02603198737898231
-0.37445059712106243   -0.0064631772331787685   0.02603198737898231
-0.37445059712106243   -0.0064631772331787685   0.02603198737898231
-0.35739197180091775   -0.06889357658195565   -0.011465114305038871
-0.35739197180091775   -0.06889357658195565   -0.011465114305038871
-0.35739197180091775   -0.06889357658195565   -0.011465114305038871
-0.35739197180091775   -0.06889357658195565   -0.011465114305038871
-0.3631223825338836   -0.029201586881388936   -0.012604095420698
-0.3631223825338836   -0.029201586881388936   -0.012604095420698
-0.3631223825338836   -0.029201586881388936   -0.012604095420698
-0.3631223825338836   -0.029201586881388936   -0.012604095420698
-0.3356969622920411   0.0014203529902583056   0.026696003667133712
-0.3356969622920411   0.0014203529902583056   0.026696003667133712
-0.3356969622920411   0.0014203529902583056   0.026696003667133712
-0.3356969622920411   0.0014203529902583056   0.026696003667133712
-0.3983149529733196   -0.07894645314877059   -0.02080651596671171
-0.3983149529733196   -0.07894645314877059   -0.02080651596671171
-0.3983149529733196   -0.07894645314877059   -0.02080651596671171
-0.3983149529733196   -0.07894645314877059   -0.02080651596671171
-0.378957213314796   -0.02271698573964529   0.0317475557731426
-0.378957213314796   -0.02271698573964529   0.0317475557731426
-0.378957213314796   -0.02271698573964529   0.0317475557731426
-0.378957213314796   -0.02271698573964529   0.0317475557731426
-0.36033254078263904   -0.08157896782353162   -0.008792143763112551
-0.36033254078263904   -0.08157896782353162   -0.008792143763112551
-0.36033254078263904   -0.08157896782353162   -0.008792143763112551
-0.36033254078263904   -0.08157896782353162   -0.008792143763112551
-0.36913806855425846   -0.04270730502557314   -0.020413199671694526
-0.36913806855425846   -0.04270730502557314   -0.020413199671694526
-0.36913806855425846   -0.04270730502557314   -0.020413199671694526
-0.36913806855425846   -0.04270730502557314   -0.020413199671694526
-0.3570217544454853   0.05050978809617887   0.033088474496782996
-0.3570217544454853   0.05050978809617887   0.033088474496782996
-0.3570217544454853   0.05050978809617887   0.033088474496782996
-0.3570217544454853   0.05050978809617887   0.033088474496782996
-0.3817211811853091   -0.030462707427743263   -0.03446246141676357
-0.3817211811853091   -0.030462707427743263   -0.03446246141676357
-0.3817211811853091   -0.030462707427743263   -0.03446246141676357
-0.3817211811853091   -0.030462707427743263   -0.03446246141676357
-0.3731605986182674   0.035902044450092235   0.036772250098744894
-0.3731605986182674   0.035902044450092235   0.036772250098744894
-0.3731605986182674   0.035902044450092235   0.036772250098744894
-0.3731605986182674   0.035902044450092235   0.036772250098744894
-0.38635327351435833   -0.03906253016171856   -0.021065356804130686
-0.38635327351435833   -0.03906253016171856   -0.021065356804130686
-0.38635327351435833   -0.03906253016171856   -0.021065356804130686
-0.38635327351435833   -0.03906253016171856   -0.021065356804130686
-0.3618222350883383   0.00901795811223742   0.0014160864864568058
-0.3618222350883383   0.00901795811223742   0.0014160864864568058
-0.3618222350883383   0.00901795811223742   0.0014160864864568058
-0.3618222350883383   0.00901795811223742   0.0014160864864568058
-0.3588656466891451   0.039057195206842005   0.03825305195336973
-0.3588656466891451   0.039057195206842005   0.03825305195336973
-0.3588656466891451   0.039057195206842005   0.03825305195336973
-0.3588656466891451   0.039057195206842005   0.03825305195336973
-0.40268834524928865   -0.04425780072427433   -0.030706637881979207
-0.40268834524928865   -0.04425780072427433   -0.030706637881979207
-0.40268834524928865   -0.04425780072427433   -0.030706637881979207
-0.40268834524928865   -0.04425780072427433   -0.030706637881979207
-0.3895953467729935   0.02641135427699784   0.04734337005388266
-0.3895953467729935   0.02641135427699784   0.04734337005388266
-0.3895953467729935   0.02641135427699784   0.04734337005388266
-0.3895953467729935   0.02641135427699784   0.04734337005388266
-0.39150746068666953   -0.046495225586983394   -0.019220282095252575
-0.39150746068666953   -0.046495225586983394   -0.019220282095252575
-0.39150746068666953   -0.046495225586983394   -0.019220282095252575
-0.39150746068666953   -0.046495225586983394   -0.019220282095252575
-0.3795261905526273   -0.0024809228054982063   -0.008096696440398683
-0.3795261905526273   -0.0024809228054982063   -0.008096696440398683
-0.3795261905526273   -0.0024809228054982063   -0.008096696440398683
-0.3795261905526273   -0.0024809228054982063   -0.008096696440398683
-0.36292035872112116   0.03143473192141301   0.045785270224089195
-0.36292035872112116   0.03143473192141301   0.045785270224089195
-0.36292035872112116   0.03143473192141301   0.045785270224089195
-0.36292035872112116   0.03143473192141301   0.045785270224089195
-0.4208401300533493   -0.054176284546207126   -0.028292907524691418
-0.4208401300533493   -0.054176284546207126   -0.028292907524691418
-0.4208401300533493   -0.054176284546207126   -0.028292907524691418
-0.4208401300533493   -0.054176284546207126   -0.028292907524691418
-0.41857375019470155   0.0021809700485414807   0.05058662411165843
-0.41857375019470155   0.0021809700485414807   0.05058662411165843
-0.41857375019470155   0.0021809700485414807   0.05058662411165843
-0.41857375019470155   0.0021809700485414807   0.05058662411165843
-0.39621083497079823   -0.06053428042505293   -0.01670325782146399
-0.39621083497079823   -0.06053428042505293   -0.01670325782146399
-0.39621083497079823   -0.06053428042505293   -0.01670325782146399
-0.39621083497079823   -0.06053428042505293   -0.01670325782146399
-0.3879207953317988   -0.01306261626453356   -0.01667578245469479
-0.3879207953317988   -0.01306261626453356   -0.01667578245469479
-0.3879207953317988   -0.01306261626453356   -0.01667578245469479
-0.3879207953317988   -0.01306261626453356   -0.01667578245469479
-0.7662131615252639   -0.07001238126565927   -0.07226325432608868
-0.7662131615252639   -0.07001238126565927   -0.07226325432608868
-0.7662131615252639   -0.07001238126565927   -0.07226325432608868
-0.7662131615252639   -0.07001238126565927   -0.07226325432608868
-0.4859778573644748   0.04151896385352634   0.017038065424142424
-0.4859778573644748   0.04151896385352634   0.017038065424142424
-0.4859778573644748   0.04151896385352634   0.017038065424142424
-0.4859778573644748   0.04151896385352634   0.017038065424142424
-0.5103026438602695   -0.032166778149277445   -0.032227214221701675
-0.5103026438602695   -0.032166778149277445   -0.032227214221701675
-0.5103026438602695   -0.032166778149277445   -0.032227214221701675
-0.5103026438602695   -0.032166778149277445   -0.032227214221701675
-0.814559754961168   -0.09169022084092791   0.08100758087002935
-0.814559754961168   -0.09169022084092791   0.08100758087002935
-0.814559754961168   -0.09169022084092791   0.08100758087002935
-0.814559754961168   -0.09169022084092791   0.08100758087002935
-0.5922897884919733   -0.022519292443366007   0.07854975432040995
-0.5922897884919733   -0.022519292443366007   0.07854975432040995
-0.5922897884919733   -0.022519292443366007   0.07854975432040995
-0.5922897884919733   -0.022519292443366007   0.07854975432040995
-0.8436054659060498   -0.10297011554429512   -0.05294107915100525
-0.8436054659060498   -0.10297011554429512   -0.05294107915100525
-0.8436054659060498   -0.10297011554429512   -0.05294107915100525
-0.8436054659060498   -0.10297011554429512   -0.05294107915100525
-0.5016829370957291   -0.04131288762625199   0.020017429077970095
-0.5016829370957291   -0.04131288762625199   0.020017429077970095
-0.5016829370957291   -0.04131288762625199   0.020017429077970095
-0.5016829370957291   -0.04131288762625199   0.020017429077970095
-0.5180991791862867   -0.04667015879632093   -0.02312864883833771
-0.5180991791862867   -0.04667015879632093   -0.02312864883833771
-0.5180991791862867   -0.04667015879632093   -0.02312864883833771
-0.5180991791862867   -0.04667015879632093   -0.02312864883833771
-0.8404400624562572   -0.1281285686995699   0.002023819966870748
-0.8404400624562572   -0.1281285686995699   0.002023819966870748
-0.8404400624562572   -0.1281285686995699   0.002023819966870748
-0.8404400624562572   -0.1281285686995699   0.002023819966870748
-0.655702488560016   -0.07731383051256654   0.018141499168348063
-0.655702488560016   -0.07731383051256654   0.018141499168348063
-0.655702488560016   -0.07731383051256654   0.018141499168348063
-0.655702488560016   -0.07731383051256654   0.018141499168348063
-0.8470134358946702   -0.11635133629606657   -0.042620279628689195
-0.8470134358946702   -0.11635133629606657   -0.042620279628689195
-0.8470134358946702   -0.11635133629606657   -0.042620279628689195
-0.8470134358946702   -0.11635133629606657   -0.042620279628689195
-0.5177168566140573   -0.06463844206600601   -0.0032487527075097354
-0.5177168566140573   -0.06463844206600601   -0.0032487527075097354
-0.5177168566140573   -0.06463844206600601   -0.0032487527075097354
-0.5177168566140573   -0.06463844206600601   -0.0032487527075097354
-0.5184159823453741   -0.0817938633272599   -0.01684127790057969
-0.5184159823453741   -0.0817938633272599   -0.01684127790057969
-0.5184159823453741   -0.0817938633272599   -0.01684127790057969
-0.5184159823453741   -0.0817938633272599   -0.01684127790057969
-0.8604960446106701   -0.1956948163816256   0.012877523189301288
-0.8604960446106701   -0.1956948163816256   0.012877523189301288
-0.8604960446106701   -0.1956948163816256   0.012877523189301288
-0.8604960446106701   -0.1956948163816256   0.012877523189301288
-0.6549567839273044   -0.10628639520350891   0.0013522355975723625
-0.6549567839273044   -0.10628639520350891   0.0013522355975723625
-0.6549567839273044   -0.10628639520350891   0.0013522355975723625
-0.6549567839273044   -0.10628639520350891   0.0013522355975723625
-0.5247810935124103   -0.08897466911644142   -0.04648448234556257
-0.5247810935124103   -0.08897466911644142   -0.04648448234556257
-0.5247810935124103   -0.08897466911644142   -0.04648448234556257
-0.5247810935124103   -0.08897466911644142   -0.04648448234556257
-0.36052278238039287   -0.2329673055195719   -0.0436790331965755
-0.36052278238039287   -0.2329673055195719   -0.0436790331965755
-0.36052278238039287   -0.2329673055195719   -0.0436790331965755
-0.36052278238039287   -0.2329673055195719   -0.0436790331965755
-0.3166696593733351   -0.05175224987829426   -0.00275179599390241
-0.3166696593733351   -0.05175224987829426   -0.00275179599390241
-0.3166696593733351   -0.05175224987829426   -0.00275179599390241
-0.3166696593733351   -0.05175224987829426   -0.00275179599390241
-0.5578591755608506   -0.2471122165733769   -0.05506443430051341
-0.5578591755608506   -0.2471122165733769   -0.05506443430051341
-0.5578591755608506   -0.2471122165733769   -0.05506443430051341
-0.5578591755608506   -0.2471122165733769   -0.05506443430051341
-0.4348524470316792   -0.16472431590792194   -0.012674793826019316
-0.4348524470316792   -0.16472431590792194   -0.012674793826019316
-0.4348524470316792   -0.16472431590792194   -0.012674793826019316
-0.4348524470316792   -0.16472431590792194   -0.012674793826019316
-0.5243717004419323   -0.09974179495757816   -0.0349974803217182
-0.5243717004419323   -0.09974179495757816   -0.0349974803217182
-0.5243717004419323   -0.09974179495757816   -0.0349974803217182
-0.5243717004419323   -0.09974179495757816   -0.0349974803217182
-0.35228325507754077   -0.20124879207938165   -0.03132323231384713
-0.35228325507754077   -0.20124879207938165   -0.03132323231384713
-0.35228325507754077   -0.20124879207938165   -0.03132323231384713
-0.35228325507754077   -0.20124879207938165   -0.03132323231384713
-0.320221090632505   -0.06706563381770227   0.0005068771278987055
-0.320221090632505   -0.06706563381770227   0.0005068771278987055
-0.320221090632505   -0.06706563381770227   0.0005068771278987055
-0.320221090632505   -0.06706563381770227   0.0005068771278987055
-0.5598070138048367   -0.24582764332400958   -0.03251033740340295
-0.5598070138048367   -0.24582764332400958   -0.03251033740340295
-0.5598070138048367   -0.24582764332400958   -0.03251033740340295
-0.5598070138048367   -0.24582764332400958   -0.03251033740340295
-0.42998913428764324   -0.1544064508939044   -0.013465575327925843
-0.42998913428764324   -0.1544064508939044   -0.013465575327925843
-0.42998913428764324   -0.1544064508939044   -0.013465575327925843
-0.42998913428764324   -0.1544064508939044   -0.013465575327925843
-0.5323554918111818   -0.11484163635903762   -0.026238734400096705
-0.5323554918111818   -0.11484163635903762   -0.026238734400096705
-0.5323554918111818   -0.11484163635903762   -0.026238734400096705
-0.5323554918111818   -0.11484163635903762   -0.026238734400096705
-0.3520723882429858   -0.20245141639950096   -0.023363828342710606
-0.3520723882429858   -0.20245141639950096   -0.023363828342710606
-0.3520723882429858   -0.20245141639950096   -0.023363828342710606
-0.3520723882429858   -0.20245141639950096   -0.023363828342710606
-0.3200379174877721   -0.08615008396402293   0.005164842284429016
-0.3200379174877721   -0.08615008396402293   0.005164842284429016
-0.3200379174877721   -0.08615008396402293   0.005164842284429016
-0.3200379174877721   -0.08615008396402293   0.005164842284429016
-0.558358167097981   -0.24991394883315568   -0.048432116157724386
-0.558358167097981   -0.24991394883315568   -0.048432116157724386
-0.558358167097981   -0.24991394883315568   -0.048432116157724386
-0.558358167097981   -0.24991394883315568   -0.048432116157724386
-0.4364164940322217   -0.1660959696824913   -0.025008547144845236
-0.4364164940322217   -0.1660959696824913   -0.025008547144845236
-0.4364164940322217   -0.1660959696824913   -0.025008547144845236
-0.4364164940322217   -0.1660959696824913   -0.025008547144845236
-0.31744907056160027   -0.0572671261385732   -0.004010653483611199
-0.31744907056160027   -0.0572671261385732   -0.004010653483611199
-0.31744907056160027   -0.0572671261385732   -0.004010653483611199
-0.31744907056160027   -0.0572671261385732   -0.004010653483611199
-0.26619031870170506   -0.17822824297901774   -0.030767368295511806
-0.26619031870170506   -0.17822824297901774   -0.030767368295511806
-0.26619031870170506   -0.17822824297901774   -0.030767368295511806
-0.26619031870170506   -0.17822824297901774   -0.030767368295511806
-0.22939435271976058   -0.04751290340264838   0.012262913344230904
-0.22939435271976058   -0.04751290340264838   0.012262913344230904
-0.22939435271976058   -0.04751290340264838   0.012262913344230904
-0.22939435271976058   -0.04751290340264838   0.012262913344230904
-0.351324376405598   -0.19377645011317812   -0.03400118092033798
-0.351324376405598   -0.19377645011317812   -0.03400118092033798
-0.351324376405598   -0.19377645011317812   -0.03400118092033798
-0.351324376405598   -0.19377645011317812   -0.03400118092033798
-0.2898057198820795   -0.1208652212434315   -0.01419700073190866
-0.2898057198820795   -0.1208652212434315   -0.01419700073190866
-0.2898057198820795   -0.1208652212434315   -0.01419700073190866
-0.2898057198820795   -0.1208652212434315   -0.01419700073190866
-0.31922160952921763   -0.06781974730309132   0.0005559506514783046
-0.31922160952921763   -0.06781974730309132   0.0005559506514783046
-0.31922160952921763   -0.06781974730309132   0.0005559506514783046
-0.31922160952921763   -0.06781974730309132   0.0005559506514783046
-0.26338054865201427   -0.17535303526860913   -0.029827934451076767
-0.26338054865201427   -0.17535303526860913   -0.029827934451076767
-0.26338054865201427   -0.17535303526860913   -0.029827934451076767
-0.26338054865201427   -0.17535303526860913   -0.029827934451076767
-0.22941628351681362   -0.06009814356175118   0.015889109955822905
-0.22941628351681362   -0.06009814356175118   0.015889109955822905
-0.22941628351681362   -0.06009814356175118   0.015889109955822905
-0.22941628351681362   -0.06009814356175118   0.015889109955822905
-0.35237123343251003   -0.19684866760072348   -0.030460803089109423
-0.35237123343251003   -0.19684866760072348   -0.030460803089109423
-0.35237123343251003   -0.19684866760072348   -0.030460803089109423
-0.35237123343251003   -0.19684866760072348   -0.030460803089109423
-0.28923706691359086   -0.12560655942141447   -0.018421710074378553
-0.28923706691359086   -0.12560655942141447   -0.018421710074378553
-0.28923706691359086   -0.12560655942141447   -0.018421710074378553
-0.28923706691359086   -0.12560655942141447   -0.018421710074378553
-0.3218410065147048   -0.0805771478105447   0.005918811709738078
-0.3218410065147048   -0.0805771478105447   0.005918811709738078
-0.3218410065147048   -0.0805771478105447   0.005918811709738078
-0.3218410065147048   -0.0805771478105447   0.005918811709738078
-0.2609814582535304   -0.1774046111708401   -0.024630296118672255
-0.2609814582535304   -0.1774046111708401   -0.024630296118672255
-0.2609814582535304   -0.1774046111708401   -0.024630296118672255
-0.2609814582535304   -0.1774046111708401   -0.024630296118672255
-0.2266473972025376   -0.07212038482550728   0.019836601552512642
-0.2266473972025376   -0.07212038482550728   0.019836601552512642
-0.2266473972025376   -0.07212038482550728   0.019836601552512642
-0.2266473972025376   -0.07212038482550728   0.019836601552512642
-0.34810426195270294   -0.1993642034995804   -0.021952760504670012
-0.34810426195270294   -0.1993642034995804   -0.021952760504670012
-0.34810426195270294   -0.1993642034995804   -0.021952760504670012
-0.34810426195270294   -0.1993642034995804   -0.021952760504670012
-0.28830513052846585   -0.13184406653767264   -0.02134573029464689
-0.28830513052846585   -0.13184406653767264   -0.02134573029464689
-0.28830513052846585   -0.13184406653767264   -0.02134573029464689
-0.28830513052846585   -0.13184406653767264   -0.02134573029464689
-0.22163167562943872   -0.0079336877966859   0.021731291883487866
-0.22163167562943872   -0.0079336877966859   0.021731291883487866
-0.22163167562943872   -0.0079336877966859   0.021731291883487866
-0.22163167562943872   -0.0079336877966859   0.021731291883487866
-0.20946923862449676   -0.09432455277532845   -0.01840968185047671
-0.20946923862449676   -0.09432455277532845   -0.01840968185047671
-0.20946923862449676   -0.09432455277532845   -0.01840968185047671
-0.20946923862449676   -0.09432455277532845   -0.01840968185047671
-0.18055817135370614   -0.013667499685083736   0.025172669723326803
-0.18055817135370614   -0.013667499685083736   0.025172669723326803
-0.18055817135370614   -0.013667499685083736   0.025172669723326803
-0.18055817135370614   -0.013667499685083736   0.025172669723326803
-0.24676089302481283   -0.10903904751612636   -0.01304364406755525
-0.24676089302481283   -0.10903904751612636   -0.01304364406755525
-0.24676089302481283   -0.10903904751612636   -0.01304364406755525
-0.24676089302481283   -0.10903904751612636   -0.01304364406755525
-0.21532206428293027   -0.05572316095922491   -0.007699279814951157
-0.21532206428293027   -0.05572316095922491   -0.007699279814951157
-0.21532206428293027   -0.05572316095922491   -0.007699279814951157
-0.21532206428293027   -0.05572316095922491   -0.007699279814951157
-0.22171550633882758   -0.021920543547935722   0.025064785394183237
-0.22171550633882758   -0.021920543547935722   0.025064785394183237
-0.22171550633882758   -0.021920543547935722   0.025064785394183237
-0.22171550633882758   -0.021920543547935722   0.025064785394183237
-0.20760611390993397   -0.10278855952351565   -0.020945983219380498
-0.20760611390993397   -0.10278855952351565   -0.020945983219380498
-0.20760611390993397   -0.10278855952351565   -0.020945983219380498
-0.20760611390993397   -0.10278855952351565   -0.020945983219380498
-0.18076290206768275   -0.025863755026158907   0.027054923740709856
-0.18076290206768275   -0.025863755026158907   0.027054923740709856
-0.18076290206768275   -0.025863755026158907   0.027054923740709856
-0.18076290206768275   -0.025863755026158907   0.027054923740709856
-0.24661913560150178   -0.11568187436842922   -0.01454141966093835
-0.24661913560150178   -0.11568187436842922   -0.01454141966093835
-0.24661913560150178   -0.11568187436842922   -0.01454141966093835
-0.24661913560150178   -0.11568187436842922   -0.01454141966093835
-0.21432716744090732   -0.06552119673430191   -0.013064508167998057
-0.21432716744090732   -0.06552119673430191   -0.013064508167998057
-0.21432716744090732   -0.06552119673430191   -0.013064508167998057
-0.21432716744090732   -0.06552119673430191   -0.013064508167998057
-0.2216194190514316   -0.03374248785571129   0.0285177765766931
-0.2216194190514316   -0.03374248785571129   0.0285177765766931
-0.2216194190514316   -0.03374248785571129   0.0285177765766931
-0.2216194190514316   -0.03374248785571129   0.0285177765766931
-0.20697509067468856   -0.10901561359581209   -0.02085416072466589
-0.20697509067468856   -0.10901561359581209   -0.02085416072466589
-0.20697509067468856   -0.10901561359581209   -0.02085416072466589
-0.20697509067468856   -0.10901561359581209   -0.02085416072466589
-0.17915517917580812   -0.03731470923441042   0.03135178757566249
-0.17915517917580812   -0.03731470923441042   0.03135178757566249
-0.17915517917580812   -0.03731470923441042   0.03135178757566249
-0.17915517917580812   -0.03731470923441042   0.03135178757566249
-0.24264587772910406   -0.12232827343850441   -0.009947912467319903
-0.24264587772910406   -0.12232827343850441   -0.009947912467319903
-0.24264587772910406   -0.12232827343850441   -0.009947912467319903
-0.24264587772910406   -0.12232827343850441   -0.009947912467319903
-0.21361706452779375   -0.07394066796963453   -0.016788831534926992
-0.21361706452779375   -0.07394066796963453   -0.016788831534926992
-0.21361706452779375   -0.07394066796963453   -0.016788831534926992
-0.21361706452779375   -0.07394066796963453   -0.016788831534926992
-0.1752493727148831   0.02449763794512258   0.03386745697713267
-0.1752493727148831   0.02449763794512258   0.03386745697713267
-0.1752493727148831   0.02449763794512258   0.03386745697713267
-0.1752493727148831   0.02449763794512258   0.03386745697713267
-0.11631702491638074   -0.0310053049007364   -0.011316559611998848
-0.11631702491638074   -0.0310053049007364   -0.011316559611998848
-0.11631702491638074   -0.0310053049007364   -0.011316559611998848
-0.11631702491638074   -0.0310053049007364   -0.011316559611998848
-0.1014908831047465   0.028810674185426467   0.03343827452198262
-0.1014908831047465   0.028810674185426467   0.03343827452198262
-0.1014908831047465   0.028810674185426467   0.03343827452198262
-0.1014908831047465   0.028810674185426467   0.03343827452198262
-0.19353233611841156   -0.047506885825906106   -0.005858767959375325
-0.19353233611841156   -0.047506885825906106   -0.005858767959375325
-0.19353233611841156   -0.047506885825906106   -0.005858767959375325
-0.19353233611841156   -0.047506885825906106   -0.005858767959375325
-0.14463957207862804   -0.003029551717592817   -0.006125036115249546
-0.14463957207862804   -0.003029551717592817   -0.006125036115249546
-0.14463957207862804   -0.003029551717592817   -0.006125036115249546
-0.14463957207862804   -0.003029551717592817   -0.006125036115249546
-0.1723987139955467   0.015334953723899224   0.0369675031051487
-0.1723987139955467   0.015334953723899224   0.0369675031051487
-0.1723987139955467   0.015334953723899224   0.0369675031051487
-0.1723987139955467   0.015334953723899224   0.0369675031051487
-0.12282572153776412   -0.03423238167453115   -0.010192861783148013
-0.12282572153776412   -0.03423238167453115   -0.010192861783148013
-0.12282572153776412   -0.03423238167453115   -0.010192861783148013
-0.12282572153776412   -0.03423238167453115   -0.010192861783148013
-0.10594239966867637   0.022875693032776402   0.04206924998555325
-0.10594239966867637   0.022875693032776402   0.04206924998555325
-0.10594239966867637   0.022875693032776402   0.04206924998555325
-0.10594239966867637   0.022875693032776402   0.04206924998555325
-0.19261504631471119   -0.05056624560413715   -0.0075033069164603325
-0.19261504631471119   -0.05056624560413715   -0.0075033069164603325
-0.19261504631471119   -0.05056624560413715   -0.0075033069164603325
-0.19261504631471119   -0.05056624560413715   -0.0075033069164603325
-0.14890583968061782   -0.009511961539038837   -0.008636960958209653
-0.14890583968061782   -0.009511961539038837   -0.008636960958209653
-0.14890583968061782   -0.009511961539038837   -0.008636960958209653
-0.14890583968061782   -0.009511961539038837   -0.008636960958209653
-0.1704745708375721   0.010068311479087395   0.042564513386009306
-0.1704745708375721   0.010068311479087395   0.042564513386009306
-0.1704745708375721   0.010068311479087395   0.042564513386009306
-0.1704745708375721   0.010068311479087395   0.042564513386009306
-0.12959863981448141   -0.03927462871911522   -0.014061628991580418
-0.12959863981448141   -0.03927462871911522   -0.014061628991580418
-0.12959863981448141   -0.03927462871911522   -0.014061628991580418
-0.12959863981448141   -0.03927462871911522   -0.014061628991580418
-0.12122819899924966   0.0065581723464828365   0.0437763700646663
-0.12122819899924966   0.0065581723464828365   0.0437763700646663
-0.12122819899924966   0.0065581723464828365   0.0437763700646663
-0.12122819899924966   0.0065581723464828365   0.0437763700646663
-0.18988163032711805   -0.053302359566094845   -0.006292817849208463
-0.18988163032711805   -0.053302359566094845   -0.006292817849208463
-0.18988163032711805   -0.053302359566094845   -0.006292817849208463
-0.18988163032711805   -0.053302359566094845   -0.006292817849208463
-0.15094823701531845   -0.014198018156140885   -0.012711028152168992
-0.15094823701531845   -0.014198018156140885   -0.012711028152168992
-0.15094823701531845   -0.014198018156140885   -0.012711028152168992
-0.15094823701531845   -0.014198018156140885   -0.012711028152168992
-1.8073179079539978   -0.25624777131382925   -0.15045555982311604
-1.8073179079539978   -0.25624777131382925   -0.15045555982311604
-1.8073179079539978   -0.25624777131382925   -0.15045555982311604
-1.8073179079539978   -0.25624777131382925   -0.15045555982311604
-0.6274256431876755   -0.9889809508684374   -0.11773181235468058
-0.6274256431876755   -0.9889809508684374   -0.11773181235468058
-0.6274256431876755   -0.9889809508684374   -0.11773181235468058
-0.6274256431876755   -0.9889809508684374   -0.11773181235468058
-0.48464274926370654   -0.0417792468965868   0.0006454448942735096
-0.48464274926370654   -0.0417792468965868   0.0006454448942735096
-0.48464274926370654   -0.0417792468965868   0.0006454448942735096
-0.48464274926370654   -0.0417792468965868   0.0006454448942735096
-1.9302455439660284   -1.162070105723546   -0.6184631299379149
-1.9302455439660284   -1.162070105723546   -0.6184631299379149
-1.9302455439660284   -1.162070105723546   -0.6184631299379149
-1.9302455439660284   -1.162070105723546   -0.6184631299379149
-1.1820940866784027   -0.5780510622801273   -0.08423811576784894
-1.1820940866784027   -0.5780510622801273   -0.08423811576784894
-1.1820940866784027   -0.5780510622801273   -0.08423811576784894
-1.1820940866784027   -0.5780510622801273   -0.08423811576784894
-1.6793882853221107   -0.32175569297958323   -0.2044912494623023
-1.6793882853221107   -0.32175569297958323   -0.2044912494623023
-1.6793882853221107   -0.32175569297958323   -0.2044912494623023
-1.6793882853221107   -0.32175569297958323   -0.2044912494623023
-0.6776315967083879   -0.8242252484413153   -0.1818527907844011
-0.6776315967083879   -0.8242252484413153   -0.1818527907844011
-0.6776315967083879   -0.8242252484413153   -0.1818527907844011
-0.6776315967083879   -0.8242252484413153   -0.1818527907844011
-0.4944833095236524   -0.05562291216968322   0.01859534968369927
-0.4944833095236524   -0.05562291216968322   0.01859534968369927
-0.4944833095236524   -0.05562291216968322   0.01859534968369927
-0.4944833095236524   -0.05562291216968322   0.01859534968369927
-1.8063136938648385   -1.0368414902238297   -0.5686310368177336
-1.8063136938648385   -1.0368414902238297   -0.5686310368177336
-1.8063136938648385   -1.0368414902238297   -0.5686310368177336
-1.8063136938648385   -1.0368414902238297   -0.5686310368177336
-1.1134195227232138   -0.5213277603225436   0.04500459757332731
-1.1134195227232138   -0.5213277603225436   0.04500459757332731
-1.1134195227232138   -0.5213277603225436   0.04500459757332731
-1.1134195227232138   -0.5213277603225436   0.04500459757332731
-1.5770017718444518   -0.30635688163209296   -0.15255603530754794
-1.5770017718444518   -0.30635688163209296   -0.15255603530754794
-1.5770017718444518   -0.30635688163209296   -0.15255603530754794
-1.5770017718444518   -0.30635688163209296   -0.15255603530754794
-0.6594861520203745   -0.7217984412377569   -0.14024333373183406
-0.6594861520203745   -0.7217984412377569   -0.14024333373183406
-0.6594861520203745   -0.7217984412377569   -0.14024333373183406
-0.6594861520203745   -0.7217984412377569   -0.14024333373183406
-0.5683893865445219   -0.1457709411066005   -0.02960975850172124
-0.5683893865445219   -0.1457709411066005   -0.02960975850172124
-0.5683893865445219   -0.1457709411066005   -0.02960975850172124
-0.5683893865445219   -0.1457709411066005   -0.02960975850172124
-1.646346693254586   -0.8717386329595039   -0.503617065242818
-1.646346693254586   -0.8717386329595039   -0.503617065242818
-1.646346693254586   -0.8717386329595039   -0.503617065242818
-1.646346693254586   -0.8717386329595039   -0.503617065242818
-1.0314026281795303   -0.4520351449472381   0.19102284269971836
-1.0314026281795303   -0.4520351449472381   0.19102284269971836
-1.0314026281795303   -0.4520351449472381   0.19102284269971836
-1.0314026281795303   -0.4520351449472381   0.19102284269971836
-0.4640359612361251   -0.2524058377870643   -0.0373585156783057
-0.4640359612361251   -0.2524058377870643   -0.0373585156783057
-0.4640359612361251   -0.2524058377870643   -0.0373585156783057
-0.4640359612361251   -0.2524058377870643   -0.0373585156783057
-0.21476456769564062   -0.3129962562220714   -0.053074670262737184
-0.21476456769564062   -0.3129962562220714   -0.053074670262737184
-0.21476456769564062   -0.3129962562220714   -0.053074670262737184
-0.21476456769564062   -0.3129962562220714   -0.053074670262737184
-0.18930333036140945   -0.16141301771995717   0.0048757147671439904
-0.18930333036140945   -0.16141301771995717   0.0048757147671439904
-0.18930333036140945   -0.16141301771995717   0.0048757147671439904
-0.18930333036140945   -0.16141301771995717   0.0048757147671439904
-0.5679085270900994   -0.45785874347732924   0.00039605234305628567
-0.5679085270900994   -0.45785874347732924   0.00039605234305628567
-0.5679085270900994   -0.45785874347732924   0.00039605234305628567
-0.5679085270900994   -0.45785874347732924   0.00039605234305628567
-0.30494604304182893   -0.22199451732130623   0.09778142826326763
-0.30494604304182893   -0.22199451732130623   0.09778142826326763
-0.30494604304182893   -0.22199451732130623   0.09778142826326763
-0.30494604304182893   -0.22199451732130623   0.09778142826326763
-0.5282152377865864   -0.23497482590146973   -0.024021418715244828
-0.5282152377865864   -0.23497482590146973   -0.024021418715244828
-0.5282152377865864   -0.23497482590146973   -0.024021418715244828
-0.5282152377865864   -0.23497482590146973   -0.024021418715244828
-0.24504908497469546   -0.40034940060558966   -0.03491667541364978
-0.24504908497469546   -0.40034940060558966   -0.03491667541364978
-0.24504908497469546   -0.40034940060558966   -0.03491667541364978
-0.24504908497469546   -0.40034940060558966   -0.03491667541364978
-0.20452310039578178   -0.16726362682691853   0.005025831672997416
-0.20452310039578178   -0.16726362682691853   0.005025831672997416
-0.20452310039578178   -0.16726362682691853   0.005025831672997416
-0.20452310039578178   -0.16726362682691853   0.005025831672997416
-0.5956973149629626   -0.4520639207795656   -0.09103366890296612
-0.5956973149629626   -0.4520639207795656   -0.09103366890296612
-0.5956973149629626   -0.4520639207795656   -0.09103366890296612
-0.5956973149629626   -0.4520639207795656   -0.09103366890296612
-0.3637307992107981   -0.28470928154064035   0.04458708662801434
-0.3637307992107981   -0.28470928154064035   0.04458708662801434
-0.3637307992107981   -0.28470928154064035   0.04458708662801434
-0.3637307992107981   -0.28470928154064035   0.04458708662801434
-0.5451258483776901   -0.24536449509094474   -0.04487576166522374
-0.5451258483776901   -0.24536449509094474   -0.04487576166522374
-0.5451258483776901   -0.24536449509094474   -0.04487576166522374
-0.5451258483776901   -0.24536449509094474   -0.04487576166522374
-0.2536001328316588   -0.372468618366144   -0.035154338967162
-0.2536001328316588   -0.372468618366144   -0.035154338967162
-0.2536001328316588   -0.372468618366144   -0.035154338967162
-0.2536001328316588   -0.372468618366144   -0.035154338967162
-0.22801161992001373   -0.17267759838089639   0.00740308892560488
-0.22801161992001373   -0.17267759838089639   0.00740308892560488
-0.22801161992001373   -0.17267759838089639   0.00740308892560488
-0.22801161992001373   -0.17267759838089639   0.00740308892560488
-0.6370240553699542   -0.4393023479844051   -0.07925169575107961
-0.6370240553699542   -0.4393023479844051   -0.07925169575107961
-0.6370240553699542   -0.4393023479844051   -0.07925169575107961
-0.6370240553699542   -0.4393023479844051   -0.07925169575107961
-0.38065076858948593   -0.26835022165860106   0.04716488619759704
-0.38065076858948593   -0.26835022165860106   0.04716488619759704
-0.38065076858948593   -0.26835022165860106   0.04716488619759704
-0.38065076858948593   -0.26835022165860106   0.04716488619759704
-0.16944979188635342   -0.15052172787043278   0.011024680432060209
-0.16944979188635342   -0.15052172787043278   0.011024680432060209
-0.16944979188635342   -0.15052172787043278   0.011024680432060209
-0.16944979188635342   -0.15052172787043278   0.011024680432060209
-0.10367202076058463   -0.09785880646181061   -0.025922196832864938
-0.10367202076058463   -0.09785880646181061   -0.025922196832864938
-0.10367202076058463   -0.09785880646181061   -0.025922196832864938
-0.10367202076058463   -0.09785880646181061   -0.025922196832864938
-0.10048448039503657   -0.13458785951528612   0.011101876058568202
-0.10048448039503657   -0.13458785951528612   0.011101876058568202
-0.10048448039503657   -0.13458785951528612   0.011101876058568202
-0.10048448039503657   -0.13458785951528612   0.011101876058568202
-0.18718045693362412   -0.1341369491233032   -0.011785986690580102
-0.18718045693362412   -0.1341369491233032   -0.011785986690580102
-0.18718045693362412   -0.1341369491233032   -0.011785986690580102
-0.18718045693362412   -0.1341369491233032   -0.011785986690580102
-0.11838146294300139   -0.10904124671259618   0.04904435807433412
-0.11838146294300139   -0.10904124671259618   0.04904435807433412
-0.11838146294300139   -0.10904124671259618   0.04904435807433412
-0.11838146294300139   -0.10904124671259618   0.04904435807433412
-0.18591990017051085   -0.15151612423479924   0.011895972236475337
-0.18591990017051085   -0.15151612423479924   0.011895972236475337
-0.18591990017051085   -0.15151612423479924   0.011895972236475337
-0.18591990017051085   -0.15151612423479924   0.011895972236475337
-0.10337838603455649   -0.1188420332801989   -0.019113478374126212
-0.10337838603455649   -0.1188420332801989   -0.019113478374126212
-0.10337838603455649   -0.1188420332801989   -0.019113478374126212
-0.10337838603455649   -0.1188420332801989   -0.019113478374126212
-0.10161022145847184   -0.13863016352065077   0.009870705337223458
-0.10161022145847184   -0.13863016352065077   0.009870705337223458
-0.10161022145847184   -0.13863016352065077   0.009870705337223458
-0.10161022145847184   -0.13863016352065077   0.009870705337223458
-0.19875391498434858   -0.15650342233524328   0.02311155423848893
-0.19875391498434858   -0.15650342233524328   0.02311155423848893
-0.19875391498434858   -0.15650342233524328   0.02311155423848893
-0.19875391498434858   -0.15650342233524328   0.02311155423848893
-0.128722573290503   -0.12149907897928225   0.04154454157395879
-0.128722573290503   -0.12149907897928225   0.04154454157395879
-0.128722573290503   -0.12149907897928225   0.04154454157395879
-0.128722573290503   -0.12149907897928225   0.04154454157395879
-0.20028985921405654   -0.15712879165689211   0.016057202411597173
-0.20028985921405654   -0.15712879165689211   0.016057202411597173
-0.20028985921405654   -0.15712879165689211   0.016057202411597173
-0.20028985921405654   -0.15712879165689211   0.016057202411597173
-0.10869265072860895   -0.14662316769884642   -0.017548436835266426
-0.10869265072860895   -0.14662316769884642   -0.017548436835266426
-0.10869265072860895   -0.14662316769884642   -0.017548436835266426
-0.10869265072860895   -0.14662316769884642   -0.017548436835266426
-0.10276186813435328   -0.14313152479907312   0.013868239179516656
-0.10276186813435328   -0.14313152479907312   0.013868239179516656
-0.10276186813435328   -0.14313152479907312   0.013868239179516656
-0.10276186813435328   -0.14313152479907312   0.013868239179516656
-0.23245573743218925   -0.19255280066843822   0.005057703652273128
-0.23245573743218925   -0.19255280066843822   0.005057703652273128
-0.23245573743218925   -0.19255280066843822   0.005057703652273128
-0.23245573743218925   -0.19255280066843822   0.005057703652273128
-0.1437293505461623   -0.13851442539155565   0.019627044540650458
-0.1437293505461623   -0.13851442539155565   0.019627044540650458
-0.1437293505461623   -0.13851442539155565   0.019627044540650458
-0.1437293505461623   -0.13851442539155565   0.019627044540650458
-0.08508214029063886   -0.05994293077287637   0.02911132982792969
-0.08508214029063886   -0.05994293077287637   0.02911132982792969
-0.08508214029063886   -0.05994293077287637   0.02911132982792969
-0.08508214029063886   -0.05994293077287637   0.02911132982792969
-0.05967775504318833   -0.00010454284345108589   -0.005821184290311361
-0.05967775504318833   -0.00010454284345108589   -0.005821184290311361
-0.05967775504318833   -0.00010454284345108589   -0.005821184290311361
-0.05967775504318833   -0.00010454284345108589   -0.005821184290311361
-0.05663368772658803   -0.06479209361055854   0.018063920162059013
-0.05663368772658803   -0.06479209361055854   0.018063920162059013
-0.05663368772658803   -0.06479209361055854   0.018063920162059013
-0.05663368772658803   -0.06479209361055854   0.018063920162059013
-0.07882033265615578   -0.011487622368916433   -0.003677622393400319
-0.07882033265615578   -0.011487622368916433   -0.003677622393400319
-0.07882033265615578   -0.011487622368916433   -0.003677622393400319
-0.07882033265615578   -0.011487622368916433   -0.003677622393400319
-0.0647748607650091   -0.03278355698944157   0.014439950632681855
-0.0647748607650091   -0.03278355698944157   0.014439950632681855
-0.0647748607650091   -0.03278355698944157   0.014439950632681855
-0.0647748607650091   -0.03278355698944157   0.014439950632681855
-0.0839745812720491   -0.06838362826701559   0.027447140425235057
-0.0839745812720491   -0.06838362826701559   0.027447140425235057
-0.0839745812720491   -0.06838362826701559   0.027447140425235057
-0.0839745812720491   -0.06838362826701559   0.027447140425235057
-0.05000020602221455   -0.006416854623978794   -0.007143910302653348
-0.05000020602221455   -0.006416854623978794   -0.007143910302653348
-0.05000020602221455   -0.006416854623978794   -0.007143910302653348
-0.05000020602221455   -0.006416854623978794   -0.007143910302653348
-0.05189101158140466   -0.07049689146043381   0.016655370858941636
-0.05189101158140466   -0.07049689146043381   0.016655370858941636
-0.05189101158140466   -0.07049689146043381   0.016655370858941636
-0.05189101158140466   -0.07049689146043381   0.016655370858941636
-0.07938730532351884   -0.022581684943983257   0.004936807435324498
-0.07938730532351884   -0.022581684943983257   0.004936807435324498
-0.07938730532351884   -0.022581684943983257   0.004936807435324498
-0.07938730532351884   -0.022581684943983257   0.004936807435324498
-0.05942051253753469   -0.037576507584357294   0.01721484971845897
-0.05942051253753469   -0.037576507584357294   0.01721484971845897
-0.05942051253753469   -0.037576507584357294   0.01721484971845897
-0.05942051253753469   -0.037576507584357294   0.01721484971845897
-0.0843989346769121   -0.0740584625887068   0.03135543831307816
-0.0843989346769121   -0.0740584625887068   0.03135543831307816
-0.0843989346769121   -0.0740584625887068   0.03135543831307816
-0.0843989346769121   -0.0740584625887068   0.03135543831307816
-0.04732915085938798   -0.019469882447086445   -0.011562334544322306
-0.04732915085938798   -0.019469882447086445   -0.011562334544322306
-0.04732915085938798   -0.019469882447086445   -0.011562334544322306
-0.04732915085938798   -0.019469882447086445   -0.011562334544322306
-0.04336635477741534   -0.07682150470824213   0.0183064082323028
-0.04336635477741534   -0.07682150470824213   0.0183064082323028
-0.04336635477741534   -0.07682150470824213   0.0183064082323028
-0.04336635477741534   -0.07682150470824213   0.0183064082323028
-0.08554591888745934   -0.049657568714851025   0.006474029329762579
-0.08554591888745934   -0.049657568714851025   0.006474029329762579
-0.08554591888745934   -0.049657568714851025   0.006474029329762579
-0.08554591888745934   -0.049657568714851025   0.006474029329762579
-0.0571434257903117   -0.0474271404181193   0.014890556964671307
-0.0571434257903117   -0.0474271404181193   0.014890556964671307
-0.0571434257903117   -0.0474271404181193   0.014890556964671307
-0.0571434257903117   -0.0474271404181193   0.014890556964671307
-0.05474998611980971   -0.010571634768663137   0.029284752251793732
-0.05474998611980971   -0.010571634768663137   0.029284752251793732
-0.05474998611980971   -0.010571634768663137   0.029284752251793732
-0.05474998611980971   -0.010571634768663137   0.029284752251793732
-0.009605459152304293   0.006382902518274475   -0.0005913438093383145
-0.009605459152304293   0.006382902518274475   -0.0005913438093383145
-0.009605459152304293   0.006382902518274475   -0.0005913438093383145
-0.009605459152304293   0.006382902518274475   -0.0005913438093383145
0.0031921476375128314   -0.0033676753198533336   0.01811280081495644
0.0031921476375128314   -0.0033676753198533336   0.01811280081495644
0.0031921476375128314   -0.0033676753198533336   0.01811280081495644
0.0031921476375128314   -0.0033676753198533336   0.01811280081495644
-0.04678545200387981   0.004779016898999372   -0.0022660117339594775
-0.04678545200387981   0.004779016898999372   -0.0022660117339594775
-0.04678545200387981   0.004779016898999372   -0.0022660117339594775
-0.04678545200387981   0.004779016898999372   -0.0022660117339594775
-0.0274440484063511   -0.0020626294368371765   -0.0022702657777317536
-0.0274440484063511   -0.0020626294368371765   -0.0022702657777317536
-0.0274440484063511   -0.0020626294368371765   -0.0022702657777317536
-0.0274440484063511   -0.0020626294368371765   -0.0022702657777317536
-0.04323553491405143   -0.010186044891936155   0.030448635506111918
-0.04323553491405143   -0.010186044891936155   0.030448635506111918
-0.04323553491405143   -0.010186044891936155   0.030448635506111918
-0.04323553491405143   -0.010186044891936155   0.030448635506111918
0.0012776781740752889   0.013232834097473695   -0.008060055919542963
0.0012776781740752889   0.013232834097473695   -0.008060055919542963
0.0012776781740752889   0.013232834097473695   -0.008060055919542963
0.0012776781740752889   0.013232834097473695   -0.008060055919542963
0.009661756762620152   -0.004145834961470633   0.022321943219540924
0.009661756762620152   -0.004145834961470633   0.022321943219540924
0.009661756762620152   -0.004145834961470633   0.022321943219540924
0.009661756762620152   -0.004145834961470633   0.022321943219540924
-0.04105941949285827   0.003657351594354959   -0.003340911753115407
-0.04105941949285827   0.003657351594354959   -0.003340911753115407
-0.04105941949285827   0.003657351594354959   -0.003340911753115407
-0.04105941949285827   0.003657351594354959   -0.003340911753115407
-0.01795301805856914   -0.00047484426754328514   0.002889303053191156
-0.01795301805856914   -0.00047484426754328514   0.002889303053191156
-0.01795301805856914   -0.00047484426754328514   0.002889303053191156
-0.01795301805856914   -0.00047484426754328514   0.002889303053191156
-0.03685817352024856   -0.01137472976758014   0.03269739947186847
-0.03685817352024856   -0.01137472976758014   0.03269739947186847
-0.03685817352024856   -0.01137472976758014   0.03269739947186847
-0.03685817352024856   -0.01137472976758014   0.03269739947186847
0.006933114154663516   0.012358849765119072   -0.007825954546816623
0.006933114154663516   0.012358849765119072   -0.007825954546816623
0.006933114154663516   0.012358849765119072   -0.007825954546816623
0.006933114154663516   0.012358849765119072   -0.007825954546816623
0.016273745391820253   -0.006478298014338451   0.021672114190635215
0.016273745391820253   -0.006478298014338451   0.021672114190635215
0.016273745391820253   -0.006478298014338451   0.021672114190635215
0.016273745391820253   -0.006478298014338451   0.021672114190635215
-0.031671347340455354   0.0037472817166542428   -0.003787341007787538
-0.031671347340455354   0.0037472817166542428   -0.003787341007787538
-0.031671347340455354   0.0037472817166542428   -0.003787341007787538
-0.031671347340455354   0.0037472817166542428   -0.003787341007787538
-0.009473729964482413   0.0005141906952860145   0.007433653720956714
-0.009473729964482413   0.0005141906952860145   0.007433653720956714
-0.009473729964482413   0.0005141906952860145   0.007433653720956714
-0.009473729964482413   0.0005141906952860145   0.007433653720956714
              </DataArray>   
             <DataArray type="Float64" NumberOfComponents="3" Name="Displacements" format="ascii">   
0.0   0.0   0.0
-0.005031594879984139   -0.003301399501342991   -0.0016855452601663536
0.0   0.0   0.0
0.0   0.0   0.0
-0.005031594879984139   -0.003301399501342991   -0.0016855452601663536
-0.003201784909216556   -0.002966889682520207   -0.0012383817733875992
0.0   0.0   0.0
-0.00313853098377456   -0.003115758524123919   -0.0010374867009402388
0.0   0.0   0.0
0.0   0.0   0.0
-0.00313853098377456   -0.003115758524123919   -0.0010374867009402388
0.0   0.0   0.0
0.0   0.0   0.0
-0.00313853098377456   -0.003115758524123919   -0.0010374867009402388
-0.0052658850447734095   -0.00351715524240205   -0.0013532389359565632
-0.005031594879984139   -0.003301399501342991   -0.0016855452601663536
0.0   0.0   0.0
-0.00313853098377456   -0.003115758524123919   -0.0010374867009402388
-0.005031594879984139   -0.003301399501342991   -0.0016855452601663536
0.0   0.0   0.0
0.0   0.0   0.0
-0.0052658850447734095   -0.00351715524240205   -0.0013532389359565632
0.0   0.0   0.0
0.0   0.0   0.0
-0.0052658850447734095   -0.00351715524240205   -0.0013532389359565632
-0.00313853098377456   -0.003115758524123919   -0.0010374867009402388
0.0   0.0   0.0
-0.003147454665627357   -0.0031920408509992374   -0.0008368727525825252
0.0   0.0   0.0
0.0   0.0   0.0
-0.003147454665627357   -0.0031920408509992374   -0.0008368727525825252
0.0   0.0   0.0
0.0   0.0   0.0
-0.003147454665627357   -0.0031920408509992374   -0.0008368727525825252
-0.005430458000988933   -0.003622068176974163   -0.0010348221314419516
-0.0052658850447734095   -0.00351715524240205   -0.0013532389359565632
0.0   0.0   0.0
-0.003147454665627357   -0.0031920408509992374   -0.0008368727525825252
-0.0052658850447734095   -0.00351715524240205   -0.0013532389359565632
0.0   0.0   0.0
0.0   0.0   0.0
-0.005430458000988933   -0.003622068176974163   -0.0010348221314419516
0.0   0.0   0.0
0.0   0.0   0.0
-0.005430458000988933   -0.003622068176974163   -0.0010348221314419516
-0.003147454665627357   -0.0031920408509992374   -0.0008368727525825252
0.0   0.0   0.0
-0.003145881986853755   -0.0032116309390445743   -0.0006294249736126789
0.0   0.0   0.0
0.0   0.0   0.0
-0.003145881986853755   -0.0032116309390445743   -0.0006294249736126789
0.0   0.0   0.0
0.0   0.0   0.0
-0.003145881986853755   -0.0032116309390445743   -0.0006294249736126789
-0.00578492156965826   -0.0037014928436343492   -0.0006654031395464497
-0.005430458000988933   -0.003622068176974163   -0.0010348221314419516
0.0   0.0   0.0
-0.003145881986853755   -0.0032116309390445743   -0.0006294249736126789
-0.005430458000988933   -0.003622068176974163   -0.0010348221314419516
0.0   0.0   0.0
0.0   0.0   0.0
-0.003201784909216556   -0.002966889682520207   -0.0012383817733875992
0.0   0.0   0.0
0.0   0.0   0.0
-0.003201784909216556   -0.002966889682520207   -0.0012383817733875992
-0.0014580263563498017   -0.0028441916523945054   -0.0009419076156024775
0.0   0.0   0.0
-0.0014023797536371048   -0.002941096702033814   -0.0008470757457750938
0.0   0.0   0.0
0.0   0.0   0.0
-0.0014023797536371048   -0.002941096702033814   -0.0008470757457750938
0.0   0.0   0.0
0.0   0.0   0.0
-0.0014023797536371048   -0.002941096702033814   -0.0008470757457750938
-0.00313853098377456   -0.003115758524123919   -0.0010374867009402388
-0.003201784909216556   -0.002966889682520207   -0.0012383817733875992
0.0   0.0   0.0
-0.0014023797536371048   -0.002941096702033814   -0.0008470757457750938
-0.003201784909216556   -0.002966889682520207   -0.0012383817733875992
0.0   0.0   0.0
0.0   0.0   0.0
-0.00313853098377456   -0.003115758524123919   -0.0010374867009402388
0.0   0.0   0.0
0.0   0.0   0.0
-0.00313853098377456   -0.003115758524123919   -0.0010374867009402388
-0.0014023797536371048   -0.002941096702033814   -0.0008470757457750938
0.0   0.0   0.0
-0.001371156531759739   -0.002978030387016063   -0.0007547122218564637
0.0   0.0   0.0
0.0   0.0   0.0
-0.001371156531759739   -0.002978030387016063   -0.0007547122218564637
0.0   0.0   0.0
0.0   0.0   0.0
-0.001371156531759739   -0.002978030387016063   -0.0007547122218564637
-0.003147454665627357   -0.0031920408509992374   -0.0008368727525825252
-0.00313853098377456   -0.003115758524123919   -0.0010374867009402388
0.0   0.0   0.0
-0.001371156531759739   -0.002978030387016063   -0.0007547122218564637
-0.00313853098377456   -0.003115758524123919   -0.0010374867009402388
0.0   0.0   0.0
0.0   0.0   0.0
-0.003147454665627357   -0.0031920408509992374   -0.0008368727525825252
0.0   0.0   0.0
0.0   0.0   0.0
-0.003147454665627357   -0.0031920408509992374   -0.0008368727525825252
-0.001371156531759739   -0.002978030387016063   -0.0007547122218564637
0.0   0.0   0.0
-0.0013427373140693134   -0.002962615100698187   -0.0006592166113540206
0.0   0.0   0.0
0.0   0.0   0.0
-0.0013427373140693134   -0.002962615100698187   -0.0006592166113540206
0.0   0.0   0.0
0.0   0.0   0.0
-0.0013427373140693134   -0.002962615100698187   -0.0006592166113540206
-0.003145881986853755   -0.0032116309390445743   -0.0006294249736126789
-0.003147454665627357   -0.0031920408509992374   -0.0008368727525825252
0.0   0.0   0.0
-0.0013427373140693134   -0.002962615100698187   -0.0006592166113540206
-0.003147454665627357   -0.0031920408509992374   -0.0008368727525825252
0.0   0.0   0.0
0.0   0.0   0.0
-0.0014580263563498017   -0.0028441916523945054   -0.0009419076156024775
0.0   0.0   0.0
0.0   0.0   0.0
-0.0014580263563498017   -0.0028441916523945054   -0.0009419076156024775
0.00018955983568052056   -0.0028599013020143504   -0.0007529757524564998
0.0   0.0   0.0
0.00022504537694513632   -0.0029101359404889245   -0.000766118471405738
0.0   0.0   0.0
0.0   0.0   0.0
0.00022504537694513632   -0.0029101359404889245   -0.000766118471405738
0.0   0.0   0.0
0.0   0.0   0.0
0.00022504537694513632   -0.0029101359404889245   -0.000766118471405738
-0.0014023797536371048   -0.002941096702033814   -0.0008470757457750938
-0.0014580263563498017   -0.0028441916523945054   -0.0009419076156024775
0.0   0.0   0.0
0.00022504537694513632   -0.0029101359404889245   -0.000766118471405738
-0.0014580263563498017   -0.0028441916523945054   -0.0009419076156024775
0.0   0.0   0.0
0.0   0.0   0.0
-0.0014023797536371048   -0.002941096702033814   -0.0008470757457750938
0.0   0.0   0.0
0.0   0.0   0.0
-0.0014023797536371048   -0.002941096702033814   -0.0008470757457750938
0.00022504537694513632   -0.0029101359404889245   -0.000766118471405738
0.0   0.0   0.0
0.0002530432369113945   -0.0029059781172296167   -0.0007779831816564566
0.0   0.0   0.0
0.0   0.0   0.0
0.0002530432369113945   -0.0029059781172296167   -0.0007779831816564566
0.0   0.0   0.0
0.0   0.0   0.0
0.0002530432369113945   -0.0029059781172296167   -0.0007779831816564566
-0.001371156531759739   -0.002978030387016063   -0.0007547122218564637
-0.0014023797536371048   -0.002941096702033814   -0.0008470757457750938
0.0   0.0   0.0
0.0002530432369113945   -0.0029059781172296167   -0.0007779831816564566
-0.0014023797536371048   -0.002941096702033814   -0.0008470757457750938
0.0   0.0   0.0
0.0   0.0   0.0
-0.001371156531759739   -0.002978030387016063   -0.0007547122218564637
0.0   0.0   0.0
0.0   0.0   0.0
-0.001371156531759739   -0.002978030387016063   -0.0007547122218564637
0.0002530432369113945   -0.0029059781172296167   -0.0007779831816564566
0.0   0.0   0.0
0.0002907385478227848   -0.002842965806501584   -0.0007901689476116259
0.0   0.0   0.0
0.0   0.0   0.0
0.0002907385478227848   -0.002842965806501584   -0.0007901689476116259
0.0   0.0   0.0
0.0   0.0   0.0
0.0002907385478227848   -0.002842965806501584   -0.0007901689476116259
-0.0013427373140693134   -0.002962615100698187   -0.0006592166113540206
-0.001371156531759739   -0.002978030387016063   -0.0007547122218564637
0.0   0.0   0.0
0.0002907385478227848   -0.002842965806501584   -0.0007901689476116259
-0.001371156531759739   -0.002978030387016063   -0.0007547122218564637
0.0   0.0   0.0
0.0   0.0   0.0
0.00018955983568052056   -0.0028599013020143504   -0.0007529757524564998
0.0   0.0   0.0
0.0   0.0   0.0
0.00018955983568052056   -0.0028599013020143504   -0.0007529757524564998
0.0019779280629475585   -0.002999095528349953   -0.0006595311099884849
0.0   0.0   0.0
0.0019813238891725512   -0.0030150822234246417   -0.0007862866156157764
0.0   0.0   0.0
0.0   0.0   0.0
0.0019813238891725512   -0.0030150822234246417   -0.0007862866156157764
0.0   0.0   0.0
0.0   0.0   0.0
0.0019813238891725512   -0.0030150822234246417   -0.0007862866156157764
0.00022504537694513632   -0.0029101359404889245   -0.000766118471405738
0.00018955983568052056   -0.0028599013020143504   -0.0007529757524564998
0.0   0.0   0.0
0.0019813238891725512   -0.0030150822234246417   -0.0007862866156157764
0.00018955983568052056   -0.0028599013020143504   -0.0007529757524564998
0.0   0.0   0.0
0.0   0.0   0.0
0.00022504537694513632   -0.0029101359404889245   -0.000766118471405738
0.0   0.0   0.0
0.0   0.0   0.0
0.00022504537694513632   -0.0029101359404889245   -0.000766118471405738
0.0019813238891725512   -0.0030150822234246417   -0.0007862866156157764
0.0   0.0   0.0
0.0019727336644574434   -0.0029720271189263977   -0.000907880469008031
0.0   0.0   0.0
0.0   0.0   0.0
0.0019727336644574434   -0.0029720271189263977   -0.000907880469008031
0.0   0.0   0.0
0.0   0.0   0.0
0.0019727336644574434   -0.0029720271189263977   -0.000907880469008031
0.0002530432369113945   -0.0029059781172296167   -0.0007779831816564566
0.00022504537694513632   -0.0029101359404889245   -0.000766118471405738
0.0   0.0   0.0
0.0019727336644574434   -0.0029720271189263977   -0.000907880469008031
0.00022504537694513632   -0.0029101359404889245   -0.000766118471405738
0.0   0.0   0.0
0.0   0.0   0.0
0.0002530432369113945   -0.0029059781172296167   -0.0007779831816564566
0.0   0.0   0.0
0.0   0.0   0.0
0.0002530432369113945   -0.0029059781172296167   -0.0007779831816564566
0.0019727336644574434   -0.0029720271189263977   -0.000907880469008031
0.0   0.0   0.0
0.0020108391671079737   -0.0028567417263401346   -0.0010271548526134433
0.0   0.0   0.0
0.0   0.0   0.0
0.0020108391671079737   -0.0028567417263401346   -0.0010271548526134433
0.0   0.0   0.0
0.0   0.0   0.0
0.0020108391671079737   -0.0028567417263401346   -0.0010271548526134433
0.0002907385478227848   -0.002842965806501584   -0.0007901689476116259
0.0002530432369113945   -0.0029059781172296167   -0.0007779831816564566
0.0   0.0   0.0
0.0020108391671079737   -0.0028567417263401346   -0.0010271548526134433
0.0002530432369113945   -0.0029059781172296167   -0.0007779831816564566
0.0   0.0   0.0
0.0   0.0   0.0
0.0019779280629475585   -0.002999095528349953   -0.0006595311099884849
0.0   0.0   0.0
0.0   0.0   0.0
0.0019779280629475585   -0.002999095528349953   -0.0006595311099884849
0.004464813882856407   -0.0033519033027771344   -0.0006222864032830885
0.0   0.0   0.0
0.004193023249847666   -0.0033153039269210607   -0.0009096489030755334
0.0   0.0   0.0
0.0   0.0   0.0
0.004193023249847666   -0.0033153039269210607   -0.0009096489030755334
0.0   0.0   0.0
0.0   0.0   0.0
0.004193023249847666   -0.0033153039269210607   -0.0009096489030755334
0.0019813238891725512   -0.0030150822234246417   -0.0007862866156157764
0.0019779280629475585   -0.002999095528349953   -0.0006595311099884849
0.0   0.0   0.0
0.004193023249847666   -0.0033153039269210607   -0.0009096489030755334
0.0019779280629475585   -0.002999095528349953   -0.0006595311099884849
0.0   0.0   0.0
0.0   0.0   0.0
0.0019813238891725512   -0.0030150822234246417   -0.0007862866156157764
0.0   0.0   0.0
0.0   0.0   0.0
0.0019813238891725512   -0.0030150822234246417   -0.0007862866156157764
0.004193023249847666   -0.0033153039269210607   -0.0009096489030755334
0.0   0.0   0.0
0.004067642519118771   -0.003246375798396748   -0.0011526467691464761
0.0   0.0   0.0
0.0   0.0   0.0
0.004067642519118771   -0.003246375798396748   -0.0011526467691464761
0.0   0.0   0.0
0.0   0.0   0.0
0.004067642519118771   -0.003246375798396748   -0.0011526467691464761
0.0019727336644574434   -0.0029720271189263977   -0.000907880469008031
0.0019813238891725512   -0.0030150822234246417   -0.0007862866156157764
0.0   0.0   0.0
0.004067642519118771   -0.003246375798396748   -0.0011526467691464761
0.0019813238891725512   -0.0030150822234246417   -0.0007862866156157764
0.0   0.0   0.0
0.0   0.0   0.0
0.0019727336644574434   -0.0029720271189263977   -0.000907880469008031
0.0   0.0   0.0
0.0   0.0   0.0
0.0019727336644574434   -0.0029720271189263977   -0.000907880469008031
0.004067642519118771   -0.003246375798396748   -0.0011526467691464761
0.0   0.0   0.0
0.0038810589190799603   -0.003070017300632756   -0.0014097826859165612
0.0   0.0   0.0
0.0   0.0   0.0
0.0038810589190799603   -0.003070017300632756   -0.0014097826859165612
0.0   0.0   0.0
0.0   0.0   0.0
0.0038810589190799603   -0.003070017300632756   -0.0014097826859165612
0.0020108391671079737   -0.0028567417263401346   -0.0010271548526134433
0.0019727336644574434   -0.0029720271189263977   -0.000907880469008031
0.0   0.0   0.0
0.0038810589190799603   -0.003070017300632756   -0.0014097826859165612
0.0019727336644574434   -0.0029720271189263977   -0.000907880469008031
0.0   0.0   0.0
-0.005031594879984139   -0.003301399501342991   -0.0016855452601663536
-0.009397844185436235   -0.009215344323659978   -0.002270877745019929
-0.003201784909216556   -0.002966889682520207   -0.0012383817733875992
-0.0052658850447734095   -0.00351715524240205   -0.0013532389359565632
-0.009397844185436235   -0.009215344323659978   -0.002270877745019929
-0.005998275701142669   -0.008914502653601882   -0.0018692095132490018
-0.003201784909216556   -0.002966889682520207   -0.0012383817733875992
-0.006005432062371603   -0.009066814925475224   -0.0016834050350651413
-0.0052658850447734095   -0.00351715524240205   -0.0013532389359565632
-0.00313853098377456   -0.003115758524123919   -0.0010374867009402388
-0.006005432062371603   -0.009066814925475224   -0.0016834050350651413
-0.003201784909216556   -0.002966889682520207   -0.0012383817733875992
-0.0052658850447734095   -0.00351715524240205   -0.0013532389359565632
-0.006005432062371603   -0.009066814925475224   -0.0016834050350651413
-0.00967950290511659   -0.009427872635160003   -0.001969150678619976
-0.009397844185436235   -0.009215344323659978   -0.002270877745019929
-0.0052658850447734095   -0.00351715524240205   -0.0013532389359565632
-0.006005432062371603   -0.009066814925475224   -0.0016834050350651413
-0.009397844185436235   -0.009215344323659978   -0.002270877745019929
-0.003201784909216556   -0.002966889682520207   -0.0012383817733875992
-0.0052658850447734095   -0.00351715524240205   -0.0013532389359565632
-0.00967950290511659   -0.009427872635160003   -0.001969150678619976
-0.00313853098377456   -0.003115758524123919   -0.0010374867009402388
-0.005430458000988933   -0.003622068176974163   -0.0010348221314419516
-0.00967950290511659   -0.009427872635160003   -0.001969150678619976
-0.006005432062371603   -0.009066814925475224   -0.0016834050350651413
-0.00313853098377456   -0.003115758524123919   -0.0010374867009402388
-0.006029158929073941   -0.009159659737934325   -0.0015048501413531651
-0.005430458000988933   -0.003622068176974163   -0.0010348221314419516
-0.003147454665627357   -0.0031920408509992374   -0.0008368727525825252
-0.006029158929073941   -0.009159659737934325   -0.0015048501413531651
-0.00313853098377456   -0.003115758524123919   -0.0010374867009402388
-0.005430458000988933   -0.003622068176974163   -0.0010348221314419516
-0.006029158929073941   -0.009159659737934325   -0.0015048501413531651
-0.0098752266694969   -0.009547893798550722   -0.0016737022645612564
-0.00967950290511659   -0.009427872635160003   -0.001969150678619976
-0.005430458000988933   -0.003622068176974163   -0.0010348221314419516
-0.006029158929073941   -0.009159659737934325   -0.0015048501413531651
-0.00967950290511659   -0.009427872635160003   -0.001969150678619976
-0.00313853098377456   -0.003115758524123919   -0.0010374867009402388
-0.005430458000988933   -0.003622068176974163   -0.0010348221314419516
-0.0098752266694969   -0.009547893798550722   -0.0016737022645612564
-0.003147454665627357   -0.0031920408509992374   -0.0008368727525825252
-0.00578492156965826   -0.0037014928436343492   -0.0006654031395464497
-0.0098752266694969   -0.009547893798550722   -0.0016737022645612564
-0.006029158929073941   -0.009159659737934325   -0.0015048501413531651
-0.003147454665627357   -0.0031920408509992374   -0.0008368727525825252
-0.006011274274038868   -0.009207830112752547   -0.0013377122826890148
-0.00578492156965826   -0.0037014928436343492   -0.0006654031395464497
-0.003145881986853755   -0.0032116309390445743   -0.0006294249736126789
-0.006011274274038868   -0.009207830112752547   -0.0013377122826890148
-0.003147454665627357   -0.0031920408509992374   -0.0008368727525825252
-0.00578492156965826   -0.0037014928436343492   -0.0006654031395464497
-0.006011274274038868   -0.009207830112752547   -0.0013377122826890148
-0.010106567566263398   -0.009617662923808409   -0.0014048894110935304
-0.0098752266694969   -0.009547893798550722   -0.0016737022645612564
-0.00578492156965826   -0.0037014928436343492   -0.0006654031395464497
-0.006011274274038868   -0.009207830112752547   -0.0013377122826890148
-0.0098752266694969   -0.009547893798550722   -0.0016737022645612564
-0.003147454665627357   -0.0031920408509992374   -0.0008368727525825252
-0.003201784909216556   -0.002966889682520207   -0.0012383817733875992
-0.005998275701142669   -0.008914502653601882   -0.0018692095132490018
-0.0014580263563498017   -0.0028441916523945054   -0.0009419076156024775
-0.00313853098377456   -0.003115758524123919   -0.0010374867009402388
-0.005998275701142669   -0.008914502653601882   -0.0018692095132490018
-0.0027830618431990005   -0.008774517104084664   -0.001595012852194396
-0.0014580263563498017   -0.0028441916523945054   -0.0009419076156024775
-0.002759125482993008   -0.008871456330310737   -0.0014998043428056948
-0.00313853098377456   -0.003115758524123919   -0.0010374867009402388
-0.0014023797536371048   -0.002941096702033814   -0.0008470757457750938
-0.002759125482993008   -0.008871456330310737   -0.0014998043428056948
-0.0014580263563498017   -0.0028441916523945054   -0.0009419076156024775
-0.00313853098377456   -0.003115758524123919   -0.0010374867009402388
-0.002759125482993008   -0.008871456330310737   -0.0014998043428056948
-0.006005432062371603   -0.009066814925475224   -0.0016834050350651413
-0.005998275701142669   -0.008914502653601882   -0.0018692095132490018
-0.00313853098377456   -0.003115758524123919   -0.0010374867009402388
-0.002759125482993008   -0.008871456330310737   -0.0014998043428056948
-0.005998275701142669   -0.008914502653601882   -0.0018692095132490018
-0.0014580263563498017   -0.0028441916523945054   -0.0009419076156024775
-0.00313853098377456   -0.003115758524123919   -0.0010374867009402388
-0.006005432062371603   -0.009066814925475224   -0.0016834050350651413
-0.0014023797536371048   -0.002941096702033814   -0.0008470757457750938
-0.003147454665627357   -0.0031920408509992374   -0.0008368727525825252
-0.006005432062371603   -0.009066814925475224   -0.0016834050350651413
-0.002759125482993008   -0.008871456330310737   -0.0014998043428056948
-0.0014023797536371048   -0.002941096702033814   -0.0008470757457750938
-0.002737922344186094   -0.008918469897297894   -0.001413493165811005
-0.003147454665627357   -0.0031920408509992374   -0.0008368727525825252
-0.001371156531759739   -0.002978030387016063   -0.0007547122218564637
-0.002737922344186094   -0.008918469897297894   -0.001413493165811005
-0.0014023797536371048   -0.002941096702033814   -0.0008470757457750938
-0.003147454665627357   -0.0031920408509992374   -0.0008368727525825252
-0.002737922344186094   -0.008918469897297894   -0.001413493165811005
-0.006029158929073941   -0.009159659737934325   -0.0015048501413531651
-0.006005432062371603   -0.009066814925475224   -0.0016834050350651413
-0.003147454665627357   -0.0031920408509992374   -0.0008368727525825252
-0.002737922344186094   -0.008918469897297894   -0.001413493165811005
-0.006005432062371603   -0.009066814925475224   -0.0016834050350651413
-0.0014023797536371048   -0.002941096702033814   -0.0008470757457750938
-0.003147454665627357   -0.0031920408509992374   -0.0008368727525825252
-0.006029158929073941   -0.009159659737934325   -0.0015048501413531651
-0.001371156531759739   -0.002978030387016063   -0.0007547122218564637
-0.003145881986853755   -0.0032116309390445743   -0.0006294249736126789
-0.006029158929073941   -0.009159659737934325   -0.0015048501413531651
-0.002737922344186094   -0.008918469897297894   -0.001413493165811005
-0.001371156531759739   -0.002978030387016063   -0.0007547122218564637
-0.0027062463765270555   -0.008917330141028754   -0.0013383458052310475
-0.003145881986853755   -0.0032116309390445743   -0.0006294249736126789
-0.0013427373140693134   -0.002962615100698187   -0.0006592166113540206
-0.0027062463765270555   -0.008917330141028754   -0.0013383458052310475
-0.001371156531759739   -0.002978030387016063   -0.0007547122218564637
-0.003145881986853755   -0.0032116309390445743   -0.0006294249736126789
-0.0027062463765270555   -0.008917330141028754   -0.0013383458052310475
-0.006011274274038868   -0.009207830112752547   -0.0013377122826890148
-0.006029158929073941   -0.009159659737934325   -0.0015048501413531651
-0.003145881986853755   -0.0032116309390445743   -0.0006294249736126789
-0.0027062463765270555   -0.008917330141028754   -0.0013383458052310475
-0.006029158929073941   -0.009159659737934325   -0.0015048501413531651
-0.001371156531759739   -0.002978030387016063   -0.0007547122218564637
-0.0014580263563498017   -0.0028441916523945054   -0.0009419076156024775
-0.0027830618431990005   -0.008774517104084664   -0.001595012852194396
0.00018955983568052056   -0.0028599013020143504   -0.0007529757524564998
-0.0014023797536371048   -0.002941096702033814   -0.0008470757457750938
-0.0027830618431990005   -0.008774517104084664   -0.001595012852194396
0.00031742729351658713   -0.00877868056616393   -0.0014216594533767
0.00018955983568052056   -0.0028599013020143504   -0.0007529757524564998
0.0003468613187266788   -0.008824602748911933   -0.0014153689505730911
-0.0014023797536371048   -0.002941096702033814   -0.0008470757457750938
0.00022504537694513632   -0.0029101359404889245   -0.000766118471405738
0.0003468613187266788   -0.008824602748911933   -0.0014153689505730911
0.00018955983568052056   -0.0028599013020143504   -0.0007529757524564998
-0.0014023797536371048   -0.002941096702033814   -0.0008470757457750938
0.0003468613187266788   -0.008824602748911933   -0.0014153689505730911
-0.002759125482993008   -0.008871456330310737   -0.0014998043428056948
-0.0027830618431990005   -0.008774517104084664   -0.001595012852194396
-0.0014023797536371048   -0.002941096702033814   -0.0008470757457750938
0.0003468613187266788   -0.008824602748911933   -0.0014153689505730911
-0.0027830618431990005   -0.008774517104084664   -0.001595012852194396
0.00018955983568052056   -0.0028599013020143504   -0.0007529757524564998
-0.0014023797536371048   -0.002941096702033814   -0.0008470757457750938
-0.002759125482993008   -0.008871456330310737   -0.0014998043428056948
0.00022504537694513632   -0.0029101359404889245   -0.000766118471405738
-0.001371156531759739   -0.002978030387016063   -0.0007547122218564637
-0.002759125482993008   -0.008871456330310737   -0.0014998043428056948
0.0003468613187266788   -0.008824602748911933   -0.0014153689505730911
0.00022504537694513632   -0.0029101359404889245   -0.000766118471405738
0.0003666425892311556   -0.008821769871409153   -0.0014191770593353528
-0.001371156531759739   -0.002978030387016063   -0.0007547122218564637
0.0002530432369113945   -0.0029059781172296167   -0.0007779831816564566
0.0003666425892311556   -0.008821769871409153   -0.0014191770593353528
0.00022504537694513632   -0.0029101359404889245   -0.000766118471405738
-0.001371156531759739   -0.002978030387016063   -0.0007547122218564637
0.0003666425892311556   -0.008821769871409153   -0.0014191770593353528
-0.002737922344186094   -0.008918469897297894   -0.001413493165811005
-0.002759125482993008   -0.008871456330310737   -0.0014998043428056948
-0.001371156531759739   -0.002978030387016063   -0.0007547122218564637
0.0003666425892311556   -0.008821769871409153   -0.0014191770593353528
-0.002759125482993008   -0.008871456330310737   -0.0014998043428056948
0.00022504537694513632   -0.0029101359404889245   -0.000766118471405738
-0.001371156531759739   -0.002978030387016063   -0.0007547122218564637
-0.002737922344186094   -0.008918469897297894   -0.001413493165811005
0.0002530432369113945   -0.0029059781172296167   -0.0007779831816564566
-0.0013427373140693134   -0.002962615100698187   -0.0006592166113540206
-0.002737922344186094   -0.008918469897297894   -0.001413493165811005
0.0003666425892311556   -0.008821769871409153   -0.0014191770593353528
0.0002530432369113945   -0.0029059781172296167   -0.0007779831816564566
0.00038787046494293854   -0.00876869379660615   -0.001433243554184261
-0.0013427373140693134   -0.002962615100698187   -0.0006592166113540206
0.0002907385478227848   -0.002842965806501584   -0.0007901689476116259
0.00038787046494293854   -0.00876869379660615   -0.001433243554184261
0.0002530432369113945   -0.0029059781172296167   -0.0007779831816564566
-0.0013427373140693134   -0.002962615100698187   -0.0006592166113540206
0.00038787046494293854   -0.00876869379660615   -0.001433243554184261
-0.0027062463765270555   -0.008917330141028754   -0.0013383458052310475
-0.002737922344186094   -0.008918469897297894   -0.001413493165811005
-0.0013427373140693134   -0.002962615100698187   -0.0006592166113540206
0.00038787046494293854   -0.00876869379660615   -0.001433243554184261
-0.002737922344186094   -0.008918469897297894   -0.001413493165811005
0.0002530432369113945   -0.0029059781172296167   -0.0007779831816564566
0.00018955983568052056   -0.0028599013020143504   -0.0007529757524564998
0.00031742729351658713   -0.00877868056616393   -0.0014216594533767
0.0019779280629475585   -0.002999095528349953   -0.0006595311099884849
0.00022504537694513632   -0.0029101359404889245   -0.000766118471405738
0.00031742729351658713   -0.00877868056616393   -0.0014216594533767
0.003603036767391234   -0.008921788422867626   -0.0013408001975319511
0.0019779280629475585   -0.002999095528349953   -0.0006595311099884849
0.0036196645878002636   -0.008921359981061198   -0.0014263116773913923
0.00022504537694513632   -0.0029101359404889245   -0.000766118471405738
0.0019813238891725512   -0.0030150822234246417   -0.0007862866156157764
0.0036196645878002636   -0.008921359981061198   -0.0014263116773913923
0.0019779280629475585   -0.002999095528349953   -0.0006595311099884849
0.00022504537694513632   -0.0029101359404889245   -0.000766118471405738
0.0036196645878002636   -0.008921359981061198   -0.0014263116773913923
0.0003468613187266788   -0.008824602748911933   -0.0014153689505730911
0.00031742729351658713   -0.00877868056616393   -0.0014216594533767
0.00022504537694513632   -0.0029101359404889245   -0.000766118471405738
0.0036196645878002636   -0.008921359981061198   -0.0014263116773913923
0.00031742729351658713   -0.00877868056616393   -0.0014216594533767
0.0019779280629475585   -0.002999095528349953   -0.0006595311099884849
0.00022504537694513632   -0.0029101359404889245   -0.000766118471405738
0.0003468613187266788   -0.008824602748911933   -0.0014153689505730911
0.0019813238891725512   -0.0030150822234246417   -0.0007862866156157764
0.0002530432369113945   -0.0029059781172296167   -0.0007779831816564566
0.0003468613187266788   -0.008824602748911933   -0.0014153689505730911
0.0036196645878002636   -0.008921359981061198   -0.0014263116773913923
0.0019813238891725512   -0.0030150822234246417   -0.0007862866156157764
0.0036028820388510955   -0.008873122248708882   -0.001523248680631617
0.0002530432369113945   -0.0029059781172296167   -0.0007779831816564566
0.0019727336644574434   -0.0029720271189263977   -0.000907880469008031
0.0036028820388510955   -0.008873122248708882   -0.001523248680631617
0.0019813238891725512   -0.0030150822234246417   -0.0007862866156157764
0.0002530432369113945   -0.0029059781172296167   -0.0007779831816564566
0.0036028820388510955   -0.008873122248708882   -0.001523248680631617
0.0003666425892311556   -0.008821769871409153   -0.0014191770593353528
0.0003468613187266788   -0.008824602748911933   -0.0014153689505730911
0.0002530432369113945   -0.0029059781172296167   -0.0007779831816564566
0.0036028820388510955   -0.008873122248708882   -0.001523248680631617
0.0003468613187266788   -0.008824602748911933   -0.0014153689505730911
0.0019813238891725512   -0.0030150822234246417   -0.0007862866156157764
0.0002530432369113945   -0.0029059781172296167   -0.0007779831816564566
0.0003666425892311556   -0.008821769871409153   -0.0014191770593353528
0.0019727336644574434   -0.0029720271189263977   -0.000907880469008031
0.0002907385478227848   -0.002842965806501584   -0.0007901689476116259
0.0003666425892311556   -0.008821769871409153   -0.0014191770593353528
0.0036028820388510955   -0.008873122248708882   -0.001523248680631617
0.0019727336644574434   -0.0029720271189263977   -0.000907880469008031
0.0035932442351338683   -0.008763883300951191   -0.0016280248886145702
0.0002907385478227848   -0.002842965806501584   -0.0007901689476116259
0.0020108391671079737   -0.0028567417263401346   -0.0010271548526134433
0.0035932442351338683   -0.008763883300951191   -0.0016280248886145702
0.0019727336644574434   -0.0029720271189263977   -0.000907880469008031
0.0002907385478227848   -0.002842965806501584   -0.0007901689476116259
0.0035932442351338683   -0.008763883300951191   -0.0016280248886145702
0.00038787046494293854   -0.00876869379660615   -0.001433243554184261
0.0003666425892311556   -0.008821769871409153   -0.0014191770593353528
0.0002907385478227848   -0.002842965806501584   -0.0007901689476116259
0.0035932442351338683   -0.008763883300951191   -0.0016280248886145702
0.0003666425892311556   -0.008821769871409153   -0.0014191770593353528
0.0019727336644574434   -0.0029720271189263977   -0.000907880469008031
0.0019779280629475585   -0.002999095528349953   -0.0006595311099884849
0.003603036767391234   -0.008921788422867626   -0.0013408001975319511
0.004464813882856407   -0.0033519033027771344   -0.0006222864032830885
0.0019813238891725512   -0.0030150822234246417   -0.0007862866156157764
0.003603036767391234   -0.008921788422867626   -0.0013408001975319511
0.007567758450928615   -0.009187800163493002   -0.0013190806241749537
0.004464813882856407   -0.0033519033027771344   -0.0006222864032830885
0.007413727442442306   -0.009162708356909275   -0.0015114530178592515
0.0019813238891725512   -0.0030150822234246417   -0.0007862866156157764
0.004193023249847666   -0.0033153039269210607   -0.0009096489030755334
0.007413727442442306   -0.009162708356909275   -0.0015114530178592515
0.004464813882856407   -0.0033519033027771344   -0.0006222864032830885
0.0019813238891725512   -0.0030150822234246417   -0.0007862866156157764
0.007413727442442306   -0.009162708356909275   -0.0015114530178592515
0.0036196645878002636   -0.008921359981061198   -0.0014263116773913923
0.003603036767391234   -0.008921788422867626   -0.0013408001975319511
0.0019813238891725512   -0.0030150822234246417   -0.0007862866156157764
0.007413727442442306   -0.009162708356909275   -0.0015114530178592515
0.003603036767391234   -0.008921788422867626   -0.0013408001975319511
0.004464813882856407   -0.0033519033027771344   -0.0006222864032830885
0.0019813238891725512   -0.0030150822234246417   -0.0007862866156157764
0.0036196645878002636   -0.008921359981061198   -0.0014263116773913923
0.004193023249847666   -0.0033153039269210607   -0.0009096489030755334
0.0019727336644574434   -0.0029720271189263977   -0.000907880469008031
0.0036196645878002636   -0.008921359981061198   -0.0014263116773913923
0.007413727442442306   -0.009162708356909275   -0.0015114530178592515
0.004193023249847666   -0.0033153039269210607   -0.0009096489030755334
0.007276078396492404   -0.009088340663334424   -0.0017278660057783149
0.0019727336644574434   -0.0029720271189263977   -0.000907880469008031
0.004067642519118771   -0.003246375798396748   -0.0011526467691464761
0.007276078396492404   -0.009088340663334424   -0.0017278660057783149
0.004193023249847666   -0.0033153039269210607   -0.0009096489030755334
0.0019727336644574434   -0.0029720271189263977   -0.000907880469008031
0.007276078396492404   -0.009088340663334424   -0.0017278660057783149
0.0036028820388510955   -0.008873122248708882   -0.001523248680631617
0.0036196645878002636   -0.008921359981061198   -0.0014263116773913923
0.0019727336644574434   -0.0029720271189263977   -0.000907880469008031
0.007276078396492404   -0.009088340663334424   -0.0017278660057783149
0.0036196645878002636   -0.008921359981061198   -0.0014263116773913923
0.004193023249847666   -0.0033153039269210607   -0.0009096489030755334
0.0019727336644574434   -0.0029720271189263977   -0.000907880469008031
0.0036028820388510955   -0.008873122248708882   -0.001523248680631617
0.004067642519118771   -0.003246375798396748   -0.0011526467691464761
0.0020108391671079737   -0.0028567417263401346   -0.0010271548526134433
0.0036028820388510955   -0.008873122248708882   -0.001523248680631617
0.007276078396492404   -0.009088340663334424   -0.0017278660057783149
0.004067642519118771   -0.003246375798396748   -0.0011526467691464761
0.007069844997963556   -0.00892286895161924   -0.0019531428441949723
0.0020108391671079737   -0.0028567417263401346   -0.0010271548526134433
0.0038810589190799603   -0.003070017300632756   -0.0014097826859165612
0.007069844997963556   -0.00892286895161924   -0.0019531428441949723
0.004067642519118771   -0.003246375798396748   -0.0011526467691464761
0.0020108391671079737   -0.0028567417263401346   -0.0010271548526134433
0.007069844997963556   -0.00892286895161924   -0.0019531428441949723
0.0035932442351338683   -0.008763883300951191   -0.0016280248886145702
0.0036028820388510955   -0.008873122248708882   -0.001523248680631617
0.0020108391671079737   -0.0028567417263401346   -0.0010271548526134433
0.007069844997963556   -0.00892286895161924   -0.0019531428441949723
0.0036028820388510955   -0.008873122248708882   -0.001523248680631617
0.004067642519118771   -0.003246375798396748   -0.0011526467691464761
-0.009397844185436235   -0.009215344323659978   -0.002270877745019929
-0.012876471936436124   -0.01728198110122484   -0.002586550399565213
-0.005998275701142669   -0.008914502653601882   -0.0018692095132490018
-0.00967950290511659   -0.009427872635160003   -0.001969150678619976
-0.012876471936436124   -0.01728198110122484   -0.002586550399565213
-0.008278709761946109   -0.01705208129156245   -0.0022607885212322042
-0.005998275701142669   -0.008914502653601882   -0.0018692095132490018
-0.008296930268325703   -0.01718354179041678   -0.002116636312130339
-0.00967950290511659   -0.009427872635160003   -0.001969150678619976
-0.006005432062371603   -0.009066814925475224   -0.0016834050350651413
-0.008296930268325703   -0.01718354179041678   -0.002116636312130339
-0.005998275701142669   -0.008914502653601882   -0.0018692095132490018
-0.00967950290511659   -0.009427872635160003   -0.001969150678619976
-0.008296930268325703   -0.01718354179041678   -0.002116636312130339
-0.013105536337444067   -0.017461640369456743   -0.0023615383498403293
-0.012876471936436124   -0.01728198110122484   -0.002586550399565213
-0.00967950290511659   -0.009427872635160003   -0.001969150678619976
-0.008296930268325703   -0.01718354179041678   -0.002116636312130339
-0.012876471936436124   -0.01728198110122484   -0.002586550399565213
-0.005998275701142669   -0.008914502653601882   -0.0018692095132490018
-0.00967950290511659   -0.009427872635160003   -0.001969150678619976
-0.013105536337444067   -0.017461640369456743   -0.0023615383498403293
-0.006005432062371603   -0.009066814925475224   -0.0016834050350651413
-0.0098752266694969   -0.009547893798550722   -0.0016737022645612564
-0.013105536337444067   -0.017461640369456743   -0.0023615383498403293
-0.008296930268325703   -0.01718354179041678   -0.002116636312130339
-0.006005432062371603   -0.009066814925475224   -0.0016834050350651413
-0.008318377949397205   -0.017275027150385664   -0.0019829142254150865
-0.0098752266694969   -0.009547893798550722   -0.0016737022645612564
-0.006029158929073941   -0.009159659737934325   -0.0015048501413531651
-0.008318377949397205   -0.017275027150385664   -0.0019829142254150865
-0.006005432062371603   -0.009066814925475224   -0.0016834050350651413
-0.0098752266694969   -0.009547893798550722   -0.0016737022645612564
-0.008318377949397205   -0.017275027150385664   -0.0019829142254150865
-0.013249972925651235   -0.017574299886159342   -0.002151815590868293
-0.013105536337444067   -0.017461640369456743   -0.0023615383498403293
-0.0098752266694969   -0.009547893798550722   -0.0016737022645612564
-0.008318377949397205   -0.017275027150385664   -0.0019829142254150865
-0.013105536337444067   -0.017461640369456743   -0.0023615383498403293
-0.006005432062371603   -0.009066814925475224   -0.0016834050350651413
-0.0098752266694969   -0.009547893798550722   -0.0016737022645612564
-0.013249972925651235   -0.017574299886159342   -0.002151815590868293
-0.006029158929073941   -0.009159659737934325   -0.0015048501413531651
-0.010106567566263398   -0.009617662923808409   -0.0014048894110935304
-0.013249972925651235   -0.017574299886159342   -0.002151815590868293
-0.008318377949397205   -0.017275027150385664   -0.0019829142254150865
-0.006029158929073941   -0.009159659737934325   -0.0015048501413531651
-0.008302857551578318   -0.01733521672734393   -0.0018574003157513653
-0.010106567566263398   -0.009617662923808409   -0.0014048894110935304
-0.006011274274038868   -0.009207830112752547   -0.0013377122826890148
-0.008302857551578318   -0.01733521672734393   -0.0018574003157513653
-0.006029158929073941   -0.009159659737934325   -0.0015048501413531651
-0.010106567566263398   -0.009617662923808409   -0.0014048894110935304
-0.008302857551578318   -0.01733521672734393   -0.0018574003157513653
-0.013414312541811716   -0.01765532355290748   -0.0019588118867161393
-0.013249972925651235   -0.017574299886159342   -0.002151815590868293
-0.010106567566263398   -0.009617662923808409   -0.0014048894110935304
-0.008302857551578318   -0.01733521672734393   -0.0018574003157513653
-0.013249972925651235   -0.017574299886159342   -0.002151815590868293
-0.006029158929073941   -0.009159659737934325   -0.0015048501413531651
-0.005998275701142669   -0.008914502653601882   -0.0018692095132490018
-0.008278709761946109   -0.01705208129156245   -0.0022607885212322042
-0.0027830618431990005   -0.008774517104084664   -0.001595012852194396
-0.006005432062371603   -0.009066814925475224   -0.0016834050350651413
-0.008278709761946109   -0.01705208129156245   -0.0022607885212322042
-0.003943585914567629   -0.016937456072568427   -0.0020344632180195705
-0.0027830618431990005   -0.008774517104084664   -0.001595012852194396
-0.003933780609740091   -0.017021515572003782   -0.001952998830828721
-0.006005432062371603   -0.009066814925475224   -0.0016834050350651413
-0.002759125482993008   -0.008871456330310737   -0.0014998043428056948
-0.003933780609740091   -0.017021515572003782   -0.001952998830828721
-0.0027830618431990005   -0.008774517104084664   -0.001595012852194396
-0.006005432062371603   -0.009066814925475224   -0.0016834050350651413
-0.003933780609740091   -0.017021515572003782   -0.001952998830828721
-0.008296930268325703   -0.01718354179041678   -0.002116636312130339
-0.008278709761946109   -0.01705208129156245   -0.0022607885212322042
-0.006005432062371603   -0.009066814925475224   -0.0016834050350651413
-0.003933780609740091   -0.017021515572003782   -0.001952998830828721
-0.008278709761946109   -0.01705208129156245   -0.0022607885212322042
-0.0027830618431990005   -0.008774517104084664   -0.001595012852194396
-0.006005432062371603   -0.009066814925475224   -0.0016834050350651413
-0.008296930268325703   -0.01718354179041678   -0.002116636312130339
-0.002759125482993008   -0.008871456330310737   -0.0014998043428056948
-0.006029158929073941   -0.009159659737934325   -0.0015048501413531651
-0.008296930268325703   -0.01718354179041678   -0.002116636312130339
-0.003933780609740091   -0.017021515572003782   -0.001952998830828721
-0.002759125482993008   -0.008871456330310737   -0.0014998043428056948
-0.003921753466252513   -0.017070891991924228   -0.001881466626049191
-0.006029158929073941   -0.009159659737934325   -0.0015048501413531651
-0.002737922344186094   -0.008918469897297894   -0.001413493165811005
-0.003921753466252513   -0.017070891991924228   -0.001881466626049191
-0.002759125482993008   -0.008871456330310737   -0.0014998043428056948
-0.006029158929073941   -0.009159659737934325   -0.0015048501413531651
-0.003921753466252513   -0.017070891991924228   -0.001881466626049191
-0.008318377949397205   -0.017275027150385664   -0.0019829142254150865
-0.008296930268325703   -0.01718354179041678   -0.002116636312130339
-0.006029158929073941   -0.009159659737934325   -0.0015048501413531651
-0.003921753466252513   -0.017070891991924228   -0.001881466626049191
-0.008296930268325703   -0.01718354179041678   -0.002116636312130339
-0.002759125482993008   -0.008871456330310737   -0.0014998043428056948
-0.006029158929073941   -0.009159659737934325   -0.0015048501413531651
-0.008318377949397205   -0.017275027150385664   -0.0019829142254150865
-0.002737922344186094   -0.008918469897297894   -0.001413493165811005
-0.006011274274038868   -0.009207830112752547   -0.0013377122826890148
-0.008318377949397205   -0.017275027150385664   -0.0019829142254150865
-0.003921753466252513   -0.017070891991924228   -0.001881466626049191
-0.002737922344186094   -0.008918469897297894   -0.001413493165811005
-0.003901937911662349   -0.017086291226424334   -0.001819836879369368
-0.006011274274038868   -0.009207830112752547   -0.0013377122826890148
-0.0027062463765270555   -0.008917330141028754   -0.0013383458052310475
-0.003901937911662349   -0.017086291226424334   -0.001819836879369368
-0.002737922344186094   -0.008918469897297894   -0.001413493165811005
-0.006011274274038868   -0.009207830112752547   -0.0013377122826890148
-0.003901937911662349   -0.017086291226424334   -0.001819836879369368
-0.008302857551578318   -0.01733521672734393   -0.0018574003157513653
-0.008318377949397205   -0.017275027150385664   -0.0019829142254150865
-0.006011274274038868   -0.009207830112752547   -0.0013377122826890148
-0.003901937911662349   -0.017086291226424334   -0.001819836879369368
-0.008318377949397205   -0.017275027150385664   -0.0019829142254150865
-0.002737922344186094   -0.008918469897297894   -0.001413493165811005
-0.0027830618431990005   -0.008774517104084664   -0.001595012852194396
-0.003943585914567629   -0.016937456072568427   -0.0020344632180195705
0.00031742729351658713   -0.00877868056616393   -0.0014216594533767
-0.002759125482993008   -0.008871456330310737   -0.0014998043428056948
-0.003943585914567629   -0.016937456072568427   -0.0020344632180195705
0.00026424683373109793   -0.016931355355719924   -0.0018941439281105741
0.00031742729351658713   -0.00877868056616393   -0.0014216594533767
0.00028233806537955494   -0.016968758059846538   -0.001875031170074746
-0.002759125482993008   -0.008871456330310737   -0.0014998043428056948
0.0003468613187266788   -0.008824602748911933   -0.0014153689505730911
0.00028233806537955494   -0.016968758059846538   -0.001875031170074746
0.00031742729351658713   -0.00877868056616393   -0.0014216594533767
-0.002759125482993008   -0.008871456330310737   -0.0014998043428056948
0.00028233806537955494   -0.016968758059846538   -0.001875031170074746
-0.003933780609740091   -0.017021515572003782   -0.001952998830828721
-0.003943585914567629   -0.016937456072568427   -0.0020344632180195705
-0.002759125482993008   -0.008871456330310737   -0.0014998043428056948
0.00028233806537955494   -0.016968758059846538   -0.001875031170074746
-0.003943585914567629   -0.016937456072568427   -0.0020344632180195705
0.00031742729351658713   -0.00877868056616393   -0.0014216594533767
-0.002759125482993008   -0.008871456330310737   -0.0014998043428056948
-0.003933780609740091   -0.017021515572003782   -0.001952998830828721
0.0003468613187266788   -0.008824602748911933   -0.0014153689505730911
-0.002737922344186094   -0.008918469897297894   -0.001413493165811005
-0.003933780609740091   -0.017021515572003782   -0.001952998830828721
0.00028233806537955494   -0.016968758059846538   -0.001875031170074746
0.0003468613187266788   -0.008824602748911933   -0.0014153689505730911
0.00029391080352358224   -0.016971616997215222   -0.0018655909714402504
-0.002737922344186094   -0.008918469897297894   -0.001413493165811005
0.0003666425892311556   -0.008821769871409153   -0.0014191770593353528
0.00029391080352358224   -0.016971616997215222   -0.0018655909714402504
0.0003468613187266788   -0.008824602748911933   -0.0014153689505730911
-0.002737922344186094   -0.008918469897297894   -0.001413493165811005
0.00029391080352358224   -0.016971616997215222   -0.0018655909714402504
-0.003921753466252513   -0.017070891991924228   -0.001881466626049191
-0.003933780609740091   -0.017021515572003782   -0.001952998830828721
-0.002737922344186094   -0.008918469897297894   -0.001413493165811005
0.00029391080352358224   -0.016971616997215222   -0.0018655909714402504
-0.003933780609740091   -0.017021515572003782   -0.001952998830828721
0.0003468613187266788   -0.008824602748911933   -0.0014153689505730911
-0.002737922344186094   -0.008918469897297894   -0.001413493165811005
-0.003921753466252513   -0.017070891991924228   -0.001881466626049191
0.0003666425892311556   -0.008821769871409153   -0.0014191770593353528
-0.0027062463765270555   -0.008917330141028754   -0.0013383458052310475
-0.003921753466252513   -0.017070891991924228   -0.001881466626049191
0.00029391080352358224   -0.016971616997215222   -0.0018655909714402504
0.0003666425892311556   -0.008821769871409153   -0.0014191770593353528
0.00030226173084531695   -0.01693941708455227   -0.0018664113469170239
-0.0027062463765270555   -0.008917330141028754   -0.0013383458052310475
0.00038787046494293854   -0.00876869379660615   -0.001433243554184261
0.00030226173084531695   -0.01693941708455227   -0.0018664113469170239
0.0003666425892311556   -0.008821769871409153   -0.0014191770593353528
-0.0027062463765270555   -0.008917330141028754   -0.0013383458052310475
0.00030226173084531695   -0.01693941708455227   -0.0018664113469170239
-0.003901937911662349   -0.017086291226424334   -0.001819836879369368
-0.003921753466252513   -0.017070891991924228   -0.001881466626049191
-0.0027062463765270555   -0.008917330141028754   -0.0013383458052310475
0.00030226173084531695   -0.01693941708455227   -0.0018664113469170239
-0.003921753466252513   -0.017070891991924228   -0.001881466626049191
0.0003666425892311556   -0.008821769871409153   -0.0014191770593353528
0.00031742729351658713   -0.00877868056616393   -0.0014216594533767
0.00026424683373109793   -0.016931355355719924   -0.0018941439281105741
0.003603036767391234   -0.008921788422867626   -0.0013408001975319511
0.0003468613187266788   -0.008824602748911933   -0.0014153689505730911
0.00026424683373109793   -0.016931355355719924   -0.0018941439281105741
0.004651655296865993   -0.01702732872176594   -0.0018374317592125173
0.003603036767391234   -0.008921788422867626   -0.0013408001975319511
0.004667443065869023   -0.017021967878665792   -0.001881965909462312
0.0003468613187266788   -0.008824602748911933   -0.0014153689505730911
0.0036196645878002636   -0.008921359981061198   -0.0014263116773913923
0.004667443065869023   -0.017021967878665792   -0.001881965909462312
0.003603036767391234   -0.008921788422867626   -0.0013408001975319511
0.0003468613187266788   -0.008824602748911933   -0.0014153689505730911
0.004667443065869023   -0.017021967878665792   -0.001881965909462312
0.00028233806537955494   -0.016968758059846538   -0.001875031170074746
0.00026424683373109793   -0.016931355355719924   -0.0018941439281105741
0.0003468613187266788   -0.008824602748911933   -0.0014153689505730911
0.004667443065869023   -0.017021967878665792   -0.001881965909462312
0.00026424683373109793   -0.016931355355719924   -0.0018941439281105741
0.003603036767391234   -0.008921788422867626   -0.0013408001975319511
0.0003468613187266788   -0.008824602748911933   -0.0014153689505730911
0.00028233806537955494   -0.016968758059846538   -0.001875031170074746
0.0036196645878002636   -0.008921359981061198   -0.0014263116773913923
0.0003666425892311556   -0.008821769871409153   -0.0014191770593353528
0.00028233806537955494   -0.016968758059846538   -0.001875031170074746
0.004667443065869023   -0.017021967878665792   -0.001881965909462312
0.0036196645878002636   -0.008921359981061198   -0.0014263116773913923
0.0046555654485876076   -0.016982803370625087   -0.0019354618838555969
0.0003666425892311556   -0.008821769871409153   -0.0014191770593353528
0.0036028820388510955   -0.008873122248708882   -0.001523248680631617
0.0046555654485876076   -0.016982803370625087   -0.0019354618838555969
0.0036196645878002636   -0.008921359981061198   -0.0014263116773913923
0.0003666425892311556   -0.008821769871409153   -0.0014191770593353528
0.0046555654485876076   -0.016982803370625087   -0.0019354618838555969
0.00029391080352358224   -0.016971616997215222   -0.0018655909714402504
0.00028233806537955494   -0.016968758059846538   -0.001875031170074746
0.0003666425892311556   -0.008821769871409153   -0.0014191770593353528
0.0046555654485876076   -0.016982803370625087   -0.0019354618838555969
0.00028233806537955494   -0.016968758059846538   -0.001875031170074746
0.0036196645878002636   -0.008921359981061198   -0.0014263116773913923
0.0003666425892311556   -0.008821769871409153   -0.0014191770593353528
0.00029391080352358224   -0.016971616997215222   -0.0018655909714402504
0.0036028820388510955   -0.008873122248708882   -0.001523248680631617
0.00038787046494293854   -0.00876869379660615   -0.001433243554184261
0.00029391080352358224   -0.016971616997215222   -0.0018655909714402504
0.0046555654485876076   -0.016982803370625087   -0.0019354618838555969
0.0036028820388510955   -0.008873122248708882   -0.001523248680631617
0.004637805452936206   -0.01690146560819901   -0.001998981305887275
0.00038787046494293854   -0.00876869379660615   -0.001433243554184261
0.0035932442351338683   -0.008763883300951191   -0.0016280248886145702
0.004637805452936206   -0.01690146560819901   -0.001998981305887275
0.0036028820388510955   -0.008873122248708882   -0.001523248680631617
0.00038787046494293854   -0.00876869379660615   -0.001433243554184261
0.004637805452936206   -0.01690146560819901   -0.001998981305887275
0.00030226173084531695   -0.01693941708455227   -0.0018664113469170239
0.00029391080352358224   -0.016971616997215222   -0.0018655909714402504
0.00038787046494293854   -0.00876869379660615   -0.001433243554184261
0.004637805452936206   -0.01690146560819901   -0.001998981305887275
0.00029391080352358224   -0.016971616997215222   -0.0018655909714402504
0.0036028820388510955   -0.008873122248708882   -0.001523248680631617
0.003603036767391234   -0.008921788422867626   -0.0013408001975319511
0.004651655296865993   -0.01702732872176594   -0.0018374317592125173
0.007567758450928615   -0.009187800163493002   -0.0013190806241749537
0.0036196645878002636   -0.008921359981061198   -0.0014263116773913923
0.004651655296865993   -0.01702732872176594   -0.0018374317592125173
0.009648227602520607   -0.017201412315371194   -0.0018385711361815437
0.007567758450928615   -0.009187800163493002   -0.0013190806241749537
0.009564245093538249   -0.017171413460124657   -0.001954946288975983
0.0036196645878002636   -0.008921359981061198   -0.0014263116773913923
0.007413727442442306   -0.009162708356909275   -0.0015114530178592515
0.009564245093538249   -0.017171413460124657   -0.001954946288975983
0.007567758450928615   -0.009187800163493002   -0.0013190806241749537
0.0036196645878002636   -0.008921359981061198   -0.0014263116773913923
0.009564245093538249   -0.017171413460124657   -0.001954946288975983
0.004667443065869023   -0.017021967878665792   -0.001881965909462312
0.004651655296865993   -0.01702732872176594   -0.0018374317592125173
0.0036196645878002636   -0.008921359981061198   -0.0014263116773913923
0.009564245093538249   -0.017171413460124657   -0.001954946288975983
0.004651655296865993   -0.01702732872176594   -0.0018374317592125173
0.007567758450928615   -0.009187800163493002   -0.0013190806241749537
0.0036196645878002636   -0.008921359981061198   -0.0014263116773913923
0.004667443065869023   -0.017021967878665792   -0.001881965909462312
0.007413727442442306   -0.009162708356909275   -0.0015114530178592515
0.0036028820388510955   -0.008873122248708882   -0.001523248680631617
0.004667443065869023   -0.017021967878665792   -0.001881965909462312
0.009564245093538249   -0.017171413460124657   -0.001954946288975983
0.007413727442442306   -0.009162708356909275   -0.0015114530178592515
0.009480420009333072   -0.01711111316555559   -0.0020874818341308546
0.0036028820388510955   -0.008873122248708882   -0.001523248680631617
0.007276078396492404   -0.009088340663334424   -0.0017278660057783149
0.009480420009333072   -0.01711111316555559   -0.0020874818341308546
0.007413727442442306   -0.009162708356909275   -0.0015114530178592515
0.0036028820388510955   -0.008873122248708882   -0.001523248680631617
0.009480420009333072   -0.01711111316555559   -0.0020874818341308546
0.0046555654485876076   -0.016982803370625087   -0.0019354618838555969
0.004667443065869023   -0.017021967878665792   -0.001881965909462312
0.0036028820388510955   -0.008873122248708882   -0.001523248680631617
0.009480420009333072   -0.01711111316555559   -0.0020874818341308546
0.004667443065869023   -0.017021967878665792   -0.001881965909462312
0.007413727442442306   -0.009162708356909275   -0.0015114530178592515
0.0036028820388510955   -0.008873122248708882   -0.001523248680631617
0.0046555654485876076   -0.016982803370625087   -0.0019354618838555969
0.007276078396492404   -0.009088340663334424   -0.0017278660057783149
0.0035932442351338683   -0.008763883300951191   -0.0016280248886145702
0.0046555654485876076   -0.016982803370625087   -0.0019354618838555969
0.009480420009333072   -0.01711111316555559   -0.0020874818341308546
0.007276078396492404   -0.009088340663334424   -0.0017278660057783149
0.00933152958466264   -0.016984622126329854   -0.0022361949532326694
0.0035932442351338683   -0.008763883300951191   -0.0016280248886145702
0.007069844997963556   -0.00892286895161924   -0.0019531428441949723
0.00933152958466264   -0.016984622126329854   -0.0022361949532326694
0.007276078396492404   -0.009088340663334424   -0.0017278660057783149
0.0035932442351338683   -0.008763883300951191   -0.0016280248886145702
0.00933152958466264   -0.016984622126329854   -0.0022361949532326694
0.004637805452936206   -0.01690146560819901   -0.001998981305887275
0.0046555654485876076   -0.016982803370625087   -0.0019354618838555969
0.0035932442351338683   -0.008763883300951191   -0.0016280248886145702
0.00933152958466264   -0.016984622126329854   -0.0022361949532326694
0.0046555654485876076   -0.016982803370625087   -0.0019354618838555969
0.007276078396492404   -0.009088340663334424   -0.0017278660057783149
-0.012876471936436124   -0.01728198110122484   -0.002586550399565213
-0.01537662735113971   -0.026846792319957867   -0.002758538178669428
-0.008278709761946109   -0.01705208129156245   -0.0022607885212322042
-0.013105536337444067   -0.017461640369456743   -0.0023615383498403293
-0.01537662735113971   -0.026846792319957867   -0.002758538178669428
-0.009980932043349508   -0.026700524120804352   -0.0024929526368406914
-0.008278709761946109   -0.01705208129156245   -0.0022607885212322042
-0.0099929588549606   -0.026813599548992758   -0.0023897758305538677
-0.013105536337444067   -0.017461640369456743   -0.0023615383498403293
-0.008296930268325703   -0.01718354179041678   -0.002116636312130339
-0.0099929588549606   -0.026813599548992758   -0.0023897758305538677
-0.008278709761946109   -0.01705208129156245   -0.0022607885212322042
-0.013105536337444067   -0.017461640369456743   -0.0023615383498403293
-0.0099929588549606   -0.026813599548992758   -0.0023897758305538677
-0.015530942693091958   -0.02699976813939557   -0.0026091328679083607
-0.01537662735113971   -0.026846792319957867   -0.002758538178669428
-0.013105536337444067   -0.017461640369456743   -0.0023615383498403293
-0.0099929588549606   -0.026813599548992758   -0.0023897758305538677
-0.01537662735113971   -0.026846792319957867   -0.002758538178669428
-0.008278709761946109   -0.01705208129156245   -0.0022607885212322042
-0.013105536337444067   -0.017461640369456743   -0.0023615383498403293
-0.015530942693091958   -0.02699976813939557   -0.0026091328679083607
-0.008296930268325703   -0.01718354179041678   -0.002116636312130339
-0.013249972925651235   -0.017574299886159342   -0.002151815590868293
-0.015530942693091958   -0.02699976813939557   -0.0026091328679083607
-0.0099929588549606   -0.026813599548992758   -0.0023897758305538677
-0.008296930268325703   -0.01718354179041678   -0.002116636312130339
-0.010001545926583479   -0.02690324645779339   -0.0022968803594710587
-0.013249972925651235   -0.017574299886159342   -0.002151815590868293
-0.008318377949397205   -0.017275027150385664   -0.0019829142254150865
-0.010001545926583479   -0.02690324645779339   -0.0022968803594710587
-0.008296930268325703   -0.01718354179041678   -0.002116636312130339
-0.013249972925651235   -0.017574299886159342   -0.002151815590868293
-0.010001545926583479   -0.02690324645779339   -0.0022968803594710587
-0.01561949749826749   -0.027108003933724388   -0.0024740634930993997
-0.015530942693091958   -0.02699976813939557   -0.0026091328679083607
-0.013249972925651235   -0.017574299886159342   -0.002151815590868293
-0.010001545926583479   -0.02690324645779339   -0.0022968803594710587
-0.015530942693091958   -0.02699976813939557   -0.0026091328679083607
-0.008296930268325703   -0.01718354179041678   -0.002116636312130339
-0.013249972925651235   -0.017574299886159342   -0.002151815590868293
-0.01561949749826749   -0.027108003933724388   -0.0024740634930993997
-0.008318377949397205   -0.017275027150385664   -0.0019829142254150865
-0.013414312541811716   -0.01765532355290748   -0.0019588118867161393
-0.01561949749826749   -0.027108003933724388   -0.0024740634930993997
-0.010001545926583479   -0.02690324645779339   -0.0022968803594710587
-0.008318377949397205   -0.017275027150385664   -0.0019829142254150865
-0.009980874218706318   -0.026976899428255176   -0.002212899602335553
-0.013414312541811716   -0.01765532355290748   -0.0019588118867161393
-0.008302857551578318   -0.01733521672734393   -0.0018574003157513653
-0.009980874218706318   -0.026976899428255176   -0.002212899602335553
-0.008318377949397205   -0.017275027150385664   -0.0019829142254150865
-0.013414312541811716   -0.01765532355290748   -0.0019588118867161393
-0.009980874218706318   -0.026976899428255176   -0.002212899602335553
-0.015710714801790947   -0.027205029441244834   -0.0023550340350656637
-0.01561949749826749   -0.027108003933724388   -0.0024740634930993997
-0.013414312541811716   -0.01765532355290748   -0.0019588118867161393
-0.009980874218706318   -0.026976899428255176   -0.002212899602335553
-0.01561949749826749   -0.027108003933724388   -0.0024740634930993997
-0.008318377949397205   -0.017275027150385664   -0.0019829142254150865
-0.008278709761946109   -0.01705208129156245   -0.0022607885212322042
-0.009980932043349508   -0.026700524120804352   -0.0024929526368406914
-0.003943585914567629   -0.016937456072568427   -0.0020344632180195705
-0.008296930268325703   -0.01718354179041678   -0.002116636312130339
-0.009980932043349508   -0.026700524120804352   -0.0024929526368406914
-0.004922594514347964   -0.026624914644440393   -0.0023090501693575956
-0.003943585914567629   -0.016937456072568427   -0.0020344632180195705
-0.004913263564541821   -0.02669586728986517   -0.002240930330651866
-0.008296930268325703   -0.01718354179041678   -0.002116636312130339
-0.003933780609740091   -0.017021515572003782   -0.001952998830828721
-0.004913263564541821   -0.02669586728986517   -0.002240930330651866
-0.003943585914567629   -0.016937456072568427   -0.0020344632180195705
-0.008296930268325703   -0.01718354179041678   -0.002116636312130339
-0.004913263564541821   -0.02669586728986517   -0.002240930330651866
-0.0099929588549606   -0.026813599548992758   -0.0023897758305538677
-0.009980932043349508   -0.026700524120804352   -0.0024929526368406914
-0.008296930268325703   -0.01718354179041678   -0.002116636312130339
-0.004913263564541821   -0.02669586728986517   -0.002240930330651866
-0.009980932043349508   -0.026700524120804352   -0.0024929526368406914
-0.003943585914567629   -0.016937456072568427   -0.0020344632180195705
-0.008296930268325703   -0.01718354179041678   -0.002116636312130339
-0.0099929588549606   -0.026813599548992758   -0.0023897758305538677
-0.003933780609740091   -0.017021515572003782   -0.001952998830828721
-0.008318377949397205   -0.017275027150385664   -0.0019829142254150865
-0.0099929588549606   -0.026813599548992758   -0.0023897758305538677
-0.004913263564541821   -0.02669586728986517   -0.002240930330651866
-0.003933780609740091   -0.017021515572003782   -0.001952998830828721
-0.004900509426653757   -0.02674718702723417   -0.002182937330161688
-0.008318377949397205   -0.017275027150385664   -0.0019829142254150865
-0.003921753466252513   -0.017070891991924228   -0.001881466626049191
-0.004900509426653757   -0.02674718702723417   -0.002182937330161688
-0.003933780609740091   -0.017021515572003782   -0.001952998830828721
-0.008318377949397205   -0.017275027150385664   -0.0019829142254150865
-0.004900509426653757   -0.02674718702723417   -0.002182937330161688
-0.010001545926583479   -0.02690324645779339   -0.0022968803594710587
-0.0099929588549606   -0.026813599548992758   -0.0023897758305538677
-0.008318377949397205   -0.017275027150385664   -0.0019829142254150865
-0.004900509426653757   -0.02674718702723417   -0.002182937330161688
-0.0099929588549606   -0.026813599548992758   -0.0023897758305538677
-0.003933780609740091   -0.017021515572003782   -0.001952998830828721
-0.008318377949397205   -0.017275027150385664   -0.0019829142254150865
-0.010001545926583479   -0.02690324645779339   -0.0022968803594710587
-0.003921753466252513   -0.017070891991924228   -0.001881466626049191
-0.008302857551578318   -0.01733521672734393   -0.0018574003157513653
-0.010001545926583479   -0.02690324645779339   -0.0022968803594710587
-0.004900509426653757   -0.02674718702723417   -0.002182937330161688
-0.003921753466252513   -0.017070891991924228   -0.001881466626049191
-0.004881472741783887   -0.02677921025357711   -0.0021352389554424238
-0.008302857551578318   -0.01733521672734393   -0.0018574003157513653
-0.003901937911662349   -0.017086291226424334   -0.001819836879369368
-0.004881472741783887   -0.02677921025357711   -0.0021352389554424238
-0.003921753466252513   -0.017070891991924228   -0.001881466626049191
-0.008302857551578318   -0.01733521672734393   -0.0018574003157513653
-0.004881472741783887   -0.02677921025357711   -0.0021352389554424238
-0.009980874218706318   -0.026976899428255176   -0.002212899602335553
-0.010001545926583479   -0.02690324645779339   -0.0022968803594710587
-0.008302857551578318   -0.01733521672734393   -0.0018574003157513653
-0.004881472741783887   -0.02677921025357711   -0.0021352389554424238
-0.010001545926583479   -0.02690324645779339   -0.0022968803594710587
-0.003921753466252513   -0.017070891991924228   -0.001881466626049191
-0.003943585914567629   -0.016937456072568427   -0.0020344632180195705
-0.004922594514347964   -0.026624914644440393   -0.0023090501693575956
0.00026424683373109793   -0.016931355355719924   -0.0018941439281105741
-0.003933780609740091   -0.017021515572003782   -0.001952998830828721
-0.004922594514347964   -0.026624914644440393   -0.0023090501693575956
-1.6149582941974956e-06   -0.02661190459796656   -0.002201951912733253
0.00026424683373109793   -0.016931355355719924   -0.0018941439281105741
1.597356264927849e-05   -0.02664050771544604   -0.0021691614098228707
-0.003933780609740091   -0.017021515572003782   -0.001952998830828721
0.00028233806537955494   -0.016968758059846538   -0.001875031170074746
1.597356264927849e-05   -0.02664050771544604   -0.0021691614098228707
0.00026424683373109793   -0.016931355355719924   -0.0018941439281105741
-0.003933780609740091   -0.017021515572003782   -0.001952998830828721
1.597356264927849e-05   -0.02664050771544604   -0.0021691614098228707
-0.004913263564541821   -0.02669586728986517   -0.002240930330651866
-0.004922594514347964   -0.026624914644440393   -0.0023090501693575956
-0.003933780609740091   -0.017021515572003782   -0.001952998830828721
1.597356264927849e-05   -0.02664050771544604   -0.0021691614098228707
-0.004922594514347964   -0.026624914644440393   -0.0023090501693575956
0.00026424683373109793   -0.016931355355719924   -0.0018941439281105741
-0.003933780609740091   -0.017021515572003782   -0.001952998830828721
-0.004913263564541821   -0.02669586728986517   -0.002240930330651866
0.00028233806537955494   -0.016968758059846538   -0.001875031170074746
-0.003921753466252513   -0.017070891991924228   -0.001881466626049191
-0.004913263564541821   -0.02669586728986517   -0.002240930330651866
1.597356264927849e-05   -0.02664050771544604   -0.0021691614098228707
0.00028233806537955494   -0.016968758059846538   -0.001875031170074746
2.848724130228384e-05   -0.02664934256787878   -0.0021463693633453074
-0.003921753466252513   -0.017070891991924228   -0.001881466626049191
0.00029391080352358224   -0.016971616997215222   -0.0018655909714402504
2.848724130228384e-05   -0.02664934256787878   -0.0021463693633453074
0.00028233806537955494   -0.016968758059846538   -0.001875031170074746
-0.003921753466252513   -0.017070891991924228   -0.001881466626049191
2.848724130228384e-05   -0.02664934256787878   -0.0021463693633453074
-0.004900509426653757   -0.02674718702723417   -0.002182937330161688
-0.004913263564541821   -0.02669586728986517   -0.002240930330651866
-0.003921753466252513   -0.017070891991924228   -0.001881466626049191
2.848724130228384e-05   -0.02664934256787878   -0.0021463693633453074
-0.004913263564541821   -0.02669586728986517   -0.002240930330651866
0.00028233806537955494   -0.016968758059846538   -0.001875031170074746
-0.003921753466252513   -0.017070891991924228   -0.001881466626049191
-0.004900509426653757   -0.02674718702723417   -0.002182937330161688
0.00029391080352358224   -0.016971616997215222   -0.0018655909714402504
-0.003901937911662349   -0.017086291226424334   -0.001819836879369368
-0.004900509426653757   -0.02674718702723417   -0.002182937330161688
2.848724130228384e-05   -0.02664934256787878   -0.0021463693633453074
0.00029391080352358224   -0.016971616997215222   -0.0018655909714402504
3.64225516642137e-05   -0.026638138102284128   -0.002134018254484727
-0.003901937911662349   -0.017086291226424334   -0.001819836879369368
0.00030226173084531695   -0.01693941708455227   -0.0018664113469170239
3.64225516642137e-05   -0.026638138102284128   -0.002134018254484727
0.00029391080352358224   -0.016971616997215222   -0.0018655909714402504
-0.003901937911662349   -0.017086291226424334   -0.001819836879369368
3.64225516642137e-05   -0.026638138102284128   -0.002134018254484727
-0.004881472741783887   -0.02677921025357711   -0.0021352389554424238
-0.004900509426653757   -0.02674718702723417   -0.002182937330161688
-0.003901937911662349   -0.017086291226424334   -0.001819836879369368
3.64225516642137e-05   -0.026638138102284128   -0.002134018254484727
-0.004900509426653757   -0.02674718702723417   -0.002182937330161688
0.00029391080352358224   -0.016971616997215222   -0.0018655909714402504
0.00026424683373109793   -0.016931355355719924   -0.0018941439281105741
-1.6149582941974956e-06   -0.02661190459796656   -0.002201951912733253
0.004651655296865993   -0.01702732872176594   -0.0018374317592125173
0.00028233806537955494   -0.016968758059846538   -0.001875031170074746
-1.6149582941974956e-06   -0.02661190459796656   -0.002201951912733253
0.005088586422468703   -0.026656146578894993   -0.0021712254082757523
0.004651655296865993   -0.01702732872176594   -0.0018374317592125173
0.0051101133408809635   -0.026644862574100845   -0.002174508976954522
0.00028233806537955494   -0.016968758059846538   -0.001875031170074746
0.004667443065869023   -0.017021967878665792   -0.001881965909462312
0.0051101133408809635   -0.026644862574100845   -0.002174508976954522
0.004651655296865993   -0.01702732872176594   -0.0018374317592125173
0.00028233806537955494   -0.016968758059846538   -0.001875031170074746
0.0051101133408809635   -0.026644862574100845   -0.002174508976954522
1.597356264927849e-05   -0.02664050771544604   -0.0021691614098228707
-1.6149582941974956e-06   -0.02661190459796656   -0.002201951912733253
0.00028233806537955494   -0.016968758059846538   -0.001875031170074746
0.0051101133408809635   -0.026644862574100845   -0.002174508976954522
-1.6149582941974956e-06   -0.02661190459796656   -0.002201951912733253
0.004651655296865993   -0.01702732872176594   -0.0018374317592125173
0.00028233806537955494   -0.016968758059846538   -0.001875031170074746
1.597356264927849e-05   -0.02664050771544604   -0.0021691614098228707
0.004667443065869023   -0.017021967878665792   -0.001881965909462312
0.00029391080352358224   -0.016971616997215222   -0.0018655909714402504
1.597356264927849e-05   -0.02664050771544604   -0.0021691614098228707
0.0051101133408809635   -0.026644862574100845   -0.002174508976954522
0.004667443065869023   -0.017021967878665792   -0.001881965909462312
0.005111756196863451   -0.026615322850430518   -0.002187252787305808
0.00029391080352358224   -0.016971616997215222   -0.0018655909714402504
0.0046555654485876076   -0.016982803370625087   -0.0019354618838555969
0.005111756196863451   -0.026615322850430518   -0.002187252787305808
0.004667443065869023   -0.017021967878665792   -0.001881965909462312
0.00029391080352358224   -0.016971616997215222   -0.0018655909714402504
0.005111756196863451   -0.026615322850430518   -0.002187252787305808
2.848724130228384e-05   -0.02664934256787878   -0.0021463693633453074
1.597356264927849e-05   -0.02664050771544604   -0.0021691614098228707
0.00029391080352358224   -0.016971616997215222   -0.0018655909714402504
0.005111756196863451   -0.026615322850430518   -0.002187252787305808
1.597356264927849e-05   -0.02664050771544604   -0.0021691614098228707
0.004667443065869023   -0.017021967878665792   -0.001881965909462312
0.00029391080352358224   -0.016971616997215222   -0.0018655909714402504
2.848724130228384e-05   -0.02664934256787878   -0.0021463693633453074
0.0046555654485876076   -0.016982803370625087   -0.0019354618838555969
0.00030226173084531695   -0.01693941708455227   -0.0018664113469170239
2.848724130228384e-05   -0.02664934256787878   -0.0021463693633453074
0.005111756196863451   -0.026615322850430518   -0.002187252787305808
0.0046555654485876076   -0.016982803370625087   -0.0019354618838555969
0.005100611897854797   -0.026560133772199443   -0.0022098170811798963
0.00030226173084531695   -0.01693941708455227   -0.0018664113469170239
0.004637805452936206   -0.01690146560819901   -0.001998981305887275
0.005100611897854797   -0.026560133772199443   -0.0022098170811798963
0.0046555654485876076   -0.016982803370625087   -0.0019354618838555969
0.00030226173084531695   -0.01693941708455227   -0.0018664113469170239
0.005100611897854797   -0.026560133772199443   -0.0022098170811798963
3.64225516642137e-05   -0.026638138102284128   -0.002134018254484727
2.848724130228384e-05   -0.02664934256787878   -0.0021463693633453074
0.00030226173084531695   -0.01693941708455227   -0.0018664113469170239
0.005100611897854797   -0.026560133772199443   -0.0022098170811798963
2.848724130228384e-05   -0.02664934256787878   -0.0021463693633453074
0.0046555654485876076   -0.016982803370625087   -0.0019354618838555969
0.004651655296865993   -0.01702732872176594   -0.0018374317592125173
0.005088586422468703   -0.026656146578894993   -0.0021712254082757523
0.009648227602520607   -0.017201412315371194   -0.0018385711361815437
0.004667443065869023   -0.017021967878665792   -0.001881965909462312
0.005088586422468703   -0.026656146578894993   -0.0021712254082757523
0.010709423157476562   -0.02673745509684544   -0.002200190819982661
0.009648227602520607   -0.017201412315371194   -0.0018385711361815437
0.010699557957879557   -0.026699157164340043   -0.0022423998184120278
0.004667443065869023   -0.017021967878665792   -0.001881965909462312
0.009564245093538249   -0.017171413460124657   -0.001954946288975983
0.010699557957879557   -0.026699157164340043   -0.0022423998184120278
0.009648227602520607   -0.017201412315371194   -0.0018385711361815437
0.004667443065869023   -0.017021967878665792   -0.001881965909462312
0.010699557957879557   -0.026699157164340043   -0.0022423998184120278
0.0051101133408809635   -0.026644862574100845   -0.002174508976954522
0.005088586422468703   -0.026656146578894993   -0.0021712254082757523
0.004667443065869023   -0.017021967878665792   -0.001881965909462312
0.010699557957879557   -0.026699157164340043   -0.0022423998184120278
0.005088586422468703   -0.026656146578894993   -0.0021712254082757523
0.009648227602520607   -0.017201412315371194   -0.0018385711361815437
0.004667443065869023   -0.017021967878665792   -0.001881965909462312
0.0051101133408809635   -0.026644862574100845   -0.002174508976954522
0.009564245093538249   -0.017171413460124657   -0.001954946288975983
0.0046555654485876076   -0.016982803370625087   -0.0019354618838555969
0.0051101133408809635   -0.026644862574100845   -0.002174508976954522
0.010699557957879557   -0.026699157164340043   -0.0022423998184120278
0.009564245093538249   -0.017171413460124657   -0.001954946288975983
0.010672779693491003   -0.02665096567250974   -0.0022999573428235907
0.0046555654485876076   -0.016982803370625087   -0.0019354618838555969
0.009480420009333072   -0.01711111316555559   -0.0020874818341308546
0.010672779693491003   -0.02665096567250974   -0.0022999573428235907
0.009564245093538249   -0.017171413460124657   -0.001954946288975983
0.0046555654485876076   -0.016982803370625087   -0.0019354618838555969
0.010672779693491003   -0.02665096567250974   -0.0022999573428235907
0.005111756196863451   -0.026615322850430518   -0.002187252787305808
0.0051101133408809635   -0.026644862574100845   -0.002174508976954522
0.0046555654485876076   -0.016982803370625087   -0.0019354618838555969
0.010672779693491003   -0.02665096567250974   -0.0022999573428235907
0.0051101133408809635   -0.026644862574100845   -0.002174508976954522
0.009564245093538249   -0.017171413460124657   -0.001954946288975983
0.0046555654485876076   -0.016982803370625087   -0.0019354618838555969
0.005111756196863451   -0.026615322850430518   -0.002187252787305808
0.009480420009333072   -0.01711111316555559   -0.0020874818341308546
0.004637805452936206   -0.01690146560819901   -0.001998981305887275
0.005111756196863451   -0.026615322850430518   -0.002187252787305808
0.010672779693491003   -0.02665096567250974   -0.0022999573428235907
0.009480420009333072   -0.01711111316555559   -0.0020874818341308546
0.010599697963105538   -0.026559105805172387   -0.0023727521009957453
0.004637805452936206   -0.01690146560819901   -0.001998981305887275
0.00933152958466264   -0.016984622126329854   -0.0022361949532326694
0.010599697963105538   -0.026559105805172387   -0.0023727521009957453
0.009480420009333072   -0.01711111316555559   -0.0020874818341308546
0.004637805452936206   -0.01690146560819901   -0.001998981305887275
0.010599697963105538   -0.026559105805172387   -0.0023727521009957453
0.005100611897854797   -0.026560133772199443   -0.0022098170811798963
0.005111756196863451   -0.026615322850430518   -0.002187252787305808
0.004637805452936206   -0.01690146560819901   -0.001998981305887275
0.010599697963105538   -0.026559105805172387   -0.0023727521009957453
0.005111756196863451   -0.026615322850430518   -0.002187252787305808
0.009480420009333072   -0.01711111316555559   -0.0020874818341308546
-0.01537662735113971   -0.026846792319957867   -0.002758538178669428
-0.016890272889174485   -0.03725800321886736   -0.0028091109318708696
-0.009980932043349508   -0.026700524120804352   -0.0024929526368406914
-0.015530942693091958   -0.02699976813939557   -0.0026091328679083607
-0.016890272889174485   -0.03725800321886736   -0.0028091109318708696
-0.01109851378632376   -0.037198402467051334   -0.002597579160127015
-0.009980932043349508   -0.026700524120804352   -0.0024929526368406914
-0.01109409981981021   -0.03729484448131356   -0.0025342990200585467
-0.015530942693091958   -0.02699976813939557   -0.0026091328679083607
-0.0099929588549606   -0.026813599548992758   -0.0023897758305538677
-0.01109409981981021   -0.03729484448131356   -0.0025342990200585467
-0.009980932043349508   -0.026700524120804352   -0.0024929526368406914
-0.015530942693091958   -0.02699976813939557   -0.0026091328679083607
-0.01109409981981021   -0.03729484448131356   -0.0025342990200585467
-0.0169623487845518   -0.03738764782333176   -0.002732076269586557
-0.016890272889174485   -0.03725800321886736   -0.0028091109318708696
-0.015530942693091958   -0.02699976813939557   -0.0026091328679083607
-0.01109409981981021   -0.03729484448131356   -0.0025342990200585467
-0.016890272889174485   -0.03725800321886736   -0.0028091109318708696
-0.009980932043349508   -0.026700524120804352   -0.0024929526368406914
-0.015530942693091958   -0.02699976813939557   -0.0026091328679083607
-0.0169623487845518   -0.03738764782333176   -0.002732076269586557
-0.0099929588549606   -0.026813599548992758   -0.0023897758305538677
-0.01561949749826749   -0.027108003933724388   -0.0024740634930993997
-0.0169623487845518   -0.03738764782333176   -0.002732076269586557
-0.01109409981981021   -0.03729484448131356   -0.0025342990200585467
-0.0099929588549606   -0.026813599548992758   -0.0023897758305538677
-0.011079223090609816   -0.037383818458408165   -0.0024815264713021635
-0.01561949749826749   -0.027108003933724388   -0.0024740634930993997
-0.010001545926583479   -0.02690324645779339   -0.0022968803594710587
-0.011079223090609816   -0.037383818458408165   -0.0024815264713021635
-0.0099929588549606   -0.026813599548992758   -0.0023897758305538677
-0.01561949749826749   -0.027108003933724388   -0.0024740634930993997
-0.011079223090609816   -0.037383818458408165   -0.0024815264713021635
-0.01698530118395993   -0.037493396593354586   -0.0026701653020348524
-0.0169623487845518   -0.03738764782333176   -0.002732076269586557
-0.01561949749826749   -0.027108003933724388   -0.0024740634930993997
-0.011079223090609816   -0.037383818458408165   -0.0024815264713021635
-0.0169623487845518   -0.03738764782333176   -0.002732076269586557
-0.0099929588549606   -0.026813599548992758   -0.0023897758305538677
-0.01561949749826749   -0.027108003933724388   -0.0024740634930993997
-0.01698530118395993   -0.037493396593354586   -0.0026701653020348524
-0.010001545926583479   -0.02690324645779339   -0.0022968803594710587
-0.015710714801790947   -0.027205029441244834   -0.0023550340350656637
-0.01698530118395993   -0.037493396593354586   -0.0026701653020348524
-0.011079223090609816   -0.037383818458408165   -0.0024815264713021635
-0.010001545926583479   -0.02690324645779339   -0.0022968803594710587
-0.011042563171653872   -0.03747210710550482   -0.0024385246951758714
-0.015710714801790947   -0.027205029441244834   -0.0023550340350656637
-0.009980874218706318   -0.026976899428255176   -0.002212899602335553
-0.011042563171653872   -0.03747210710550482   -0.0024385246951758714
-0.010001545926583479   -0.02690324645779339   -0.0022968803594710587
-0.015710714801790947   -0.027205029441244834   -0.0023550340350656637
-0.011042563171653872   -0.03747210710550482   -0.0024385246951758714
-0.01699298252048239   -0.03760825687011739   -0.002624677598719856
-0.01698530118395993   -0.037493396593354586   -0.0026701653020348524
-0.015710714801790947   -0.027205029441244834   -0.0023550340350656637
-0.011042563171653872   -0.03747210710550482   -0.0024385246951758714
-0.01698530118395993   -0.037493396593354586   -0.0026701653020348524
-0.010001545926583479   -0.02690324645779339   -0.0022968803594710587
-0.009980932043349508   -0.026700524120804352   -0.0024929526368406914
-0.01109851378632376   -0.037198402467051334   -0.002597579160127015
-0.004922594514347964   -0.026624914644440393   -0.0023090501693575956
-0.0099929588549606   -0.026813599548992758   -0.0023897758305538677
-0.01109851378632376   -0.037198402467051334   -0.002597579160127015
-0.00571837541797556   -0.03716418910826272   -0.0024535707147708835
-0.004922594514347964   -0.026624914644440393   -0.0023090501693575956
-0.0056982775448270245   -0.03722255963987582   -0.0023983957073670454
-0.0099929588549606   -0.026813599548992758   -0.0023897758305538677
-0.004913263564541821   -0.02669586728986517   -0.002240930330651866
-0.0056982775448270245   -0.03722255963987582   -0.0023983957073670454
-0.004922594514347964   -0.026624914644440393   -0.0023090501693575956
-0.0099929588549606   -0.026813599548992758   -0.0023897758305538677
-0.0056982775448270245   -0.03722255963987582   -0.0023983957073670454
-0.01109409981981021   -0.03729484448131356   -0.0025342990200585467
-0.01109851378632376   -0.037198402467051334   -0.002597579160127015
-0.0099929588549606   -0.026813599548992758   -0.0023897758305538677
-0.0056982775448270245   -0.03722255963987582   -0.0023983957073670454
-0.01109851378632376   -0.037198402467051334   -0.002597579160127015
-0.004922594514347964   -0.026624914644440393   -0.0023090501693575956
-0.0099929588549606   -0.026813599548992758   -0.0023897758305538677
-0.01109409981981021   -0.03729484448131356   -0.0025342990200585467
-0.004913263564541821   -0.02669586728986517   -0.002240930330651866
-0.010001545926583479   -0.02690324645779339   -0.0022968803594710587
-0.01109409981981021   -0.03729484448131356   -0.0025342990200585467
-0.0056982775448270245   -0.03722255963987582   -0.0023983957073670454
-0.004913263564541821   -0.02669586728986517   -0.002240930330651866
-0.005673632610157228   -0.03727613381395782   -0.0023537367308290647
-0.010001545926583479   -0.02690324645779339   -0.0022968803594710587
-0.004900509426653757   -0.02674718702723417   -0.002182937330161688
-0.005673632610157228   -0.03727613381395782   -0.0023537367308290647
-0.004913263564541821   -0.02669586728986517   -0.002240930330651866
-0.010001545926583479   -0.02690324645779339   -0.0022968803594710587
-0.005673632610157228   -0.03727613381395782   -0.0023537367308290647
-0.011079223090609816   -0.037383818458408165   -0.0024815264713021635
-0.01109409981981021   -0.03729484448131356   -0.0025342990200585467
-0.010001545926583479   -0.02690324645779339   -0.0022968803594710587
-0.005673632610157228   -0.03727613381395782   -0.0023537367308290647
-0.01109409981981021   -0.03729484448131356   -0.0025342990200585467
-0.004913263564541821   -0.02669586728986517   -0.002240930330651866
-0.010001545926583479   -0.02690324645779339   -0.0022968803594710587
-0.011079223090609816   -0.037383818458408165   -0.0024815264713021635
-0.004900509426653757   -0.02674718702723417   -0.002182937330161688
-0.009980874218706318   -0.026976899428255176   -0.002212899602335553
-0.011079223090609816   -0.037383818458408165   -0.0024815264713021635
-0.005673632610157228   -0.03727613381395782   -0.0023537367308290647
-0.004900509426653757   -0.02674718702723417   -0.002182937330161688
-0.005644020419111639   -0.037325087876010805   -0.0023198467907875947
-0.009980874218706318   -0.026976899428255176   -0.002212899602335553
-0.004881472741783887   -0.02677921025357711   -0.0021352389554424238
-0.005644020419111639   -0.037325087876010805   -0.0023198467907875947
-0.004900509426653757   -0.02674718702723417   -0.002182937330161688
-0.009980874218706318   -0.026976899428255176   -0.002212899602335553
-0.005644020419111639   -0.037325087876010805   -0.0023198467907875947
-0.011042563171653872   -0.03747210710550482   -0.0024385246951758714
-0.011079223090609816   -0.037383818458408165   -0.0024815264713021635
-0.009980874218706318   -0.026976899428255176   -0.002212899602335553
-0.005644020419111639   -0.037325087876010805   -0.0023198467907875947
-0.011079223090609816   -0.037383818458408165   -0.0024815264713021635
-0.004900509426653757   -0.02674718702723417   -0.002182937330161688
-0.004922594514347964   -0.026624914644440393   -0.0023090501693575956
-0.00571837541797556   -0.03716418910826272   -0.0024535707147708835
-1.6149582941974956e-06   -0.02661190459796656   -0.002201951912733253
-0.004913263564541821   -0.02669586728986517   -0.002240930330651866
-0.00571837541797556   -0.03716418910826272   -0.0024535707147708835
-0.00048382136996124903   -0.03714458367193673   -0.0023790937611206705
-1.6149582941974956e-06   -0.02661190459796656   -0.002201951912733253
-0.0004557392339016606   -0.03716417848524415   -0.0023325757209064595
-0.004913263564541821   -0.02669586728986517   -0.002240930330651866
1.597356264927849e-05   -0.02664050771544604   -0.0021691614098228707
-0.0004557392339016606   -0.03716417848524415   -0.0023325757209064595
-1.6149582941974956e-06   -0.02661190459796656   -0.002201951912733253
-0.004913263564541821   -0.02669586728986517   -0.002240930330651866
-0.0004557392339016606   -0.03716417848524415   -0.0023325757209064595
-0.0056982775448270245   -0.03722255963987582   -0.0023983957073670454
-0.00571837541797556   -0.03716418910826272   -0.0024535707147708835
-0.004913263564541821   -0.02669586728986517   -0.002240930330651866
-0.0004557392339016606   -0.03716417848524415   -0.0023325757209064595
-0.00571837541797556   -0.03716418910826272   -0.0024535707147708835
-1.6149582941974956e-06   -0.02661190459796656   -0.002201951912733253
-0.004913263564541821   -0.02669586728986517   -0.002240930330651866
-0.0056982775448270245   -0.03722255963987582   -0.0023983957073670454
1.597356264927849e-05   -0.02664050771544604   -0.0021691614098228707
-0.004900509426653757   -0.02674718702723417   -0.002182937330161688
-0.0056982775448270245   -0.03722255963987582   -0.0023983957073670454
-0.0004557392339016606   -0.03716417848524415   -0.0023325757209064595
1.597356264927849e-05   -0.02664050771544604   -0.0021691614098228707
-0.00043141998496112937   -0.03717863721189974   -0.0022964831700739157
-0.004900509426653757   -0.02674718702723417   -0.002182937330161688
2.848724130228384e-05   -0.02664934256787878   -0.0021463693633453074
-0.00043141998496112937   -0.03717863721189974   -0.0022964831700739157
1.597356264927849e-05   -0.02664050771544604   -0.0021691614098228707
-0.004900509426653757   -0.02674718702723417   -0.002182937330161688
-0.00043141998496112937   -0.03717863721189974   -0.0022964831700739157
-0.005673632610157228   -0.03727613381395782   -0.0023537367308290647
-0.0056982775448270245   -0.03722255963987582   -0.0023983957073670454
-0.004900509426653757   -0.02674718702723417   -0.002182937330161688
-0.00043141998496112937   -0.03717863721189974   -0.0022964831700739157
-0.0056982775448270245   -0.03722255963987582   -0.0023983957073670454
1.597356264927849e-05   -0.02664050771544604   -0.0021691614098228707
-0.004900509426653757   -0.02674718702723417   -0.002182937330161688
-0.005673632610157228   -0.03727613381395782   -0.0023537367308290647
2.848724130228384e-05   -0.02664934256787878   -0.0021463693633453074
-0.004881472741783887   -0.02677921025357711   -0.0021352389554424238
-0.005673632610157228   -0.03727613381395782   -0.0023537367308290647
-0.00043141998496112937   -0.03717863721189974   -0.0022964831700739157
2.848724130228384e-05   -0.02664934256787878   -0.0021463693633453074
-0.0004128781159198338   -0.037187885553761735   -0.00227119609965785
-0.004881472741783887   -0.02677921025357711   -0.0021352389554424238
3.64225516642137e-05   -0.026638138102284128   -0.002134018254484727
-0.0004128781159198338   -0.037187885553761735   -0.00227119609965785
2.848724130228384e-05   -0.02664934256787878   -0.0021463693633453074
-0.004881472741783887   -0.02677921025357711   -0.0021352389554424238
-0.0004128781159198338   -0.037187885553761735   -0.00227119609965785
-0.005644020419111639   -0.037325087876010805   -0.0023198467907875947
-0.005673632610157228   -0.03727613381395782   -0.0023537367308290647
-0.004881472741783887   -0.02677921025357711   -0.0021352389554424238
-0.0004128781159198338   -0.037187885553761735   -0.00227119609965785
-0.005673632610157228   -0.03727613381395782   -0.0023537367308290647
2.848724130228384e-05   -0.02664934256787878   -0.0021463693633453074
-1.6149582941974956e-06   -0.02661190459796656   -0.002201951912733253
-0.00048382136996124903   -0.03714458367193673   -0.0023790937611206705
0.005088586422468703   -0.026656146578894993   -0.0021712254082757523
1.597356264927849e-05   -0.02664050771544604   -0.0021691614098228707
-0.00048382136996124903   -0.03714458367193673   -0.0023790937611206705
0.004910493678644948   -0.037136208474478835   -0.002374803915086225
0.005088586422468703   -0.026656146578894993   -0.0021712254082757523
0.004947698318040487   -0.03711824327295831   -0.0023373768716458596
1.597356264927849e-05   -0.02664050771544604   -0.0021691614098228707
0.0051101133408809635   -0.026644862574100845   -0.002174508976954522
0.004947698318040487   -0.03711824327295831   -0.0023373768716458596
0.005088586422468703   -0.026656146578894993   -0.0021712254082757523
1.597356264927849e-05   -0.02664050771544604   -0.0021691614098228707
0.004947698318040487   -0.03711824327295831   -0.0023373768716458596
-0.0004557392339016606   -0.03716417848524415   -0.0023325757209064595
-0.00048382136996124903   -0.03714458367193673   -0.0023790937611206705
1.597356264927849e-05   -0.02664050771544604   -0.0021691614098228707
0.004947698318040487   -0.03711824327295831   -0.0023373768716458596
-0.00048382136996124903   -0.03714458367193673   -0.0023790937611206705
0.005088586422468703   -0.026656146578894993   -0.0021712254082757523
1.597356264927849e-05   -0.02664050771544604   -0.0021691614098228707
-0.0004557392339016606   -0.03716417848524415   -0.0023325757209064595
0.0051101133408809635   -0.026644862574100845   -0.002174508976954522
2.848724130228384e-05   -0.02664934256787878   -0.0021463693633453074
-0.0004557392339016606   -0.03716417848524415   -0.0023325757209064595
0.004947698318040487   -0.03711824327295831   -0.0023373768716458596
0.0051101133408809635   -0.026644862574100845   -0.002174508976954522
0.004972616219033299   -0.037097306670477226   -0.0023100763884835456
2.848724130228384e-05   -0.02664934256787878   -0.0021463693633453074
0.005111756196863451   -0.026615322850430518   -0.002187252787305808
0.004972616219033299   -0.037097306670477226   -0.0023100763884835456
0.0051101133408809635   -0.026644862574100845   -0.002174508976954522
2.848724130228384e-05   -0.02664934256787878   -0.0021463693633453074
0.004972616219033299   -0.037097306670477226   -0.0023100763884835456
-0.00043141998496112937   -0.03717863721189974   -0.0022964831700739157
-0.0004557392339016606   -0.03716417848524415   -0.0023325757209064595
2.848724130228384e-05   -0.02664934256787878   -0.0021463693633453074
0.004972616219033299   -0.037097306670477226   -0.0023100763884835456
-0.0004557392339016606   -0.03716417848524415   -0.0023325757209064595
0.0051101133408809635   -0.026644862574100845   -0.002174508976954522
2.848724130228384e-05   -0.02664934256787878   -0.0021463693633453074
-0.00043141998496112937   -0.03717863721189974   -0.0022964831700739157
0.005111756196863451   -0.026615322850430518   -0.002187252787305808
3.64225516642137e-05   -0.026638138102284128   -0.002134018254484727
-0.00043141998496112937   -0.03717863721189974   -0.0022964831700739157
0.004972616219033299   -0.037097306670477226   -0.0023100763884835456
0.005111756196863451   -0.026615322850430518   -0.002187252787305808
0.004977722842461804   -0.03706653147283349   -0.002292694886451135
3.64225516642137e-05   -0.026638138102284128   -0.002134018254484727
0.005100611897854797   -0.026560133772199443   -0.0022098170811798963
0.004977722842461804   -0.03706653147283349   -0.002292694886451135
0.005111756196863451   -0.026615322850430518   -0.002187252787305808
3.64225516642137e-05   -0.026638138102284128   -0.002134018254484727
0.004977722842461804   -0.03706653147283349   -0.002292694886451135
-0.0004128781159198338   -0.037187885553761735   -0.00227119609965785
-0.00043141998496112937   -0.03717863721189974   -0.0022964831700739157
3.64225516642137e-05   -0.026638138102284128   -0.002134018254484727
0.004977722842461804   -0.03706653147283349   -0.002292694886451135
-0.00043141998496112937   -0.03717863721189974   -0.0022964831700739157
0.005111756196863451   -0.026615322850430518   -0.002187252787305808
0.005088586422468703   -0.026656146578894993   -0.0021712254082757523
0.004910493678644948   -0.037136208474478835   -0.002374803915086225
0.010709423157476562   -0.02673745509684544   -0.002200190819982661
0.0051101133408809635   -0.026644862574100845   -0.002174508976954522
0.004910493678644948   -0.037136208474478835   -0.002374803915086225
0.010756299198504356   -0.037124600327245794   -0.002433667822848705
0.010709423157476562   -0.02673745509684544   -0.002200190819982661
0.010829145289868993   -0.03707694897075345   -0.0024029862181106972
0.0051101133408809635   -0.026644862574100845   -0.002174508976954522
0.010699557957879557   -0.026699157164340043   -0.0022423998184120278
0.010829145289868993   -0.03707694897075345   -0.0024029862181106972
0.010709423157476562   -0.02673745509684544   -0.002200190819982661
0.0051101133408809635   -0.026644862574100845   -0.002174508976954522
0.010829145289868993   -0.03707694897075345   -0.0024029862181106972
0.004947698318040487   -0.03711824327295831   -0.0023373768716458596
0.004910493678644948   -0.037136208474478835   -0.002374803915086225
0.0051101133408809635   -0.026644862574100845   -0.002174508976954522
0.010829145289868993   -0.03707694897075345   -0.0024029862181106972
0.004910493678644948   -0.037136208474478835   -0.002374803915086225
0.010709423157476562   -0.02673745509684544   -0.002200190819982661
0.0051101133408809635   -0.026644862574100845   -0.002174508976954522
0.004947698318040487   -0.03711824327295831   -0.0023373768716458596
0.010699557957879557   -0.026699157164340043   -0.0022423998184120278
0.005111756196863451   -0.026615322850430518   -0.002187252787305808
0.004947698318040487   -0.03711824327295831   -0.0023373768716458596
0.010829145289868993   -0.03707694897075345   -0.0024029862181106972
0.010699557957879557   -0.026699157164340043   -0.0022423998184120278
0.01086767529555144   -0.037039316308985645   -0.0023876916004955603
0.005111756196863451   -0.026615322850430518   -0.002187252787305808
0.010672779693491003   -0.02665096567250974   -0.0022999573428235907
0.01086767529555144   -0.037039316308985645   -0.0023876916004955603
0.010699557957879557   -0.026699157164340043   -0.0022423998184120278
0.005111756196863451   -0.026615322850430518   -0.002187252787305808
0.01086767529555144   -0.037039316308985645   -0.0023876916004955603
0.004972616219033299   -0.037097306670477226   -0.0023100763884835456
0.004947698318040487   -0.03711824327295831   -0.0023373768716458596
0.005111756196863451   -0.026615322850430518   -0.002187252787305808
0.01086767529555144   -0.037039316308985645   -0.0023876916004955603
0.004947698318040487   -0.03711824327295831   -0.0023373768716458596
0.010699557957879557   -0.026699157164340043   -0.0022423998184120278
0.005111756196863451   -0.026615322850430518   -0.002187252787305808
0.004972616219033299   -0.037097306670477226   -0.0023100763884835456
0.010672779693491003   -0.02665096567250974   -0.0022999573428235907
0.005100611897854797   -0.026560133772199443   -0.0022098170811798963
0.004972616219033299   -0.037097306670477226   -0.0023100763884835456
0.01086767529555144   -0.037039316308985645   -0.0023876916004955603
0.010672779693491003   -0.02665096567250974   -0.0022999573428235907
0.010876997462054939   -0.03697892984972086   -0.0023880461712032543
0.005100611897854797   -0.026560133772199443   -0.0022098170811798963
0.010599697963105538   -0.026559105805172387   -0.0023727521009957453
0.010876997462054939   -0.03697892984972086   -0.0023880461712032543
0.010672779693491003   -0.02665096567250974   -0.0022999573428235907
0.005100611897854797   -0.026560133772199443   -0.0022098170811798963
0.010876997462054939   -0.03697892984972086   -0.0023880461712032543
0.004977722842461804   -0.03706653147283349   -0.002292694886451135
0.004972616219033299   -0.037097306670477226   -0.0023100763884835456
0.005100611897854797   -0.026560133772199443   -0.0022098170811798963
0.010876997462054939   -0.03697892984972086   -0.0023880461712032543
0.004972616219033299   -0.037097306670477226   -0.0023100763884835456
0.010672779693491003   -0.02665096567250974   -0.0022999573428235907
-0.016890272889174485   -0.03725800321886736   -0.0028091109318708696
-0.01741775211194314   -0.04785648682444007   -0.0027617224059097814
-0.01109851378632376   -0.037198402467051334   -0.002597579160127015
-0.0169623487845518   -0.03738764782333176   -0.002732076269586557
-0.01741775211194314   -0.04785648682444007   -0.0027617224059097814
-0.011632933485497361   -0.04788419310033876   -0.002605329423889094
-0.01109851378632376   -0.037198402467051334   -0.002597579160127015
-0.011601742615626466   -0.04796367050452367   -0.0025813335691129424
-0.0169623487845518   -0.03738764782333176   -0.002732076269586557
-0.01109409981981021   -0.03729484448131356   -0.0025342990200585467
-0.011601742615626466   -0.04796367050452367   -0.0025813335691129424
-0.01109851378632376   -0.037198402467051334   -0.002597579160127015
-0.0169623487845518   -0.03738764782333176   -0.002732076269586557
-0.011601742615626466   -0.04796367050452367   -0.0025813335691129424
-0.01739770549857402   -0.04796282558607449   -0.002756745211456834
-0.01741775211194314   -0.04785648682444007   -0.0027617224059097814
-0.0169623487845518   -0.03738764782333176   -0.002732076269586557
-0.011601742615626466   -0.04796367050452367   -0.0025813335691129424
-0.01741775211194314   -0.04785648682444007   -0.0027617224059097814
-0.01109851378632376   -0.037198402467051334   -0.002597579160127015
-0.0169623487845518   -0.03738764782333176   -0.002732076269586557
-0.01739770549857402   -0.04796282558607449   -0.002756745211456834
-0.01109409981981021   -0.03729484448131356   -0.0025342990200585467
-0.01698530118395993   -0.037493396593354586   -0.0026701653020348524
-0.01739770549857402   -0.04796282558607449   -0.002756745211456834
-0.011601742615626466   -0.04796367050452367   -0.0025813335691129424
-0.01109409981981021   -0.03729484448131356   -0.0025342990200585467
-0.011553090153843757   -0.04805173533553996   -0.002568167042146659
-0.01698530118395993   -0.037493396593354586   -0.0026701653020348524
-0.011079223090609816   -0.037383818458408165   -0.0024815264713021635
-0.011553090153843757   -0.04805173533553996   -0.002568167042146659
-0.01109409981981021   -0.03729484448131356   -0.0025342990200585467
-0.01698530118395993   -0.037493396593354586   -0.0026701653020348524
-0.011553090153843757   -0.04805173533553996   -0.002568167042146659
-0.017344472391575706   -0.048066084569109935   -0.002767951045544302
-0.01739770549857402   -0.04796282558607449   -0.002756745211456834
-0.01698530118395993   -0.037493396593354586   -0.0026701653020348524
-0.011553090153843757   -0.04805173533553996   -0.002568167042146659
-0.01739770549857402   -0.04796282558607449   -0.002756745211456834
-0.01109409981981021   -0.03729484448131356   -0.0025342990200585467
-0.01698530118395993   -0.037493396593354586   -0.0026701653020348524
-0.017344472391575706   -0.048066084569109935   -0.002767951045544302
-0.011079223090609816   -0.037383818458408165   -0.0024815264713021635
-0.01699298252048239   -0.03760825687011739   -0.002624677598719856
-0.017344472391575706   -0.048066084569109935   -0.002767951045544302
-0.011553090153843757   -0.04805173533553996   -0.002568167042146659
-0.011079223090609816   -0.037383818458408165   -0.0024815264713021635
-0.011490082271613128   -0.04815445182509484   -0.0025656537138269773
-0.01699298252048239   -0.03760825687011739   -0.002624677598719856
-0.011042563171653872   -0.03747210710550482   -0.0024385246951758714
-0.011490082271613128   -0.04815445182509484   -0.0025656537138269773
-0.011079223090609816   -0.037383818458408165   -0.0024815264713021635
-0.01699298252048239   -0.03760825687011739   -0.002624677598719856
-0.011490082271613128   -0.04815445182509484   -0.0025656537138269773
-0.017258089103048047   -0.048199105130487835   -0.0027961586994204417
-0.017344472391575706   -0.048066084569109935   -0.002767951045544302
-0.01699298252048239   -0.03760825687011739   -0.002624677598719856
-0.011490082271613128   -0.04815445182509484   -0.0025656537138269773
-0.017344472391575706   -0.048066084569109935   -0.002767951045544302
-0.011079223090609816   -0.037383818458408165   -0.0024815264713021635
-0.01109851378632376   -0.037198402467051334   -0.002597579160127015
-0.011632933485497361   -0.04788419310033876   -0.002605329423889094
-0.00571837541797556   -0.03716418910826272   -0.0024535707147708835
-0.01109409981981021   -0.03729484448131356   -0.0025342990200585467
-0.011632933485497361   -0.04788419310033876   -0.002605329423889094
-0.006334020018346645   -0.047890198109676665   -0.0025013819554498343
-0.00571837541797556   -0.03716418910826272   -0.0024535707147708835
-0.00629228425565816   -0.04793578392201707   -0.0024587727383096106
-0.01109409981981021   -0.03729484448131356   -0.0025342990200585467
-0.0056982775448270245   -0.03722255963987582   -0.0023983957073670454
-0.00629228425565816   -0.04793578392201707   -0.0024587727383096106
-0.00571837541797556   -0.03716418910826272   -0.0024535707147708835
-0.01109409981981021   -0.03729484448131356   -0.0025342990200585467
-0.00629228425565816   -0.04793578392201707   -0.0024587727383096106
-0.011601742615626466   -0.04796367050452367   -0.0025813335691129424
-0.011632933485497361   -0.04788419310033876   -0.002605329423889094
-0.01109409981981021   -0.03729484448131356   -0.0025342990200585467
-0.00629228425565816   -0.04793578392201707   -0.0024587727383096106
-0.011632933485497361   -0.04788419310033876   -0.002605329423889094
-0.00571837541797556   -0.03716418910826272   -0.0024535707147708835
-0.01109409981981021   -0.03729484448131356   -0.0025342990200585467
-0.011601742615626466   -0.04796367050452367   -0.0025813335691129424
-0.0056982775448270245   -0.03722255963987582   -0.0023983957073670454
-0.011079223090609816   -0.037383818458408165   -0.0024815264713021635
-0.011601742615626466   -0.04796367050452367   -0.0025813335691129424
-0.00629228425565816   -0.04793578392201707   -0.0024587727383096106
-0.0056982775448270245   -0.03722255963987582   -0.0023983957073670454
-0.00624513517378778   -0.047991219352966775   -0.002427033607793197
-0.011079223090609816   -0.037383818458408165   -0.0024815264713021635
-0.005673632610157228   -0.03727613381395782   -0.0023537367308290647
-0.00624513517378778   -0.047991219352966775   -0.002427033607793197
-0.0056982775448270245   -0.03722255963987582   -0.0023983957073670454
-0.011079223090609816   -0.037383818458408165   -0.0024815264713021635
-0.00624513517378778   -0.047991219352966775   -0.002427033607793197
-0.011553090153843757   -0.04805173533553996   -0.002568167042146659
-0.011601742615626466   -0.04796367050452367   -0.0025813335691129424
-0.011079223090609816   -0.037383818458408165   -0.0024815264713021635
-0.00624513517378778   -0.047991219352966775   -0.002427033607793197
-0.011601742615626466   -0.04796367050452367   -0.0025813335691129424
-0.0056982775448270245   -0.03722255963987582   -0.0023983957073670454
-0.011079223090609816   -0.037383818458408165   -0.0024815264713021635
-0.011553090153843757   -0.04805173533553996   -0.002568167042146659
-0.005673632610157228   -0.03727613381395782   -0.0023537367308290647
-0.011042563171653872   -0.03747210710550482   -0.0024385246951758714
-0.011553090153843757   -0.04805173533553996   -0.002568167042146659
-0.00624513517378778   -0.047991219352966775   -0.002427033607793197
-0.005673632610157228   -0.03727613381395782   -0.0023537367308290647
-0.006194327207931592   -0.04805667724317398   -0.0024065173783767873
-0.011042563171653872   -0.03747210710550482   -0.0024385246951758714
-0.005644020419111639   -0.037325087876010805   -0.0023198467907875947
-0.006194327207931592   -0.04805667724317398   -0.0024065173783767873
-0.005673632610157228   -0.03727613381395782   -0.0023537367308290647
-0.011042563171653872   -0.03747210710550482   -0.0024385246951758714
-0.006194327207931592   -0.04805667724317398   -0.0024065173783767873
-0.011490082271613128   -0.04815445182509484   -0.0025656537138269773
-0.011553090153843757   -0.04805173533553996   -0.002568167042146659
-0.011042563171653872   -0.03747210710550482   -0.0024385246951758714
-0.006194327207931592   -0.04805667724317398   -0.0024065173783767873
-0.011553090153843757   -0.04805173533553996   -0.002568167042146659
-0.005673632610157228   -0.03727613381395782   -0.0023537367308290647
-0.00571837541797556   -0.03716418910826272   -0.0024535707147708835
-0.006334020018346645   -0.047890198109676665   -0.0025013819554498343
-0.00048382136996124903   -0.03714458367193673   -0.0023790937611206705
-0.0056982775448270245   -0.03722255963987582   -0.0023983957073670454
-0.006334020018346645   -0.047890198109676665   -0.0025013819554498343
-0.0011850119344185557   -0.04786209678026283   -0.0024589023019055624
-0.00048382136996124903   -0.03714458367193673   -0.0023790937611206705
-0.0011356642973159537   -0.04787265365547104   -0.002398606258115655
-0.0056982775448270245   -0.03722255963987582   -0.0023983957073670454
-0.0004557392339016606   -0.03716417848524415   -0.0023325757209064595
-0.0011356642973159537   -0.04787265365547104   -0.002398606258115655
-0.00048382136996124903   -0.03714458367193673   -0.0023790937611206705
-0.0056982775448270245   -0.03722255963987582   -0.0023983957073670454
-0.0011356642973159537   -0.04787265365547104   -0.002398606258115655
-0.00629228425565816   -0.04793578392201707   -0.0024587727383096106
-0.006334020018346645   -0.047890198109676665   -0.0025013819554498343
-0.0056982775448270245   -0.03722255963987582   -0.0023983957073670454
-0.0011356642973159537   -0.04787265365547104   -0.002398606258115655
-0.006334020018346645   -0.047890198109676665   -0.0025013819554498343
-0.00048382136996124903   -0.03714458367193673   -0.0023790937611206705
-0.0056982775448270245   -0.03722255963987582   -0.0023983957073670454
-0.00629228425565816   -0.04793578392201707   -0.0024587727383096106
-0.0004557392339016606   -0.03716417848524415   -0.0023325757209064595
-0.005673632610157228   -0.03727613381395782   -0.0023537367308290647
-0.00629228425565816   -0.04793578392201707   -0.0024587727383096106
-0.0011356642973159537   -0.04787265365547104   -0.002398606258115655
-0.0004557392339016606   -0.03716417848524415   -0.0023325757209064595
-0.0010889793661918196   -0.0478922899715246   -0.0023491037185949877
-0.005673632610157228   -0.03727613381395782   -0.0023537367308290647
-0.00043141998496112937   -0.03717863721189974   -0.0022964831700739157
-0.0010889793661918196   -0.0478922899715246   -0.0023491037185949877
-0.0004557392339016606   -0.03716417848524415   -0.0023325757209064595
-0.005673632610157228   -0.03727613381395782   -0.0023537367308290647
-0.0010889793661918196   -0.0478922899715246   -0.0023491037185949877
-0.00624513517378778   -0.047991219352966775   -0.002427033607793197
-0.00629228425565816   -0.04793578392201707   -0.0024587727383096106
-0.005673632610157228   -0.03727613381395782   -0.0023537367308290647
-0.0010889793661918196   -0.0478922899715246   -0.0023491037185949877
-0.00629228425565816   -0.04793578392201707   -0.0024587727383096106
-0.0004557392339016606   -0.03716417848524415   -0.0023325757209064595
-0.005673632610157228   -0.03727613381395782   -0.0023537367308290647
-0.00624513517378778   -0.047991219352966775   -0.002427033607793197
-0.00043141998496112937   -0.03717863721189974   -0.0022964831700739157
-0.005644020419111639   -0.037325087876010805   -0.0023198467907875947
-0.00624513517378778   -0.047991219352966775   -0.002427033607793197
-0.0010889793661918196   -0.0478922899715246   -0.0023491037185949877
-0.00043141998496112937   -0.03717863721189974   -0.0022964831700739157
-0.001049343410608856   -0.04792145336772636   -0.0023107714917218053
-0.005644020419111639   -0.037325087876010805   -0.0023198467907875947
-0.0004128781159198338   -0.037187885553761735   -0.00227119609965785
-0.001049343410608856   -0.04792145336772636   -0.0023107714917218053
-0.00043141998496112937   -0.03717863721189974   -0.0022964831700739157
-0.005644020419111639   -0.037325087876010805   -0.0023198467907875947
-0.001049343410608856   -0.04792145336772636   -0.0023107714917218053
-0.006194327207931592   -0.04805667724317398   -0.0024065173783767873
-0.00624513517378778   -0.047991219352966775   -0.002427033607793197
-0.005644020419111639   -0.037325087876010805   -0.0023198467907875947
-0.001049343410608856   -0.04792145336772636   -0.0023107714917218053
-0.00624513517378778   -0.047991219352966775   -0.002427033607793197
-0.00043141998496112937   -0.03717863721189974   -0.0022964831700739157
-0.00048382136996124903   -0.03714458367193673   -0.0023790937611206705
-0.0011850119344185557   -0.04786209678026283   -0.0024589023019055624
0.004910493678644948   -0.037136208474478835   -0.002374803915086225
-0.0004557392339016606   -0.03716417848524415   -0.0023325757209064595
-0.0011850119344185557   -0.04786209678026283   -0.0024589023019055624
0.0041189816356019164   -0.04779963637786996   -0.0024799219082594043
0.004910493678644948   -0.037136208474478835   -0.002374803915086225
0.004181915580433697   -0.04777504649799942   -0.002402251461516643
-0.0004557392339016606   -0.03716417848524415   -0.0023325757209064595
0.004947698318040487   -0.03711824327295831   -0.0023373768716458596
0.004181915580433697   -0.04777504649799942   -0.002402251461516643
0.004910493678644948   -0.037136208474478835   -0.002374803915086225
-0.0004557392339016606   -0.03716417848524415   -0.0023325757209064595
0.004181915580433697   -0.04777504649799942   -0.002402251461516643
-0.0011356642973159537   -0.04787265365547104   -0.002398606258115655
-0.0011850119344185557   -0.04786209678026283   -0.0024589023019055624
-0.0004557392339016606   -0.03716417848524415   -0.0023325757209064595
0.004181915580433697   -0.04777504649799942   -0.002402251461516643
-0.0011850119344185557   -0.04786209678026283   -0.0024589023019055624
0.004910493678644948   -0.037136208474478835   -0.002374803915086225
-0.0004557392339016606   -0.03716417848524415   -0.0023325757209064595
-0.0011356642973159537   -0.04787265365547104   -0.002398606258115655
0.004947698318040487   -0.03711824327295831   -0.0023373768716458596
-0.00043141998496112937   -0.03717863721189974   -0.0022964831700739157
-0.0011356642973159537   -0.04787265365547104   -0.002398606258115655
0.004181915580433697   -0.04777504649799942   -0.002402251461516643
0.004947698318040487   -0.03711824327295831   -0.0023373768716458596
0.004240080341039148   -0.04776225880166904   -0.0023353420176387366
-0.00043141998496112937   -0.03717863721189974   -0.0022964831700739157
0.004972616219033299   -0.037097306670477226   -0.0023100763884835456
0.004240080341039148   -0.04776225880166904   -0.0023353420176387366
0.004947698318040487   -0.03711824327295831   -0.0023373768716458596
-0.00043141998496112937   -0.03717863721189974   -0.0022964831700739157
0.004240080341039148   -0.04776225880166904   -0.0023353420176387366
-0.0010889793661918196   -0.0478922899715246   -0.0023491037185949877
-0.0011356642973159537   -0.04787265365547104   -0.002398606258115655
-0.00043141998496112937   -0.03717863721189974   -0.0022964831700739157
0.004240080341039148   -0.04776225880166904   -0.0023353420176387366
-0.0011356642973159537   -0.04787265365547104   -0.002398606258115655
0.004947698318040487   -0.03711824327295831   -0.0023373768716458596
-0.00043141998496112937   -0.03717863721189974   -0.0022964831700739157
-0.0010889793661918196   -0.0478922899715246   -0.0023491037185949877
0.004972616219033299   -0.037097306670477226   -0.0023100763884835456
-0.0004128781159198338   -0.037187885553761735   -0.00227119609965785
-0.0010889793661918196   -0.0478922899715246   -0.0023491037185949877
0.004240080341039148   -0.04776225880166904   -0.0023353420176387366
0.004972616219033299   -0.037097306670477226   -0.0023100763884835456
0.004271306309899561   -0.04775508392188235   -0.0022784910438074274
-0.0004128781159198338   -0.037187885553761735   -0.00227119609965785
0.004977722842461804   -0.03706653147283349   -0.002292694886451135
0.004271306309899561   -0.04775508392188235   -0.0022784910438074274
0.004972616219033299   -0.037097306670477226   -0.0023100763884835456
-0.0004128781159198338   -0.037187885553761735   -0.00227119609965785
0.004271306309899561   -0.04775508392188235   -0.0022784910438074274
-0.001049343410608856   -0.04792145336772636   -0.0023107714917218053
-0.0010889793661918196   -0.0478922899715246   -0.0023491037185949877
-0.0004128781159198338   -0.037187885553761735   -0.00227119609965785
0.004271306309899561   -0.04775508392188235   -0.0022784910438074274
-0.0010889793661918196   -0.0478922899715246   -0.0023491037185949877
0.004972616219033299   -0.037097306670477226   -0.0023100763884835456
0.004910493678644948   -0.037136208474478835   -0.002374803915086225
0.0041189816356019164   -0.04779963637786996   -0.0024799219082594043
0.010756299198504356   -0.037124600327245794   -0.002433667822848705
0.004947698318040487   -0.03711824327295831   -0.0023373768716458596
0.0041189816356019164   -0.04779963637786996   -0.0024799219082594043
0.009797756949032545   -0.047694679424934966   -0.002567768875425655
0.010756299198504356   -0.037124600327245794   -0.002433667822848705
0.00996196583853586   -0.04763822646512383   -0.002465811097114306
0.004947698318040487   -0.03711824327295831   -0.0023373768716458596
0.010829145289868993   -0.03707694897075345   -0.0024029862181106972
0.00996196583853586   -0.04763822646512383   -0.002465811097114306
0.010756299198504356   -0.037124600327245794   -0.002433667822848705
0.004947698318040487   -0.03711824327295831   -0.0023373768716458596
0.00996196583853586   -0.04763822646512383   -0.002465811097114306
0.004181915580433697   -0.04777504649799942   -0.002402251461516643
0.0041189816356019164   -0.04779963637786996   -0.0024799219082594043
0.004947698318040487   -0.03711824327295831   -0.0023373768716458596
0.00996196583853586   -0.04763822646512383   -0.002465811097114306
0.0041189816356019164   -0.04779963637786996   -0.0024799219082594043
0.010756299198504356   -0.037124600327245794   -0.002433667822848705
0.004947698318040487   -0.03711824327295831   -0.0023373768716458596
0.004181915580433697   -0.04777504649799942   -0.002402251461516643
0.010829145289868993   -0.03707694897075345   -0.0024029862181106972
0.004972616219033299   -0.037097306670477226   -0.0023100763884835456
0.004181915580433697   -0.04777504649799942   -0.002402251461516643
0.00996196583853586   -0.04763822646512383   -0.002465811097114306
0.010829145289868993   -0.03707694897075345   -0.0024029862181106972
0.010074806701173406   -0.04761084951538333   -0.0023791788110922502
0.004972616219033299   -0.037097306670477226   -0.0023100763884835456
0.01086767529555144   -0.037039316308985645   -0.0023876916004955603
0.010074806701173406   -0.04761084951538333   -0.0023791788110922502
0.010829145289868993   -0.03707694897075345   -0.0024029862181106972
0.004972616219033299   -0.037097306670477226   -0.0023100763884835456
0.010074806701173406   -0.04761084951538333   -0.0023791788110922502
0.004240080341039148   -0.04776225880166904   -0.0023353420176387366
0.004181915580433697   -0.04777504649799942   -0.002402251461516643
0.004972616219033299   -0.037097306670477226   -0.0023100763884835456
0.010074806701173406   -0.04761084951538333   -0.0023791788110922502
0.004181915580433697   -0.04777504649799942   -0.002402251461516643
0.010829145289868993   -0.03707694897075345   -0.0024029862181106972
0.004972616219033299   -0.037097306670477226   -0.0023100763884835456
0.004240080341039148   -0.04776225880166904   -0.0023353420176387366
0.01086767529555144   -0.037039316308985645   -0.0023876916004955603
0.004977722842461804   -0.03706653147283349   -0.002292694886451135
0.004240080341039148   -0.04776225880166904   -0.0023353420176387366
0.010074806701173406   -0.04761084951538333   -0.0023791788110922502
0.01086767529555144   -0.037039316308985645   -0.0023876916004955603
0.010175011703881125   -0.04758106606303846   -0.002308508327367845
0.004977722842461804   -0.03706653147283349   -0.002292694886451135
0.010876997462054939   -0.03697892984972086   -0.0023880461712032543
0.010175011703881125   -0.04758106606303846   -0.002308508327367845
0.01086767529555144   -0.037039316308985645   -0.0023876916004955603
0.004977722842461804   -0.03706653147283349   -0.002292694886451135
0.010175011703881125   -0.04758106606303846   -0.002308508327367845
0.004271306309899561   -0.04775508392188235   -0.0022784910438074274
0.004240080341039148   -0.04776225880166904   -0.0023353420176387366
0.004977722842461804   -0.03706653147283349   -0.002292694886451135
0.010175011703881125   -0.04758106606303846   -0.002308508327367845
0.004240080341039148   -0.04776225880166904   -0.0023353420176387366
0.01086767529555144   -0.037039316308985645   -0.0023876916004955603
-0.01741775211194314   -0.04785648682444007   -0.0027617224059097814
-0.016951009855087858   -0.05797674375081308   -0.0026405218071032794
-0.011632933485497361   -0.04788419310033876   -0.002605329423889094
-0.01739770549857402   -0.04796282558607449   -0.002756745211456834
-0.016951009855087858   -0.05797674375081308   -0.0026405218071032794
-0.01158507134706725   -0.05809332130922594   -0.0025463359096321346
-0.011632933485497361   -0.04788419310033876   -0.002605329423889094
-0.011517168013329374   -0.05815265164324237   -0.002560579468743042
-0.01739770549857402   -0.04796282558607449   -0.002756745211456834
-0.011601742615626466   -0.04796367050452367   -0.0025813335691129424
-0.011517168013329374   -0.05815265164324237   -0.002560579468743042
-0.011632933485497361   -0.04788419310033876   -0.002605329423889094
-0.01739770549857402   -0.04796282558607449   -0.002756745211456834
-0.011517168013329374   -0.05815265164324237   -0.002560579468743042
-0.01682843177980216   -0.058056852192743605   -0.0027077496120826265
-0.016951009855087858   -0.05797674375081308   -0.0026405218071032794
-0.01739770549857402   -0.04796282558607449   -0.002756745211456834
-0.011517168013329374   -0.05815265164324237   -0.002560579468743042
-0.016951009855087858   -0.05797674375081308   -0.0026405218071032794
-0.011632933485497361   -0.04788419310033876   -0.002605329423889094
-0.01739770549857402   -0.04796282558607449   -0.002756745211456834
-0.01682843177980216   -0.058056852192743605   -0.0027077496120826265
-0.011601742615626466   -0.04796367050452367   -0.0025813335691129424
-0.017344472391575706   -0.048066084569109935   -0.002767951045544302
-0.01682843177980216   -0.058056852192743605   -0.0027077496120826265
-0.011517168013329374   -0.05815265164324237   -0.002560579468743042
-0.011601742615626466   -0.04796367050452367   -0.0025813335691129424
-0.011425239077282207   -0.05823712534112668   -0.002585925952513752
-0.017344472391575706   -0.048066084569109935   -0.002767951045544302
-0.011553090153843757   -0.04805173533553996   -0.002568167042146659
-0.011425239077282207   -0.05823712534112668   -0.002585925952513752
-0.011601742615626466   -0.04796367050452367   -0.0025813335691129424
-0.017344472391575706   -0.048066084569109935   -0.002767951045544302
-0.011425239077282207   -0.05823712534112668   -0.002585925952513752
-0.016688528321502593   -0.05815517689861582   -0.0027924391290720077
-0.01682843177980216   -0.058056852192743605   -0.0027077496120826265
-0.017344472391575706   -0.048066084569109935   -0.002767951045544302
-0.011425239077282207   -0.05823712534112668   -0.002585925952513752
-0.01682843177980216   -0.058056852192743605   -0.0027077496120826265
-0.011601742615626466   -0.04796367050452367   -0.0025813335691129424
-0.017344472391575706   -0.048066084569109935   -0.002767951045544302
-0.016688528321502593   -0.05815517689861582   -0.0027924391290720077
-0.011553090153843757   -0.04805173533553996   -0.002568167042146659
-0.017258089103048047   -0.048199105130487835   -0.0027961586994204417
-0.016688528321502593   -0.05815517689861582   -0.0027924391290720077
-0.011425239077282207   -0.05823712534112668   -0.002585925952513752
-0.011553090153843757   -0.04805173533553996   -0.002568167042146659
-0.01132660270609732   -0.05835189569804417   -0.0026227024280114793
-0.017258089103048047   -0.048199105130487835   -0.0027961586994204417
-0.011490082271613128   -0.04815445182509484   -0.0025656537138269773
-0.01132660270609732   -0.05835189569804417   -0.0026227024280114793
-0.011553090153843757   -0.04805173533553996   -0.002568167042146659
-0.017258089103048047   -0.048199105130487835   -0.0027961586994204417
-0.01132660270609732   -0.05835189569804417   -0.0026227024280114793
-0.016498032554709326   -0.058304849693886114   -0.002894913204071305
-0.016688528321502593   -0.05815517689861582   -0.0027924391290720077
-0.017258089103048047   -0.048199105130487835   -0.0027961586994204417
-0.01132660270609732   -0.05835189569804417   -0.0026227024280114793
-0.016688528321502593   -0.05815517689861582   -0.0027924391290720077
-0.011553090153843757   -0.04805173533553996   -0.002568167042146659
-0.011632933485497361   -0.04788419310033876   -0.002605329423889094
-0.01158507134706725   -0.05809332130922594   -0.0025463359096321346
-0.006334020018346645   -0.047890198109676665   -0.0025013819554498343
-0.011601742615626466   -0.04796367050452367   -0.0025813335691129424
-0.01158507134706725   -0.05809332130922594   -0.0025463359096321346
-0.006775034666812899   -0.058139439252820495   -0.0024860552243938902
-0.006334020018346645   -0.047890198109676665   -0.0025013819554498343
-0.006701093296982214   -0.058170283801243686   -0.002455029466428819
-0.011601742615626466   -0.04796367050452367   -0.0025813335691129424
-0.00629228425565816   -0.04793578392201707   -0.0024587727383096106
-0.006701093296982214   -0.058170283801243686   -0.002455029466428819
-0.006334020018346645   -0.047890198109676665   -0.0025013819554498343
-0.011601742615626466   -0.04796367050452367   -0.0025813335691129424
-0.006701093296982214   -0.058170283801243686   -0.002455029466428819
-0.011517168013329374   -0.05815265164324237   -0.002560579468743042
-0.01158507134706725   -0.05809332130922594   -0.0025463359096321346
-0.011601742615626466   -0.04796367050452367   -0.0025813335691129424
-0.006701093296982214   -0.058170283801243686   -0.002455029466428819
-0.01158507134706725   -0.05809332130922594   -0.0025463359096321346
-0.006334020018346645   -0.047890198109676665   -0.0025013819554498343
-0.011601742615626466   -0.04796367050452367   -0.0025813335691129424
-0.011517168013329374   -0.05815265164324237   -0.002560579468743042
-0.00629228425565816   -0.04793578392201707   -0.0024587727383096106
-0.011553090153843757   -0.04805173533553996   -0.002568167042146659
-0.011517168013329374   -0.05815265164324237   -0.002560579468743042
-0.006701093296982214   -0.058170283801243686   -0.002455029466428819
-0.00629228425565816   -0.04793578392201707   -0.0024587727383096106
-0.006621555022076549   -0.058225303053238975   -0.0024349712841526916
-0.011553090153843757   -0.04805173533553996   -0.002568167042146659
-0.00624513517378778   -0.047991219352966775   -0.002427033607793197
-0.006621555022076549   -0.058225303053238975   -0.0024349712841526916
-0.00629228425565816   -0.04793578392201707   -0.0024587727383096106
-0.011553090153843757   -0.04805173533553996   -0.002568167042146659
-0.006621555022076549   -0.058225303053238975   -0.0024349712841526916
-0.011425239077282207   -0.05823712534112668   -0.002585925952513752
-0.011517168013329374   -0.05815265164324237   -0.002560579468743042
-0.011553090153843757   -0.04805173533553996   -0.002568167042146659
-0.006621555022076549   -0.058225303053238975   -0.0024349712841526916
-0.011517168013329374   -0.05815265164324237   -0.002560579468743042
-0.00629228425565816   -0.04793578392201707   -0.0024587727383096106
-0.011553090153843757   -0.04805173533553996   -0.002568167042146659
-0.011425239077282207   -0.05823712534112668   -0.002585925952513752
-0.00624513517378778   -0.047991219352966775   -0.002427033607793197
-0.011490082271613128   -0.04815445182509484   -0.0025656537138269773
-0.011425239077282207   -0.05823712534112668   -0.002585925952513752
-0.006621555022076549   -0.058225303053238975   -0.0024349712841526916
-0.00624513517378778   -0.047991219352966775   -0.002427033607793197
-0.006539799180602116   -0.05830519260690343   -0.0024264173515995066
-0.011490082271613128   -0.04815445182509484   -0.0025656537138269773
-0.006194327207931592   -0.04805667724317398   -0.0024065173783767873
-0.006539799180602116   -0.05830519260690343   -0.0024264173515995066
-0.00624513517378778   -0.047991219352966775   -0.002427033607793197
-0.011490082271613128   -0.04815445182509484   -0.0025656537138269773
-0.006539799180602116   -0.05830519260690343   -0.0024264173515995066
-0.01132660270609732   -0.05835189569804417   -0.0026227024280114793
-0.011425239077282207   -0.05823712534112668   -0.002585925952513752
-0.011490082271613128   -0.04815445182509484   -0.0025656537138269773
-0.006539799180602116   -0.05830519260690343   -0.0024264173515995066
-0.011425239077282207   -0.05823712534112668   -0.002585925952513752
-0.00624513517378778   -0.047991219352966775   -0.002427033607793197
-0.006334020018346645   -0.047890198109676665   -0.0025013819554498343
-0.006775034666812899   -0.058139439252820495   -0.0024860552243938902
-0.0011850119344185557   -0.04786209678026283   -0.0024589023019055624
-0.00629228425565816   -0.04793578392201707   -0.0024587727383096106
-0.006775034666812899   -0.058139439252820495   -0.0024860552243938902
-0.0021106625387361634   -0.058104015071184734   -0.0024760944701630715
-0.0011850119344185557   -0.04786209678026283   -0.0024589023019055624
-0.0020288800064339712   -0.05810472202217525   -0.0024013521802315357
-0.00629228425565816   -0.04793578392201707   -0.0024587727383096106
-0.0011356642973159537   -0.04787265365547104   -0.002398606258115655
-0.0020288800064339712   -0.05810472202217525   -0.0024013521802315357
-0.0011850119344185557   -0.04786209678026283   -0.0024589023019055624
-0.00629228425565816   -0.04793578392201707   -0.0024587727383096106
-0.0020288800064339712   -0.05810472202217525   -0.0024013521802315357
-0.006701093296982214   -0.058170283801243686   -0.002455029466428819
-0.006775034666812899   -0.058139439252820495   -0.0024860552243938902
-0.00629228425565816   -0.04793578392201707   -0.0024587727383096106
-0.0020288800064339712   -0.05810472202217525   -0.0024013521802315357
-0.006775034666812899   -0.058139439252820495   -0.0024860552243938902
-0.0011850119344185557   -0.04786209678026283   -0.0024589023019055624
-0.00629228425565816   -0.04793578392201707   -0.0024587727383096106
-0.006701093296982214   -0.058170283801243686   -0.002455029466428819
-0.0011356642973159537   -0.04787265365547104   -0.002398606258115655
-0.00624513517378778   -0.047991219352966775   -0.002427033607793197
-0.006701093296982214   -0.058170283801243686   -0.002455029466428819
-0.0020288800064339712   -0.05810472202217525   -0.0024013521802315357
-0.0011356642973159537   -0.04787265365547104   -0.002398606258115655
-0.0019492396396373901   -0.058127833438941394   -0.0023376048023297145
-0.00624513517378778   -0.047991219352966775   -0.002427033607793197
-0.0010889793661918196   -0.0478922899715246   -0.0023491037185949877
-0.0019492396396373901   -0.058127833438941394   -0.0023376048023297145
-0.0011356642973159537   -0.04787265365547104   -0.002398606258115655
-0.00624513517378778   -0.047991219352966775   -0.002427033607793197
-0.0019492396396373901   -0.058127833438941394   -0.0023376048023297145
-0.006621555022076549   -0.058225303053238975   -0.0024349712841526916
-0.006701093296982214   -0.058170283801243686   -0.002455029466428819
-0.00624513517378778   -0.047991219352966775   -0.002427033607793197
-0.0019492396396373901   -0.058127833438941394   -0.0023376048023297145
-0.006701093296982214   -0.058170283801243686   -0.002455029466428819
-0.0011356642973159537   -0.04787265365547104   -0.002398606258115655
-0.00624513517378778   -0.047991219352966775   -0.002427033607793197
-0.006621555022076549   -0.058225303053238975   -0.0024349712841526916
-0.0010889793661918196   -0.0478922899715246   -0.0023491037185949877
-0.006194327207931592   -0.04805667724317398   -0.0024065173783767873
-0.006621555022076549   -0.058225303053238975   -0.0024349712841526916
-0.0019492396396373901   -0.058127833438941394   -0.0023376048023297145
-0.0010889793661918196   -0.0478922899715246   -0.0023491037185949877
-0.0018781785995606584   -0.05817526369327791   -0.002285234474831965
-0.006194327207931592   -0.04805667724317398   -0.0024065173783767873
-0.001049343410608856   -0.04792145336772636   -0.0023107714917218053
-0.0018781785995606584   -0.05817526369327791   -0.002285234474831965
-0.0010889793661918196   -0.0478922899715246   -0.0023491037185949877
-0.006194327207931592   -0.04805667724317398   -0.0024065173783767873
-0.0018781785995606584   -0.05817526369327791   -0.002285234474831965
-0.006539799180602116   -0.05830519260690343   -0.0024264173515995066
-0.006621555022076549   -0.058225303053238975   -0.0024349712841526916
-0.006194327207931592   -0.04805667724317398   -0.0024065173783767873
-0.0018781785995606584   -0.05817526369327791   -0.002285234474831965
-0.006621555022076549   -0.058225303053238975   -0.0024349712841526916
-0.0010889793661918196   -0.0478922899715246   -0.0023491037185949877
-0.0011850119344185557   -0.04786209678026283   -0.0024589023019055624
-0.0021106625387361634   -0.058104015071184734   -0.0024760944701630715
0.0041189816356019164   -0.04779963637786996   -0.0024799219082594043
-0.0011356642973159537   -0.04787265365547104   -0.002398606258115655
-0.0021106625387361634   -0.058104015071184734   -0.0024760944701630715
0.0027144765434835238   -0.05798944932852013   -0.0025204034128257376
0.0041189816356019164   -0.04779963637786996   -0.0024799219082594043
0.0028144695871142166   -0.05795798739581061   -0.002402355761088796
-0.0011356642973159537   -0.04787265365547104   -0.002398606258115655
0.004181915580433697   -0.04777504649799942   -0.002402251461516643
0.0028144695871142166   -0.05795798739581061   -0.002402355761088796
0.0041189816356019164   -0.04779963637786996   -0.0024799219082594043
-0.0011356642973159537   -0.04787265365547104   -0.002398606258115655
0.0028144695871142166   -0.05795798739581061   -0.002402355761088796
-0.0020288800064339712   -0.05810472202217525   -0.0024013521802315357
-0.0021106625387361634   -0.058104015071184734   -0.0024760944701630715
-0.0011356642973159537   -0.04787265365547104   -0.002398606258115655
0.0028144695871142166   -0.05795798739581061   -0.002402355761088796
-0.0021106625387361634   -0.058104015071184734   -0.0024760944701630715
0.0041189816356019164   -0.04779963637786996   -0.0024799219082594043
-0.0011356642973159537   -0.04787265365547104   -0.002398606258115655
-0.0020288800064339712   -0.05810472202217525   -0.0024013521802315357
0.004181915580433697   -0.04777504649799942   -0.002402251461516643
-0.0010889793661918196   -0.0478922899715246   -0.0023491037185949877
-0.0020288800064339712   -0.05810472202217525   -0.0024013521802315357
0.0028144695871142166   -0.05795798739581061   -0.002402355761088796
0.004181915580433697   -0.04777504649799942   -0.002402251461516643
0.0029170027309013695   -0.05795212201868611   -0.002296007080051526
-0.0010889793661918196   -0.0478922899715246   -0.0023491037185949877
0.004240080341039148   -0.04776225880166904   -0.0023353420176387366
0.0029170027309013695   -0.05795212201868611   -0.002296007080051526
0.004181915580433697   -0.04777504649799942   -0.002402251461516643
-0.0010889793661918196   -0.0478922899715246   -0.0023491037185949877
0.0029170027309013695   -0.05795212201868611   -0.002296007080051526
-0.0019492396396373901   -0.058127833438941394   -0.0023376048023297145
-0.0020288800064339712   -0.05810472202217525   -0.0024013521802315357
-0.0010889793661918196   -0.0478922899715246   -0.0023491037185949877
0.0029170027309013695   -0.05795212201868611   -0.002296007080051526
-0.0020288800064339712   -0.05810472202217525   -0.0024013521802315357
0.004181915580433697   -0.04777504649799942   -0.002402251461516643
-0.0010889793661918196   -0.0478922899715246   -0.0023491037185949877
-0.0019492396396373901   -0.058127833438941394   -0.0023376048023297145
0.004240080341039148   -0.04776225880166904   -0.0023353420176387366
-0.001049343410608856   -0.04792145336772636   -0.0023107714917218053
-0.0019492396396373901   -0.058127833438941394   -0.0023376048023297145
0.0029170027309013695   -0.05795212201868611   -0.002296007080051526
0.004240080341039148   -0.04776225880166904   -0.0023353420176387366
0.002985193877234796   -0.05796713063414142   -0.002199814569480266
-0.001049343410608856   -0.04792145336772636   -0.0023107714917218053
0.004271306309899561   -0.04775508392188235   -0.0022784910438074274
0.002985193877234796   -0.05796713063414142   -0.002199814569480266
0.004240080341039148   -0.04776225880166904   -0.0023353420176387366
-0.001049343410608856   -0.04792145336772636   -0.0023107714917218053
0.002985193877234796   -0.05796713063414142   -0.002199814569480266
-0.0018781785995606584   -0.05817526369327791   -0.002285234474831965
-0.0019492396396373901   -0.058127833438941394   -0.0023376048023297145
-0.001049343410608856   -0.04792145336772636   -0.0023107714917218053
0.002985193877234796   -0.05796713063414142   -0.002199814569480266
-0.0019492396396373901   -0.058127833438941394   -0.0023376048023297145
0.004240080341039148   -0.04776225880166904   -0.0023353420176387366
0.0041189816356019164   -0.04779963637786996   -0.0024799219082594043
0.0027144765434835238   -0.05798944932852013   -0.0025204034128257376
0.009797756949032545   -0.047694679424934966   -0.002567768875425655
0.004181915580433697   -0.04777504649799942   -0.002402251461516643
0.0027144765434835238   -0.05798944932852013   -0.0025204034128257376
0.00784751741125495   -0.05779248434950959   -0.0026347549104734154
0.009797756949032545   -0.047694679424934966   -0.002567768875425655
0.008113553482662432   -0.05772762508924001   -0.0024629830812810147
0.004181915580433697   -0.04777504649799942   -0.002402251461516643
0.00996196583853586   -0.04763822646512383   -0.002465811097114306
0.008113553482662432   -0.05772762508924001   -0.0024629830812810147
0.009797756949032545   -0.047694679424934966   -0.002567768875425655
0.004181915580433697   -0.04777504649799942   -0.002402251461516643
0.008113553482662432   -0.05772762508924001   -0.0024629830812810147
0.0028144695871142166   -0.05795798739581061   -0.002402355761088796
0.0027144765434835238   -0.05798944932852013   -0.0025204034128257376
0.004181915580433697   -0.04777504649799942   -0.002402251461516643
0.008113553482662432   -0.05772762508924001   -0.0024629830812810147
0.0027144765434835238   -0.05798944932852013   -0.0025204034128257376
0.009797756949032545   -0.047694679424934966   -0.002567768875425655
0.004181915580433697   -0.04777504649799942   -0.002402251461516643
0.0028144695871142166   -0.05795798739581061   -0.002402355761088796
0.00996196583853586   -0.04763822646512383   -0.002465811097114306
0.004240080341039148   -0.04776225880166904   -0.0023353420176387366
0.0028144695871142166   -0.05795798739581061   -0.002402355761088796
0.008113553482662432   -0.05772762508924001   -0.0024629830812810147
0.00996196583853586   -0.04763822646512383   -0.002465811097114306
0.008310555500616906   -0.05770979333531922   -0.00230676959062818
0.004240080341039148   -0.04776225880166904   -0.0023353420176387366
0.010074806701173406   -0.04761084951538333   -0.0023791788110922502
0.008310555500616906   -0.05770979333531922   -0.00230676959062818
0.00996196583853586   -0.04763822646512383   -0.002465811097114306
0.004240080341039148   -0.04776225880166904   -0.0023353420176387366
0.008310555500616906   -0.05770979333531922   -0.00230676959062818
0.0029170027309013695   -0.05795212201868611   -0.002296007080051526
0.0028144695871142166   -0.05795798739581061   -0.002402355761088796
0.004240080341039148   -0.04776225880166904   -0.0023353420176387366
0.008310555500616906   -0.05770979333531922   -0.00230676959062818
0.0028144695871142166   -0.05795798739581061   -0.002402355761088796
0.00996196583853586   -0.04763822646512383   -0.002465811097114306
0.004240080341039148   -0.04776225880166904   -0.0023353420176387366
0.0029170027309013695   -0.05795212201868611   -0.002296007080051526
0.010074806701173406   -0.04761084951538333   -0.0023791788110922502
0.004271306309899561   -0.04775508392188235   -0.0022784910438074274
0.0029170027309013695   -0.05795212201868611   -0.002296007080051526
0.008310555500616906   -0.05770979333531922   -0.00230676959062818
0.010074806701173406   -0.04761084951538333   -0.0023791788110922502
0.008510285936510556   -0.05770962383135327   -0.002166823603203113
0.004271306309899561   -0.04775508392188235   -0.0022784910438074274
0.010175011703881125   -0.04758106606303846   -0.002308508327367845
0.008510285936510556   -0.05770962383135327   -0.002166823603203113
0.010074806701173406   -0.04761084951538333   -0.0023791788110922502
0.004271306309899561   -0.04775508392188235   -0.0022784910438074274
0.008510285936510556   -0.05770962383135327   -0.002166823603203113
0.002985193877234796   -0.05796713063414142   -0.002199814569480266
0.0029170027309013695   -0.05795212201868611   -0.002296007080051526
0.004271306309899561   -0.04775508392188235   -0.0022784910438074274
0.008510285936510556   -0.05770962383135327   -0.002166823603203113
0.0029170027309013695   -0.05795212201868611   -0.002296007080051526
0.010074806701173406   -0.04761084951538333   -0.0023791788110922502
-0.016951009855087858   -0.05797674375081308   -0.0026405218071032794
-0.015469902352528358   -0.06693147499342135   -0.002462423550489564
-0.01158507134706725   -0.05809332130922594   -0.0025463359096321346
-0.01682843177980216   -0.058056852192743605   -0.0027077496120826265
-0.015469902352528358   -0.06693147499342135   -0.002462423550489564
-0.010953793671510241   -0.0671417912540197   -0.0024472419049592297
-0.01158507134706725   -0.05809332130922594   -0.0025463359096321346
-0.010841110780523126   -0.06717221147629188   -0.002496973566826639
-0.01682843177980216   -0.058056852192743605   -0.0027077496120826265
-0.011517168013329374   -0.05815265164324237   -0.002560579468743042
-0.010841110780523126   -0.06717221147629188   -0.002496973566826639
-0.01158507134706725   -0.05809332130922594   -0.0025463359096321346
-0.01682843177980216   -0.058056852192743605   -0.0027077496120826265
-0.010841110780523126   -0.06717221147629188   -0.002496973566826639
-0.015235205484702086   -0.06697661942830305   -0.0026016463106914396
-0.015469902352528358   -0.06693147499342135   -0.002462423550489564
-0.01682843177980216   -0.058056852192743605   -0.0027077496120826265
-0.010841110780523126   -0.06717221147629188   -0.002496973566826639
-0.015469902352528358   -0.06693147499342135   -0.002462423550489564
-0.01158507134706725   -0.05809332130922594   -0.0025463359096321346
-0.01682843177980216   -0.058056852192743605   -0.0027077496120826265
-0.015235205484702086   -0.06697661942830305   -0.0026016463106914396
-0.011517168013329374   -0.05815265164324237   -0.002560579468743042
-0.016688528321502593   -0.05815517689861582   -0.0027924391290720077
-0.015235205484702086   -0.06697661942830305   -0.0026016463106914396
-0.010841110780523126   -0.06717221147629188   -0.002496973566826639
-0.011517168013329374   -0.05815265164324237   -0.002560579468743042
-0.010699578390844443   -0.06724508987591063   -0.0025579725718584
-0.016688528321502593   -0.05815517689861582   -0.0027924391290720077
-0.011425239077282207   -0.05823712534112668   -0.002585925952513752
-0.010699578390844443   -0.06724508987591063   -0.0025579725718584
-0.011517168013329374   -0.05815265164324237   -0.002560579468743042
-0.016688528321502593   -0.05815517689861582   -0.0027924391290720077
-0.010699578390844443   -0.06724508987591063   -0.0025579725718584
-0.015001105073877169   -0.06706214723466809   -0.002759215664292049
-0.015235205484702086   -0.06697661942830305   -0.0026016463106914396
-0.016688528321502593   -0.05815517689861582   -0.0027924391290720077
-0.010699578390844443   -0.06724508987591063   -0.0025579725718584
-0.015235205484702086   -0.06697661942830305   -0.0026016463106914396
-0.011517168013329374   -0.05815265164324237   -0.002560579468743042
-0.016688528321502593   -0.05815517689861582   -0.0027924391290720077
-0.015001105073877169   -0.06706214723466809   -0.002759215664292049
-0.011425239077282207   -0.05823712534112668   -0.002585925952513752
-0.016498032554709326   -0.058304849693886114   -0.002894913204071305
-0.015001105073877169   -0.06706214723466809   -0.002759215664292049
-0.010699578390844443   -0.06724508987591063   -0.0025579725718584
-0.011425239077282207   -0.05823712534112668   -0.002585925952513752
-0.010559931060123727   -0.06736456584348813   -0.002630133128924338
-0.016498032554709326   -0.058304849693886114   -0.002894913204071305
-0.01132660270609732   -0.05835189569804417   -0.0026227024280114793
-0.010559931060123727   -0.06736456584348813   -0.002630133128924338
-0.011425239077282207   -0.05823712534112668   -0.002585925952513752
-0.016498032554709326   -0.058304849693886114   -0.002894913204071305
-0.010559931060123727   -0.06736456584348813   -0.002630133128924338
-0.014701237656871705   -0.06722163113952741   -0.002934793516140312
-0.015001105073877169   -0.06706214723466809   -0.002759215664292049
-0.016498032554709326   -0.058304849693886114   -0.002894913204071305
-0.010559931060123727   -0.06736456584348813   -0.002630133128924338
-0.015001105073877169   -0.06706214723466809   -0.002759215664292049
-0.011425239077282207   -0.05823712534112668   -0.002585925952513752
-0.01158507134706725   -0.05809332130922594   -0.0025463359096321346
-0.010953793671510241   -0.0671417912540197   -0.0024472419049592297
-0.006775034666812899   -0.058139439252820495   -0.0024860552243938902
-0.011517168013329374   -0.05815265164324237   -0.002560579468743042
-0.010953793671510241   -0.0671417912540197   -0.0024472419049592297
-0.007043405736105101   -0.0672403086613668   -0.0024412175534372508
-0.006775034666812899   -0.058139439252820495   -0.0024860552243938902
-0.006927794441463077   -0.06725028455596255   -0.002418963297655388
-0.011517168013329374   -0.05815265164324237   -0.002560579468743042
-0.006701093296982214   -0.058170283801243686   -0.002455029466428819
-0.006927794441463077   -0.06725028455596255   -0.002418963297655388
-0.006775034666812899   -0.058139439252820495   -0.0024860552243938902
-0.011517168013329374   -0.05815265164324237   -0.002560579468743042
-0.006927794441463077   -0.06725028455596255   -0.002418963297655388
-0.010841110780523126   -0.06717221147629188   -0.002496973566826639
-0.010953793671510241   -0.0671417912540197   -0.0024472419049592297
-0.011517168013329374   -0.05815265164324237   -0.002560579468743042
-0.006927794441463077   -0.06725028455596255   -0.002418963297655388
-0.010953793671510241   -0.0671417912540197   -0.0024472419049592297
-0.006775034666812899   -0.058139439252820495   -0.0024860552243938902
-0.011517168013329374   -0.05815265164324237   -0.002560579468743042
-0.010841110780523126   -0.06717221147629188   -0.002496973566826639
-0.006701093296982214   -0.058170283801243686   -0.002455029466428819
-0.011425239077282207   -0.05823712534112668   -0.002585925952513752
-0.010841110780523126   -0.06717221147629188   -0.002496973566826639
-0.006927794441463077   -0.06725028455596255   -0.002418963297655388
-0.006701093296982214   -0.058170283801243686   -0.002455029466428819
-0.006808469770173117   -0.06729817191832208   -0.0024076427926960514
-0.011425239077282207   -0.05823712534112668   -0.002585925952513752
-0.006621555022076549   -0.058225303053238975   -0.0024349712841526916
-0.006808469770173117   -0.06729817191832208   -0.0024076427926960514
-0.006701093296982214   -0.058170283801243686   -0.002455029466428819
-0.011425239077282207   -0.05823712534112668   -0.002585925952513752
-0.006808469770173117   -0.06729817191832208   -0.0024076427926960514
-0.010699578390844443   -0.06724508987591063   -0.0025579725718584
-0.010841110780523126   -0.06717221147629188   -0.002496973566826639
-0.011425239077282207   -0.05823712534112668   -0.002585925952513752
-0.006808469770173117   -0.06729817191832208   -0.0024076427926960514
-0.010841110780523126   -0.06717221147629188   -0.002496973566826639
-0.006701093296982214   -0.058170283801243686   -0.002455029466428819
-0.011425239077282207   -0.05823712534112668   -0.002585925952513752
-0.010699578390844443   -0.06724508987591063   -0.0025579725718584
-0.006621555022076549   -0.058225303053238975   -0.0024349712841526916
-0.01132660270609732   -0.05835189569804417   -0.0026227024280114793
-0.010699578390844443   -0.06724508987591063   -0.0025579725718584
-0.006808469770173117   -0.06729817191832208   -0.0024076427926960514
-0.006621555022076549   -0.058225303053238975   -0.0024349712841526916
-0.0066893402840665995   -0.06738620491128487   -0.0024071158292561
-0.01132660270609732   -0.05835189569804417   -0.0026227024280114793
-0.006539799180602116   -0.05830519260690343   -0.0024264173515995066
-0.0066893402840665995   -0.06738620491128487   -0.0024071158292561
-0.006621555022076549   -0.058225303053238975   -0.0024349712841526916
-0.01132660270609732   -0.05835189569804417   -0.0026227024280114793
-0.0066893402840665995   -0.06738620491128487   -0.0024071158292561
-0.010559931060123727   -0.06736456584348813   -0.002630133128924338
-0.010699578390844443   -0.06724508987591063   -0.0025579725718584
-0.01132660270609732   -0.05835189569804417   -0.0026227024280114793
-0.0066893402840665995   -0.06738620491128487   -0.0024071158292561
-0.010699578390844443   -0.06724508987591063   -0.0025579725718584
-0.006621555022076549   -0.058225303053238975   -0.0024349712841526916
-0.006775034666812899   -0.058139439252820495   -0.0024860552243938902
-0.007043405736105101   -0.0672403086613668   -0.0024412175534372508
-0.0021106625387361634   -0.058104015071184734   -0.0024760944701630715
-0.006701093296982214   -0.058170283801243686   -0.002455029466428819
-0.007043405736105101   -0.0672403086613668   -0.0024412175534372508
-0.0032628364337051858   -0.06722242606609723   -0.002469268355093085
-0.0021106625387361634   -0.058104015071184734   -0.0024760944701630715
-0.003136201716489566   -0.06720944114702973   -0.0023775539480841105
-0.006701093296982214   -0.058170283801243686   -0.002455029466428819
-0.0020288800064339712   -0.05810472202217525   -0.0024013521802315357
-0.003136201716489566   -0.06720944114702973   -0.0023775539480841105
-0.0021106625387361634   -0.058104015071184734   -0.0024760944701630715
-0.006701093296982214   -0.058170283801243686   -0.002455029466428819
-0.003136201716489566   -0.06720944114702973   -0.0023775539480841105
-0.006927794441463077   -0.06725028455596255   -0.002418963297655388
-0.007043405736105101   -0.0672403086613668   -0.0024412175534372508
-0.006701093296982214   -0.058170283801243686   -0.002455029466428819
-0.003136201716489566   -0.06720944114702973   -0.0023775539480841105
-0.007043405736105101   -0.0672403086613668   -0.0024412175534372508
-0.0021106625387361634   -0.058104015071184734   -0.0024760944701630715
-0.006701093296982214   -0.058170283801243686   -0.002455029466428819
-0.006927794441463077   -0.06725028455596255   -0.002418963297655388
-0.0020288800064339712   -0.05810472202217525   -0.0024013521802315357
-0.006621555022076549   -0.058225303053238975   -0.0024349712841526916
-0.006927794441463077   -0.06725028455596255   -0.002418963297655388
-0.003136201716489566   -0.06720944114702973   -0.0023775539480841105
-0.0020288800064339712   -0.05810472202217525   -0.0024013521802315357
-0.0030133015557615487   -0.06723073758568308   -0.002297494400369161
-0.006621555022076549   -0.058225303053238975   -0.0024349712841526916
-0.0019492396396373901   -0.058127833438941394   -0.0023376048023297145
-0.0030133015557615487   -0.06723073758568308   -0.002297494400369161
-0.0020288800064339712   -0.05810472202217525   -0.0024013521802315357
-0.006621555022076549   -0.058225303053238975   -0.0024349712841526916
-0.0030133015557615487   -0.06723073758568308   -0.002297494400369161
-0.006808469770173117   -0.06729817191832208   -0.0024076427926960514
-0.006927794441463077   -0.06725028455596255   -0.002418963297655388
-0.006621555022076549   -0.058225303053238975   -0.0024349712841526916
-0.0030133015557615487   -0.06723073758568308   -0.002297494400369161
-0.006927794441463077   -0.06725028455596255   -0.002418963297655388
-0.0020288800064339712   -0.05810472202217525   -0.0024013521802315357
-0.006621555022076549   -0.058225303053238975   -0.0024349712841526916
-0.006808469770173117   -0.06729817191832208   -0.0024076427926960514
-0.0019492396396373901   -0.058127833438941394   -0.0023376048023297145
-0.006539799180602116   -0.05830519260690343   -0.0024264173515995066
-0.006808469770173117   -0.06729817191832208   -0.0024076427926960514
-0.0030133015557615487   -0.06723073758568308   -0.002297494400369161
-0.0019492396396373901   -0.058127833438941394   -0.0023376048023297145
-0.0029022659745133778   -0.0672912893916855   -0.0022280803905043306
-0.006539799180602116   -0.05830519260690343   -0.0024264173515995066
-0.0018781785995606584   -0.05817526369327791   -0.002285234474831965
-0.0029022659745133778   -0.0672912893916855   -0.0022280803905043306
-0.0019492396396373901   -0.058127833438941394   -0.0023376048023297145
-0.006539799180602116   -0.05830519260690343   -0.0024264173515995066
-0.0029022659745133778   -0.0672912893916855   -0.0022280803905043306
-0.0066893402840665995   -0.06738620491128487   -0.0024071158292561
-0.006808469770173117   -0.06729817191832208   -0.0024076427926960514
-0.006539799180602116   -0.05830519260690343   -0.0024264173515995066
-0.0029022659745133778   -0.0672912893916855   -0.0022280803905043306
-0.006808469770173117   -0.06729817191832208   -0.0024076427926960514
-0.0019492396396373901   -0.058127833438941394   -0.0023376048023297145
-0.0021106625387361634   -0.058104015071184734   -0.0024760944701630715
-0.0032628364337051858   -0.06722242606609723   -0.002469268355093085
0.0027144765434835238   -0.05798944932852013   -0.0025204034128257376
-0.0020288800064339712   -0.05810472202217525   -0.0024013521802315357
-0.0032628364337051858   -0.06722242606609723   -0.002469268355093085
0.0006949145277323985   -0.06708397946046389   -0.002537552911779755
0.0027144765434835238   -0.05798944932852013   -0.0025204034128257376
0.0008489658184309966   -0.06704183455179237   -0.0023766169343086034
-0.0020288800064339712   -0.05810472202217525   -0.0024013521802315357
0.0028144695871142166   -0.05795798739581061   -0.002402355761088796
0.0008489658184309966   -0.06704183455179237   -0.0023766169343086034
0.0027144765434835238   -0.05798944932852013   -0.0025204034128257376
-0.0020288800064339712   -0.05810472202217525   -0.0024013521802315357
0.0008489658184309966   -0.06704183455179237   -0.0023766169343086034
-0.003136201716489566   -0.06720944114702973   -0.0023775539480841105
-0.0032628364337051858   -0.06722242606609723   -0.002469268355093085
-0.0020288800064339712   -0.05810472202217525   -0.0024013521802315357
0.0008489658184309966   -0.06704183455179237   -0.0023766169343086034
-0.0032628364337051858   -0.06722242606609723   -0.002469268355093085
0.0027144765434835238   -0.05798944932852013   -0.0025204034128257376
-0.0020288800064339712   -0.05810472202217525   -0.0024013521802315357
-0.003136201716489566   -0.06720944114702973   -0.0023775539480841105
0.0028144695871142166   -0.05795798739581061   -0.002402355761088796
-0.0019492396396373901   -0.058127833438941394   -0.0023376048023297145
-0.003136201716489566   -0.06720944114702973   -0.0023775539480841105
0.0008489658184309966   -0.06704183455179237   -0.0023766169343086034
0.0028144695871142166   -0.05795798739581061   -0.002402355761088796
0.0010113110545405667   -0.06703801808892472   -0.002230455017227979
-0.0019492396396373901   -0.058127833438941394   -0.0023376048023297145
0.0029170027309013695   -0.05795212201868611   -0.002296007080051526
0.0010113110545405667   -0.06703801808892472   -0.002230455017227979
0.0028144695871142166   -0.05795798739581061   -0.002402355761088796
-0.0019492396396373901   -0.058127833438941394   -0.0023376048023297145
0.0010113110545405667   -0.06703801808892472   -0.002230455017227979
-0.0030133015557615487   -0.06723073758568308   -0.002297494400369161
-0.003136201716489566   -0.06720944114702973   -0.0023775539480841105
-0.0019492396396373901   -0.058127833438941394   -0.0023376048023297145
0.0010113110545405667   -0.06703801808892472   -0.002230455017227979
-0.003136201716489566   -0.06720944114702973   -0.0023775539480841105
0.0028144695871142166   -0.05795798739581061   -0.002402355761088796
-0.0019492396396373901   -0.058127833438941394   -0.0023376048023297145
-0.0030133015557615487   -0.06723073758568308   -0.002297494400369161
0.0029170027309013695   -0.05795212201868611   -0.002296007080051526
-0.0018781785995606584   -0.05817526369327791   -0.002285234474831965
-0.0030133015557615487   -0.06723073758568308   -0.002297494400369161
0.0010113110545405667   -0.06703801808892472   -0.002230455017227979
0.0029170027309013695   -0.05795212201868611   -0.002296007080051526
0.0011300448579500235   -0.0670707861510415   -0.0020944658647087085
-0.0018781785995606584   -0.05817526369327791   -0.002285234474831965
0.002985193877234796   -0.05796713063414142   -0.002199814569480266
0.0011300448579500235   -0.0670707861510415   -0.0020944658647087085
0.0029170027309013695   -0.05795212201868611   -0.002296007080051526
-0.0018781785995606584   -0.05817526369327791   -0.002285234474831965
0.0011300448579500235   -0.0670707861510415   -0.0020944658647087085
-0.0029022659745133778   -0.0672912893916855   -0.0022280803905043306
-0.0030133015557615487   -0.06723073758568308   -0.002297494400369161
-0.0018781785995606584   -0.05817526369327791   -0.002285234474831965
0.0011300448579500235   -0.0670707861510415   -0.0020944658647087085
-0.0030133015557615487   -0.06723073758568308   -0.002297494400369161
0.0029170027309013695   -0.05795212201868611   -0.002296007080051526
0.0027144765434835238   -0.05798944932852013   -0.0025204034128257376
0.0006949145277323985   -0.06708397946046389   -0.002537552911779755
0.00784751741125495   -0.05779248434950959   -0.0026347549104734154
0.0028144695871142166   -0.05795798739581061   -0.002402355761088796
0.0006949145277323985   -0.06708397946046389   -0.002537552911779755
0.004914379215997663   -0.06681184095681232   -0.002683556321549648
0.00784751741125495   -0.05779248434950959   -0.0026347549104734154
0.005304540239810642   -0.0667309521460191   -0.002437249365387465
0.0028144695871142166   -0.05795798739581061   -0.002402355761088796
0.008113553482662432   -0.05772762508924001   -0.0024629830812810147
0.005304540239810642   -0.0667309521460191   -0.002437249365387465
0.00784751741125495   -0.05779248434950959   -0.0026347549104734154
0.0028144695871142166   -0.05795798739581061   -0.002402355761088796
0.005304540239810642   -0.0667309521460191   -0.002437249365387465
0.0008489658184309966   -0.06704183455179237   -0.0023766169343086034
0.0006949145277323985   -0.06708397946046389   -0.002537552911779755
0.0028144695871142166   -0.05795798739581061   -0.002402355761088796
0.005304540239810642   -0.0667309521460191   -0.002437249365387465
0.0006949145277323985   -0.06708397946046389   -0.002537552911779755
0.00784751741125495   -0.05779248434950959   -0.0026347549104734154
0.0028144695871142166   -0.05795798739581061   -0.002402355761088796
0.0008489658184309966   -0.06704183455179237   -0.0023766169343086034
0.008113553482662432   -0.05772762508924001   -0.0024629830812810147
0.0029170027309013695   -0.05795212201868611   -0.002296007080051526
0.0008489658184309966   -0.06704183455179237   -0.0023766169343086034
0.005304540239810642   -0.0667309521460191   -0.002437249365387465
0.008113553482662432   -0.05772762508924001   -0.0024629830812810147
0.005603684406124359   -0.06671694579401469   -0.0022092635586361807
0.0029170027309013695   -0.05795212201868611   -0.002296007080051526
0.008310555500616906   -0.05770979333531922   -0.00230676959062818
0.005603684406124359   -0.06671694579401469   -0.0022092635586361807
0.008113553482662432   -0.05772762508924001   -0.0024629830812810147
0.0029170027309013695   -0.05795212201868611   -0.002296007080051526
0.005603684406124359   -0.06671694579401469   -0.0022092635586361807
0.0010113110545405667   -0.06703801808892472   -0.002230455017227979
0.0008489658184309966   -0.06704183455179237   -0.0023766169343086034
0.0029170027309013695   -0.05795212201868611   -0.002296007080051526
0.005603684406124359   -0.06671694579401469   -0.0022092635586361807
0.0008489658184309966   -0.06704183455179237   -0.0023766169343086034
0.008113553482662432   -0.05772762508924001   -0.0024629830812810147
0.0029170027309013695   -0.05795212201868611   -0.002296007080051526
0.0010113110545405667   -0.06703801808892472   -0.002230455017227979
0.008310555500616906   -0.05770979333531922   -0.00230676959062818
0.002985193877234796   -0.05796713063414142   -0.002199814569480266
0.0010113110545405667   -0.06703801808892472   -0.002230455017227979
0.005603684406124359   -0.06671694579401469   -0.0022092635586361807
0.008310555500616906   -0.05770979333531922   -0.00230676959062818
0.0059135994207741216   -0.06674093095100404   -0.002001461796263067
0.002985193877234796   -0.05796713063414142   -0.002199814569480266
0.008510285936510556   -0.05770962383135327   -0.002166823603203113
0.0059135994207741216   -0.06674093095100404   -0.002001461796263067
0.008310555500616906   -0.05770979333531922   -0.00230676959062818
0.002985193877234796   -0.05796713063414142   -0.002199814569480266
0.0059135994207741216   -0.06674093095100404   -0.002001461796263067
0.0011300448579500235   -0.0670707861510415   -0.0020944658647087085
0.0010113110545405667   -0.06703801808892472   -0.002230455017227979
0.002985193877234796   -0.05796713063414142   -0.002199814569480266
0.0059135994207741216   -0.06674093095100404   -0.002001461796263067
0.0010113110545405667   -0.06703801808892472   -0.002230455017227979
0.008310555500616906   -0.05770979333531922   -0.00230676959062818
-0.015469902352528358   -0.06693147499342135   -0.002462423550489564
-0.012956280140124697   -0.07396037974014642   -0.0022341339640073715
-0.010953793671510241   -0.0671417912540197   -0.0024472419049592297
-0.015235205484702086   -0.06697661942830305   -0.0026016463106914396
-0.012956280140124697   -0.07396037974014642   -0.0022341339640073715
-0.009742351930197584   -0.07427183304641308   -0.002327555949807056
-0.010953793671510241   -0.0671417912540197   -0.0024472419049592297
-0.009580039328620886   -0.07425578418268451   -0.002404092504462324
-0.015235205484702086   -0.06697661942830305   -0.0026016463106914396
-0.010841110780523126   -0.06717221147629188   -0.002496973566826639
-0.009580039328620886   -0.07425578418268451   -0.002404092504462324
-0.010953793671510241   -0.0671417912540197   -0.0024472419049592297
-0.015235205484702086   -0.06697661942830305   -0.0026016463106914396
-0.009580039328620886   -0.07425578418268451   -0.002404092504462324
-0.012606401560035847   -0.07395160876675803   -0.0024404962354402327
-0.012956280140124697   -0.07396037974014642   -0.0022341339640073715
-0.015235205484702086   -0.06697661942830305   -0.0026016463106914396
-0.009580039328620886   -0.07425578418268451   -0.002404092504462324
-0.012956280140124697   -0.07396037974014642   -0.0022341339640073715
-0.010953793671510241   -0.0671417912540197   -0.0024472419049592297
-0.015235205484702086   -0.06697661942830305   -0.0026016463106914396
-0.012606401560035847   -0.07395160876675803   -0.0024404962354402327
-0.010841110780523126   -0.06717221147629188   -0.002496973566826639
-0.015001105073877169   -0.06706214723466809   -0.002759215664292049
-0.012606401560035847   -0.07395160876675803   -0.0024404962354402327
-0.009580039328620886   -0.07425578418268451   -0.002404092504462324
-0.010841110780523126   -0.06717221147629188   -0.002496973566826639
-0.00938913713538642   -0.07430060152447951   -0.0024921412237961845
-0.015001105073877169   -0.06706214723466809   -0.002759215664292049
-0.010699578390844443   -0.06724508987591063   -0.0025579725718584
-0.00938913713538642   -0.07430060152447951   -0.0024921412237961845
-0.010841110780523126   -0.06717221147629188   -0.002496973566826639
-0.015001105073877169   -0.06706214723466809   -0.002759215664292049
-0.00938913713538642   -0.07430060152447951   -0.0024921412237961845
-0.012283884641305642   -0.0740069847500701   -0.0026630715245817825
-0.012606401560035847   -0.07395160876675803   -0.0024404962354402327
-0.015001105073877169   -0.06706214723466809   -0.002759215664292049
-0.00938913713538642   -0.07430060152447951   -0.0024921412237961845
-0.012606401560035847   -0.07395160876675803   -0.0024404962354402327
-0.010841110780523126   -0.06717221147629188   -0.002496973566826639
-0.015001105073877169   -0.06706214723466809   -0.002759215664292049
-0.012283884641305642   -0.0740069847500701   -0.0026630715245817825
-0.010699578390844443   -0.06724508987591063   -0.0025579725718584
-0.014701237656871705   -0.06722163113952741   -0.002934793516140312
-0.012283884641305642   -0.0740069847500701   -0.0026630715245817825
-0.00938913713538642   -0.07430060152447951   -0.0024921412237961845
-0.010699578390844443   -0.06724508987591063   -0.0025579725718584
-0.009215951241088179   -0.07440730577803567   -0.0025909657268589877
-0.014701237656871705   -0.06722163113952741   -0.002934793516140312
-0.010559931060123727   -0.06736456584348813   -0.002630133128924338
-0.009215951241088179   -0.07440730577803567   -0.0025909657268589877
-0.010699578390844443   -0.06724508987591063   -0.0025579725718584
-0.014701237656871705   -0.06722163113952741   -0.002934793516140312
-0.009215951241088179   -0.07440730577803567   -0.0025909657268589877
-0.011890524655884019   -0.07415487799695314   -0.0029009043784109707
-0.012283884641305642   -0.0740069847500701   -0.0026630715245817825
-0.014701237656871705   -0.06722163113952741   -0.002934793516140312
-0.009215951241088179   -0.07440730577803567   -0.0025909657268589877
-0.012283884641305642   -0.0740069847500701   -0.0026630715245817825
-0.010699578390844443   -0.06724508987591063   -0.0025579725718584
-0.010953793671510241   -0.0671417912540197   -0.0024472419049592297
-0.009742351930197584   -0.07427183304641308   -0.002327555949807056
-0.007043405736105101   -0.0672403086613668   -0.0024412175534372508
-0.010841110780523126   -0.06717221147629188   -0.002496973566826639
-0.009742351930197584   -0.07427183304641308   -0.002327555949807056
-0.007116535664060875   -0.07447374263950263   -0.0024006665542479883
-0.007043405736105101   -0.0672403086613668   -0.0024412175534372508
-0.006949975591792471   -0.07444803803094634   -0.0023772536912956927
-0.010841110780523126   -0.06717221147629188   -0.002496973566826639
-0.006927794441463077   -0.06725028455596255   -0.002418963297655388
-0.006949975591792471   -0.07444803803094634   -0.0023772536912956927
-0.007043405736105101   -0.0672403086613668   -0.0024412175534372508
-0.010841110780523126   -0.06717221147629188   -0.002496973566826639
-0.006949975591792471   -0.07444803803094634   -0.0023772536912956927
-0.009580039328620886   -0.07425578418268451   -0.002404092504462324
-0.009742351930197584   -0.07427183304641308   -0.002327555949807056
-0.010841110780523126   -0.06717221147629188   -0.002496973566826639
-0.006949975591792471   -0.07444803803094634   -0.0023772536912956927
-0.009742351930197584   -0.07427183304641308   -0.002327555949807056
-0.007043405736105101   -0.0672403086613668   -0.0024412175534372508
-0.010841110780523126   -0.06717221147629188   -0.002496973566826639
-0.009580039328620886   -0.07425578418268451   -0.002404092504462324
-0.006927794441463077   -0.06725028455596255   -0.002418963297655388
-0.010699578390844443   -0.06724508987591063   -0.0025579725718584
-0.009580039328620886   -0.07425578418268451   -0.002404092504462324
-0.006949975591792471   -0.07444803803094634   -0.0023772536912956927
-0.006927794441463077   -0.06725028455596255   -0.002418963297655388
-0.006785760280182727   -0.07447487078110583   -0.002365022033184954
-0.010699578390844443   -0.06724508987591063   -0.0025579725718584
-0.006808469770173117   -0.06729817191832208   -0.0024076427926960514
-0.006785760280182727   -0.07447487078110583   -0.002365022033184954
-0.006927794441463077   -0.06725028455596255   -0.002418963297655388
-0.010699578390844443   -0.06724508987591063   -0.0025579725718584
-0.006785760280182727   -0.07447487078110583   -0.002365022033184954
-0.00938913713538642   -0.07430060152447951   -0.0024921412237961845
-0.009580039328620886   -0.07425578418268451   -0.002404092504462324
-0.010699578390844443   -0.06724508987591063   -0.0025579725718584
-0.006785760280182727   -0.07447487078110583   -0.002365022033184954
-0.009580039328620886   -0.07425578418268451   -0.002404092504462324
-0.006927794441463077   -0.06725028455596255   -0.002418963297655388
-0.010699578390844443   -0.06724508987591063   -0.0025579725718584
-0.00938913713538642   -0.07430060152447951   -0.0024921412237961845
-0.006808469770173117   -0.06729817191832208   -0.0024076427926960514
-0.010559931060123727   -0.06736456584348813   -0.002630133128924338
-0.00938913713538642   -0.07430060152447951   -0.0024921412237961845
-0.006785760280182727   -0.07447487078110583   -0.002365022033184954
-0.006808469770173117   -0.06729817191832208   -0.0024076427926960514
-0.006634664752411735   -0.0745559876303394   -0.002366314247490164
-0.010559931060123727   -0.06736456584348813   -0.002630133128924338
-0.0066893402840665995   -0.06738620491128487   -0.0024071158292561
-0.006634664752411735   -0.0745559876303394   -0.002366314247490164
-0.006808469770173117   -0.06729817191832208   -0.0024076427926960514
-0.010559931060123727   -0.06736456584348813   -0.002630133128924338
-0.006634664752411735   -0.0745559876303394   -0.002366314247490164
-0.009215951241088179   -0.07440730577803567   -0.0025909657268589877
-0.00938913713538642   -0.07430060152447951   -0.0024921412237961845
-0.010559931060123727   -0.06736456584348813   -0.002630133128924338
-0.006634664752411735   -0.0745559876303394   -0.002366314247490164
-0.00938913713538642   -0.07430060152447951   -0.0024921412237961845
-0.006808469770173117   -0.06729817191832208   -0.0024076427926960514
-0.007043405736105101   -0.0672403086613668   -0.0024412175534372508
-0.007116535664060875   -0.07447374263950263   -0.0024006665542479883
-0.0032628364337051858   -0.06722242606609723   -0.002469268355093085
-0.006927794441463077   -0.06725028455596255   -0.002418963297655388
-0.007116535664060875   -0.07447374263950263   -0.0024006665542479883
-0.00460156134869218   -0.07457988440788627   -0.0024870479759404856
-0.0032628364337051858   -0.06722242606609723   -0.002469268355093085
-0.00441379929656579   -0.07454280623075704   -0.0023693787766143077
-0.006927794441463077   -0.06725028455596255   -0.002418963297655388
-0.003136201716489566   -0.06720944114702973   -0.0023775539480841105
-0.00441379929656579   -0.07454280623075704   -0.0023693787766143077
-0.0032628364337051858   -0.06722242606609723   -0.002469268355093085
-0.006927794441463077   -0.06725028455596255   -0.002418963297655388
-0.00441379929656579   -0.07454280623075704   -0.0023693787766143077
-0.006949975591792471   -0.07444803803094634   -0.0023772536912956927
-0.007116535664060875   -0.07447374263950263   -0.0024006665542479883
-0.006927794441463077   -0.06725028455596255   -0.002418963297655388
-0.00441379929656579   -0.07454280623075704   -0.0023693787766143077
-0.007116535664060875   -0.07447374263950263   -0.0024006665542479883
-0.0032628364337051858   -0.06722242606609723   -0.002469268355093085
-0.006927794441463077   -0.06725028455596255   -0.002418963297655388
-0.006949975591792471   -0.07444803803094634   -0.0023772536912956927
-0.003136201716489566   -0.06720944114702973   -0.0023775539480841105
-0.006808469770173117   -0.06729817191832208   -0.0024076427926960514
-0.006949975591792471   -0.07444803803094634   -0.0023772536912956927
-0.00441379929656579   -0.07454280623075704   -0.0023693787766143077
-0.003136201716489566   -0.06720944114702973   -0.0023775539480841105
-0.004234817732138657   -0.07455192191156043   -0.0022615914614195097
-0.006808469770173117   -0.06729817191832208   -0.0024076427926960514
-0.0030133015557615487   -0.06723073758568308   -0.002297494400369161
-0.004234817732138657   -0.07455192191156043   -0.0022615914614195097
-0.003136201716489566   -0.06720944114702973   -0.0023775539480841105
-0.006808469770173117   -0.06729817191832208   -0.0024076427926960514
-0.004234817732138657   -0.07455192191156043   -0.0022615914614195097
-0.006785760280182727   -0.07447487078110583   -0.002365022033184954
-0.006949975591792471   -0.07444803803094634   -0.0023772536912956927
-0.006808469770173117   -0.06729817191832208   -0.0024076427926960514
-0.004234817732138657   -0.07455192191156043   -0.0022615914614195097
-0.006949975591792471   -0.07444803803094634   -0.0023772536912956927
-0.003136201716489566   -0.06720944114702973   -0.0023775539480841105
-0.006808469770173117   -0.06729817191832208   -0.0024076427926960514
-0.006785760280182727   -0.07447487078110583   -0.002365022033184954
-0.0030133015557615487   -0.06723073758568308   -0.002297494400369161
-0.0066893402840665995   -0.06738620491128487   -0.0024071158292561
-0.006785760280182727   -0.07447487078110583   -0.002365022033184954
-0.004234817732138657   -0.07455192191156043   -0.0022615914614195097
-0.0030133015557615487   -0.06723073758568308   -0.002297494400369161
-0.004085967424031418   -0.07461623939671705   -0.0021698641593927144
-0.0066893402840665995   -0.06738620491128487   -0.0024071158292561
-0.0029022659745133778   -0.0672912893916855   -0.0022280803905043306
-0.004085967424031418   -0.07461623939671705   -0.0021698641593927144
-0.0030133015557615487   -0.06723073758568308   -0.002297494400369161
-0.0066893402840665995   -0.06738620491128487   -0.0024071158292561
-0.004085967424031418   -0.07461623939671705   -0.0021698641593927144
-0.006634664752411735   -0.0745559876303394   -0.002366314247490164
-0.006785760280182727   -0.07447487078110583   -0.002365022033184954
-0.0066893402840665995   -0.06738620491128487   -0.0024071158292561
-0.004085967424031418   -0.07461623939671705   -0.0021698641593927144
-0.006785760280182727   -0.07447487078110583   -0.002365022033184954
-0.0030133015557615487   -0.06723073758568308   -0.002297494400369161
-0.0032628364337051858   -0.06722242606609723   -0.002469268355093085
-0.00460156134869218   -0.07457988440788627   -0.0024870479759404856
0.0006949145277323985   -0.06708397946046389   -0.002537552911779755
-0.003136201716489566   -0.06720944114702973   -0.0023775539480841105
-0.00460156134869218   -0.07457988440788627   -0.0024870479759404856
-0.001927025247807561   -0.07455320035524432   -0.002588788437479385
0.0006949145277323985   -0.06708397946046389   -0.002537552911779755
-0.0016859544179896378   -0.07449507484185276   -0.0023809502631195233
-0.003136201716489566   -0.06720944114702973   -0.0023775539480841105
0.0008489658184309966   -0.06704183455179237   -0.0023766169343086034
-0.0016859544179896378   -0.07449507484185276   -0.0023809502631195233
0.0006949145277323985   -0.06708397946046389   -0.002537552911779755
-0.003136201716489566   -0.06720944114702973   -0.0023775539480841105
-0.0016859544179896378   -0.07449507484185276   -0.0023809502631195233
-0.00441379929656579   -0.07454280623075704   -0.0023693787766143077
-0.00460156134869218   -0.07457988440788627   -0.0024870479759404856
-0.003136201716489566   -0.06720944114702973   -0.0023775539480841105
-0.0016859544179896378   -0.07449507484185276   -0.0023809502631195233
-0.00460156134869218   -0.07457988440788627   -0.0024870479759404856
0.0006949145277323985   -0.06708397946046389   -0.002537552911779755
-0.003136201716489566   -0.06720944114702973   -0.0023775539480841105
-0.00441379929656579   -0.07454280623075704   -0.0023693787766143077
0.0008489658184309966   -0.06704183455179237   -0.0023766169343086034
-0.0030133015557615487   -0.06723073758568308   -0.002297494400369161
-0.00441379929656579   -0.07454280623075704   -0.0023693787766143077
-0.0016859544179896378   -0.07449507484185276   -0.0023809502631195233
0.0008489658184309966   -0.06704183455179237   -0.0023766169343086034
-0.001439496781535828   -0.07448481337136872   -0.002183684411067674
-0.0030133015557615487   -0.06723073758568308   -0.002297494400369161
0.0010113110545405667   -0.06703801808892472   -0.002230455017227979
-0.001439496781535828   -0.07448481337136872   -0.002183684411067674
0.0008489658184309966   -0.06704183455179237   -0.0023766169343086034
-0.0030133015557615487   -0.06723073758568308   -0.002297494400369161
-0.001439496781535828   -0.07448481337136872   -0.002183684411067674
-0.004234817732138657   -0.07455192191156043   -0.0022615914614195097
-0.00441379929656579   -0.07454280623075704   -0.0023693787766143077
-0.0030133015557615487   -0.06723073758568308   -0.002297494400369161
-0.001439496781535828   -0.07448481337136872   -0.002183684411067674
-0.00441379929656579   -0.07454280623075704   -0.0023693787766143077
0.0008489658184309966   -0.06704183455179237   -0.0023766169343086034
-0.0030133015557615487   -0.06723073758568308   -0.002297494400369161
-0.004234817732138657   -0.07455192191156043   -0.0022615914614195097
0.0010113110545405667   -0.06703801808892472   -0.002230455017227979
-0.0029022659745133778   -0.0672912893916855   -0.0022280803905043306
-0.004234817732138657   -0.07455192191156043   -0.0022615914614195097
-0.001439496781535828   -0.07448481337136872   -0.002183684411067674
0.0010113110545405667   -0.06703801808892472   -0.002230455017227979
-0.0012569449256036452   -0.07453273607935103   -0.002004529800832561
-0.0029022659745133778   -0.0672912893916855   -0.0022280803905043306
0.0011300448579500235   -0.0670707861510415   -0.0020944658647087085
-0.0012569449256036452   -0.07453273607935103   -0.002004529800832561
0.0010113110545405667   -0.06703801808892472   -0.002230455017227979
-0.0029022659745133778   -0.0672912893916855   -0.0022280803905043306
-0.0012569449256036452   -0.07453273607935103   -0.002004529800832561
-0.004085967424031418   -0.07461623939671705   -0.0021698641593927144
-0.004234817732138657   -0.07455192191156043   -0.0022615914614195097
-0.0029022659745133778   -0.0672912893916855   -0.0022280803905043306
-0.0012569449256036452   -0.07453273607935103   -0.002004529800832561
-0.004234817732138657   -0.07455192191156043   -0.0022615914614195097
0.0010113110545405667   -0.06703801808892472   -0.002230455017227979
0.0006949145277323985   -0.06708397946046389   -0.002537552911779755
-0.001927025247807561   -0.07455320035524432   -0.002588788437479385
0.004914379215997663   -0.06681184095681232   -0.002683556321549648
0.0008489658184309966   -0.06704183455179237   -0.0023766169343086034
-0.001927025247807561   -0.07455320035524432   -0.002588788437479385
0.0009518286310910136   -0.07429632970479312   -0.0027973266004996315
0.004914379215997663   -0.06681184095681232   -0.002683556321549648
0.0015135875922273848   -0.07416983029095532   -0.002457340310004754
0.0008489658184309966   -0.06704183455179237   -0.0023766169343086034
0.005304540239810642   -0.0667309521460191   -0.002437249365387465
0.0015135875922273848   -0.07416983029095532   -0.002457340310004754
0.004914379215997663   -0.06681184095681232   -0.002683556321549648
0.0008489658184309966   -0.06704183455179237   -0.0023766169343086034
0.0015135875922273848   -0.07416983029095532   -0.002457340310004754
-0.0016859544179896378   -0.07449507484185276   -0.0023809502631195233
-0.001927025247807561   -0.07455320035524432   -0.002588788437479385
0.0008489658184309966   -0.06704183455179237   -0.0023766169343086034
0.0015135875922273848   -0.07416983029095532   -0.002457340310004754
-0.001927025247807561   -0.07455320035524432   -0.002588788437479385
0.004914379215997663   -0.06681184095681232   -0.002683556321549648
0.0008489658184309966   -0.06704183455179237   -0.0023766169343086034
-0.0016859544179896378   -0.07449507484185276   -0.0023809502631195233
0.005304540239810642   -0.0667309521460191   -0.002437249365387465
0.0010113110545405667   -0.06703801808892472   -0.002230455017227979
-0.0016859544179896378   -0.07449507484185276   -0.0023809502631195233
0.0015135875922273848   -0.07416983029095532   -0.002457340310004754
0.005304540239810642   -0.0667309521460191   -0.002437249365387465
0.0019550644783092696   -0.07414420541450271   -0.002138121856434718
0.0010113110545405667   -0.06703801808892472   -0.002230455017227979
0.005603684406124359   -0.06671694579401469   -0.0022092635586361807
0.0019550644783092696   -0.07414420541450271   -0.002138121856434718
0.005304540239810642   -0.0667309521460191   -0.002437249365387465
0.0010113110545405667   -0.06703801808892472   -0.002230455017227979
0.0019550644783092696   -0.07414420541450271   -0.002138121856434718
-0.001439496781535828   -0.07448481337136872   -0.002183684411067674
-0.0016859544179896378   -0.07449507484185276   -0.0023809502631195233
0.0010113110545405667   -0.06703801808892472   -0.002230455017227979
0.0019550644783092696   -0.07414420541450271   -0.002138121856434718
-0.0016859544179896378   -0.07449507484185276   -0.0023809502631195233
0.005304540239810642   -0.0667309521460191   -0.002437249365387465
0.0010113110545405667   -0.06703801808892472   -0.002230455017227979
-0.001439496781535828   -0.07448481337136872   -0.002183684411067674
0.005603684406124359   -0.06671694579401469   -0.0022092635586361807
0.0011300448579500235   -0.0670707861510415   -0.0020944658647087085
-0.001439496781535828   -0.07448481337136872   -0.002183684411067674
0.0019550644783092696   -0.07414420541450271   -0.002138121856434718
0.005603684406124359   -0.06671694579401469   -0.0022092635586361807
0.002413827965958051   -0.07416572315235721   -0.0018465961243961542
0.0011300448579500235   -0.0670707861510415   -0.0020944658647087085
0.0059135994207741216   -0.06674093095100404   -0.002001461796263067
0.002413827965958051   -0.07416572315235721   -0.0018465961243961542
0.005603684406124359   -0.06671694579401469   -0.0022092635586361807
0.0011300448579500235   -0.0670707861510415   -0.0020944658647087085
0.002413827965958051   -0.07416572315235721   -0.0018465961243961542
-0.0012569449256036452   -0.07453273607935103   -0.002004529800832561
-0.001439496781535828   -0.07448481337136872   -0.002183684411067674
0.0011300448579500235   -0.0670707861510415   -0.0020944658647087085
0.002413827965958051   -0.07416572315235721   -0.0018465961243961542
-0.001439496781535828   -0.07448481337136872   -0.002183684411067674
0.005603684406124359   -0.06671694579401469   -0.0022092635586361807
-0.012956280140124697   -0.07396037974014642   -0.0022341339640073715
-0.009500537417319226   -0.07813832233552581   -0.0019660245346577987
-0.009742351930197584   -0.07427183304641308   -0.002327555949807056
-0.012606401560035847   -0.07395160876675803   -0.0024404962354402327
-0.009500537417319226   -0.07813832233552581   -0.0019660245346577987
-0.00800518462711399   -0.07853223452846592   -0.0022027593255287727
-0.009742351930197584   -0.07427183304641308   -0.002327555949807056
-0.007800393038331283   -0.07845438375456698   -0.002284191298812198
-0.012606401560035847   -0.07395160876675803   -0.0024404962354402327
-0.009580039328620886   -0.07425578418268451   -0.002404092504462324
-0.007800393038331283   -0.07845438375456698   -0.002284191298812198
-0.009742351930197584   -0.07427183304641308   -0.002327555949807056
-0.012606401560035847   -0.07395160876675803   -0.0024404962354402327
-0.007800393038331283   -0.07845438375456698   -0.002284191298812198
-0.00906450062160737   -0.07805061763783352   -0.0022136068993709474
-0.009500537417319226   -0.07813832233552581   -0.0019660245346577987
-0.012606401560035847   -0.07395160876675803   -0.0024404962354402327
-0.007800393038331283   -0.07845438375456698   -0.002284191298812198
-0.009500537417319226   -0.07813832233552581   -0.0019660245346577987
-0.009742351930197584   -0.07427183304641308   -0.002327555949807056
-0.012606401560035847   -0.07395160876675803   -0.0024404962354402327
-0.00906450062160737   -0.07805061763783352   -0.0022136068993709474
-0.009580039328620886   -0.07425578418268451   -0.002404092504462324
-0.012283884641305642   -0.0740069847500701   -0.0026630715245817825
-0.00906450062160737   -0.07805061763783352   -0.0022136068993709474
-0.007800393038331283   -0.07845438375456698   -0.002284191298812198
-0.009580039328620886   -0.07425578418268451   -0.002404092504462324
-0.007573584805601784   -0.07845821149766141   -0.002366448230361523
-0.012283884641305642   -0.0740069847500701   -0.0026630715245817825
-0.00938913713538642   -0.07430060152447951   -0.0024921412237961845
-0.007573584805601784   -0.07845821149766141   -0.002366448230361523
-0.009580039328620886   -0.07425578418268451   -0.002404092504462324
-0.012283884641305642   -0.0740069847500701   -0.0026630715245817825
-0.007573584805601784   -0.07845821149766141   -0.002366448230361523
-0.008688285485636776   -0.07805809918504984   -0.0024602340227627456
-0.00906450062160737   -0.07805061763783352   -0.0022136068993709474
-0.012283884641305642   -0.0740069847500701   -0.0026630715245817825
-0.007573584805601784   -0.07845821149766141   -0.002366448230361523
-0.00906450062160737   -0.07805061763783352   -0.0022136068993709474
-0.009580039328620886   -0.07425578418268451   -0.002404092504462324
-0.012283884641305642   -0.0740069847500701   -0.0026630715245817825
-0.008688285485636776   -0.07805809918504984   -0.0024602340227627456
-0.00938913713538642   -0.07430060152447951   -0.0024921412237961845
-0.011890524655884019   -0.07415487799695314   -0.0029009043784109707
-0.008688285485636776   -0.07805809918504984   -0.0024602340227627456
-0.007573584805601784   -0.07845821149766141   -0.002366448230361523
-0.00938913713538642   -0.07430060152447951   -0.0024921412237961845
-0.007362880235369463   -0.07854409616939781   -0.002449874573200912
-0.011890524655884019   -0.07415487799695314   -0.0029009043784109707
-0.009215951241088179   -0.07440730577803567   -0.0025909657268589877
-0.007362880235369463   -0.07854409616939781   -0.002449874573200912
-0.00938913713538642   -0.07430060152447951   -0.0024921412237961845
-0.011890524655884019   -0.07415487799695314   -0.0029009043784109707
-0.007362880235369463   -0.07854409616939781   -0.002449874573200912
-0.008242051655535503   -0.07816623059819323   -0.002712173952737271
-0.008688285485636776   -0.07805809918504984   -0.0024602340227627456
-0.011890524655884019   -0.07415487799695314   -0.0029009043784109707
-0.007362880235369463   -0.07854409616939781   -0.002449874573200912
-0.008688285485636776   -0.07805809918504984   -0.0024602340227627456
-0.00938913713538642   -0.07430060152447951   -0.0024921412237961845
-0.009742351930197584   -0.07427183304641308   -0.002327555949807056
-0.00800518462711399   -0.07853223452846592   -0.0022027593255287727
-0.007116535664060875   -0.07447374263950263   -0.0024006665542479883
-0.009580039328620886   -0.07425578418268451   -0.002404092504462324
-0.00800518462711399   -0.07853223452846592   -0.0022027593255287727
-0.006910127419159976   -0.07892761825221209   -0.0024119895085889416
-0.007116535664060875   -0.07447374263950263   -0.0024006665542479883
-0.0066940548158809   -0.07884774326557577   -0.0023549217416146758
-0.009580039328620886   -0.07425578418268451   -0.002404092504462324
-0.006949975591792471   -0.07444803803094634   -0.0023772536912956927
-0.0066940548158809   -0.07884774326557577   -0.0023549217416146758
-0.007116535664060875   -0.07447374263950263   -0.0024006665542479883
-0.009580039328620886   -0.07425578418268451   -0.002404092504462324
-0.0066940548158809   -0.07884774326557577   -0.0023549217416146758
-0.007800393038331283   -0.07845438375456698   -0.002284191298812198
-0.00800518462711399   -0.07853223452846592   -0.0022027593255287727
-0.009580039328620886   -0.07425578418268451   -0.002404092504462324
-0.0066940548158809   -0.07884774326557577   -0.0023549217416146758
-0.00800518462711399   -0.07853223452846592   -0.0022027593255287727
-0.007116535664060875   -0.07447374263950263   -0.0024006665542479883
-0.009580039328620886   -0.07425578418268451   -0.002404092504462324
-0.007800393038331283   -0.07845438375456698   -0.002284191298812198
-0.006949975591792471   -0.07444803803094634   -0.0023772536912956927
-0.00938913713538642   -0.07430060152447951   -0.0024921412237961845
-0.007800393038331283   -0.07845438375456698   -0.002284191298812198
-0.0066940548158809   -0.07884774326557577   -0.0023549217416146758
-0.006949975591792471   -0.07444803803094634   -0.0023772536912956927
-0.00648514584966036   -0.07884629644059406   -0.0022971440870572573
-0.00938913713538642   -0.07430060152447951   -0.0024921412237961845
-0.006785760280182727   -0.07447487078110583   -0.002365022033184954
-0.00648514584966036   -0.07884629644059406   -0.0022971440870572573
-0.006949975591792471   -0.07444803803094634   -0.0023772536912956927
-0.00938913713538642   -0.07430060152447951   -0.0024921412237961845
-0.00648514584966036   -0.07884629644059406   -0.0022971440870572573
-0.007573584805601784   -0.07845821149766141   -0.002366448230361523
-0.007800393038331283   -0.07845438375456698   -0.002284191298812198
-0.00938913713538642   -0.07430060152447951   -0.0024921412237961845
-0.00648514584966036   -0.07884629644059406   -0.0022971440870572573
-0.007800393038331283   -0.07845438375456698   -0.002284191298812198
-0.006949975591792471   -0.07444803803094634   -0.0023772536912956927
-0.00938913713538642   -0.07430060152447951   -0.0024921412237961845
-0.007573584805601784   -0.07845821149766141   -0.002366448230361523
-0.006785760280182727   -0.07447487078110583   -0.002365022033184954
-0.009215951241088179   -0.07440730577803567   -0.0025909657268589877
-0.007573584805601784   -0.07845821149766141   -0.002366448230361523
-0.00648514584966036   -0.07884629644059406   -0.0022971440870572573
-0.006785760280182727   -0.07447487078110583   -0.002365022033184954
-0.006267349077596598   -0.07892163976165048   -0.002241647700935347
-0.009215951241088179   -0.07440730577803567   -0.0025909657268589877
-0.006634664752411735   -0.0745559876303394   -0.002366314247490164
-0.006267349077596598   -0.07892163976165048   -0.002241647700935347
-0.006785760280182727   -0.07447487078110583   -0.002365022033184954
-0.009215951241088179   -0.07440730577803567   -0.0025909657268589877
-0.006267349077596598   -0.07892163976165048   -0.002241647700935347
-0.007362880235369463   -0.07854409616939781   -0.002449874573200912
-0.007573584805601784   -0.07845821149766141   -0.002366448230361523
-0.009215951241088179   -0.07440730577803567   -0.0025909657268589877
-0.006267349077596598   -0.07892163976165048   -0.002241647700935347
-0.007573584805601784   -0.07845821149766141   -0.002366448230361523
-0.006785760280182727   -0.07447487078110583   -0.002365022033184954
-0.007116535664060875   -0.07447374263950263   -0.0024006665542479883
-0.006910127419159976   -0.07892761825221209   -0.0024119895085889416
-0.00460156134869218   -0.07457988440788627   -0.0024870479759404856
-0.006949975591792471   -0.07444803803094634   -0.0023772536912956927
-0.006910127419159976   -0.07892761825221209   -0.0024119895085889416
-0.0059100965186113935   -0.07940480652243792   -0.0026423917239331816
-0.00460156134869218   -0.07457988440788627   -0.0024870479759404856
-0.0056452123544069414   -0.07933549332976382   -0.0024390542378015675
-0.006949975591792471   -0.07444803803094634   -0.0023772536912956927
-0.00441379929656579   -0.07454280623075704   -0.0023693787766143077
-0.0056452123544069414   -0.07933549332976382   -0.0024390542378015675
-0.00460156134869218   -0.07457988440788627   -0.0024870479759404856
-0.006949975591792471   -0.07444803803094634   -0.0023772536912956927
-0.0056452123544069414   -0.07933549332976382   -0.0024390542378015675
-0.0066940548158809   -0.07884774326557577   -0.0023549217416146758
-0.006910127419159976   -0.07892761825221209   -0.0024119895085889416
-0.006949975591792471   -0.07444803803094634   -0.0023772536912956927
-0.0056452123544069414   -0.07933549332976382   -0.0024390542378015675
-0.006910127419159976   -0.07892761825221209   -0.0024119895085889416
-0.00460156134869218   -0.07457988440788627   -0.0024870479759404856
-0.006949975591792471   -0.07444803803094634   -0.0023772536912956927
-0.0066940548158809   -0.07884774326557577   -0.0023549217416146758
-0.00441379929656579   -0.07454280623075704   -0.0023693787766143077
-0.006785760280182727   -0.07447487078110583   -0.002365022033184954
-0.0066940548158809   -0.07884774326557577   -0.0023549217416146758
-0.0056452123544069414   -0.07933549332976382   -0.0024390542378015675
-0.00441379929656579   -0.07454280623075704   -0.0023693787766143077
-0.005399776524147849   -0.0793317751326036   -0.0022364055781017786
-0.006785760280182727   -0.07447487078110583   -0.002365022033184954
-0.004234817732138657   -0.07455192191156043   -0.0022615914614195097
-0.005399776524147849   -0.0793317751326036   -0.0022364055781017786
-0.00441379929656579   -0.07454280623075704   -0.0023693787766143077
-0.006785760280182727   -0.07447487078110583   -0.002365022033184954
-0.005399776524147849   -0.0793317751326036   -0.0022364055781017786
-0.00648514584966036   -0.07884629644059406   -0.0022971440870572573
-0.0066940548158809   -0.07884774326557577   -0.0023549217416146758
-0.006785760280182727   -0.07447487078110583   -0.002365022033184954
-0.005399776524147849   -0.0793317751326036   -0.0022364055781017786
-0.0066940548158809   -0.07884774326557577   -0.0023549217416146758
-0.00441379929656579   -0.07454280623075704   -0.0023693787766143077
-0.006785760280182727   -0.07447487078110583   -0.002365022033184954
-0.00648514584966036   -0.07884629644059406   -0.0022971440870572573
-0.004234817732138657   -0.07455192191156043   -0.0022615914614195097
-0.006634664752411735   -0.0745559876303394   -0.002366314247490164
-0.00648514584966036   -0.07884629644059406   -0.0022971440870572573
-0.005399776524147849   -0.0793317751326036   -0.0022364055781017786
-0.004234817732138657   -0.07455192191156043   -0.0022615914614195097
-0.00513627046508734   -0.07939010719773602   -0.002033302475605759
-0.006634664752411735   -0.0745559876303394   -0.002366314247490164
-0.004085967424031418   -0.07461623939671705   -0.0021698641593927144
-0.00513627046508734   -0.07939010719773602   -0.002033302475605759
-0.004234817732138657   -0.07455192191156043   -0.0022615914614195097
-0.006634664752411735   -0.0745559876303394   -0.002366314247490164
-0.00513627046508734   -0.07939010719773602   -0.002033302475605759
-0.006267349077596598   -0.07892163976165048   -0.002241647700935347
-0.00648514584966036   -0.07884629644059406   -0.0022971440870572573
-0.006634664752411735   -0.0745559876303394   -0.002366314247490164
-0.00513627046508734   -0.07939010719773602   -0.002033302475605759
-0.00648514584966036   -0.07884629644059406   -0.0022971440870572573
-0.004234817732138657   -0.07455192191156043   -0.0022615914614195097
-0.00460156134869218   -0.07457988440788627   -0.0024870479759404856
-0.0059100965186113935   -0.07940480652243792   -0.0026423917239331816
-0.001927025247807561   -0.07455320035524432   -0.002588788437479385
-0.00441379929656579   -0.07454280623075704   -0.0023693787766143077
-0.0059100965186113935   -0.07940480652243792   -0.0026423917239331816
-0.004925890637174045   -0.08   -0.0028193666981081336
-0.001927025247807561   -0.07455320035524432   -0.002588788437479385
-0.004592743482260518   -0.08   -0.002510556426685631
-0.00441379929656579   -0.07454280623075704   -0.0023693787766143077
-0.0016859544179896378   -0.07449507484185276   -0.0023809502631195233
-0.004592743482260518   -0.08   -0.002510556426685631
-0.001927025247807561   -0.07455320035524432   -0.002588788437479385
-0.00441379929656579   -0.07454280623075704   -0.0023693787766143077
-0.004592743482260518   -0.08   -0.002510556426685631
-0.0056452123544069414   -0.07933549332976382   -0.0024390542378015675
-0.0059100965186113935   -0.07940480652243792   -0.0026423917239331816
-0.00441379929656579   -0.07454280623075704   -0.0023693787766143077
-0.004592743482260518   -0.08   -0.002510556426685631
-0.0059100965186113935   -0.07940480652243792   -0.0026423917239331816
-0.001927025247807561   -0.07455320035524432   -0.002588788437479385
-0.00441379929656579   -0.07454280623075704   -0.0023693787766143077
-0.0056452123544069414   -0.07933549332976382   -0.0024390542378015675
-0.0016859544179896378   -0.07449507484185276   -0.0023809502631195233
-0.004234817732138657   -0.07455192191156043   -0.0022615914614195097
-0.0056452123544069414   -0.07933549332976382   -0.0024390542378015675
-0.004592743482260518   -0.08   -0.002510556426685631
-0.0016859544179896378   -0.07449507484185276   -0.0023809502631195233
-0.00425801928059881   -0.08   -0.0021980836990057907
-0.004234817732138657   -0.07455192191156043   -0.0022615914614195097
-0.001439496781535828   -0.07448481337136872   -0.002183684411067674
-0.00425801928059881   -0.08   -0.0021980836990057907
-0.0016859544179896378   -0.07449507484185276   -0.0023809502631195233
-0.004234817732138657   -0.07455192191156043   -0.0022615914614195097
-0.00425801928059881   -0.08   -0.0021980836990057907
-0.005399776524147849   -0.0793317751326036   -0.0022364055781017786
-0.0056452123544069414   -0.07933549332976382   -0.0024390542378015675
-0.004234817732138657   -0.07455192191156043   -0.0022615914614195097
-0.00425801928059881   -0.08   -0.0021980836990057907
-0.0056452123544069414   -0.07933549332976382   -0.0024390542378015675
-0.0016859544179896378   -0.07449507484185276   -0.0023809502631195233
-0.004234817732138657   -0.07455192191156043   -0.0022615914614195097
-0.005399776524147849   -0.0793317751326036   -0.0022364055781017786
-0.001439496781535828   -0.07448481337136872   -0.002183684411067674
-0.004085967424031418   -0.07461623939671705   -0.0021698641593927144
-0.005399776524147849   -0.0793317751326036   -0.0022364055781017786
-0.00425801928059881   -0.08   -0.0021980836990057907
-0.001439496781535828   -0.07448481337136872   -0.002183684411067674
-0.003930810376377692   -0.08   -0.001889741433540972
-0.004085967424031418   -0.07461623939671705   -0.0021698641593927144
-0.0012569449256036452   -0.07453273607935103   -0.002004529800832561
-0.003930810376377692   -0.08   -0.001889741433540972
-0.001439496781535828   -0.07448481337136872   -0.002183684411067674
-0.004085967424031418   -0.07461623939671705   -0.0021698641593927144
-0.003930810376377692   -0.08   -0.001889741433540972
-0.00513627046508734   -0.07939010719773602   -0.002033302475605759
-0.005399776524147849   -0.0793317751326036   -0.0022364055781017786
-0.004085967424031418   -0.07461623939671705   -0.0021698641593927144
-0.003930810376377692   -0.08   -0.001889741433540972
-0.005399776524147849   -0.0793317751326036   -0.0022364055781017786
-0.001439496781535828   -0.07448481337136872   -0.002183684411067674
-0.001927025247807561   -0.07455320035524432   -0.002588788437479385
-0.004925890637174045   -0.08   -0.0028193666981081336
0.0009518286310910136   -0.07429632970479312   -0.0027973266004996315
-0.0016859544179896378   -0.07449507484185276   -0.0023809502631195233
-0.004925890637174045   -0.08   -0.0028193666981081336
-0.004212035545044962   -0.08   -0.003033701172304794
0.0009518286310910136   -0.07429632970479312   -0.0027973266004996315
-0.003515531487588911   -0.08   -0.002586959619840556
-0.0016859544179896378   -0.07449507484185276   -0.0023809502631195233
0.0015135875922273848   -0.07416983029095532   -0.002457340310004754
-0.003515531487588911   -0.08   -0.002586959619840556
0.0009518286310910136   -0.07429632970479312   -0.0027973266004996315
-0.0016859544179896378   -0.07449507484185276   -0.0023809502631195233
-0.003515531487588911   -0.08   -0.002586959619840556
-0.004592743482260518   -0.08   -0.002510556426685631
-0.004925890637174045   -0.08   -0.0028193666981081336
-0.0016859544179896378   -0.07449507484185276   -0.0023809502631195233
-0.003515531487588911   -0.08   -0.002586959619840556
-0.004925890637174045   -0.08   -0.0028193666981081336
0.0009518286310910136   -0.07429632970479312   -0.0027973266004996315
-0.0016859544179896378   -0.07449507484185276   -0.0023809502631195233
-0.004592743482260518   -0.08   -0.002510556426685631
0.0015135875922273848   -0.07416983029095532   -0.002457340310004754
-0.001439496781535828   -0.07448481337136872   -0.002183684411067674
-0.004592743482260518   -0.08   -0.002510556426685631
-0.003515531487588911   -0.08   -0.002586959619840556
0.0015135875922273848   -0.07416983029095532   -0.002457340310004754
-0.0029600791832936615   -0.08   -0.00215959471690231
-0.001439496781535828   -0.07448481337136872   -0.002183684411067674
0.0019550644783092696   -0.07414420541450271   -0.002138121856434718
-0.0029600791832936615   -0.08   -0.00215959471690231
0.0015135875922273848   -0.07416983029095532   -0.002457340310004754
-0.001439496781535828   -0.07448481337136872   -0.002183684411067674
-0.0029600791832936615   -0.08   -0.00215959471690231
-0.00425801928059881   -0.08   -0.0021980836990057907
-0.004592743482260518   -0.08   -0.002510556426685631
-0.001439496781535828   -0.07448481337136872   -0.002183684411067674
-0.0029600791832936615   -0.08   -0.00215959471690231
-0.004592743482260518   -0.08   -0.002510556426685631
0.0015135875922273848   -0.07416983029095532   -0.002457340310004754
-0.001439496781535828   -0.07448481337136872   -0.002183684411067674
-0.00425801928059881   -0.08   -0.0021980836990057907
0.0019550644783092696   -0.07414420541450271   -0.002138121856434718
-0.0012569449256036452   -0.07453273607935103   -0.002004529800832561
-0.00425801928059881   -0.08   -0.0021980836990057907
-0.0029600791832936615   -0.08   -0.00215959471690231
0.0019550644783092696   -0.07414420541450271   -0.002138121856434718
-0.0022739240057377138   -0.08   -0.0017159426889641067
-0.0012569449256036452   -0.07453273607935103   -0.002004529800832561
0.002413827965958051   -0.07416572315235721   -0.0018465961243961542
-0.0022739240057377138   -0.08   -0.0017159426889641067
0.0019550644783092696   -0.07414420541450271   -0.002138121856434718
-0.0012569449256036452   -0.07453273607935103   -0.002004529800832561
-0.0022739240057377138   -0.08   -0.0017159426889641067
-0.003930810376377692   -0.08   -0.001889741433540972
-0.00425801928059881   -0.08   -0.0021980836990057907
-0.0012569449256036452   -0.07453273607935103   -0.002004529800832561
-0.0022739240057377138   -0.08   -0.0017159426889641067
-0.00425801928059881   -0.08   -0.0021980836990057907
0.0019550644783092696   -0.07414420541450271   -0.002138121856434718
-0.009500537417319226   -0.07813832233552581   -0.0019660245346577987
-0.00567730574713543   -0.07834837623202746   -0.001682730188434763
-0.00800518462711399   -0.07853223452846592   -0.0022027593255287727
-0.00906450062160737   -0.07805061763783352   -0.0022136068993709474
-0.00567730574713543   -0.07834837623202746   -0.001682730188434763
-0.0060215160645286795   -0.07865189812502206   -0.0019875434166601352
-0.00800518462711399   -0.07853223452846592   -0.0022027593255287727
-0.005866638020098415   -0.0785455869816794   -0.0020986601422217205
-0.00906450062160737   -0.07805061763783352   -0.0022136068993709474
-0.007800393038331283   -0.07845438375456698   -0.002284191298812198
-0.005866638020098415   -0.0785455869816794   -0.0020986601422217205
-0.00800518462711399   -0.07853223452846592   -0.0022027593255287727
-0.00906450062160737   -0.07805061763783352   -0.0022136068993709474
-0.005866638020098415   -0.0785455869816794   -0.0020986601422217205
-0.00528217250177703   -0.07821187234173825   -0.0019428551029187326
-0.00567730574713543   -0.07834837623202746   -0.001682730188434763
-0.00906450062160737   -0.07805061763783352   -0.0022136068993709474
-0.005866638020098415   -0.0785455869816794   -0.0020986601422217205
-0.00567730574713543   -0.07834837623202746   -0.001682730188434763
-0.00800518462711399   -0.07853223452846592   -0.0022027593255287727
-0.00906450062160737   -0.07805061763783352   -0.0022136068993709474
-0.00528217250177703   -0.07821187234173825   -0.0019428551029187326
-0.007800393038331283   -0.07845438375456698   -0.002284191298812198
-0.008688285485636776   -0.07805809918504984   -0.0024602340227627456
-0.00528217250177703   -0.07821187234173825   -0.0019428551029187326
-0.005866638020098415   -0.0785455869816794   -0.0020986601422217205
-0.007800393038331283   -0.07845438375456698   -0.002284191298812198
-0.005684982020492481   -0.0785063206673507   -0.002201171873041964
-0.008688285485636776   -0.07805809918504984   -0.0024602340227627456
-0.007573584805601784   -0.07845821149766141   -0.002366448230361523
-0.005684982020492481   -0.0785063206673507   -0.002201171873041964
-0.007800393038331283   -0.07845438375456698   -0.002284191298812198
-0.008688285485636776   -0.07805809918504984   -0.0024602340227627456
-0.005684982020492481   -0.0785063206673507   -0.002201171873041964
-0.004953260565640104   -0.07816982702533401   -0.0021923015040175202
-0.00528217250177703   -0.07821187234173825   -0.0019428551029187326
-0.008688285485636776   -0.07805809918504984   -0.0024602340227627456
-0.005684982020492481   -0.0785063206673507   -0.002201171873041964
-0.00528217250177703   -0.07821187234173825   -0.0019428551029187326
-0.007800393038331283   -0.07845438375456698   -0.002284191298812198
-0.008688285485636776   -0.07805809918504984   -0.0024602340227627456
-0.004953260565640104   -0.07816982702533401   -0.0021923015040175202
-0.007573584805601784   -0.07845821149766141   -0.002366448230361523
-0.008242051655535503   -0.07816623059819323   -0.002712173952737271
-0.004953260565640104   -0.07816982702533401   -0.0021923015040175202
-0.005684982020492481   -0.0785063206673507   -0.002201171873041964
-0.007573584805601784   -0.07845821149766141   -0.002366448230361523
-0.0055293639783242365   -0.07853466578901691   -0.002294541871431321
-0.008242051655535503   -0.07816623059819323   -0.002712173952737271
-0.007362880235369463   -0.07854409616939781   -0.002449874573200912
-0.0055293639783242365   -0.07853466578901691   -0.002294541871431321
-0.007573584805601784   -0.07845821149766141   -0.002366448230361523
-0.008242051655535503   -0.07816623059819323   -0.002712173952737271
-0.0055293639783242365   -0.07853466578901691   -0.002294541871431321
-0.004581142228359026   -0.07820519077371907   -0.002429959862575059
-0.004953260565640104   -0.07816982702533401   -0.0021923015040175202
-0.008242051655535503   -0.07816623059819323   -0.002712173952737271
-0.0055293639783242365   -0.07853466578901691   -0.002294541871431321
-0.004953260565640104   -0.07816982702533401   -0.0021923015040175202
-0.007573584805601784   -0.07845821149766141   -0.002366448230361523
-0.00800518462711399   -0.07853223452846592   -0.0022027593255287727
-0.0060215160645286795   -0.07865189812502206   -0.0019875434166601352
-0.006910127419159976   -0.07892761825221209   -0.0024119895085889416
-0.007800393038331283   -0.07845438375456698   -0.002284191298812198
-0.0060215160645286795   -0.07865189812502206   -0.0019875434166601352
-0.006487473506437654   -0.07883959336768892   -0.0022312641080596395
-0.006910127419159976   -0.07892761825221209   -0.0024119895085889416
-0.006350396067208298   -0.07874466554244801   -0.002234180597284629
-0.007800393038331283   -0.07845438375456698   -0.002284191298812198
-0.0066940548158809   -0.07884774326557577   -0.0023549217416146758
-0.006350396067208298   -0.07874466554244801   -0.002234180597284629
-0.006910127419159976   -0.07892761825221209   -0.0024119895085889416
-0.007800393038331283   -0.07845438375456698   -0.002284191298812198
-0.006350396067208298   -0.07874466554244801   -0.002234180597284629
-0.005866638020098415   -0.0785455869816794   -0.0020986601422217205
-0.0060215160645286795   -0.07865189812502206   -0.0019875434166601352
-0.007800393038331283   -0.07845438375456698   -0.002284191298812198
-0.006350396067208298   -0.07874466554244801   -0.002234180597284629
-0.0060215160645286795   -0.07865189812502206   -0.0019875434166601352
-0.006910127419159976   -0.07892761825221209   -0.0024119895085889416
-0.007800393038331283   -0.07845438375456698   -0.002284191298812198
-0.005866638020098415   -0.0785455869816794   -0.0020986601422217205
-0.0066940548158809   -0.07884774326557577   -0.0023549217416146758
-0.007573584805601784   -0.07845821149766141   -0.002366448230361523
-0.005866638020098415   -0.0785455869816794   -0.0020986601422217205
-0.006350396067208298   -0.07874466554244801   -0.002234180597284629
-0.0066940548158809   -0.07884774326557577   -0.0023549217416146758
-0.00619781818396603   -0.07871046148248402   -0.0022259408519742724
-0.007573584805601784   -0.07845821149766141   -0.002366448230361523
-0.00648514584966036   -0.07884629644059406   -0.0022971440870572573
-0.00619781818396603   -0.07871046148248402   -0.0022259408519742724
-0.0066940548158809   -0.07884774326557577   -0.0023549217416146758
-0.007573584805601784   -0.07845821149766141   -0.002366448230361523
-0.00619781818396603   -0.07871046148248402   -0.0022259408519742724
-0.005684982020492481   -0.0785063206673507   -0.002201171873041964
-0.005866638020098415   -0.0785455869816794   -0.0020986601422217205
-0.007573584805601784   -0.07845821149766141   -0.002366448230361523
-0.00619781818396603   -0.07871046148248402   -0.0022259408519742724
-0.005866638020098415   -0.0785455869816794   -0.0020986601422217205
-0.0066940548158809   -0.07884774326557577   -0.0023549217416146758
-0.007573584805601784   -0.07845821149766141   -0.002366448230361523
-0.005684982020492481   -0.0785063206673507   -0.002201171873041964
-0.00648514584966036   -0.07884629644059406   -0.0022971440870572573
-0.007362880235369463   -0.07854409616939781   -0.002449874573200912
-0.005684982020492481   -0.0785063206673507   -0.002201171873041964
-0.00619781818396603   -0.07871046148248402   -0.0022259408519742724
-0.00648514584966036   -0.07884629644059406   -0.0022971440870572573
-0.006042684822236347   -0.07873420434352241   -0.0022089470352024652
-0.007362880235369463   -0.07854409616939781   -0.002449874573200912
-0.006267349077596598   -0.07892163976165048   -0.002241647700935347
-0.006042684822236347   -0.07873420434352241   -0.0022089470352024652
-0.00648514584966036   -0.07884629644059406   -0.0022971440870572573
-0.007362880235369463   -0.07854409616939781   -0.002449874573200912
-0.006042684822236347   -0.07873420434352241   -0.0022089470352024652
-0.0055293639783242365   -0.07853466578901691   -0.002294541871431321
-0.005684982020492481   -0.0785063206673507   -0.002201171873041964
-0.007362880235369463   -0.07854409616939781   -0.002449874573200912
-0.006042684822236347   -0.07873420434352241   -0.0022089470352024652
-0.005684982020492481   -0.0785063206673507   -0.002201171873041964
-0.00648514584966036   -0.07884629644059406   -0.0022971440870572573
-0.006910127419159976   -0.07892761825221209   -0.0024119895085889416
-0.006487473506437654   -0.07883959336768892   -0.0022312641080596395
-0.0059100965186113935   -0.07940480652243792   -0.0026423917239331816
-0.0066940548158809   -0.07884774326557577   -0.0023549217416146758
-0.006487473506437654   -0.07883959336768892   -0.0022312641080596395
-0.006986985364890647   -0.07891855167181008   -0.002471134111381585
-0.0059100965186113935   -0.07940480652243792   -0.0026423917239331816
-0.006844988313158498   -0.07882804222097775   -0.0023700098162478646
-0.0066940548158809   -0.07884774326557577   -0.0023549217416146758
-0.0056452123544069414   -0.07933549332976382   -0.0024390542378015675
-0.006844988313158498   -0.07882804222097775   -0.0023700098162478646
-0.0059100965186113935   -0.07940480652243792   -0.0026423917239331816
-0.0066940548158809   -0.07884774326557577   -0.0023549217416146758
-0.006844988313158498   -0.07882804222097775   -0.0023700098162478646
-0.006350396067208298   -0.07874466554244801   -0.002234180597284629
-0.006487473506437654   -0.07883959336768892   -0.0022312641080596395
-0.0066940548158809   -0.07884774326557577   -0.0023549217416146758
-0.006844988313158498   -0.07882804222097775   -0.0023700098162478646
-0.006487473506437654   -0.07883959336768892   -0.0022312641080596395
-0.0059100965186113935   -0.07940480652243792   -0.0026423917239331816
-0.0066940548158809   -0.07884774326557577   -0.0023549217416146758
-0.006350396067208298   -0.07874466554244801   -0.002234180597284629
-0.0056452123544069414   -0.07933549332976382   -0.0024390542378015675
-0.00648514584966036   -0.07884629644059406   -0.0022971440870572573
-0.006350396067208298   -0.07874466554244801   -0.002234180597284629
-0.006844988313158498   -0.07882804222097775   -0.0023700098162478646
-0.0056452123544069414   -0.07933549332976382   -0.0024390542378015675
-0.006674660066546141   -0.07879924972403299   -0.002255298518508279
-0.00648514584966036   -0.07884629644059406   -0.0022971440870572573
-0.005399776524147849   -0.0793317751326036   -0.0022364055781017786
-0.006674660066546141   -0.07879924972403299   -0.002255298518508279
-0.0056452123544069414   -0.07933549332976382   -0.0024390542378015675
-0.00648514584966036   -0.07884629644059406   -0.0022971440870572573
-0.006674660066546141   -0.07879924972403299   -0.002255298518508279
-0.00619781818396603   -0.07871046148248402   -0.0022259408519742724
-0.006350396067208298   -0.07874466554244801   -0.002234180597284629
-0.00648514584966036   -0.07884629644059406   -0.0022971440870572573
-0.006674660066546141   -0.07879924972403299   -0.002255298518508279
-0.006350396067208298   -0.07874466554244801   -0.002234180597284629
-0.0056452123544069414   -0.07933549332976382   -0.0024390542378015675
-0.00648514584966036   -0.07884629644059406   -0.0022971440870572573
-0.00619781818396603   -0.07871046148248402   -0.0022259408519742724
-0.005399776524147849   -0.0793317751326036   -0.0022364055781017786
-0.006267349077596598   -0.07892163976165048   -0.002241647700935347
-0.00619781818396603   -0.07871046148248402   -0.0022259408519742724
-0.006674660066546141   -0.07879924972403299   -0.002255298518508279
-0.005399776524147849   -0.0793317751326036   -0.0022364055781017786
-0.006499493173730586   -0.07882246977050499   -0.002133112901036568
-0.006267349077596598   -0.07892163976165048   -0.002241647700935347
-0.00513627046508734   -0.07939010719773602   -0.002033302475605759
-0.006499493173730586   -0.07882246977050499   -0.002133112901036568
-0.005399776524147849   -0.0793317751326036   -0.0022364055781017786
-0.006267349077596598   -0.07892163976165048   -0.002241647700935347
-0.006499493173730586   -0.07882246977050499   -0.002133112901036568
-0.006042684822236347   -0.07873420434352241   -0.0022089470352024652
-0.00619781818396603   -0.07871046148248402   -0.0022259408519742724
-0.006267349077596598   -0.07892163976165048   -0.002241647700935347
-0.006499493173730586   -0.07882246977050499   -0.002133112901036568
-0.00619781818396603   -0.07871046148248402   -0.0022259408519742724
-0.005399776524147849   -0.0793317751326036   -0.0022364055781017786
-0.0059100965186113935   -0.07940480652243792   -0.0026423917239331816
-0.006986985364890647   -0.07891855167181008   -0.002471134111381585
-0.004925890637174045   -0.08   -0.0028193666981081336
-0.0056452123544069414   -0.07933549332976382   -0.0024390542378015675
-0.006986985364890647   -0.07891855167181008   -0.002471134111381585
-0.007710412878723455   -0.07883373359903269   -0.0026990137354606244
-0.004925890637174045   -0.08   -0.0028193666981081336
-0.007524931228862521   -0.07874829654964681   -0.0024988387987995696
-0.0056452123544069414   -0.07933549332976382   -0.0024390542378015675
-0.004592743482260518   -0.08   -0.002510556426685631
-0.007524931228862521   -0.07874829654964681   -0.0024988387987995696
-0.004925890637174045   -0.08   -0.0028193666981081336
-0.0056452123544069414   -0.07933549332976382   -0.0024390542378015675
-0.007524931228862521   -0.07874829654964681   -0.0024988387987995696
-0.006844988313158498   -0.07882804222097775   -0.0023700098162478646
-0.006986985364890647   -0.07891855167181008   -0.002471134111381585
-0.0056452123544069414   -0.07933549332976382   -0.0024390542378015675
-0.007524931228862521   -0.07874829654964681   -0.0024988387987995696
-0.006986985364890647   -0.07891855167181008   -0.002471134111381585
-0.004925890637174045   -0.08   -0.0028193666981081336
-0.0056452123544069414   -0.07933549332976382   -0.0024390542378015675
-0.006844988313158498   -0.07882804222097775   -0.0023700098162478646
-0.004592743482260518   -0.08   -0.002510556426685631
-0.005399776524147849   -0.0793317751326036   -0.0022364055781017786
-0.006844988313158498   -0.07882804222097775   -0.0023700098162478646
-0.007524931228862521   -0.07874829654964681   -0.0024988387987995696
-0.004592743482260518   -0.08   -0.002510556426685631
-0.007280211986818272   -0.07872884846492528   -0.00228353651034838
-0.005399776524147849   -0.0793317751326036   -0.0022364055781017786
-0.00425801928059881   -0.08   -0.0021980836990057907
-0.007280211986818272   -0.07872884846492528   -0.00228353651034838
-0.004592743482260518   -0.08   -0.002510556426685631
-0.005399776524147849   -0.0793317751326036   -0.0022364055781017786
-0.007280211986818272   -0.07872884846492528   -0.00228353651034838
-0.006674660066546141   -0.07879924972403299   -0.002255298518508279
-0.006844988313158498   -0.07882804222097775   -0.0023700098162478646
-0.005399776524147849   -0.0793317751326036   -0.0022364055781017786
-0.007280211986818272   -0.07872884846492528   -0.00228353651034838
-0.006844988313158498   -0.07882804222097775   -0.0023700098162478646
-0.004592743482260518   -0.08   -0.002510556426685631
-0.005399776524147849   -0.0793317751326036   -0.0022364055781017786
-0.006674660066546141   -0.07879924972403299   -0.002255298518508279
-0.00425801928059881   -0.08   -0.0021980836990057907
-0.00513627046508734   -0.07939010719773602   -0.002033302475605759
-0.006674660066546141   -0.07879924972403299   -0.002255298518508279
-0.007280211986818272   -0.07872884846492528   -0.00228353651034838
-0.00425801928059881   -0.08   -0.0021980836990057907
-0.007049977961086384   -0.07876264770277638   -0.0020599152934634903
-0.00513627046508734   -0.07939010719773602   -0.002033302475605759
-0.003930810376377692   -0.08   -0.001889741433540972
-0.007049977961086384   -0.07876264770277638   -0.0020599152934634903
-0.00425801928059881   -0.08   -0.0021980836990057907
-0.00513627046508734   -0.07939010719773602   -0.002033302475605759
-0.007049977961086384   -0.07876264770277638   -0.0020599152934634903
-0.006499493173730586   -0.07882246977050499   -0.002133112901036568
-0.006674660066546141   -0.07879924972403299   -0.002255298518508279
-0.00513627046508734   -0.07939010719773602   -0.002033302475605759
-0.007049977961086384   -0.07876264770277638   -0.0020599152934634903
-0.006674660066546141   -0.07879924972403299   -0.002255298518508279
-0.00425801928059881   -0.08   -0.0021980836990057907
-0.004925890637174045   -0.08   -0.0028193666981081336
-0.007710412878723455   -0.07883373359903269   -0.0026990137354606244
-0.004212035545044962   -0.08   -0.003033701172304794
-0.004592743482260518   -0.08   -0.002510556426685631
-0.007710412878723455   -0.07883373359903269   -0.0026990137354606244
-0.009116350791193132   -0.07844791245492932   -0.0029406049286016104
-0.004212035545044962   -0.08   -0.003033701172304794
-0.008623504987316483   -0.07837592447624278   -0.0026121869308330494
-0.004592743482260518   -0.08   -0.002510556426685631
-0.003515531487588911   -0.08   -0.002586959619840556
-0.008623504987316483   -0.07837592447624278   -0.0026121869308330494
-0.004212035545044962   -0.08   -0.003033701172304794
-0.004592743482260518   -0.08   -0.002510556426685631
-0.008623504987316483   -0.07837592447624278   -0.0026121869308330494
-0.007524931228862521   -0.07874829654964681   -0.0024988387987995696
-0.007710412878723455   -0.07883373359903269   -0.0026990137354606244
-0.004592743482260518   -0.08   -0.002510556426685631
-0.008623504987316483   -0.07837592447624278   -0.0026121869308330494
-0.007710412878723455   -0.07883373359903269   -0.0026990137354606244
-0.004212035545044962   -0.08   -0.003033701172304794
-0.004592743482260518   -0.08   -0.002510556426685631
-0.007524931228862521   -0.07874829654964681   -0.0024988387987995696
-0.003515531487588911   -0.08   -0.002586959619840556
-0.00425801928059881   -0.08   -0.0021980836990057907
-0.007524931228862521   -0.07874829654964681   -0.0024988387987995696
-0.008623504987316483   -0.07837592447624278   -0.0026121869308330494
-0.003515531487588911   -0.08   -0.002586959619840556
-0.008170622976379886   -0.07836602845794816   -0.0022616134510585334
-0.00425801928059881   -0.08   -0.0021980836990057907
-0.0029600791832936615   -0.08   -0.00215959471690231
-0.008170622976379886   -0.07836602845794816   -0.0022616134510585334
-0.003515531487588911   -0.08   -0.002586959619840556
-0.00425801928059881   -0.08   -0.0021980836990057907
-0.008170622976379886   -0.07836602845794816   -0.0022616134510585334
-0.007280211986818272   -0.07872884846492528   -0.00228353651034838
-0.007524931228862521   -0.07874829654964681   -0.0024988387987995696
-0.00425801928059881   -0.08   -0.0021980836990057907
-0.008170622976379886   -0.07836602845794816   -0.0022616134510585334
-0.007524931228862521   -0.07874829654964681   -0.0024988387987995696
-0.003515531487588911   -0.08   -0.002586959619840556
-0.00425801928059881   -0.08   -0.0021980836990057907
-0.007280211986818272   -0.07872884846492528   -0.00228353651034838
-0.0029600791832936615   -0.08   -0.00215959471690231
-0.003930810376377692   -0.08   -0.001889741433540972
-0.007280211986818272   -0.07872884846492528   -0.00228353651034838
-0.008170622976379886   -0.07836602845794816   -0.0022616134510585334
-0.0029600791832936615   -0.08   -0.00215959471690231
-0.007598691864164237   -0.07846051126438855   -0.0018949458355263572
-0.003930810376377692   -0.08   -0.001889741433540972
-0.0022739240057377138   -0.08   -0.0017159426889641067
-0.007598691864164237   -0.07846051126438855   -0.0018949458355263572
-0.0029600791832936615   -0.08   -0.00215959471690231
-0.003930810376377692   -0.08   -0.001889741433540972
-0.007598691864164237   -0.07846051126438855   -0.0018949458355263572
-0.007049977961086384   -0.07876264770277638   -0.0020599152934634903
-0.007280211986818272   -0.07872884846492528   -0.00228353651034838
-0.003930810376377692   -0.08   -0.001889741433540972
-0.007598691864164237   -0.07846051126438855   -0.0018949458355263572
-0.007280211986818272   -0.07872884846492528   -0.00228353651034838
-0.0029600791832936615   -0.08   -0.00215959471690231
-0.00567730574713543   -0.07834837623202746   -0.001682730188434763
-0.002314706208651131   -0.0753872703917789   -0.0014540483201716497
-0.0060215160645286795   -0.07865189812502206   -0.0019875434166601352
-0.00528217250177703   -0.07821187234173825   -0.0019428551029187326
-0.002314706208651131   -0.0753872703917789   -0.0014540483201716497
-0.004320822760635413   -0.07561617211994745   -0.0017777964268828196
-0.0060215160645286795   -0.07865189812502206   -0.0019875434166601352
-0.004210833712679778   -0.07548753586363008   -0.0018768524089649193
-0.00528217250177703   -0.07821187234173825   -0.0019428551029187326
-0.005866638020098415   -0.0785455869816794   -0.0020986601422217205
-0.004210833712679778   -0.07548753586363008   -0.0018768524089649193
-0.0060215160645286795   -0.07865189812502206   -0.0019875434166601352
-0.00528217250177703   -0.07821187234173825   -0.0019428551029187326
-0.004210833712679778   -0.07548753586363008   -0.0018768524089649193
-0.0019997195124286443   -0.07522809812677396   -0.001678827598270035
-0.002314706208651131   -0.0753872703917789   -0.0014540483201716497
-0.00528217250177703   -0.07821187234173825   -0.0019428551029187326
-0.004210833712679778   -0.07548753586363008   -0.0018768524089649193
-0.002314706208651131   -0.0753872703917789   -0.0014540483201716497
-0.0060215160645286795   -0.07865189812502206   -0.0019875434166601352
-0.00528217250177703   -0.07821187234173825   -0.0019428551029187326
-0.0019997195124286443   -0.07522809812677396   -0.001678827598270035
-0.005866638020098415   -0.0785455869816794   -0.0020986601422217205
-0.004953260565640104   -0.07816982702533401   -0.0021923015040175202
-0.0019997195124286443   -0.07522809812677396   -0.001678827598270035
-0.004210833712679778   -0.07548753586363008   -0.0018768524089649193
-0.005866638020098415   -0.0785455869816794   -0.0020986601422217205
-0.004087020064744501   -0.07541622381486386   -0.0019669711908480523
-0.004953260565640104   -0.07816982702533401   -0.0021923015040175202
-0.005684982020492481   -0.0785063206673507   -0.002201171873041964
-0.004087020064744501   -0.07541622381486386   -0.0019669711908480523
-0.005866638020098415   -0.0785455869816794   -0.0020986601422217205
-0.004953260565640104   -0.07816982702533401   -0.0021923015040175202
-0.004087020064744501   -0.07541622381486386   -0.0019669711908480523
-0.0017518635004318303   -0.07515224595088815   -0.0018903591543843754
-0.0019997195124286443   -0.07522809812677396   -0.001678827598270035
-0.004953260565640104   -0.07816982702533401   -0.0021923015040175202
-0.004087020064744501   -0.07541622381486386   -0.0019669711908480523
-0.0019997195124286443   -0.07522809812677396   -0.001678827598270035
-0.005866638020098415   -0.0785455869816794   -0.0020986601422217205
-0.004953260565640104   -0.07816982702533401   -0.0021923015040175202
-0.0017518635004318303   -0.07515224595088815   -0.0018903591543843754
-0.005684982020492481   -0.0785063206673507   -0.002201171873041964
-0.004581142228359026   -0.07820519077371907   -0.002429959862575059
-0.0017518635004318303   -0.07515224595088815   -0.0018903591543843754
-0.004087020064744501   -0.07541622381486386   -0.0019669711908480523
-0.005684982020492481   -0.0785063206673507   -0.002201171873041964
-0.003992088307883186   -0.07540024428409423   -0.002048437848177293
-0.004581142228359026   -0.07820519077371907   -0.002429959862575059
-0.0055293639783242365   -0.07853466578901691   -0.002294541871431321
-0.003992088307883186   -0.07540024428409423   -0.002048437848177293
-0.005684982020492481   -0.0785063206673507   -0.002201171873041964
-0.004581142228359026   -0.07820519077371907   -0.002429959862575059
-0.003992088307883186   -0.07540024428409423   -0.002048437848177293
-0.0014812093337497234   -0.07513793058086941   -0.002088082404335719
-0.0017518635004318303   -0.07515224595088815   -0.0018903591543843754
-0.004581142228359026   -0.07820519077371907   -0.002429959862575059
-0.003992088307883186   -0.07540024428409423   -0.002048437848177293
-0.0017518635004318303   -0.07515224595088815   -0.0018903591543843754
-0.005684982020492481   -0.0785063206673507   -0.002201171873041964
-0.0060215160645286795   -0.07865189812502206   -0.0019875434166601352
-0.004320822760635413   -0.07561617211994745   -0.0017777964268828196
-0.006487473506437654   -0.07883959336768892   -0.0022312641080596395
-0.005866638020098415   -0.0785455869816794   -0.0020986601422217205
-0.004320822760635413   -0.07561617211994745   -0.0017777964268828196
-0.006300947998909025   -0.07569694365282265   -0.002041885117078056
-0.006487473506437654   -0.07883959336768892   -0.0022312641080596395
-0.006208461832659938   -0.07558471745821543   -0.002047351209741123
-0.005866638020098415   -0.0785455869816794   -0.0020986601422217205
-0.006350396067208298   -0.07874466554244801   -0.002234180597284629
-0.006208461832659938   -0.07558471745821543   -0.002047351209741123
-0.006487473506437654   -0.07883959336768892   -0.0022312641080596395
-0.005866638020098415   -0.0785455869816794   -0.0020986601422217205
-0.006208461832659938   -0.07558471745821543   -0.002047351209741123
-0.004210833712679778   -0.07548753586363008   -0.0018768524089649193
-0.004320822760635413   -0.07561617211994745   -0.0017777964268828196
-0.005866638020098415   -0.0785455869816794   -0.0020986601422217205
-0.006208461832659938   -0.07558471745821543   -0.002047351209741123
-0.004320822760635413   -0.07561617211994745   -0.0017777964268828196
-0.006487473506437654   -0.07883959336768892   -0.0022312641080596395
-0.005866638020098415   -0.0785455869816794   -0.0020986601422217205
-0.004210833712679778   -0.07548753586363008   -0.0018768524089649193
-0.006350396067208298   -0.07874466554244801   -0.002234180597284629
-0.005684982020492481   -0.0785063206673507   -0.002201171873041964
-0.004210833712679778   -0.07548753586363008   -0.0018768524089649193
-0.006208461832659938   -0.07558471745821543   -0.002047351209741123
-0.006350396067208298   -0.07874466554244801   -0.002234180597284629
-0.006112806973345771   -0.07552416723671752   -0.0020445406118438756
-0.005684982020492481   -0.0785063206673507   -0.002201171873041964
-0.00619781818396603   -0.07871046148248402   -0.0022259408519742724
-0.006112806973345771   -0.07552416723671752   -0.0020445406118438756
-0.006350396067208298   -0.07874466554244801   -0.002234180597284629
-0.005684982020492481   -0.0785063206673507   -0.002201171873041964
-0.006112806973345771   -0.07552416723671752   -0.0020445406118438756
-0.004087020064744501   -0.07541622381486386   -0.0019669711908480523
-0.004210833712679778   -0.07548753586363008   -0.0018768524089649193
-0.005684982020492481   -0.0785063206673507   -0.002201171873041964
-0.006112806973345771   -0.07552416723671752   -0.0020445406118438756
-0.004210833712679778   -0.07548753586363008   -0.0018768524089649193
-0.006350396067208298   -0.07874466554244801   -0.002234180597284629
-0.005684982020492481   -0.0785063206673507   -0.002201171873041964
-0.004087020064744501   -0.07541622381486386   -0.0019669711908480523
-0.00619781818396603   -0.07871046148248402   -0.0022259408519742724
-0.0055293639783242365   -0.07853466578901691   -0.002294541871431321
-0.004087020064744501   -0.07541622381486386   -0.0019669711908480523
-0.006112806973345771   -0.07552416723671752   -0.0020445406118438756
-0.00619781818396603   -0.07871046148248402   -0.0022259408519742724
-0.006020555827330437   -0.07551279976259624   -0.002033374822334928
-0.0055293639783242365   -0.07853466578901691   -0.002294541871431321
-0.006042684822236347   -0.07873420434352241   -0.0022089470352024652
-0.006020555827330437   -0.07551279976259624   -0.002033374822334928
-0.00619781818396603   -0.07871046148248402   -0.0022259408519742724
-0.0055293639783242365   -0.07853466578901691   -0.002294541871431321
-0.006020555827330437   -0.07551279976259624   -0.002033374822334928
-0.003992088307883186   -0.07540024428409423   -0.002048437848177293
-0.004087020064744501   -0.07541622381486386   -0.0019669711908480523
-0.0055293639783242365   -0.07853466578901691   -0.002294541871431321
-0.006020555827330437   -0.07551279976259624   -0.002033374822334928
-0.004087020064744501   -0.07541622381486386   -0.0019669711908480523
-0.00619781818396603   -0.07871046148248402   -0.0022259408519742724
-0.006487473506437654   -0.07883959336768892   -0.0022312641080596395
-0.006300947998909025   -0.07569694365282265   -0.002041885117078056
-0.006986985364890647   -0.07891855167181008   -0.002471134111381585
-0.006350396067208298   -0.07874466554244801   -0.002234180597284629
-0.006300947998909025   -0.07569694365282265   -0.002041885117078056
-0.008267350775970655   -0.07562516798791609   -0.0022890410819996275
-0.006986985364890647   -0.07891855167181008   -0.002471134111381585
-0.008175595193880933   -0.07552550158116608   -0.0022047692941867584
-0.006350396067208298   -0.07874466554244801   -0.002234180597284629
-0.006844988313158498   -0.07882804222097775   -0.0023700098162478646
-0.008175595193880933   -0.07552550158116608   -0.0022047692941867584
-0.006986985364890647   -0.07891855167181008   -0.002471134111381585
-0.006350396067208298   -0.07874466554244801   -0.002234180597284629
-0.008175595193880933   -0.07552550158116608   -0.0022047692941867584
-0.006208461832659938   -0.07558471745821543   -0.002047351209741123
-0.006300947998909025   -0.07569694365282265   -0.002041885117078056
-0.006350396067208298   -0.07874466554244801   -0.002234180597284629
-0.008175595193880933   -0.07552550158116608   -0.0022047692941867584
-0.006300947998909025   -0.07569694365282265   -0.002041885117078056
-0.006986985364890647   -0.07891855167181008   -0.002471134111381585
-0.006350396067208298   -0.07874466554244801   -0.002234180597284629
-0.006208461832659938   -0.07558471745821543   -0.002047351209741123
-0.006844988313158498   -0.07882804222097775   -0.0023700098162478646
-0.00619781818396603   -0.07871046148248402   -0.0022259408519742724
-0.006208461832659938   -0.07558471745821543   -0.002047351209741123
-0.008175595193880933   -0.07552550158116608   -0.0022047692941867584
-0.006844988313158498   -0.07882804222097775   -0.0023700098162478646
-0.00807262439453543   -0.07547664308290418   -0.002112342963815964
-0.00619781818396603   -0.07871046148248402   -0.0022259408519742724
-0.006674660066546141   -0.07879924972403299   -0.002255298518508279
-0.00807262439453543   -0.07547664308290418   -0.002112342963815964
-0.006844988313158498   -0.07882804222097775   -0.0023700098162478646
-0.00619781818396603   -0.07871046148248402   -0.0022259408519742724
-0.00807262439453543   -0.07547664308290418   -0.002112342963815964
-0.006112806973345771   -0.07552416723671752   -0.0020445406118438756
-0.006208461832659938   -0.07558471745821543   -0.002047351209741123
-0.00619781818396603   -0.07871046148248402   -0.0022259408519742724
-0.00807262439453543   -0.07547664308290418   -0.002112342963815964
-0.006208461832659938   -0.07558471745821543   -0.002047351209741123
-0.006844988313158498   -0.07882804222097775   -0.0023700098162478646
-0.00619781818396603   -0.07871046148248402   -0.0022259408519742724
-0.006112806973345771   -0.07552416723671752   -0.0020445406118438756
-0.006674660066546141   -0.07879924972403299   -0.002255298518508279
-0.006042684822236347   -0.07873420434352241   -0.0022089470352024652
-0.006112806973345771   -0.07552416723671752   -0.0020445406118438756
-0.00807262439453543   -0.07547664308290418   -0.002112342963815964
-0.006674660066546141   -0.07879924972403299   -0.002255298518508279
-0.007969222032871733   -0.07547369703547385   -0.0020107684993866093
-0.006042684822236347   -0.07873420434352241   -0.0022089470352024652
-0.006499493173730586   -0.07882246977050499   -0.002133112901036568
-0.007969222032871733   -0.07547369703547385   -0.0020107684993866093
-0.006674660066546141   -0.07879924972403299   -0.002255298518508279
-0.006042684822236347   -0.07873420434352241   -0.0022089470352024652
-0.007969222032871733   -0.07547369703547385   -0.0020107684993866093
-0.006020555827330437   -0.07551279976259624   -0.002033374822334928
-0.006112806973345771   -0.07552416723671752   -0.0020445406118438756
-0.006042684822236347   -0.07873420434352241   -0.0022089470352024652
-0.007969222032871733   -0.07547369703547385   -0.0020107684993866093
-0.006112806973345771   -0.07552416723671752   -0.0020445406118438756
-0.006674660066546141   -0.07879924972403299   -0.002255298518508279
-0.006986985364890647   -0.07891855167181008   -0.002471134111381585
-0.008267350775970655   -0.07562516798791609   -0.0022890410819996275
-0.007710412878723455   -0.07883373359903269   -0.0026990137354606244
-0.006844988313158498   -0.07882804222097775   -0.0023700098162478646
-0.008267350775970655   -0.07562516798791609   -0.0022890410819996275
-0.010427836908589361   -0.07539133389874388   -0.002516042339148243
-0.007710412878723455   -0.07883373359903269   -0.0026990137354606244
-0.010315530322965416   -0.07530425876022387   -0.002344036993947422
-0.006844988313158498   -0.07882804222097775   -0.0023700098162478646
-0.007524931228862521   -0.07874829654964681   -0.0024988387987995696
-0.010315530322965416   -0.07530425876022387   -0.002344036993947422
-0.007710412878723455   -0.07883373359903269   -0.0026990137354606244
-0.006844988313158498   -0.07882804222097775   -0.0023700098162478646
-0.010315530322965416   -0.07530425876022387   -0.002344036993947422
-0.008175595193880933   -0.07552550158116608   -0.0022047692941867584
-0.008267350775970655   -0.07562516798791609   -0.0022890410819996275
-0.006844988313158498   -0.07882804222097775   -0.0023700098162478646
-0.010315530322965416   -0.07530425876022387   -0.002344036993947422
-0.008267350775970655   -0.07562516798791609   -0.0022890410819996275
-0.007710412878723455   -0.07883373359903269   -0.0026990137354606244
-0.006844988313158498   -0.07882804222097775   -0.0023700098162478646
-0.008175595193880933   -0.07552550158116608   -0.0022047692941867584
-0.007524931228862521   -0.07874829654964681   -0.0024988387987995696
-0.006674660066546141   -0.07879924972403299   -0.002255298518508279
-0.008175595193880933   -0.07552550158116608   -0.0022047692941867584
-0.010315530322965416   -0.07530425876022387   -0.002344036993947422
-0.007524931228862521   -0.07874829654964681   -0.0024988387987995696
-0.01016048686229874   -0.07526704535906911   -0.002164474160590038
-0.006674660066546141   -0.07879924972403299   -0.002255298518508279
-0.007280211986818272   -0.07872884846492528   -0.00228353651034838
-0.01016048686229874   -0.07526704535906911   -0.002164474160590038
-0.007524931228862521   -0.07874829654964681   -0.0024988387987995696
-0.006674660066546141   -0.07879924972403299   -0.002255298518508279
-0.01016048686229874   -0.07526704535906911   -0.002164474160590038
-0.00807262439453543   -0.07547664308290418   -0.002112342963815964
-0.008175595193880933   -0.07552550158116608   -0.0022047692941867584
-0.006674660066546141   -0.07879924972403299   -0.002255298518508279
-0.01016048686229874   -0.07526704535906911   -0.002164474160590038
-0.008175595193880933   -0.07552550158116608   -0.0022047692941867584
-0.007524931228862521   -0.07874829654964681   -0.0024988387987995696
-0.006674660066546141   -0.07879924972403299   -0.002255298518508279
-0.00807262439453543   -0.07547664308290418   -0.002112342963815964
-0.007280211986818272   -0.07872884846492528   -0.00228353651034838
-0.006499493173730586   -0.07882246977050499   -0.002133112901036568
-0.00807262439453543   -0.07547664308290418   -0.002112342963815964
-0.01016048686229874   -0.07526704535906911   -0.002164474160590038
-0.007280211986818272   -0.07872884846492528   -0.00228353651034838
-0.010025137978720428   -0.07527975400366625   -0.001972346680965222
-0.006499493173730586   -0.07882246977050499   -0.002133112901036568
-0.007049977961086384   -0.07876264770277638   -0.0020599152934634903
-0.010025137978720428   -0.07527975400366625   -0.001972346680965222
-0.007280211986818272   -0.07872884846492528   -0.00228353651034838
-0.006499493173730586   -0.07882246977050499   -0.002133112901036568
-0.010025137978720428   -0.07527975400366625   -0.001972346680965222
-0.007969222032871733   -0.07547369703547385   -0.0020107684993866093
-0.00807262439453543   -0.07547664308290418   -0.002112342963815964
-0.006499493173730586   -0.07882246977050499   -0.002133112901036568
-0.010025137978720428   -0.07527975400366625   -0.001972346680965222
-0.00807262439453543   -0.07547664308290418   -0.002112342963815964
-0.007280211986818272   -0.07872884846492528   -0.00228353651034838
-0.007710412878723455   -0.07883373359903269   -0.0026990137354606244
-0.010427836908589361   -0.07539133389874388   -0.002516042339148243
-0.009116350791193132   -0.07844791245492932   -0.0029406049286016104
-0.007524931228862521   -0.07874829654964681   -0.0024988387987995696
-0.010427836908589361   -0.07539133389874388   -0.002516042339148243
-0.013210042731156262   -0.07501104386259279   -0.0027338463349667903
-0.009116350791193132   -0.07844791245492932   -0.0029406049286016104
-0.01284855348012787   -0.0749166731440359   -0.002462287231025177
-0.007524931228862521   -0.07874829654964681   -0.0024988387987995696
-0.008623504987316483   -0.07837592447624278   -0.0026121869308330494
-0.01284855348012787   -0.0749166731440359   -0.002462287231025177
-0.009116350791193132   -0.07844791245492932   -0.0029406049286016104
-0.007524931228862521   -0.07874829654964681   -0.0024988387987995696
-0.01284855348012787   -0.0749166731440359   -0.002462287231025177
-0.010315530322965416   -0.07530425876022387   -0.002344036993947422
-0.010427836908589361   -0.07539133389874388   -0.002516042339148243
-0.007524931228862521   -0.07874829654964681   -0.0024988387987995696
-0.01284855348012787   -0.0749166731440359   -0.002462287231025177
-0.010427836908589361   -0.07539133389874388   -0.002516042339148243
-0.009116350791193132   -0.07844791245492932   -0.0029406049286016104
-0.007524931228862521   -0.07874829654964681   -0.0024988387987995696
-0.010315530322965416   -0.07530425876022387   -0.002344036993947422
-0.008623504987316483   -0.07837592447624278   -0.0026121869308330494
-0.007280211986818272   -0.07872884846492528   -0.00228353651034838
-0.010315530322965416   -0.07530425876022387   -0.002344036993947422
-0.01284855348012787   -0.0749166731440359   -0.002462287231025177
-0.008623504987316483   -0.07837592447624278   -0.0026121869308330494
-0.012524486342554549   -0.07488225188568039   -0.0021748827823940297
-0.007280211986818272   -0.07872884846492528   -0.00228353651034838
-0.008170622976379886   -0.07836602845794816   -0.0022616134510585334
-0.012524486342554549   -0.07488225188568039   -0.0021748827823940297
-0.008623504987316483   -0.07837592447624278   -0.0026121869308330494
-0.007280211986818272   -0.07872884846492528   -0.00228353651034838
-0.012524486342554549   -0.07488225188568039   -0.0021748827823940297
-0.01016048686229874   -0.07526704535906911   -0.002164474160590038
-0.010315530322965416   -0.07530425876022387   -0.002344036993947422
-0.007280211986818272   -0.07872884846492528   -0.00228353651034838
-0.012524486342554549   -0.07488225188568039   -0.0021748827823940297
-0.010315530322965416   -0.07530425876022387   -0.002344036993947422
-0.008623504987316483   -0.07837592447624278   -0.0026121869308330494
-0.007280211986818272   -0.07872884846492528   -0.00228353651034838
-0.01016048686229874   -0.07526704535906911   -0.002164474160590038
-0.008170622976379886   -0.07836602845794816   -0.0022616134510585334
-0.007049977961086384   -0.07876264770277638   -0.0020599152934634903
-0.01016048686229874   -0.07526704535906911   -0.002164474160590038
-0.012524486342554549   -0.07488225188568039   -0.0021748827823940297
-0.008170622976379886   -0.07836602845794816   -0.0022616134510585334
-0.012104473517597853   -0.07492552499638946   -0.0018743656658040994
-0.007049977961086384   -0.07876264770277638   -0.0020599152934634903
-0.007598691864164237   -0.07846051126438855   -0.0018949458355263572
-0.012104473517597853   -0.07492552499638946   -0.0018743656658040994
-0.008170622976379886   -0.07836602845794816   -0.0022616134510585334
-0.007049977961086384   -0.07876264770277638   -0.0020599152934634903
-0.012104473517597853   -0.07492552499638946   -0.0018743656658040994
-0.010025137978720428   -0.07527975400366625   -0.001972346680965222
-0.01016048686229874   -0.07526704535906911   -0.002164474160590038
-0.007049977961086384   -0.07876264770277638   -0.0020599152934634903
-0.012104473517597853   -0.07492552499638946   -0.0018743656658040994
-0.01016048686229874   -0.07526704535906911   -0.002164474160590038
-0.008170622976379886   -0.07836602845794816   -0.0022616134510585334
-0.002314706208651131   -0.0753872703917789   -0.0014540483201716497
0.00041227865559756655   -0.06993932150204638   -0.0012028476708781507
-0.004320822760635413   -0.07561617211994745   -0.0017777964268828196
-0.0019997195124286443   -0.07522809812677396   -0.001678827598270035
0.00041227865559756655   -0.06993932150204638   -0.0012028476708781507
-0.0029706843911029264   -0.07010713266824031   -0.0015206726018517664
-0.004320822760635413   -0.07561617211994745   -0.0017777964268828196
-0.0029124032414876966   -0.06997232599725738   -0.001599237319389317
-0.0019997195124286443   -0.07522809812677396   -0.001678827598270035
-0.004210833712679778   -0.07548753586363008   -0.0018768524089649193
-0.0029124032414876966   -0.06997232599725738   -0.001599237319389317
-0.004320822760635413   -0.07561617211994745   -0.0017777964268828196
-0.0019997195124286443   -0.07522809812677396   -0.001678827598270035
-0.0029124032414876966   -0.06997232599725738   -0.001599237319389317
0.0006321673917816682   -0.06977761386731006   -0.0013817865555583043
0.00041227865559756655   -0.06993932150204638   -0.0012028476708781507
-0.0019997195124286443   -0.07522809812677396   -0.001678827598270035
-0.0029124032414876966   -0.06997232599725738   -0.001599237319389317
0.00041227865559756655   -0.06993932150204638   -0.0012028476708781507
-0.004320822760635413   -0.07561617211994745   -0.0017777964268828196
-0.0019997195124286443   -0.07522809812677396   -0.001678827598270035
0.0006321673917816682   -0.06977761386731006   -0.0013817865555583043
-0.004210833712679778   -0.07548753586363008   -0.0018768524089649193
-0.0017518635004318303   -0.07515224595088815   -0.0018903591543843754
0.0006321673917816682   -0.06977761386731006   -0.0013817865555583043
-0.0029124032414876966   -0.06997232599725738   -0.001599237319389317
-0.004210833712679778   -0.07548753586363008   -0.0018768524089649193
-0.0028460459001219043   -0.06988425211467249   -0.0016686432204038493
-0.0017518635004318303   -0.07515224595088815   -0.0018903591543843754
-0.004087020064744501   -0.07541622381486386   -0.0019669711908480523
-0.0028460459001219043   -0.06988425211467249   -0.0016686432204038493
-0.004210833712679778   -0.07548753586363008   -0.0018768524089649193
-0.0017518635004318303   -0.07515224595088815   -0.0018903591543843754
-0.0028460459001219043   -0.06988425211467249   -0.0016686432204038493
0.0007939113681517736   -0.06968413454165717   -0.0015479061814412333
0.0006321673917816682   -0.06977761386731006   -0.0013817865555583043
-0.0017518635004318303   -0.07515224595088815   -0.0018903591543843754
-0.0028460459001219043   -0.06988425211467249   -0.0016686432204038493
0.0006321673917816682   -0.06977761386731006   -0.0013817865555583043
-0.004210833712679778   -0.07548753586363008   -0.0018768524089649193
-0.0017518635004318303   -0.07515224595088815   -0.0018903591543843754
0.0007939113681517736   -0.06968413454165717   -0.0015479061814412333
-0.004087020064744501   -0.07541622381486386   -0.0019669711908480523
-0.0014812093337497234   -0.07513793058086941   -0.002088082404335719
0.0007939113681517736   -0.06968413454165717   -0.0015479061814412333
-0.0028460459001219043   -0.06988425211467249   -0.0016686432204038493
-0.004087020064744501   -0.07541622381486386   -0.0019669711908480523
-0.002806374658237923   -0.06984030582193594   -0.0017297945228332866
-0.0014812093337497234   -0.07513793058086941   -0.002088082404335719
-0.003992088307883186   -0.07540024428409423   -0.002048437848177293
-0.002806374658237923   -0.06984030582193594   -0.0017297945228332866
-0.004087020064744501   -0.07541622381486386   -0.0019669711908480523
-0.0014812093337497234   -0.07513793058086941   -0.002088082404335719
-0.002806374658237923   -0.06984030582193594   -0.0017297945228332866
0.0009670385312206159   -0.06963799738432358   -0.0017011434516362603
0.0007939113681517736   -0.06968413454165717   -0.0015479061814412333
-0.0014812093337497234   -0.07513793058086941   -0.002088082404335719
-0.002806374658237923   -0.06984030582193594   -0.0017297945228332866
0.0007939113681517736   -0.06968413454165717   -0.0015479061814412333
-0.004087020064744501   -0.07541622381486386   -0.0019669711908480523
-0.004320822760635413   -0.07561617211994745   -0.0017777964268828196
-0.0029706843911029264   -0.07010713266824031   -0.0015206726018517664
-0.006300947998909025   -0.07569694365282265   -0.002041885117078056
-0.004210833712679778   -0.07548753586363008   -0.0018768524089649193
-0.0029706843911029264   -0.07010713266824031   -0.0015206726018517664
-0.006243186790503447   -0.07013922740593977   -0.0017825824070697121
-0.006300947998909025   -0.07569694365282265   -0.002041885117078056
-0.00620033761112036   -0.07002349737934459   -0.0017846118575108479
-0.004210833712679778   -0.07548753586363008   -0.0018768524089649193
-0.006208461832659938   -0.07558471745821543   -0.002047351209741123
-0.00620033761112036   -0.07002349737934459   -0.0017846118575108479
-0.006300947998909025   -0.07569694365282265   -0.002041885117078056
-0.004210833712679778   -0.07548753586363008   -0.0018768524089649193
-0.00620033761112036   -0.07002349737934459   -0.0017846118575108479
-0.0029124032414876966   -0.06997232599725738   -0.001599237319389317
-0.0029706843911029264   -0.07010713266824031   -0.0015206726018517664
-0.004210833712679778   -0.07548753586363008   -0.0018768524089649193
-0.00620033761112036   -0.07002349737934459   -0.0017846118575108479
-0.0029706843911029264   -0.07010713266824031   -0.0015206726018517664
-0.006300947998909025   -0.07569694365282265   -0.002041885117078056
-0.004210833712679778   -0.07548753586363008   -0.0018768524089649193
-0.0029124032414876966   -0.06997232599725738   -0.001599237319389317
-0.006208461832659938   -0.07558471745821543   -0.002047351209741123
-0.004087020064744501   -0.07541622381486386   -0.0019669711908480523
-0.0029124032414876966   -0.06997232599725738   -0.001599237319389317
-0.00620033761112036   -0.07002349737934459   -0.0017846118575108479
-0.006208461832659938   -0.07558471745821543   -0.002047351209741123
-0.00615627716012854   -0.06994959632793599   -0.0017778668483133782
-0.004087020064744501   -0.07541622381486386   -0.0019669711908480523
-0.006112806973345771   -0.07552416723671752   -0.0020445406118438756
-0.00615627716012854   -0.06994959632793599   -0.0017778668483133782
-0.006208461832659938   -0.07558471745821543   -0.002047351209741123
-0.004087020064744501   -0.07541622381486386   -0.0019669711908480523
-0.00615627716012854   -0.06994959632793599   -0.0017778668483133782
-0.0028460459001219043   -0.06988425211467249   -0.0016686432204038493
-0.0029124032414876966   -0.06997232599725738   -0.001599237319389317
-0.004087020064744501   -0.07541622381486386   -0.0019669711908480523
-0.00615627716012854   -0.06994959632793599   -0.0017778668483133782
-0.0029124032414876966   -0.06997232599725738   -0.001599237319389317
-0.006208461832659938   -0.07558471745821543   -0.002047351209741123
-0.004087020064744501   -0.07541622381486386   -0.0019669711908480523
-0.0028460459001219043   -0.06988425211467249   -0.0016686432204038493
-0.006112806973345771   -0.07552416723671752   -0.0020445406118438756
-0.003992088307883186   -0.07540024428409423   -0.002048437848177293
-0.0028460459001219043   -0.06988425211467249   -0.0016686432204038493
-0.00615627716012854   -0.06994959632793599   -0.0017778668483133782
-0.006112806973345771   -0.07552416723671752   -0.0020445406118438756
-0.006117739375563851   -0.06991683244830922   -0.0017629307185415548
-0.003992088307883186   -0.07540024428409423   -0.002048437848177293
-0.006020555827330437   -0.07551279976259624   -0.002033374822334928
-0.006117739375563851   -0.06991683244830922   -0.0017629307185415548
-0.006112806973345771   -0.07552416723671752   -0.0020445406118438756
-0.003992088307883186   -0.07540024428409423   -0.002048437848177293
-0.006117739375563851   -0.06991683244830922   -0.0017629307185415548
-0.002806374658237923   -0.06984030582193594   -0.0017297945228332866
-0.0028460459001219043   -0.06988425211467249   -0.0016686432204038493
-0.003992088307883186   -0.07540024428409423   -0.002048437848177293
-0.006117739375563851   -0.06991683244830922   -0.0017629307185415548
-0.0028460459001219043   -0.06988425211467249   -0.0016686432204038493
-0.006112806973345771   -0.07552416723671752   -0.0020445406118438756
-0.006300947998909025   -0.07569694365282265   -0.002041885117078056
-0.006243186790503447   -0.07013922740593977   -0.0017825824070697121
-0.008267350775970655   -0.07562516798791609   -0.0022890410819996275
-0.006208461832659938   -0.07558471745821543   -0.002047351209741123
-0.006243186790503447   -0.07013922740593977   -0.0017825824070697121
-0.009464211258798693   -0.07003502926828314   -0.002019003486880838
-0.008267350775970655   -0.07562516798791609   -0.0022890410819996275
-0.00942431801044535   -0.06993517539222771   -0.0019463439019287946
-0.006208461832659938   -0.07558471745821543   -0.002047351209741123
-0.008175595193880933   -0.07552550158116608   -0.0022047692941867584
-0.00942431801044535   -0.06993517539222771   -0.0019463439019287946
-0.008267350775970655   -0.07562516798791609   -0.0022890410819996275
-0.006208461832659938   -0.07558471745821543   -0.002047351209741123
-0.00942431801044535   -0.06993517539222771   -0.0019463439019287946
-0.00620033761112036   -0.07002349737934459   -0.0017846118575108479
-0.006243186790503447   -0.07013922740593977   -0.0017825824070697121
-0.006208461832659938   -0.07558471745821543   -0.002047351209741123
-0.00942431801044535   -0.06993517539222771   -0.0019463439019287946
-0.006243186790503447   -0.07013922740593977   -0.0017825824070697121
-0.008267350775970655   -0.07562516798791609   -0.0022890410819996275
-0.006208461832659938   -0.07558471745821543   -0.002047351209741123
-0.00620033761112036   -0.07002349737934459   -0.0017846118575108479
-0.008175595193880933   -0.07552550158116608   -0.0022047692941867584
-0.006112806973345771   -0.07552416723671752   -0.0020445406118438756
-0.00620033761112036   -0.07002349737934459   -0.0017846118575108479
-0.00942431801044535   -0.06993517539222771   -0.0019463439019287946
-0.008175595193880933   -0.07552550158116608   -0.0022047692941867584
-0.009376113262604633   -0.06987669016043065   -0.0018650997335021668
-0.006112806973345771   -0.07552416723671752   -0.0020445406118438756
-0.00807262439453543   -0.07547664308290418   -0.002112342963815964
-0.009376113262604633   -0.06987669016043065   -0.0018650997335021668
-0.008175595193880933   -0.07552550158116608   -0.0022047692941867584
-0.006112806973345771   -0.07552416723671752   -0.0020445406118438756
-0.009376113262604633   -0.06987669016043065   -0.0018650997335021668
-0.00615627716012854   -0.06994959632793599   -0.0017778668483133782
-0.00620033761112036   -0.07002349737934459   -0.0017846118575108479
-0.006112806973345771   -0.07552416723671752   -0.0020445406118438756
-0.009376113262604633   -0.06987669016043065   -0.0018650997335021668
-0.00620033761112036   -0.07002349737934459   -0.0017846118575108479
-0.008175595193880933   -0.07552550158116608   -0.0022047692941867584
-0.006112806973345771   -0.07552416723671752   -0.0020445406118438756
-0.00615627716012854   -0.06994959632793599   -0.0017778668483133782
-0.00807262439453543   -0.07547664308290418   -0.002112342963815964
-0.006020555827330437   -0.07551279976259624   -0.002033374822334928
-0.00615627716012854   -0.06994959632793599   -0.0017778668483133782
-0.009376113262604633   -0.06987669016043065   -0.0018650997335021668
-0.00807262439453543   -0.07547664308290418   -0.002112342963815964
-0.009329225305747821   -0.0698576483269506   -0.001775535463930534
-0.006020555827330437   -0.07551279976259624   -0.002033374822334928
-0.007969222032871733   -0.07547369703547385   -0.0020107684993866093
-0.009329225305747821   -0.0698576483269506   -0.001775535463930534
-0.00807262439453543   -0.07547664308290418   -0.002112342963815964
-0.006020555827330437   -0.07551279976259624   -0.002033374822334928
-0.009329225305747821   -0.0698576483269506   -0.001775535463930534
-0.006117739375563851   -0.06991683244830922   -0.0017629307185415548
-0.00615627716012854   -0.06994959632793599   -0.0017778668483133782
-0.006020555827330437   -0.07551279976259624   -0.002033374822334928
-0.009329225305747821   -0.0698576483269506   -0.001775535463930534
-0.00615627716012854   -0.06994959632793599   -0.0017778668483133782
-0.00807262439453543   -0.07547664308290418   -0.002112342963815964
-0.008267350775970655   -0.07562516798791609   -0.0022890410819996275
-0.009464211258798693   -0.07003502926828314   -0.002019003486880838
-0.010427836908589361   -0.07539133389874388   -0.002516042339148243
-0.008175595193880933   -0.07552550158116608   -0.0022047692941867584
-0.009464211258798693   -0.07003502926828314   -0.002019003486880838
-0.012839769532690422   -0.06979823607802471   -0.0022290212565381716
-0.010427836908589361   -0.07539133389874388   -0.002516042339148243
-0.012787672057027305   -0.06971354476550884   -0.002081581006578201
-0.008175595193880933   -0.07552550158116608   -0.0022047692941867584
-0.010315530322965416   -0.07530425876022387   -0.002344036993947422
-0.012787672057027305   -0.06971354476550884   -0.002081581006578201
-0.010427836908589361   -0.07539133389874388   -0.002516042339148243
-0.008175595193880933   -0.07552550158116608   -0.0022047692941867584
-0.012787672057027305   -0.06971354476550884   -0.002081581006578201
-0.00942431801044535   -0.06993517539222771   -0.0019463439019287946
-0.009464211258798693   -0.07003502926828314   -0.002019003486880838
-0.008175595193880933   -0.07552550158116608   -0.0022047692941867584
-0.012787672057027305   -0.06971354476550884   -0.002081581006578201
-0.009464211258798693   -0.07003502926828314   -0.002019003486880838
-0.010427836908589361   -0.07539133389874388   -0.002516042339148243
-0.008175595193880933   -0.07552550158116608   -0.0022047692941867584
-0.00942431801044535   -0.06993517539222771   -0.0019463439019287946
-0.010315530322965416   -0.07530425876022387   -0.002344036993947422
-0.00807262439453543   -0.07547664308290418   -0.002112342963815964
-0.00942431801044535   -0.06993517539222771   -0.0019463439019287946
-0.012787672057027305   -0.06971354476550884   -0.002081581006578201
-0.010315530322965416   -0.07530425876022387   -0.002344036993947422
-0.012699360877167358   -0.06966903595564802   -0.001926874616314658
-0.00807262439453543   -0.07547664308290418   -0.002112342963815964
-0.01016048686229874   -0.07526704535906911   -0.002164474160590038
-0.012699360877167358   -0.06966903595564802   -0.001926874616314658
-0.010315530322965416   -0.07530425876022387   -0.002344036993947422
-0.00807262439453543   -0.07547664308290418   -0.002112342963815964
-0.012699360877167358   -0.06966903595564802   -0.001926874616314658
-0.009376113262604633   -0.06987669016043065   -0.0018650997335021668
-0.00942431801044535   -0.06993517539222771   -0.0019463439019287946
-0.00807262439453543   -0.07547664308290418   -0.002112342963815964
-0.012699360877167358   -0.06966903595564802   -0.001926874616314658
-0.00942431801044535   -0.06993517539222771   -0.0019463439019287946
-0.010315530322965416   -0.07530425876022387   -0.002344036993947422
-0.00807262439453543   -0.07547664308290418   -0.002112342963815964
-0.009376113262604633   -0.06987669016043065   -0.0018650997335021668
-0.01016048686229874   -0.07526704535906911   -0.002164474160590038
-0.007969222032871733   -0.07547369703547385   -0.0020107684993866093
-0.009376113262604633   -0.06987669016043065   -0.0018650997335021668
-0.012699360877167358   -0.06966903595564802   -0.001926874616314658
-0.01016048686229874   -0.07526704535906911   -0.002164474160590038
-0.012627611693906334   -0.06966706098826833   -0.0017626379904247193
-0.007969222032871733   -0.07547369703547385   -0.0020107684993866093
-0.010025137978720428   -0.07527975400366625   -0.001972346680965222
-0.012627611693906334   -0.06966706098826833   -0.0017626379904247193
-0.01016048686229874   -0.07526704535906911   -0.002164474160590038
-0.007969222032871733   -0.07547369703547385   -0.0020107684993866093
-0.012627611693906334   -0.06966706098826833   -0.0017626379904247193
-0.009329225305747821   -0.0698576483269506   -0.001775535463930534
-0.009376113262604633   -0.06987669016043065   -0.0018650997335021668
-0.007969222032871733   -0.07547369703547385   -0.0020107684993866093
-0.012627611693906334   -0.06966706098826833   -0.0017626379904247193
-0.009376113262604633   -0.06987669016043065   -0.0018650997335021668
-0.01016048686229874   -0.07526704535906911   -0.002164474160590038
-0.010427836908589361   -0.07539133389874388   -0.002516042339148243
-0.012839769532690422   -0.06979823607802471   -0.0022290212565381716
-0.013210042731156262   -0.07501104386259279   -0.0027338463349667903
-0.010315530322965416   -0.07530425876022387   -0.002344036993947422
-0.012839769532690422   -0.06979823607802471   -0.0022290212565381716
-0.01677647554754833   -0.06945733444823309   -0.0024247805637434105
-0.013210042731156262   -0.07501104386259279   -0.0027338463349667903
-0.016509801219376407   -0.06936903550833812   -0.0021940128591602373
-0.010315530322965416   -0.07530425876022387   -0.002344036993947422
-0.01284855348012787   -0.0749166731440359   -0.002462287231025177
-0.016509801219376407   -0.06936903550833812   -0.0021940128591602373
-0.013210042731156262   -0.07501104386259279   -0.0027338463349667903
-0.010315530322965416   -0.07530425876022387   -0.002344036993947422
-0.016509801219376407   -0.06936903550833812   -0.0021940128591602373
-0.012787672057027305   -0.06971354476550884   -0.002081581006578201
-0.012839769532690422   -0.06979823607802471   -0.0022290212565381716
-0.010315530322965416   -0.07530425876022387   -0.002344036993947422
-0.016509801219376407   -0.06936903550833812   -0.0021940128591602373
-0.012839769532690422   -0.06979823607802471   -0.0022290212565381716
-0.013210042731156262   -0.07501104386259279   -0.0027338463349667903
-0.010315530322965416   -0.07530425876022387   -0.002344036993947422
-0.012787672057027305   -0.06971354476550884   -0.002081581006578201
-0.01284855348012787   -0.0749166731440359   -0.002462287231025177
-0.01016048686229874   -0.07526704535906911   -0.002164474160590038
-0.012787672057027305   -0.06971354476550884   -0.002081581006578201
-0.016509801219376407   -0.06936903550833812   -0.0021940128591602373
-0.01284855348012787   -0.0749166731440359   -0.002462287231025177
-0.016278318270500136   -0.06932832073236783   -0.0019512669718690112
-0.01016048686229874   -0.07526704535906911   -0.002164474160590038
-0.012524486342554549   -0.07488225188568039   -0.0021748827823940297
-0.016278318270500136   -0.06932832073236783   -0.0019512669718690112
-0.01284855348012787   -0.0749166731440359   -0.002462287231025177
-0.01016048686229874   -0.07526704535906911   -0.002164474160590038
-0.016278318270500136   -0.06932832073236783   -0.0019512669718690112
-0.012699360877167358   -0.06966903595564802   -0.001926874616314658
-0.012787672057027305   -0.06971354476550884   -0.002081581006578201
-0.01016048686229874   -0.07526704535906911   -0.002164474160590038
-0.016278318270500136   -0.06932832073236783   -0.0019512669718690112
-0.012787672057027305   -0.06971354476550884   -0.002081581006578201
-0.01284855348012787   -0.0749166731440359   -0.002462287231025177
-0.01016048686229874   -0.07526704535906911   -0.002164474160590038
-0.012699360877167358   -0.06966903595564802   -0.001926874616314658
-0.012524486342554549   -0.07488225188568039   -0.0021748827823940297
-0.010025137978720428   -0.07527975400366625   -0.001972346680965222
-0.012699360877167358   -0.06966903595564802   -0.001926874616314658
-0.016278318270500136   -0.06932832073236783   -0.0019512669718690112
-0.012524486342554549   -0.07488225188568039   -0.0021748827823940297
-0.01596643494139454   -0.06935262345972232   -0.0016980901584666144
-0.010025137978720428   -0.07527975400366625   -0.001972346680965222
-0.012104473517597853   -0.07492552499638946   -0.0018743656658040994
-0.01596643494139454   -0.06935262345972232   -0.0016980901584666144
-0.012524486342554549   -0.07488225188568039   -0.0021748827823940297
-0.010025137978720428   -0.07527975400366625   -0.001972346680965222
-0.01596643494139454   -0.06935262345972232   -0.0016980901584666144
-0.012627611693906334   -0.06966706098826833   -0.0017626379904247193
-0.012699360877167358   -0.06966903595564802   -0.001926874616314658
-0.010025137978720428   -0.07527975400366625   -0.001972346680965222
-0.01596643494139454   -0.06935262345972232   -0.0016980901584666144
-0.012699360877167358   -0.06966903595564802   -0.001926874616314658
-0.012524486342554549   -0.07488225188568039   -0.0021748827823940297
0.00041227865559756655   -0.06993932150204638   -0.0012028476708781507
0.0024821641060699074   -0.06254422639785089   -0.0009166425503216078
-0.0029706843911029264   -0.07010713266824031   -0.0015206726018517664
0.0006321673917816682   -0.06977761386731006   -0.0013817865555583043
0.0024821641060699074   -0.06254422639785089   -0.0009166425503216078
-0.00199620655580887   -0.06265510748155148   -0.0012199991627685123
-0.0029706843911029264   -0.07010713266824031   -0.0015206726018517664
-0.0019841047057996453   -0.06252102350176478   -0.001274446050865146
0.0006321673917816682   -0.06977761386731006   -0.0013817865555583043
-0.0029124032414876966   -0.06997232599725738   -0.001599237319389317
-0.0019841047057996453   -0.06252102350176478   -0.001274446050865146
-0.0029706843911029264   -0.07010713266824031   -0.0015206726018517664
0.0006321673917816682   -0.06977761386731006   -0.0013817865555583043
-0.0019841047057996453   -0.06252102350176478   -0.001274446050865146
0.0026127082861990623   -0.062386434816715325   -0.0010489502268797213
0.0024821641060699074   -0.06254422639785089   -0.0009166425503216078
0.0006321673917816682   -0.06977761386731006   -0.0013817865555583043
-0.0019841047057996453   -0.06252102350176478   -0.001274446050865146
0.0024821641060699074   -0.06254422639785089   -0.0009166425503216078
-0.0029706843911029264   -0.07010713266824031   -0.0015206726018517664
0.0006321673917816682   -0.06977761386731006   -0.0013817865555583043
0.0026127082861990623   -0.062386434816715325   -0.0010489502268797213
-0.0029124032414876966   -0.06997232599725738   -0.001599237319389317
0.0007939113681517736   -0.06968413454165717   -0.0015479061814412333
0.0026127082861990623   -0.062386434816715325   -0.0010489502268797213
-0.0019841047057996453   -0.06252102350176478   -0.001274446050865146
-0.0029124032414876966   -0.06997232599725738   -0.001599237319389317
-0.0019687148263410146   -0.062423795170278705   -0.0013205251550620785
0.0007939113681517736   -0.06968413454165717   -0.0015479061814412333
-0.0028460459001219043   -0.06988425211467249   -0.0016686432204038493
-0.0019687148263410146   -0.062423795170278705   -0.0013205251550620785
-0.0029124032414876966   -0.06997232599725738   -0.001599237319389317
0.0007939113681517736   -0.06968413454165717   -0.0015479061814412333
-0.0019687148263410146   -0.062423795170278705   -0.0013205251550620785
0.002696155304865562   -0.062282871607149834   -0.001169433417815543
0.0026127082861990623   -0.062386434816715325   -0.0010489502268797213
0.0007939113681517736   -0.06968413454165717   -0.0015479061814412333
-0.0019687148263410146   -0.062423795170278705   -0.0013205251550620785
0.0026127082861990623   -0.062386434816715325   -0.0010489502268797213
-0.0029124032414876966   -0.06997232599725738   -0.001599237319389317
0.0007939113681517736   -0.06968413454165717   -0.0015479061814412333
0.002696155304865562   -0.062282871607149834   -0.001169433417815543
-0.0028460459001219043   -0.06988425211467249   -0.0016686432204038493
0.0009670385312206159   -0.06963799738432358   -0.0017011434516362603
0.002696155304865562   -0.062282871607149834   -0.001169433417815543
-0.0019687148263410146   -0.062423795170278705   -0.0013205251550620785
-0.0028460459001219043   -0.06988425211467249   -0.0016686432204038493
-0.0019761033538161998   -0.06236031262793979   -0.001358846934004472
0.0009670385312206159   -0.06963799738432358   -0.0017011434516362603
-0.002806374658237923   -0.06984030582193594   -0.0017297945228332866
-0.0019761033538161998   -0.06236031262793979   -0.001358846934004472
-0.0028460459001219043   -0.06988425211467249   -0.0016686432204038493
0.0009670385312206159   -0.06963799738432358   -0.0017011434516362603
-0.0019761033538161998   -0.06236031262793979   -0.001358846934004472
0.002781807647108388   -0.06221346218111381   -0.001278339613140415
0.002696155304865562   -0.062282871607149834   -0.001169433417815543
0.0009670385312206159   -0.06963799738432358   -0.0017011434516362603
-0.0019761033538161998   -0.06236031262793979   -0.001358846934004472
0.002696155304865562   -0.062282871607149834   -0.001169433417815543
-0.0028460459001219043   -0.06988425211467249   -0.0016686432204038493
-0.0029706843911029264   -0.07010713266824031   -0.0015206726018517664
-0.00199620655580887   -0.06265510748155148   -0.0012199991627685123
-0.006243186790503447   -0.07013922740593977   -0.0017825824070697121
-0.0029124032414876966   -0.06997232599725738   -0.001599237319389317
-0.00199620655580887   -0.06265510748155148   -0.0012199991627685123
-0.006305548239661797   -0.0626556638559403   -0.001470232932452103
-0.006243186790503447   -0.07013922740593977   -0.0017825824070697121
-0.0063061122303848405   -0.06254220400466443   -0.0014650951699898976
-0.0029124032414876966   -0.06997232599725738   -0.001599237319389317
-0.00620033761112036   -0.07002349737934459   -0.0017846118575108479
-0.0063061122303848405   -0.06254220400466443   -0.0014650951699898976
-0.006243186790503447   -0.07013922740593977   -0.0017825824070697121
-0.0029124032414876966   -0.06997232599725738   -0.001599237319389317
-0.0063061122303848405   -0.06254220400466443   -0.0014650951699898976
-0.0019841047057996453   -0.06252102350176478   -0.001274446050865146
-0.00199620655580887   -0.06265510748155148   -0.0012199991627685123
-0.0029124032414876966   -0.06997232599725738   -0.001599237319389317
-0.0063061122303848405   -0.06254220400466443   -0.0014650951699898976
-0.00199620655580887   -0.06265510748155148   -0.0012199991627685123
-0.006243186790503447   -0.07013922740593977   -0.0017825824070697121
-0.0029124032414876966   -0.06997232599725738   -0.001599237319389317
-0.0019841047057996453   -0.06252102350176478   -0.001274446050865146
-0.00620033761112036   -0.07002349737934459   -0.0017846118575108479
-0.0028460459001219043   -0.06988425211467249   -0.0016686432204038493
-0.0019841047057996453   -0.06252102350176478   -0.001274446050865146
-0.0063061122303848405   -0.06254220400466443   -0.0014650951699898976
-0.00620033761112036   -0.07002349737934459   -0.0017846118575108479
-0.006306387869348969   -0.062461235591143055   -0.0014516228725489821
-0.0028460459001219043   -0.06988425211467249   -0.0016686432204038493
-0.00615627716012854   -0.06994959632793599   -0.0017778668483133782
-0.006306387869348969   -0.062461235591143055   -0.0014516228725489821
-0.00620033761112036   -0.07002349737934459   -0.0017846118575108479
-0.0028460459001219043   -0.06988425211467249   -0.0016686432204038493
-0.006306387869348969   -0.062461235591143055   -0.0014516228725489821
-0.0019687148263410146   -0.062423795170278705   -0.0013205251550620785
-0.0019841047057996453   -0.06252102350176478   -0.001274446050865146
-0.0028460459001219043   -0.06988425211467249   -0.0016686432204038493
-0.006306387869348969   -0.062461235591143055   -0.0014516228725489821
-0.0019841047057996453   -0.06252102350176478   -0.001274446050865146
-0.00620033761112036   -0.07002349737934459   -0.0017846118575108479
-0.0028460459001219043   -0.06988425211467249   -0.0016686432204038493
-0.0019687148263410146   -0.062423795170278705   -0.0013205251550620785
-0.00615627716012854   -0.06994959632793599   -0.0017778668483133782
-0.002806374658237923   -0.06984030582193594   -0.0017297945228332866
-0.0019687148263410146   -0.062423795170278705   -0.0013205251550620785
-0.006306387869348969   -0.062461235591143055   -0.0014516228725489821
-0.00615627716012854   -0.06994959632793599   -0.0017778668483133782
-0.006312426248765838   -0.06241281575746784   -0.001430247539908995
-0.002806374658237923   -0.06984030582193594   -0.0017297945228332866
-0.006117739375563851   -0.06991683244830922   -0.0017629307185415548
-0.006312426248765838   -0.06241281575746784   -0.001430247539908995
-0.00615627716012854   -0.06994959632793599   -0.0017778668483133782
-0.002806374658237923   -0.06984030582193594   -0.0017297945228332866
-0.006312426248765838   -0.06241281575746784   -0.001430247539908995
-0.0019761033538161998   -0.06236031262793979   -0.001358846934004472
-0.0019687148263410146   -0.062423795170278705   -0.0013205251550620785
-0.002806374658237923   -0.06984030582193594   -0.0017297945228332866
-0.006312426248765838   -0.06241281575746784   -0.001430247539908995
-0.0019687148263410146   -0.062423795170278705   -0.0013205251550620785
-0.00615627716012854   -0.06994959632793599   -0.0017778668483133782
-0.006243186790503447   -0.07013922740593977   -0.0017825824070697121
-0.006305548239661797   -0.0626556638559403   -0.001470232932452103
-0.009464211258798693   -0.07003502926828314   -0.002019003486880838
-0.00620033761112036   -0.07002349737934459   -0.0017846118575108479
-0.006305548239661797   -0.0626556638559403   -0.001470232932452103
-0.010541659447102891   -0.06254841937510175   -0.0016894454184066883
-0.009464211258798693   -0.07003502926828314   -0.002019003486880838
-0.010545411314806971   -0.06245308498530576   -0.0016254413107344805
-0.00620033761112036   -0.07002349737934459   -0.0017846118575108479
-0.00942431801044535   -0.06993517539222771   -0.0019463439019287946
-0.010545411314806971   -0.06245308498530576   -0.0016254413107344805
-0.009464211258798693   -0.07003502926828314   -0.002019003486880838
-0.00620033761112036   -0.07002349737934459   -0.0017846118575108479
-0.010545411314806971   -0.06245308498530576   -0.0016254413107344805
-0.0063061122303848405   -0.06254220400466443   -0.0014650951699898976
-0.006305548239661797   -0.0626556638559403   -0.001470232932452103
-0.00620033761112036   -0.07002349737934459   -0.0017846118575108479
-0.010545411314806971   -0.06245308498530576   -0.0016254413107344805
-0.006305548239661797   -0.0626556638559403   -0.001470232932452103
-0.009464211258798693   -0.07003502926828314   -0.002019003486880838
-0.00620033761112036   -0.07002349737934459   -0.0017846118575108479
-0.0063061122303848405   -0.06254220400466443   -0.0014650951699898976
-0.00942431801044535   -0.06993517539222771   -0.0019463439019287946
-0.00615627716012854   -0.06994959632793599   -0.0017778668483133782
-0.0063061122303848405   -0.06254220400466443   -0.0014650951699898976
-0.010545411314806971   -0.06245308498530576   -0.0016254413107344805
-0.00942431801044535   -0.06993517539222771   -0.0019463439019287946
-0.010541942539823507   -0.062389954518414   -0.001553263967885689
-0.00615627716012854   -0.06994959632793599   -0.0017778668483133782
-0.009376113262604633   -0.06987669016043065   -0.0018650997335021668
-0.010541942539823507   -0.062389954518414   -0.001553263967885689
-0.00942431801044535   -0.06993517539222771   -0.0019463439019287946
-0.00615627716012854   -0.06994959632793599   -0.0017778668483133782
-0.010541942539823507   -0.062389954518414   -0.001553263967885689
-0.006306387869348969   -0.062461235591143055   -0.0014516228725489821
-0.0063061122303848405   -0.06254220400466443   -0.0014650951699898976
-0.00615627716012854   -0.06994959632793599   -0.0017778668483133782
-0.010541942539823507   -0.062389954518414   -0.001553263967885689
-0.0063061122303848405   -0.06254220400466443   -0.0014650951699898976
-0.00942431801044535   -0.06993517539222771   -0.0019463439019287946
-0.00615627716012854   -0.06994959632793599   -0.0017778668483133782
-0.006306387869348969   -0.062461235591143055   -0.0014516228725489821
-0.009376113262604633   -0.06987669016043065   -0.0018650997335021668
-0.006117739375563851   -0.06991683244830922   -0.0017629307185415548
-0.006306387869348969   -0.062461235591143055   -0.0014516228725489821
-0.010541942539823507   -0.062389954518414   -0.001553263967885689
-0.009376113262604633   -0.06987669016043065   -0.0018650997335021668
-0.010539773624694777   -0.062358461668741386   -0.0014731519427903272
-0.006117739375563851   -0.06991683244830922   -0.0017629307185415548
-0.009329225305747821   -0.0698576483269506   -0.001775535463930534
-0.010539773624694777   -0.062358461668741386   -0.0014731519427903272
-0.009376113262604633   -0.06987669016043065   -0.0018650997335021668
-0.006117739375563851   -0.06991683244830922   -0.0017629307185415548
-0.010539773624694777   -0.062358461668741386   -0.0014731519427903272
-0.006312426248765838   -0.06241281575746784   -0.001430247539908995
-0.006306387869348969   -0.062461235591143055   -0.0014516228725489821
-0.006117739375563851   -0.06991683244830922   -0.0017629307185415548
-0.010539773624694777   -0.062358461668741386   -0.0014731519427903272
-0.006306387869348969   -0.062461235591143055   -0.0014516228725489821
-0.009376113262604633   -0.06987669016043065   -0.0018650997335021668
-0.009464211258798693   -0.07003502926828314   -0.002019003486880838
-0.010541659447102891   -0.06254841937510175   -0.0016894454184066883
-0.012839769532690422   -0.06979823607802471   -0.0022290212565381716
-0.00942431801044535   -0.06993517539222771   -0.0019463439019287946
-0.010541659447102891   -0.06254841937510175   -0.0016894454184066883
-0.014909833639611979   -0.062337439682165076   -0.001878041380464636
-0.012839769532690422   -0.06979823607802471   -0.0022290212565381716
-0.014904697707761611   -0.062259467182960875   -0.0017544752061177467
-0.00942431801044535   -0.06993517539222771   -0.0019463439019287946
-0.012787672057027305   -0.06971354476550884   -0.002081581006578201
-0.014904697707761611   -0.062259467182960875   -0.0017544752061177467
-0.012839769532690422   -0.06979823607802471   -0.0022290212565381716
-0.00942431801044535   -0.06993517539222771   -0.0019463439019287946
-0.014904697707761611   -0.062259467182960875   -0.0017544752061177467
-0.010545411314806971   -0.06245308498530576   -0.0016254413107344805
-0.010541659447102891   -0.06254841937510175   -0.0016894454184066883
-0.00942431801044535   -0.06993517539222771   -0.0019463439019287946
-0.014904697707761611   -0.062259467182960875   -0.0017544752061177467
-0.010541659447102891   -0.06254841937510175   -0.0016894454184066883
-0.012839769532690422   -0.06979823607802471   -0.0022290212565381716
-0.00942431801044535   -0.06993517539222771   -0.0019463439019287946
-0.010545411314806971   -0.06245308498530576   -0.0016254413107344805
-0.012787672057027305   -0.06971354476550884   -0.002081581006578201
-0.009376113262604633   -0.06987669016043065   -0.0018650997335021668
-0.010545411314806971   -0.06245308498530576   -0.0016254413107344805
-0.014904697707761611   -0.062259467182960875   -0.0017544752061177467
-0.012787672057027305   -0.06971354476550884   -0.002081581006578201
-0.014868086605525589   -0.0622125105775686   -0.001623967525491369
-0.009376113262604633   -0.06987669016043065   -0.0018650997335021668
-0.012699360877167358   -0.06966903595564802   -0.001926874616314658
-0.014868086605525589   -0.0622125105775686   -0.001623967525491369
-0.012787672057027305   -0.06971354476550884   -0.002081581006578201
-0.009376113262604633   -0.06987669016043065   -0.0018650997335021668
-0.014868086605525589   -0.0622125105775686   -0.001623967525491369
-0.010541942539823507   -0.062389954518414   -0.001553263967885689
-0.010545411314806971   -0.06245308498530576   -0.0016254413107344805
-0.009376113262604633   -0.06987669016043065   -0.0018650997335021668
-0.014868086605525589   -0.0622125105775686   -0.001623967525491369
-0.010545411314806971   -0.06245308498530576   -0.0016254413107344805
-0.012787672057027305   -0.06971354476550884   -0.002081581006578201
-0.009376113262604633   -0.06987669016043065   -0.0018650997335021668
-0.010541942539823507   -0.062389954518414   -0.001553263967885689
-0.012699360877167358   -0.06966903595564802   -0.001926874616314658
-0.009329225305747821   -0.0698576483269506   -0.001775535463930534
-0.010541942539823507   -0.062389954518414   -0.001553263967885689
-0.014868086605525589   -0.0622125105775686   -0.001623967525491369
-0.012699360877167358   -0.06966903595564802   -0.001926874616314658
-0.014843612934341043   -0.06219984944702558   -0.0014848880670082765
-0.009329225305747821   -0.0698576483269506   -0.001775535463930534
-0.012627611693906334   -0.06966706098826833   -0.0017626379904247193
-0.014843612934341043   -0.06219984944702558   -0.0014848880670082765
-0.012699360877167358   -0.06966903595564802   -0.001926874616314658
-0.009329225305747821   -0.0698576483269506   -0.001775535463930534
-0.014843612934341043   -0.06219984944702558   -0.0014848880670082765
-0.010539773624694777   -0.062358461668741386   -0.0014731519427903272
-0.010541942539823507   -0.062389954518414   -0.001553263967885689
-0.009329225305747821   -0.0698576483269506   -0.001775535463930534
-0.014843612934341043   -0.06219984944702558   -0.0014848880670082765
-0.010541942539823507   -0.062389954518414   -0.001553263967885689
-0.012699360877167358   -0.06966903595564802   -0.001926874616314658
-0.012839769532690422   -0.06979823607802471   -0.0022290212565381716
-0.014909833639611979   -0.062337439682165076   -0.001878041380464636
-0.01677647554754833   -0.06945733444823309   -0.0024247805637434105
-0.012787672057027305   -0.06971354476550884   -0.002081581006578201
-0.014909833639611979   -0.062337439682165076   -0.001878041380464636
-0.019789007031821036   -0.06204671909367834   -0.0020480692691873695
-0.01677647554754833   -0.06945733444823309   -0.0024247805637434105
-0.019606724446263064   -0.06197021336028498   -0.0018590595858240394
-0.012787672057027305   -0.06971354476550884   -0.002081581006578201
-0.016509801219376407   -0.06936903550833812   -0.0021940128591602373
-0.019606724446263064   -0.06197021336028498   -0.0018590595858240394
-0.01677647554754833   -0.06945733444823309   -0.0024247805637434105
-0.012787672057027305   -0.06971354476550884   -0.002081581006578201
-0.019606724446263064   -0.06197021336028498   -0.0018590595858240394
-0.014904697707761611   -0.062259467182960875   -0.0017544752061177467
-0.014909833639611979   -0.062337439682165076   -0.001878041380464636
-0.012787672057027305   -0.06971354476550884   -0.002081581006578201
-0.019606724446263064   -0.06197021336028498   -0.0018590595858240394
-0.014909833639611979   -0.062337439682165076   -0.001878041380464636
-0.01677647554754833   -0.06945733444823309   -0.0024247805637434105
-0.012787672057027305   -0.06971354476550884   -0.002081581006578201
-0.014904697707761611   -0.062259467182960875   -0.0017544752061177467
-0.016509801219376407   -0.06936903550833812   -0.0021940128591602373
-0.012699360877167358   -0.06966903595564802   -0.001926874616314658
-0.014904697707761611   -0.062259467182960875   -0.0017544752061177467
-0.019606724446263064   -0.06197021336028498   -0.0018590595858240394
-0.016509801219376407   -0.06936903550833812   -0.0021940128591602373
-0.01945080812688083   -0.061929155561654174   -0.0016583848573426148
-0.012699360877167358   -0.06966903595564802   -0.001926874616314658
-0.016278318270500136   -0.06932832073236783   -0.0019512669718690112
-0.01945080812688083   -0.061929155561654174   -0.0016583848573426148
-0.016509801219376407   -0.06936903550833812   -0.0021940128591602373
-0.012699360877167358   -0.06966903595564802   -0.001926874616314658
-0.01945080812688083   -0.061929155561654174   -0.0016583848573426148
-0.014868086605525589   -0.0622125105775686   -0.001623967525491369
-0.014904697707761611   -0.062259467182960875   -0.0017544752061177467
-0.012699360877167358   -0.06966903595564802   -0.001926874616314658
-0.01945080812688083   -0.061929155561654174   -0.0016583848573426148
-0.014904697707761611   -0.062259467182960875   -0.0017544752061177467
-0.016509801219376407   -0.06936903550833812   -0.0021940128591602373
-0.012699360877167358   -0.06966903595564802   -0.001926874616314658
-0.014868086605525589   -0.0622125105775686   -0.001623967525491369
-0.016278318270500136   -0.06932832073236783   -0.0019512669718690112
-0.012627611693906334   -0.06966706098826833   -0.0017626379904247193
-0.014868086605525589   -0.0622125105775686   -0.001623967525491369
-0.01945080812688083   -0.061929155561654174   -0.0016583848573426148
-0.016278318270500136   -0.06932832073236783   -0.0019512669718690112
-0.019225760663242736   -0.06194250464232221   -0.0014476429541816541
-0.012627611693906334   -0.06966706098826833   -0.0017626379904247193
-0.01596643494139454   -0.06935262345972232   -0.0016980901584666144
-0.019225760663242736   -0.06194250464232221   -0.0014476429541816541
-0.016278318270500136   -0.06932832073236783   -0.0019512669718690112
-0.012627611693906334   -0.06966706098826833   -0.0017626379904247193
-0.019225760663242736   -0.06194250464232221   -0.0014476429541816541
-0.014843612934341043   -0.06219984944702558   -0.0014848880670082765
-0.014868086605525589   -0.0622125105775686   -0.001623967525491369
-0.012627611693906334   -0.06966706098826833   -0.0017626379904247193
-0.019225760663242736   -0.06194250464232221   -0.0014476429541816541
-0.014868086605525589   -0.0622125105775686   -0.001623967525491369
-0.016278318270500136   -0.06932832073236783   -0.0019512669718690112
0.0024821641060699074   -0.06254422639785089   -0.0009166425503216078
0.003907964897301544   -0.05365028928567071   -0.0006105877422206286
-0.00199620655580887   -0.06265510748155148   -0.0012199991627685123
0.0026127082861990623   -0.062386434816715325   -0.0010489502268797213
0.003907964897301544   -0.05365028928567071   -0.0006105877422206286
-0.0014046043945301233   -0.05370476996577457   -0.0008959983000972281
-0.00199620655580887   -0.06265510748155148   -0.0012199991627685123
-0.0014296395890002365   -0.05357394960843958   -0.0009253227826520599
0.0026127082861990623   -0.062386434816715325   -0.0010489502268797213
-0.0019841047057996453   -0.06252102350176478   -0.001274446050865146
-0.0014296395890002365   -0.05357394960843958   -0.0009253227826520599
-0.00199620655580887   -0.06265510748155148   -0.0012199991627685123
0.0026127082861990623   -0.062386434816715325   -0.0010489502268797213
-0.0014296395890002365   -0.05357394960843958   -0.0009253227826520599
0.003959464721749002   -0.05349826780564429   -0.0006972305550225695
0.003907964897301544   -0.05365028928567071   -0.0006105877422206286
0.0026127082861990623   -0.062386434816715325   -0.0010489502268797213
-0.0014296395890002365   -0.05357394960843958   -0.0009253227826520599
0.003907964897301544   -0.05365028928567071   -0.0006105877422206286
-0.00199620655580887   -0.06265510748155148   -0.0012199991627685123
0.0026127082861990623   -0.062386434816715325   -0.0010489502268797213
0.003959464721749002   -0.05349826780564429   -0.0006972305550225695
-0.0019841047057996453   -0.06252102350176478   -0.001274446050865146
0.002696155304865562   -0.062282871607149834   -0.001169433417815543
0.003959464721749002   -0.05349826780564429   -0.0006972305550225695
-0.0014296395890002365   -0.05357394960843958   -0.0009253227826520599
-0.0019841047057996453   -0.06252102350176478   -0.001274446050865146
-0.0014559562306188933   -0.05347043239848546   -0.000947179575736197
0.002696155304865562   -0.062282871607149834   -0.001169433417815543
-0.0019687148263410146   -0.062423795170278705   -0.0013205251550620785
-0.0014559562306188933   -0.05347043239848546   -0.000947179575736197
-0.0019841047057996453   -0.06252102350176478   -0.001274446050865146
0.002696155304865562   -0.062282871607149834   -0.001169433417815543
-0.0014559562306188933   -0.05347043239848546   -0.000947179575736197
0.003975061455640201   -0.053387449331926046   -0.0007728568595678135
0.003959464721749002   -0.05349826780564429   -0.0006972305550225695
0.002696155304865562   -0.062282871607149834   -0.001169433417815543
-0.0014559562306188933   -0.05347043239848546   -0.000947179575736197
0.003959464721749002   -0.05349826780564429   -0.0006972305550225695
-0.0019841047057996453   -0.06252102350176478   -0.001274446050865146
0.002696155304865562   -0.062282871607149834   -0.001169433417815543
0.003975061455640201   -0.053387449331926046   -0.0007728568595678135
-0.0019687148263410146   -0.062423795170278705   -0.0013205251550620785
0.002781807647108388   -0.06221346218111381   -0.001278339613140415
0.003975061455640201   -0.053387449331926046   -0.0007728568595678135
-0.0014559562306188933   -0.05347043239848546   -0.000947179575736197
-0.0019687148263410146   -0.062423795170278705   -0.0013205251550620785
-0.0015007287325306405   -0.05339096932919244   -0.0009618213141722509
0.002781807647108388   -0.06221346218111381   -0.001278339613140415
-0.0019761033538161998   -0.06236031262793979   -0.001358846934004472
-0.0015007287325306405   -0.05339096932919244   -0.0009618213141722509
-0.0019687148263410146   -0.062423795170278705   -0.0013205251550620785
0.002781807647108388   -0.06221346218111381   -0.001278339613140415
-0.0015007287325306405   -0.05339096932919244   -0.0009618213141722509
0.003983763864635577   -0.05329832556978939   -0.000837987702163174
0.003975061455640201   -0.053387449331926046   -0.0007728568595678135
0.002781807647108388   -0.06221346218111381   -0.001278339613140415
-0.0015007287325306405   -0.05339096932919244   -0.0009618213141722509
0.003975061455640201   -0.053387449331926046   -0.0007728568595678135
-0.0019687148263410146   -0.062423795170278705   -0.0013205251550620785
-0.00199620655580887   -0.06265510748155148   -0.0012199991627685123
-0.0014046043945301233   -0.05370476996577457   -0.0008959983000972281
-0.006305548239661797   -0.0626556638559403   -0.001470232932452103
-0.0019841047057996453   -0.06252102350176478   -0.001274446050865146
-0.0014046043945301233   -0.05370476996577457   -0.0008959983000972281
-0.00649678322032873   -0.053676700747808496   -0.0011310813293811347
-0.006305548239661797   -0.0626556638559403   -0.001470232932452103
-0.006531469320314113   -0.05356734852930639   -0.001117350215449409
-0.0019841047057996453   -0.06252102350176478   -0.001274446050865146
-0.0063061122303848405   -0.06254220400466443   -0.0014650951699898976
-0.006531469320314113   -0.05356734852930639   -0.001117350215449409
-0.006305548239661797   -0.0626556638559403   -0.001470232932452103
-0.0019841047057996453   -0.06252102350176478   -0.001274446050865146
-0.006531469320314113   -0.05356734852930639   -0.001117350215449409
-0.0014296395890002365   -0.05357394960843958   -0.0009253227826520599
-0.0014046043945301233   -0.05370476996577457   -0.0008959983000972281
-0.0019841047057996453   -0.06252102350176478   -0.001274446050865146
-0.006531469320314113   -0.05356734852930639   -0.001117350215449409
-0.0014046043945301233   -0.05370476996577457   -0.0008959983000972281
-0.006305548239661797   -0.0626556638559403   -0.001470232932452103
-0.0019841047057996453   -0.06252102350176478   -0.001274446050865146
-0.0014296395890002365   -0.05357394960843958   -0.0009253227826520599
-0.0063061122303848405   -0.06254220400466443   -0.0014650951699898976
-0.0019687148263410146   -0.062423795170278705   -0.0013205251550620785
-0.0014296395890002365   -0.05357394960843958   -0.0009253227826520599
-0.006531469320314113   -0.05356734852930639   -0.001117350215449409
-0.0063061122303848405   -0.06254220400466443   -0.0014650951699898976
-0.006566631426911225   -0.05348140139440425   -0.0010959319562609702
-0.0019687148263410146   -0.062423795170278705   -0.0013205251550620785
-0.006306387869348969   -0.062461235591143055   -0.0014516228725489821
-0.006566631426911225   -0.05348140139440425   -0.0010959319562609702
-0.0063061122303848405   -0.06254220400466443   -0.0014650951699898976
-0.0019687148263410146   -0.062423795170278705   -0.0013205251550620785
-0.006566631426911225   -0.05348140139440425   -0.0010959319562609702
-0.0014559562306188933   -0.05347043239848546   -0.000947179575736197
-0.0014296395890002365   -0.05357394960843958   -0.0009253227826520599
-0.0019687148263410146   -0.062423795170278705   -0.0013205251550620785
-0.006566631426911225   -0.05348140139440425   -0.0010959319562609702
-0.0014296395890002365   -0.05357394960843958   -0.0009253227826520599
-0.0063061122303848405   -0.06254220400466443   -0.0014650951699898976
-0.0019687148263410146   -0.062423795170278705   -0.0013205251550620785
-0.0014559562306188933   -0.05347043239848546   -0.000947179575736197
-0.006306387869348969   -0.062461235591143055   -0.0014516228725489821
-0.0019761033538161998   -0.06236031262793979   -0.001358846934004472
-0.0014559562306188933   -0.05347043239848546   -0.000947179575736197
-0.006566631426911225   -0.05348140139440425   -0.0010959319562609702
-0.006306387869348969   -0.062461235591143055   -0.0014516228725489821
-0.0066072624797396924   -0.05341925714783557   -0.001067196324761165
-0.0019761033538161998   -0.06236031262793979   -0.001358846934004472
-0.006312426248765838   -0.06241281575746784   -0.001430247539908995
-0.0066072624797396924   -0.05341925714783557   -0.001067196324761165
-0.006306387869348969   -0.062461235591143055   -0.0014516228725489821
-0.0019761033538161998   -0.06236031262793979   -0.001358846934004472
-0.0066072624797396924   -0.05341925714783557   -0.001067196324761165
-0.0015007287325306405   -0.05339096932919244   -0.0009618213141722509
-0.0014559562306188933   -0.05347043239848546   -0.000947179575736197
-0.0019761033538161998   -0.06236031262793979   -0.001358846934004472
-0.0066072624797396924   -0.05341925714783557   -0.001067196324761165
-0.0014559562306188933   -0.05347043239848546   -0.000947179575736197
-0.006306387869348969   -0.062461235591143055   -0.0014516228725489821
-0.006305548239661797   -0.0626556638559403   -0.001470232932452103
-0.00649678322032873   -0.053676700747808496   -0.0011310813293811347
-0.010541659447102891   -0.06254841937510175   -0.0016894454184066883
-0.0063061122303848405   -0.06254220400466443   -0.0014650951699898976
-0.00649678322032873   -0.053676700747808496   -0.0011310813293811347
-0.011502849796828502   -0.053571174518032755   -0.0013322570644577533
-0.010541659447102891   -0.06254841937510175   -0.0016894454184066883
-0.011540263891325456   -0.05348133409458025   -0.0012756768766584447
-0.0063061122303848405   -0.06254220400466443   -0.0014650951699898976
-0.010545411314806971   -0.06245308498530576   -0.0016254413107344805
-0.011540263891325456   -0.05348133409458025   -0.0012756768766584447
-0.010541659447102891   -0.06254841937510175   -0.0016894454184066883
-0.0063061122303848405   -0.06254220400466443   -0.0014650951699898976
-0.011540263891325456   -0.05348133409458025   -0.0012756768766584447
-0.006531469320314113   -0.05356734852930639   -0.001117350215449409
-0.00649678322032873   -0.053676700747808496   -0.0011310813293811347
-0.0063061122303848405   -0.06254220400466443   -0.0014650951699898976
-0.011540263891325456   -0.05348133409458025   -0.0012756768766584447
-0.00649678322032873   -0.053676700747808496   -0.0011310813293811347
-0.010541659447102891   -0.06254841937510175   -0.0016894454184066883
-0.0063061122303848405   -0.06254220400466443   -0.0014650951699898976
-0.006531469320314113   -0.05356734852930639   -0.001117350215449409
-0.010545411314806971   -0.06245308498530576   -0.0016254413107344805
-0.006306387869348969   -0.062461235591143055   -0.0014516228725489821
-0.006531469320314113   -0.05356734852930639   -0.001117350215449409
-0.011540263891325456   -0.05348133409458025   -0.0012756768766584447
-0.010545411314806971   -0.06245308498530576   -0.0016254413107344805
-0.0115712678628052   -0.05341467505625604   -0.001211545089758359
-0.006306387869348969   -0.062461235591143055   -0.0014516228725489821
-0.010541942539823507   -0.062389954518414   -0.001553263967885689
-0.0115712678628052   -0.05341467505625604   -0.001211545089758359
-0.010545411314806971   -0.06245308498530576   -0.0016254413107344805
-0.006306387869348969   -0.062461235591143055   -0.0014516228725489821
-0.0115712678628052   -0.05341467505625604   -0.001211545089758359
-0.006566631426911225   -0.05348140139440425   -0.0010959319562609702
-0.006531469320314113   -0.05356734852930639   -0.001117350215449409
-0.006306387869348969   -0.062461235591143055   -0.0014516228725489821
-0.0115712678628052   -0.05341467505625604   -0.001211545089758359
-0.006531469320314113   -0.05356734852930639   -0.001117350215449409
-0.010545411314806971   -0.06245308498530576   -0.0016254413107344805
-0.006306387869348969   -0.062461235591143055   -0.0014516228725489821
-0.006566631426911225   -0.05348140139440425   -0.0010959319562609702
-0.010541942539823507   -0.062389954518414   -0.001553263967885689
-0.006312426248765838   -0.06241281575746784   -0.001430247539908995
-0.006566631426911225   -0.05348140139440425   -0.0010959319562609702
-0.0115712678628052   -0.05341467505625604   -0.001211545089758359
-0.010541942539823507   -0.062389954518414   -0.001553263967885689
-0.011603171299324621   -0.053371100625627624   -0.0011400843058984075
-0.006312426248765838   -0.06241281575746784   -0.001430247539908995
-0.010539773624694777   -0.062358461668741386   -0.0014731519427903272
-0.011603171299324621   -0.053371100625627624   -0.0011400843058984075
-0.010541942539823507   -0.062389954518414   -0.001553263967885689
-0.006312426248765838   -0.06241281575746784   -0.001430247539908995
-0.011603171299324621   -0.053371100625627624   -0.0011400843058984075
-0.0066072624797396924   -0.05341925714783557   -0.001067196324761165
-0.006566631426911225   -0.05348140139440425   -0.0010959319562609702
-0.006312426248765838   -0.06241281575746784   -0.001430247539908995
-0.011603171299324621   -0.053371100625627624   -0.0011400843058984075
-0.006566631426911225   -0.05348140139440425   -0.0010959319562609702
-0.010541942539823507   -0.062389954518414   -0.001553263967885689
-0.010541659447102891   -0.06254841937510175   -0.0016894454184066883
-0.011502849796828502   -0.053571174518032755   -0.0013322570644577533
-0.014909833639611979   -0.062337439682165076   -0.001878041380464636
-0.010545411314806971   -0.06245308498530576   -0.0016254413107344805
-0.011502849796828502   -0.053571174518032755   -0.0013322570644577533
-0.01662799050401414   -0.053390298252118634   -0.0015002848785135772
-0.014909833639611979   -0.062337439682165076   -0.001878041380464636
-0.01665896054163818   -0.05331952181043829   -0.0014002731234308448
-0.010545411314806971   -0.06245308498530576   -0.0016254413107344805
-0.014904697707761611   -0.062259467182960875   -0.0017544752061177467
-0.01665896054163818   -0.05331952181043829   -0.0014002731234308448
-0.014909833639611979   -0.062337439682165076   -0.001878041380464636
-0.010545411314806971   -0.06245308498530576   -0.0016254413107344805
-0.01665896054163818   -0.05331952181043829   -0.0014002731234308448
-0.011540263891325456   -0.05348133409458025   -0.0012756768766584447
-0.011502849796828502   -0.053571174518032755   -0.0013322570644577533
-0.010545411314806971   -0.06245308498530576   -0.0016254413107344805
-0.01665896054163818   -0.05331952181043829   -0.0014002731234308448
-0.011502849796828502   -0.053571174518032755   -0.0013322570644577533
-0.014909833639611979   -0.062337439682165076   -0.001878041380464636
-0.010545411314806971   -0.06245308498530576   -0.0016254413107344805
-0.011540263891325456   -0.05348133409458025   -0.0012756768766584447
-0.014904697707761611   -0.062259467182960875   -0.0017544752061177467
-0.010541942539823507   -0.062389954518414   -0.001553263967885689
-0.011540263891325456   -0.05348133409458025   -0.0012756768766584447
-0.01665896054163818   -0.05331952181043829   -0.0014002731234308448
-0.014904697707761611   -0.062259467182960875   -0.0017544752061177467
-0.016662986755395567   -0.05327049913440915   -0.0012937548656179428
-0.010541942539823507   -0.062389954518414   -0.001553263967885689
-0.014868086605525589   -0.0622125105775686   -0.001623967525491369
-0.016662986755395567   -0.05327049913440915   -0.0012937548656179428
-0.014904697707761611   -0.062259467182960875   -0.0017544752061177467
-0.010541942539823507   -0.062389954518414   -0.001553263967885689
-0.016662986755395567   -0.05327049913440915   -0.0012937548656179428
-0.0115712678628052   -0.05341467505625604   -0.001211545089758359
-0.011540263891325456   -0.05348133409458025   -0.0012756768766584447
-0.010541942539823507   -0.062389954518414   -0.001553263967885689
-0.016662986755395567   -0.05327049913440915   -0.0012937548656179428
-0.011540263891325456   -0.05348133409458025   -0.0012756768766584447
-0.014904697707761611   -0.062259467182960875   -0.0017544752061177467
-0.010541942539823507   -0.062389954518414   -0.001553263967885689
-0.0115712678628052   -0.05341467505625604   -0.001211545089758359
-0.014868086605525589   -0.0622125105775686   -0.001623967525491369
-0.010539773624694777   -0.062358461668741386   -0.0014731519427903272
-0.0115712678628052   -0.05341467505625604   -0.001211545089758359
-0.016662986755395567   -0.05327049913440915   -0.0012937548656179428
-0.014868086605525589   -0.0622125105775686   -0.001623967525491369
-0.016674647597890252   -0.05324663643408544   -0.001179352557593587
-0.010539773624694777   -0.062358461668741386   -0.0014731519427903272
-0.014843612934341043   -0.06219984944702558   -0.0014848880670082765
-0.016674647597890252   -0.05324663643408544   -0.001179352557593587
-0.014868086605525589   -0.0622125105775686   -0.001623967525491369
-0.010539773624694777   -0.062358461668741386   -0.0014731519427903272
-0.016674647597890252   -0.05324663643408544   -0.001179352557593587
-0.011603171299324621   -0.053371100625627624   -0.0011400843058984075
-0.0115712678628052   -0.05341467505625604   -0.001211545089758359
-0.010539773624694777   -0.062358461668741386   -0.0014731519427903272
-0.016674647597890252   -0.05324663643408544   -0.001179352557593587
-0.0115712678628052   -0.05341467505625604   -0.001211545089758359
-0.014868086605525589   -0.0622125105775686   -0.001623967525491369
-0.014909833639611979   -0.062337439682165076   -0.001878041380464636
-0.01662799050401414   -0.053390298252118634   -0.0015002848785135772
-0.019789007031821036   -0.06204671909367834   -0.0020480692691873695
-0.014904697707761611   -0.062259467182960875   -0.0017544752061177467
-0.01662799050401414   -0.053390298252118634   -0.0015002848785135772
-0.02221677065106372   -0.05315309535403573   -0.0016438175457887528
-0.019789007031821036   -0.06204671909367834   -0.0020480692691873695
-0.022109968414999626   -0.05308844446189973   -0.0014979002085273641
-0.014904697707761611   -0.062259467182960875   -0.0017544752061177467
-0.019606724446263064   -0.06197021336028498   -0.0018590595858240394
-0.022109968414999626   -0.05308844446189973   -0.0014979002085273641
-0.019789007031821036   -0.06204671909367834   -0.0020480692691873695
-0.014904697707761611   -0.062259467182960875   -0.0017544752061177467
-0.022109968414999626   -0.05308844446189973   -0.0014979002085273641
-0.01665896054163818   -0.05331952181043829   -0.0014002731234308448
-0.01662799050401414   -0.053390298252118634   -0.0015002848785135772
-0.014904697707761611   -0.062259467182960875   -0.0017544752061177467
-0.022109968414999626   -0.05308844446189973   -0.0014979002085273641
-0.01662799050401414   -0.053390298252118634   -0.0015002848785135772
-0.019789007031821036   -0.06204671909367834   -0.0020480692691873695
-0.014904697707761611   -0.062259467182960875   -0.0017544752061177467
-0.01665896054163818   -0.05331952181043829   -0.0014002731234308448
-0.019606724446263064   -0.06197021336028498   -0.0018590595858240394
-0.014868086605525589   -0.0622125105775686   -0.001623967525491369
-0.01665896054163818   -0.05331952181043829   -0.0014002731234308448
-0.022109968414999626   -0.05308844446189973   -0.0014979002085273641
-0.019606724446263064   -0.06197021336028498   -0.0018590595858240394
-0.022019915538687797   -0.05304689762113518   -0.0013406242174346422
-0.014868086605525589   -0.0622125105775686   -0.001623967525491369
-0.01945080812688083   -0.061929155561654174   -0.0016583848573426148
-0.022019915538687797   -0.05304689762113518   -0.0013406242174346422
-0.019606724446263064   -0.06197021336028498   -0.0018590595858240394
-0.014868086605525589   -0.0622125105775686   -0.001623967525491369
-0.022019915538687797   -0.05304689762113518   -0.0013406242174346422
-0.016662986755395567   -0.05327049913440915   -0.0012937548656179428
-0.01665896054163818   -0.05331952181043829   -0.0014002731234308448
-0.014868086605525589   -0.0622125105775686   -0.001623967525491369
-0.022019915538687797   -0.05304689762113518   -0.0013406242174346422
-0.01665896054163818   -0.05331952181043829   -0.0014002731234308448
-0.019606724446263064   -0.06197021336028498   -0.0018590595858240394
-0.014868086605525589   -0.0622125105775686   -0.001623967525491369
-0.016662986755395567   -0.05327049913440915   -0.0012937548656179428
-0.01945080812688083   -0.061929155561654174   -0.0016583848573426148
-0.014843612934341043   -0.06219984944702558   -0.0014848880670082765
-0.016662986755395567   -0.05327049913440915   -0.0012937548656179428
-0.022019915538687797   -0.05304689762113518   -0.0013406242174346422
-0.01945080812688083   -0.061929155561654174   -0.0016583848573426148
-0.021871276653009402   -0.053048112941020686   -0.0011734051424128675
-0.014843612934341043   -0.06219984944702558   -0.0014848880670082765
-0.019225760663242736   -0.06194250464232221   -0.0014476429541816541
-0.021871276653009402   -0.053048112941020686   -0.0011734051424128675
-0.01945080812688083   -0.061929155561654174   -0.0016583848573426148
-0.014843612934341043   -0.06219984944702558   -0.0014848880670082765
-0.021871276653009402   -0.053048112941020686   -0.0011734051424128675
-0.016674647597890252   -0.05324663643408544   -0.001179352557593587
-0.016662986755395567   -0.05327049913440915   -0.0012937548656179428
-0.014843612934341043   -0.06219984944702558   -0.0014848880670082765
-0.021871276653009402   -0.053048112941020686   -0.0011734051424128675
-0.016662986755395567   -0.05327049913440915   -0.0012937548656179428
-0.01945080812688083   -0.061929155561654174   -0.0016583848573426148
0.003907964897301544   -0.05365028928567071   -0.0006105877422206286
0.004699341583607731   -0.04367111350000686   -0.0003109123958455544
-0.0014046043945301233   -0.05370476996577457   -0.0008959983000972281
0.003959464721749002   -0.05349826780564429   -0.0006972305550225695
0.004699341583607731   -0.04367111350000686   -0.0003109123958455544
-0.0011978435742263957   -0.043669787363632355   -0.0005755959163012737
-0.0014046043945301233   -0.05370476996577457   -0.0008959983000972281
-0.001250649466312706   -0.04354324193428205   -0.0005794859356979737
0.003959464721749002   -0.05349826780564429   -0.0006972305550225695
-0.0014296395890002365   -0.05357394960843958   -0.0009253227826520599
-0.001250649466312706   -0.04354324193428205   -0.0005794859356979737
-0.0014046043945301233   -0.05370476996577457   -0.0008959983000972281
0.003959464721749002   -0.05349826780564429   -0.0006972305550225695
-0.001250649466312706   -0.04354324193428205   -0.0005794859356979737
0.00468220280824846   -0.04352557291313472   -0.0003524140316829577
0.004699341583607731   -0.04367111350000686   -0.0003109123958455544
0.003959464721749002   -0.05349826780564429   -0.0006972305550225695
-0.001250649466312706   -0.04354324193428205   -0.0005794859356979737
0.004699341583607731   -0.04367111350000686   -0.0003109123958455544
-0.0014046043945301233   -0.05370476996577457   -0.0008959983000972281
0.003959464721749002   -0.05349826780564429   -0.0006972305550225695
0.00468220280824846   -0.04352557291313472   -0.0003524140316829577
-0.0014296395890002365   -0.05357394960843958   -0.0009253227826520599
0.003975061455640201   -0.053387449331926046   -0.0007728568595678135
0.00468220280824846   -0.04352557291313472   -0.0003524140316829577
-0.001250649466312706   -0.04354324193428205   -0.0005794859356979737
-0.0014296395890002365   -0.05357394960843958   -0.0009253227826520599
-0.001309325225668864   -0.04343428530777754   -0.0005767566706985674
0.003975061455640201   -0.053387449331926046   -0.0007728568595678135
-0.0014559562306188933   -0.05347043239848546   -0.000947179575736197
-0.001309325225668864   -0.04343428530777754   -0.0005767566706985674
-0.0014296395890002365   -0.05357394960843958   -0.0009253227826520599
0.003975061455640201   -0.053387449331926046   -0.0007728568595678135
-0.001309325225668864   -0.04343428530777754   -0.0005767566706985674
0.004639690341615886   -0.04340842202651678   -0.0003833061419415054
0.00468220280824846   -0.04352557291313472   -0.0003524140316829577
0.003975061455640201   -0.053387449331926046   -0.0007728568595678135
-0.001309325225668864   -0.04343428530777754   -0.0005767566706985674
0.00468220280824846   -0.04352557291313472   -0.0003524140316829577
-0.0014296395890002365   -0.05357394960843958   -0.0009253227826520599
0.003975061455640201   -0.053387449331926046   -0.0007728568595678135
0.004639690341615886   -0.04340842202651678   -0.0003833061419415054
-0.0014559562306188933   -0.05347043239848546   -0.000947179575736197
0.003983763864635577   -0.05329832556978939   -0.000837987702163174
0.004639690341615886   -0.04340842202651678   -0.0003833061419415054
-0.001309325225668864   -0.04343428530777754   -0.0005767566706985674
-0.0014559562306188933   -0.05347043239848546   -0.000947179575736197
-0.001382131315532201   -0.04334009801212238   -0.0005671471679374676
0.003983763864635577   -0.05329832556978939   -0.000837987702163174
-0.0015007287325306405   -0.05339096932919244   -0.0009618213141722509
-0.001382131315532201   -0.04334009801212238   -0.0005671471679374676
-0.0014559562306188933   -0.05347043239848546   -0.000947179575736197
0.003983763864635577   -0.05329832556978939   -0.000837987702163174
-0.001382131315532201   -0.04334009801212238   -0.0005671471679374676
0.0045803560133486415   -0.04330057722789394   -0.00040432962094844293
0.004639690341615886   -0.04340842202651678   -0.0003833061419415054
0.003983763864635577   -0.05329832556978939   -0.000837987702163174
-0.001382131315532201   -0.04334009801212238   -0.0005671471679374676
0.004639690341615886   -0.04340842202651678   -0.0003833061419415054
-0.0014559562306188933   -0.05347043239848546   -0.000947179575736197
-0.0014046043945301233   -0.05370476996577457   -0.0008959983000972281
-0.0011978435742263957   -0.043669787363632355   -0.0005755959163012737
-0.00649678322032873   -0.053676700747808496   -0.0011310813293811347
-0.0014296395890002365   -0.05357394960843958   -0.0009253227826520599
-0.0011978435742263957   -0.043669787363632355   -0.0005755959163012737
-0.006822661925250771   -0.04361645767736626   -0.0007941090145598237
-0.00649678322032873   -0.053676700747808496   -0.0011310813293811347
-0.006881740762762136   -0.04351138262511776   -0.0007710706478340466
-0.0014296395890002365   -0.05357394960843958   -0.0009253227826520599
-0.006531469320314113   -0.05356734852930639   -0.001117350215449409
-0.006881740762762136   -0.04351138262511776   -0.0007710706478340466
-0.00649678322032873   -0.053676700747808496   -0.0011310813293811347
-0.0014296395890002365   -0.05357394960843958   -0.0009253227826520599
-0.006881740762762136   -0.04351138262511776   -0.0007710706478340466
-0.001250649466312706   -0.04354324193428205   -0.0005794859356979737
-0.0011978435742263957   -0.043669787363632355   -0.0005755959163012737
-0.0014296395890002365   -0.05357394960843958   -0.0009253227826520599
-0.006881740762762136   -0.04351138262511776   -0.0007710706478340466
-0.0011978435742263957   -0.043669787363632355   -0.0005755959163012737
-0.00649678322032873   -0.053676700747808496   -0.0011310813293811347
-0.0014296395890002365   -0.05357394960843958   -0.0009253227826520599
-0.001250649466312706   -0.04354324193428205   -0.0005794859356979737
-0.006531469320314113   -0.05356734852930639   -0.001117350215449409
-0.0014559562306188933   -0.05347043239848546   -0.000947179575736197
-0.001250649466312706   -0.04354324193428205   -0.0005794859356979737
-0.006881740762762136   -0.04351138262511776   -0.0007710706478340466
-0.006531469320314113   -0.05356734852930639   -0.001117350215449409
-0.006942006580911821   -0.043420626251142486   -0.0007411379890151132
-0.0014559562306188933   -0.05347043239848546   -0.000947179575736197
-0.006566631426911225   -0.05348140139440425   -0.0010959319562609702
-0.006942006580911821   -0.043420626251142486   -0.0007411379890151132
-0.006531469320314113   -0.05356734852930639   -0.001117350215449409
-0.0014559562306188933   -0.05347043239848546   -0.000947179575736197
-0.006942006580911821   -0.043420626251142486   -0.0007411379890151132
-0.001309325225668864   -0.04343428530777754   -0.0005767566706985674
-0.001250649466312706   -0.04354324193428205   -0.0005794859356979737
-0.0014559562306188933   -0.05347043239848546   -0.000947179575736197
-0.006942006580911821   -0.043420626251142486   -0.0007411379890151132
-0.001250649466312706   -0.04354324193428205   -0.0005794859356979737
-0.006531469320314113   -0.05356734852930639   -0.001117350215449409
-0.0014559562306188933   -0.05347043239848546   -0.000947179575736197
-0.001309325225668864   -0.04343428530777754   -0.0005767566706985674
-0.006566631426911225   -0.05348140139440425   -0.0010959319562609702
-0.0015007287325306405   -0.05339096932919244   -0.0009618213141722509
-0.001309325225668864   -0.04343428530777754   -0.0005767566706985674
-0.006942006580911821   -0.043420626251142486   -0.0007411379890151132
-0.006566631426911225   -0.05348140139440425   -0.0010959319562609702
-0.007007365306995616   -0.04334504326762524   -0.0007046334626444856
-0.0015007287325306405   -0.05339096932919244   -0.0009618213141722509
-0.0066072624797396924   -0.05341925714783557   -0.001067196324761165
-0.007007365306995616   -0.04334504326762524   -0.0007046334626444856
-0.006566631426911225   -0.05348140139440425   -0.0010959319562609702
-0.0015007287325306405   -0.05339096932919244   -0.0009618213141722509
-0.007007365306995616   -0.04334504326762524   -0.0007046334626444856
-0.001382131315532201   -0.04334009801212238   -0.0005671471679374676
-0.001309325225668864   -0.04343428530777754   -0.0005767566706985674
-0.0015007287325306405   -0.05339096932919244   -0.0009618213141722509
-0.007007365306995616   -0.04334504326762524   -0.0007046334626444856
-0.001309325225668864   -0.04343428530777754   -0.0005767566706985674
-0.006566631426911225   -0.05348140139440425   -0.0010959319562609702
-0.00649678322032873   -0.053676700747808496   -0.0011310813293811347
-0.006822661925250771   -0.04361645767736626   -0.0007941090145598237
-0.011502849796828502   -0.053571174518032755   -0.0013322570644577533
-0.006531469320314113   -0.05356734852930639   -0.001117350215449409
-0.006822661925250771   -0.04361645767736626   -0.0007941090145598237
-0.01235237034030749   -0.04351699421555651   -0.0009784924302451098
-0.011502849796828502   -0.053571174518032755   -0.0013322570644577533
-0.012413186123171644   -0.04343171758058261   -0.0009285717922593996
-0.006531469320314113   -0.05356734852930639   -0.001117350215449409
-0.011540263891325456   -0.05348133409458025   -0.0012756768766584447
-0.012413186123171644   -0.04343171758058261   -0.0009285717922593996
-0.011502849796828502   -0.053571174518032755   -0.0013322570644577533
-0.006531469320314113   -0.05356734852930639   -0.001117350215449409
-0.012413186123171644   -0.04343171758058261   -0.0009285717922593996
-0.006881740762762136   -0.04351138262511776   -0.0007710706478340466
-0.006822661925250771   -0.04361645767736626   -0.0007941090145598237
-0.006531469320314113   -0.05356734852930639   -0.001117350215449409
-0.012413186123171644   -0.04343171758058261   -0.0009285717922593996
-0.006822661925250771   -0.04361645767736626   -0.0007941090145598237
-0.011502849796828502   -0.053571174518032755   -0.0013322570644577533
-0.006531469320314113   -0.05356734852930639   -0.001117350215449409
-0.006881740762762136   -0.04351138262511776   -0.0007710706478340466
-0.011540263891325456   -0.05348133409458025   -0.0012756768766584447
-0.006566631426911225   -0.05348140139440425   -0.0010959319562609702
-0.006881740762762136   -0.04351138262511776   -0.0007710706478340466
-0.012413186123171644   -0.04343171758058261   -0.0009285717922593996
-0.011540263891325456   -0.05348133409458025   -0.0012756768766584447
-0.01246836018428847   -0.04336065837489468   -0.000871917270563597
-0.006566631426911225   -0.05348140139440425   -0.0010959319562609702
-0.0115712678628052   -0.05341467505625604   -0.001211545089758359
-0.01246836018428847   -0.04336065837489468   -0.000871917270563597
-0.011540263891325456   -0.05348133409458025   -0.0012756768766584447
-0.006566631426911225   -0.05348140139440425   -0.0010959319562609702
-0.01246836018428847   -0.04336065837489468   -0.000871917270563597
-0.006942006580911821   -0.043420626251142486   -0.0007411379890151132
-0.006881740762762136   -0.04351138262511776   -0.0007710706478340466
-0.006566631426911225   -0.05348140139440425   -0.0010959319562609702
-0.01246836018428847   -0.04336065837489468   -0.000871917270563597
-0.006881740762762136   -0.04351138262511776   -0.0007710706478340466
-0.011540263891325456   -0.05348133409458025   -0.0012756768766584447
-0.006566631426911225   -0.05348140139440425   -0.0010959319562609702
-0.006942006580911821   -0.043420626251142486   -0.0007411379890151132
-0.0115712678628052   -0.05341467505625604   -0.001211545089758359
-0.0066072624797396924   -0.05341925714783557   -0.001067196324761165
-0.006942006580911821   -0.043420626251142486   -0.0007411379890151132
-0.01246836018428847   -0.04336065837489468   -0.000871917270563597
-0.0115712678628052   -0.05341467505625604   -0.001211545089758359
-0.012524056982182782   -0.043303937159910315   -0.0008087859519823646
-0.0066072624797396924   -0.05341925714783557   -0.001067196324761165
-0.011603171299324621   -0.053371100625627624   -0.0011400843058984075
-0.012524056982182782   -0.043303937159910315   -0.0008087859519823646
-0.0115712678628052   -0.05341467505625604   -0.001211545089758359
-0.0066072624797396924   -0.05341925714783557   -0.001067196324761165
-0.012524056982182782   -0.043303937159910315   -0.0008087859519823646
-0.007007365306995616   -0.04334504326762524   -0.0007046334626444856
-0.006942006580911821   -0.043420626251142486   -0.0007411379890151132
-0.0066072624797396924   -0.05341925714783557   -0.001067196324761165
-0.012524056982182782   -0.043303937159910315   -0.0008087859519823646
-0.006942006580911821   -0.043420626251142486   -0.0007411379890151132
-0.0115712678628052   -0.05341467505625604   -0.001211545089758359
-0.011502849796828502   -0.053571174518032755   -0.0013322570644577533
-0.01235237034030749   -0.04351699421555651   -0.0009784924302451098
-0.01662799050401414   -0.053390298252118634   -0.0015002848785135772
-0.011540263891325456   -0.05348133409458025   -0.0012756768766584447
-0.01235237034030749   -0.04351699421555651   -0.0009784924302451098
-0.017991585092212187   -0.04336928026084318   -0.0011291558604787342
-0.01662799050401414   -0.053390298252118634   -0.0015002848785135772
-0.0180480590689178   -0.04330397228084795   -0.001052147882801979
-0.011540263891325456   -0.05348133409458025   -0.0012756768766584447
-0.01665896054163818   -0.05331952181043829   -0.0014002731234308448
-0.0180480590689178   -0.04330397228084795   -0.001052147882801979
-0.01662799050401414   -0.053390298252118634   -0.0015002848785135772
-0.011540263891325456   -0.05348133409458025   -0.0012756768766584447
-0.0180480590689178   -0.04330397228084795   -0.001052147882801979
-0.012413186123171644   -0.04343171758058261   -0.0009285717922593996
-0.01235237034030749   -0.04351699421555651   -0.0009784924302451098
-0.011540263891325456   -0.05348133409458025   -0.0012756768766584447
-0.0180480590689178   -0.04330397228084795   -0.001052147882801979
-0.01235237034030749   -0.04351699421555651   -0.0009784924302451098
-0.01662799050401414   -0.053390298252118634   -0.0015002848785135772
-0.011540263891325456   -0.05348133409458025   -0.0012756768766584447
-0.012413186123171644   -0.04343171758058261   -0.0009285717922593996
-0.01665896054163818   -0.05331952181043829   -0.0014002731234308448
-0.0115712678628052   -0.05341467505625604   -0.001211545089758359
-0.012413186123171644   -0.04343171758058261   -0.0009285717922593996
-0.0180480590689178   -0.04330397228084795   -0.001052147882801979
-0.01665896054163818   -0.05331952181043829   -0.0014002731234308448
-0.018082293282943345   -0.04325106411456497   -0.0009693154147053935
-0.0115712678628052   -0.05341467505625604   -0.001211545089758359
-0.016662986755395567   -0.05327049913440915   -0.0012937548656179428
-0.018082293282943345   -0.04325106411456497   -0.0009693154147053935
-0.01665896054163818   -0.05331952181043829   -0.0014002731234308448
-0.0115712678628052   -0.05341467505625604   -0.001211545089758359
-0.018082293282943345   -0.04325106411456497   -0.0009693154147053935
-0.01246836018428847   -0.04336065837489468   -0.000871917270563597
-0.012413186123171644   -0.04343171758058261   -0.0009285717922593996
-0.0115712678628052   -0.05341467505625604   -0.001211545089758359
-0.018082293282943345   -0.04325106411456497   -0.0009693154147053935
-0.012413186123171644   -0.04343171758058261   -0.0009285717922593996
-0.01665896054163818   -0.05331952181043829   -0.0014002731234308448
-0.0115712678628052   -0.05341467505625604   -0.001211545089758359
-0.01246836018428847   -0.04336065837489468   -0.000871917270563597
-0.016662986755395567   -0.05327049913440915   -0.0012937548656179428
-0.011603171299324621   -0.053371100625627624   -0.0011400843058984075
-0.01246836018428847   -0.04336065837489468   -0.000871917270563597
-0.018082293282943345   -0.04325106411456497   -0.0009693154147053935
-0.016662986755395567   -0.05327049913440915   -0.0012937548656179428
-0.018119881575069812   -0.043213736179284486   -0.0008794538180486805
-0.011603171299324621   -0.053371100625627624   -0.0011400843058984075
-0.016674647597890252   -0.05324663643408544   -0.001179352557593587
-0.018119881575069812   -0.043213736179284486   -0.0008794538180486805
-0.016662986755395567   -0.05327049913440915   -0.0012937548656179428
-0.011603171299324621   -0.053371100625627624   -0.0011400843058984075
-0.018119881575069812   -0.043213736179284486   -0.0008794538180486805
-0.012524056982182782   -0.043303937159910315   -0.0008087859519823646
-0.01246836018428847   -0.04336065837489468   -0.000871917270563597
-0.011603171299324621   -0.053371100625627624   -0.0011400843058984075
-0.018119881575069812   -0.043213736179284486   -0.0008794538180486805
-0.01246836018428847   -0.04336065837489468   -0.000871917270563597
-0.016662986755395567   -0.05327049913440915   -0.0012937548656179428
-0.01662799050401414   -0.053390298252118634   -0.0015002848785135772
-0.017991585092212187   -0.04336928026084318   -0.0011291558604787342
-0.02221677065106372   -0.05315309535403573   -0.0016438175457887528
-0.01665896054163818   -0.05331952181043829   -0.0014002731234308448
-0.017991585092212187   -0.04336928026084318   -0.0011291558604787342
-0.024043773742158433   -0.043187610033103944   -0.0012489659744836382
-0.02221677065106372   -0.05315309535403573   -0.0016438175457887528
-0.024002343911556694   -0.043132545163300416   -0.0011464052524606456
-0.01665896054163818   -0.05331952181043829   -0.0014002731234308448
-0.022109968414999626   -0.05308844446189973   -0.0014979002085273641
-0.024002343911556694   -0.043132545163300416   -0.0011464052524606456
-0.02221677065106372   -0.05315309535403573   -0.0016438175457887528
-0.01665896054163818   -0.05331952181043829   -0.0014002731234308448
-0.024002343911556694   -0.043132545163300416   -0.0011464052524606456
-0.0180480590689178   -0.04330397228084795   -0.001052147882801979
-0.017991585092212187   -0.04336928026084318   -0.0011291558604787342
-0.01665896054163818   -0.05331952181043829   -0.0014002731234308448
-0.024002343911556694   -0.043132545163300416   -0.0011464052524606456
-0.017991585092212187   -0.04336928026084318   -0.0011291558604787342
-0.02221677065106372   -0.05315309535403573   -0.0016438175457887528
-0.01665896054163818   -0.05331952181043829   -0.0014002731234308448
-0.0180480590689178   -0.04330397228084795   -0.001052147882801979
-0.022109968414999626   -0.05308844446189973   -0.0014979002085273641
-0.016662986755395567   -0.05327049913440915   -0.0012937548656179428
-0.0180480590689178   -0.04330397228084795   -0.001052147882801979
-0.024002343911556694   -0.043132545163300416   -0.0011464052524606456
-0.022109968414999626   -0.05308844446189973   -0.0014979002085273641
-0.023968584661845753   -0.04308818717996985   -0.0010331570351633063
-0.016662986755395567   -0.05327049913440915   -0.0012937548656179428
-0.022019915538687797   -0.05304689762113518   -0.0013406242174346422
-0.023968584661845753   -0.04308818717996985   -0.0010331570351633063
-0.022109968414999626   -0.05308844446189973   -0.0014979002085273641
-0.016662986755395567   -0.05327049913440915   -0.0012937548656179428
-0.023968584661845753   -0.04308818717996985   -0.0010331570351633063
-0.018082293282943345   -0.04325106411456497   -0.0009693154147053935
-0.0180480590689178   -0.04330397228084795   -0.001052147882801979
-0.016662986755395567   -0.05327049913440915   -0.0012937548656179428
-0.023968584661845753   -0.04308818717996985   -0.0010331570351633063
-0.0180480590689178   -0.04330397228084795   -0.001052147882801979
-0.022109968414999626   -0.05308844446189973   -0.0014979002085273641
-0.016662986755395567   -0.05327049913440915   -0.0012937548656179428
-0.018082293282943345   -0.04325106411456497   -0.0009693154147053935
-0.022019915538687797   -0.05304689762113518   -0.0013406242174346422
-0.016674647597890252   -0.05324663643408544   -0.001179352557593587
-0.018082293282943345   -0.04325106411456497   -0.0009693154147053935
-0.023968584661845753   -0.04308818717996985   -0.0010331570351633063
-0.022019915538687797   -0.05304689762113518   -0.0013406242174346422
-0.023887330121582673   -0.0430741015756272   -0.0009104405582440013
-0.016674647597890252   -0.05324663643408544   -0.001179352557593587
-0.021871276653009402   -0.053048112941020686   -0.0011734051424128675
-0.023887330121582673   -0.0430741015756272   -0.0009104405582440013
-0.022019915538687797   -0.05304689762113518   -0.0013406242174346422
-0.016674647597890252   -0.05324663643408544   -0.001179352557593587
-0.023887330121582673   -0.0430741015756272   -0.0009104405582440013
-0.018119881575069812   -0.043213736179284486   -0.0008794538180486805
-0.018082293282943345   -0.04325106411456497   -0.0009693154147053935
-0.016674647597890252   -0.05324663643408544   -0.001179352557593587
-0.023887330121582673   -0.0430741015756272   -0.0009104405582440013
-0.018082293282943345   -0.04325106411456497   -0.0009693154147053935
-0.022019915538687797   -0.05304689762113518   -0.0013406242174346422
0.004699341583607731   -0.04367111350000686   -0.0003109123958455544
0.004856742380208564   -0.03300339314549083   -4.843838948446847e-05
-0.0011978435742263957   -0.043669787363632355   -0.0005755959163012737
0.00468220280824846   -0.04352557291313472   -0.0003524140316829577
0.004856742380208564   -0.03300339314549083   -4.843838948446847e-05
-0.001374617097123358   -0.03294850493763834   -0.000286441946341663
-0.0011978435742263957   -0.043669787363632355   -0.0005755959163012737
-0.0014470727391183897   -0.03282738314506824   -0.0002649123146685552
0.00468220280824846   -0.04352557291313472   -0.0003524140316829577
-0.001250649466312706   -0.04354324193428205   -0.0005794859356979737
-0.0014470727391183897   -0.03282738314506824   -0.0002649123146685552
-0.0011978435742263957   -0.043669787363632355   -0.0005755959163012737
0.00468220280824846   -0.04352557291313472   -0.0003524140316829577
-0.0014470727391183897   -0.03282738314506824   -0.0002649123146685552
0.004779786646213665   -0.03286455202874389   -4.402522593849731e-05
0.004856742380208564   -0.03300339314549083   -4.843838948446847e-05
0.00468220280824846   -0.04352557291313472   -0.0003524140316829577
-0.0014470727391183897   -0.03282738314506824   -0.0002649123146685552
0.004856742380208564   -0.03300339314549083   -4.843838948446847e-05
-0.0011978435742263957   -0.043669787363632355   -0.0005755959163012737
0.00468220280824846   -0.04352557291313472   -0.0003524140316829577
0.004779786646213665   -0.03286455202874389   -4.402522593849731e-05
-0.001250649466312706   -0.04354324193428205   -0.0005794859356979737
0.004639690341615886   -0.04340842202651678   -0.0003833061419415054
0.004779786646213665   -0.03286455202874389   -4.402522593849731e-05
-0.0014470727391183897   -0.03282738314506824   -0.0002649123146685552
-0.001250649466312706   -0.04354324193428205   -0.0005794859356979737
-0.0015300191471365207   -0.03271303806872372   -0.00023738306112708912
0.004639690341615886   -0.04340842202651678   -0.0003833061419415054
-0.001309325225668864   -0.04343428530777754   -0.0005767566706985674
-0.0015300191471365207   -0.03271303806872372   -0.00023738306112708912
-0.001250649466312706   -0.04354324193428205   -0.0005794859356979737
0.004639690341615886   -0.04340842202651678   -0.0003833061419415054
-0.0015300191471365207   -0.03271303806872372   -0.00023738306112708912
0.004685376368751533   -0.03274044668838445   -2.735150225144612e-05
0.004779786646213665   -0.03286455202874389   -4.402522593849731e-05
0.004639690341615886   -0.04340842202651678   -0.0003833061419415054
-0.0015300191471365207   -0.03271303806872372   -0.00023738306112708912
0.004779786646213665   -0.03286455202874389   -4.402522593849731e-05
-0.001250649466312706   -0.04354324193428205   -0.0005794859356979737
0.004639690341615886   -0.04340842202651678   -0.0003833061419415054
0.004685376368751533   -0.03274044668838445   -2.735150225144612e-05
-0.001309325225668864   -0.04343428530777754   -0.0005767566706985674
0.0045803560133486415   -0.04330057722789394   -0.00040432962094844293
0.004685376368751533   -0.03274044668838445   -2.735150225144612e-05
-0.0015300191471365207   -0.03271303806872372   -0.00023738306112708912
-0.001309325225668864   -0.04343428530777754   -0.0005767566706985674
-0.001623104477585939   -0.03260390619900295   -0.00020234990354471599
0.0045803560133486415   -0.04330057722789394   -0.00040432962094844293
-0.001382131315532201   -0.04334009801212238   -0.0005671471679374676
-0.001623104477585939   -0.03260390619900295   -0.00020234990354471599
-0.001309325225668864   -0.04343428530777754   -0.0005767566706985674
0.0045803560133486415   -0.04330057722789394   -0.00040432962094844293
-0.001623104477585939   -0.03260390619900295   -0.00020234990354471599
0.0045609391729931805   -0.03261060748876955   1.0274544945507171e-06
0.004685376368751533   -0.03274044668838445   -2.735150225144612e-05
0.0045803560133486415   -0.04330057722789394   -0.00040432962094844293
-0.001623104477585939   -0.03260390619900295   -0.00020234990354471599
0.004685376368751533   -0.03274044668838445   -2.735150225144612e-05
-0.001309325225668864   -0.04343428530777754   -0.0005767566706985674
-0.0011978435742263957   -0.043669787363632355   -0.0005755959163012737
-0.001374617097123358   -0.03294850493763834   -0.000286441946341663
-0.006822661925250771   -0.04361645767736626   -0.0007941090145598237
-0.001250649466312706   -0.04354324193428205   -0.0005794859356979737
-0.001374617097123358   -0.03294850493763834   -0.000286441946341663
-0.007279164799650062   -0.0328846198112373   -0.00048792552737072587
-0.006822661925250771   -0.04361645767736626   -0.0007941090145598237
-0.007353056106130237   -0.03278328942772986   -0.0004549944485673885
-0.001250649466312706   -0.04354324193428205   -0.0005794859356979737
-0.006881740762762136   -0.04351138262511776   -0.0007710706478340466
-0.007353056106130237   -0.03278328942772986   -0.0004549944485673885
-0.006822661925250771   -0.04361645767736626   -0.0007941090145598237
-0.001250649466312706   -0.04354324193428205   -0.0005794859356979737
-0.007353056106130237   -0.03278328942772986   -0.0004549944485673885
-0.0014470727391183897   -0.03282738314506824   -0.0002649123146685552
-0.001374617097123358   -0.03294850493763834   -0.000286441946341663
-0.001250649466312706   -0.04354324193428205   -0.0005794859356979737
-0.007353056106130237   -0.03278328942772986   -0.0004549944485673885
-0.001374617097123358   -0.03294850493763834   -0.000286441946341663
-0.006822661925250771   -0.04361645767736626   -0.0007941090145598237
-0.001250649466312706   -0.04354324193428205   -0.0005794859356979737
-0.0014470727391183897   -0.03282738314506824   -0.0002649123146685552
-0.006881740762762136   -0.04351138262511776   -0.0007710706478340466
-0.001309325225668864   -0.04343428530777754   -0.0005767566706985674
-0.0014470727391183897   -0.03282738314506824   -0.0002649123146685552
-0.007353056106130237   -0.03278328942772986   -0.0004549944485673885
-0.006881740762762136   -0.04351138262511776   -0.0007710706478340466
-0.007428599216478664   -0.0326872198684269   -0.00041634741429372635
-0.001309325225668864   -0.04343428530777754   -0.0005767566706985674
-0.006942006580911821   -0.043420626251142486   -0.0007411379890151132
-0.007428599216478664   -0.0326872198684269   -0.00041634741429372635
-0.006881740762762136   -0.04351138262511776   -0.0007710706478340466
-0.001309325225668864   -0.04343428530777754   -0.0005767566706985674
-0.007428599216478664   -0.0326872198684269   -0.00041634741429372635
-0.0015300191471365207   -0.03271303806872372   -0.00023738306112708912
-0.0014470727391183897   -0.03282738314506824   -0.0002649123146685552
-0.001309325225668864   -0.04343428530777754   -0.0005767566706985674
-0.007428599216478664   -0.0326872198684269   -0.00041634741429372635
-0.0014470727391183897   -0.03282738314506824   -0.0002649123146685552
-0.006881740762762136   -0.04351138262511776   -0.0007710706478340466
-0.001309325225668864   -0.04343428530777754   -0.0005767566706985674
-0.0015300191471365207   -0.03271303806872372   -0.00023738306112708912
-0.006942006580911821   -0.043420626251142486   -0.0007411379890151132
-0.001382131315532201   -0.04334009801212238   -0.0005671471679374676
-0.0015300191471365207   -0.03271303806872372   -0.00023738306112708912
-0.007428599216478664   -0.0326872198684269   -0.00041634741429372635
-0.006942006580911821   -0.043420626251142486   -0.0007411379890151132
-0.0075089416702294265   -0.03259789397888209   -0.00037192144070095294
-0.001382131315532201   -0.04334009801212238   -0.0005671471679374676
-0.007007365306995616   -0.04334504326762524   -0.0007046334626444856
-0.0075089416702294265   -0.03259789397888209   -0.00037192144070095294
-0.006942006580911821   -0.043420626251142486   -0.0007411379890151132
-0.001382131315532201   -0.04334009801212238   -0.0005671471679374676
-0.0075089416702294265   -0.03259789397888209   -0.00037192144070095294
-0.001623104477585939   -0.03260390619900295   -0.00020234990354471599
-0.0015300191471365207   -0.03271303806872372   -0.00023738306112708912
-0.001382131315532201   -0.04334009801212238   -0.0005671471679374676
-0.0075089416702294265   -0.03259789397888209   -0.00037192144070095294
-0.0015300191471365207   -0.03271303806872372   -0.00023738306112708912
-0.006942006580911821   -0.043420626251142486   -0.0007411379890151132
-0.006822661925250771   -0.04361645767736626   -0.0007941090145598237
-0.007279164799650062   -0.0328846198112373   -0.00048792552737072587
-0.01235237034030749   -0.04351699421555651   -0.0009784924302451098
-0.006881740762762136   -0.04351138262511776   -0.0007710706478340466
-0.007279164799650062   -0.0328846198112373   -0.00048792552737072587
-0.013087701731695172   -0.03280804993418103   -0.0006590716468979658
-0.01235237034030749   -0.04351699421555651   -0.0009784924302451098
-0.013161049709300302   -0.032725065123806955   -0.0006147437337066494
-0.006881740762762136   -0.04351138262511776   -0.0007710706478340466
-0.012413186123171644   -0.04343171758058261   -0.0009285717922593996
-0.013161049709300302   -0.032725065123806955   -0.0006147437337066494
-0.01235237034030749   -0.04351699421555651   -0.0009784924302451098
-0.006881740762762136   -0.04351138262511776   -0.0007710706478340466
-0.013161049709300302   -0.032725065123806955   -0.0006147437337066494
-0.007353056106130237   -0.03278328942772986   -0.0004549944485673885
-0.007279164799650062   -0.0328846198112373   -0.00048792552737072587
-0.006881740762762136   -0.04351138262511776   -0.0007710706478340466
-0.013161049709300302   -0.032725065123806955   -0.0006147437337066494
-0.007279164799650062   -0.0328846198112373   -0.00048792552737072587
-0.01235237034030749   -0.04351699421555651   -0.0009784924302451098
-0.006881740762762136   -0.04351138262511776   -0.0007710706478340466
-0.007353056106130237   -0.03278328942772986   -0.0004549944485673885
-0.012413186123171644   -0.04343171758058261   -0.0009285717922593996
-0.006942006580911821   -0.043420626251142486   -0.0007411379890151132
-0.007353056106130237   -0.03278328942772986   -0.0004549944485673885
-0.013161049709300302   -0.032725065123806955   -0.0006147437337066494
-0.012413186123171644   -0.04343171758058261   -0.0009285717922593996
-0.013229654517389434   -0.03264764155456447   -0.0005648953751866914
-0.006942006580911821   -0.043420626251142486   -0.0007411379890151132
-0.01246836018428847   -0.04336065837489468   -0.000871917270563597
-0.013229654517389434   -0.03264764155456447   -0.0005648953751866914
-0.012413186123171644   -0.04343171758058261   -0.0009285717922593996
-0.006942006580911821   -0.043420626251142486   -0.0007411379890151132
-0.013229654517389434   -0.03264764155456447   -0.0005648953751866914
-0.007428599216478664   -0.0326872198684269   -0.00041634741429372635
-0.007353056106130237   -0.03278328942772986   -0.0004549944485673885
-0.006942006580911821   -0.043420626251142486   -0.0007411379890151132
-0.013229654517389434   -0.03264764155456447   -0.0005648953751866914
-0.007353056106130237   -0.03278328942772986   -0.0004549944485673885
-0.012413186123171644   -0.04343171758058261   -0.0009285717922593996
-0.006942006580911821   -0.043420626251142486   -0.0007411379890151132
-0.007428599216478664   -0.0326872198684269   -0.00041634741429372635
-0.01246836018428847   -0.04336065837489468   -0.000871917270563597
-0.007007365306995616   -0.04334504326762524   -0.0007046334626444856
-0.007428599216478664   -0.0326872198684269   -0.00041634741429372635
-0.013229654517389434   -0.03264764155456447   -0.0005648953751866914
-0.01246836018428847   -0.04336065837489468   -0.000871917270563597
-0.013298504642733341   -0.03257599451161438   -0.0005098003660421153
-0.007007365306995616   -0.04334504326762524   -0.0007046334626444856
-0.012524056982182782   -0.043303937159910315   -0.0008087859519823646
-0.013298504642733341   -0.03257599451161438   -0.0005098003660421153
-0.01246836018428847   -0.04336065837489468   -0.000871917270563597
-0.007007365306995616   -0.04334504326762524   -0.0007046334626444856
-0.013298504642733341   -0.03257599451161438   -0.0005098003660421153
-0.0075089416702294265   -0.03259789397888209   -0.00037192144070095294
-0.007428599216478664   -0.0326872198684269   -0.00041634741429372635
-0.007007365306995616   -0.04334504326762524   -0.0007046334626444856
-0.013298504642733341   -0.03257599451161438   -0.0005098003660421153
-0.007428599216478664   -0.0326872198684269   -0.00041634741429372635
-0.01246836018428847   -0.04336065837489468   -0.000871917270563597
-0.01235237034030749   -0.04351699421555651   -0.0009784924302451098
-0.013087701731695172   -0.03280804993418103   -0.0006590716468979658
-0.017991585092212187   -0.04336928026084318   -0.0011291558604787342
-0.012413186123171644   -0.04343171758058261   -0.0009285717922593996
-0.013087701731695172   -0.03280804993418103   -0.0006590716468979658
-0.019001127477393135   -0.03270456149848638   -0.0007984182675557309
-0.017991585092212187   -0.04336928026084318   -0.0011291558604787342
-0.01907137008153652   -0.032640878377818955   -0.0007428288283527603
-0.012413186123171644   -0.04343171758058261   -0.0009285717922593996
-0.0180480590689178   -0.04330397228084795   -0.001052147882801979
-0.01907137008153652   -0.032640878377818955   -0.0007428288283527603
-0.017991585092212187   -0.04336928026084318   -0.0011291558604787342
-0.012413186123171644   -0.04343171758058261   -0.0009285717922593996
-0.01907137008153652   -0.032640878377818955   -0.0007428288283527603
-0.013161049709300302   -0.032725065123806955   -0.0006147437337066494
-0.013087701731695172   -0.03280804993418103   -0.0006590716468979658
-0.012413186123171644   -0.04343171758058261   -0.0009285717922593996
-0.01907137008153652   -0.032640878377818955   -0.0007428288283527603
-0.013087701731695172   -0.03280804993418103   -0.0006590716468979658
-0.017991585092212187   -0.04336928026084318   -0.0011291558604787342
-0.012413186123171644   -0.04343171758058261   -0.0009285717922593996
-0.013161049709300302   -0.032725065123806955   -0.0006147437337066494
-0.0180480590689178   -0.04330397228084795   -0.001052147882801979
-0.01246836018428847   -0.04336065837489468   -0.000871917270563597
-0.013161049709300302   -0.032725065123806955   -0.0006147437337066494
-0.01907137008153652   -0.032640878377818955   -0.0007428288283527603
-0.0180480590689178   -0.04330397228084795   -0.001052147882801979
-0.01912464021299227   -0.032580623309283296   -0.0006826316892185845
-0.01246836018428847   -0.04336065837489468   -0.000871917270563597
-0.018082293282943345   -0.04325106411456497   -0.0009693154147053935
-0.01912464021299227   -0.032580623309283296   -0.0006826316892185845
-0.0180480590689178   -0.04330397228084795   -0.001052147882801979
-0.01246836018428847   -0.04336065837489468   -0.000871917270563597
-0.01912464021299227   -0.032580623309283296   -0.0006826316892185845
-0.013229654517389434   -0.03264764155456447   -0.0005648953751866914
-0.013161049709300302   -0.032725065123806955   -0.0006147437337066494
-0.01246836018428847   -0.04336065837489468   -0.000871917270563597
-0.01912464021299227   -0.032580623309283296   -0.0006826316892185845
-0.013161049709300302   -0.032725065123806955   -0.0006147437337066494
-0.0180480590689178   -0.04330397228084795   -0.001052147882801979
-0.01246836018428847   -0.04336065837489468   -0.000871917270563597
-0.013229654517389434   -0.03264764155456447   -0.0005648953751866914
-0.018082293282943345   -0.04325106411456497   -0.0009693154147053935
-0.012524056982182782   -0.043303937159910315   -0.0008087859519823646
-0.013229654517389434   -0.03264764155456447   -0.0005648953751866914
-0.01912464021299227   -0.032580623309283296   -0.0006826316892185845
-0.018082293282943345   -0.04325106411456497   -0.0009693154147053935
-0.01917749099961638   -0.03252646276698326   -0.0006166232112539021
-0.012524056982182782   -0.043303937159910315   -0.0008087859519823646
-0.018119881575069812   -0.043213736179284486   -0.0008794538180486805
-0.01917749099961638   -0.03252646276698326   -0.0006166232112539021
-0.018082293282943345   -0.04325106411456497   -0.0009693154147053935
-0.012524056982182782   -0.043303937159910315   -0.0008087859519823646
-0.01917749099961638   -0.03252646276698326   -0.0006166232112539021
-0.013298504642733341   -0.03257599451161438   -0.0005098003660421153
-0.013229654517389434   -0.03264764155456447   -0.0005648953751866914
-0.012524056982182782   -0.043303937159910315   -0.0008087859519823646
-0.01917749099961638   -0.03252646276698326   -0.0006166232112539021
-0.013229654517389434   -0.03264764155456447   -0.0005648953751866914
-0.018082293282943345   -0.04325106411456497   -0.0009693154147053935
-0.017991585092212187   -0.04336928026084318   -0.0011291558604787342
-0.019001127477393135   -0.03270456149848638   -0.0007984182675557309
-0.024043773742158433   -0.043187610033103944   -0.0012489659744836382
-0.0180480590689178   -0.04330397228084795   -0.001052147882801979
-0.019001127477393135   -0.03270456149848638   -0.0007984182675557309
-0.025268355964397415   -0.03258233911959671   -0.0009018531602110212
-0.024043773742158433   -0.043187610033103944   -0.0012489659744836382
-0.025279201436957832   -0.032531500588963126   -0.0008404727356336477
-0.0180480590689178   -0.04330397228084795   -0.001052147882801979
-0.024002343911556694   -0.043132545163300416   -0.0011464052524606456
-0.025279201436957832   -0.032531500588963126   -0.0008404727356336477
-0.024043773742158433   -0.043187610033103944   -0.0012489659744836382
-0.0180480590689178   -0.04330397228084795   -0.001052147882801979
-0.025279201436957832   -0.032531500588963126   -0.0008404727356336477
-0.01907137008153652   -0.032640878377818955   -0.0007428288283527603
-0.019001127477393135   -0.03270456149848638   -0.0007984182675557309
-0.0180480590689178   -0.04330397228084795   -0.001052147882801979
-0.025279201436957832   -0.032531500588963126   -0.0008404727356336477
-0.019001127477393135   -0.03270456149848638   -0.0007984182675557309
-0.024043773742158433   -0.043187610033103944   -0.0012489659744836382
-0.0180480590689178   -0.04330397228084795   -0.001052147882801979
-0.01907137008153652   -0.032640878377818955   -0.0007428288283527603
-0.024002343911556694   -0.043132545163300416   -0.0011464052524606456
-0.018082293282943345   -0.04325106411456497   -0.0009693154147053935
-0.01907137008153652   -0.032640878377818955   -0.0007428288283527603
-0.025279201436957832   -0.032531500588963126   -0.0008404727356336477
-0.024002343911556694   -0.043132545163300416   -0.0011464052524606456
-0.025290329069555896   -0.03248006315067466   -0.0007698130368391354
-0.018082293282943345   -0.04325106411456497   -0.0009693154147053935
-0.023968584661845753   -0.04308818717996985   -0.0010331570351633063
-0.025290329069555896   -0.03248006315067466   -0.0007698130368391354
-0.024002343911556694   -0.043132545163300416   -0.0011464052524606456
-0.018082293282943345   -0.04325106411456497   -0.0009693154147053935
-0.025290329069555896   -0.03248006315067466   -0.0007698130368391354
-0.01912464021299227   -0.032580623309283296   -0.0006826316892185845
-0.01907137008153652   -0.032640878377818955   -0.0007428288283527603
-0.018082293282943345   -0.04325106411456497   -0.0009693154147053935
-0.025290329069555896   -0.03248006315067466   -0.0007698130368391354
-0.01907137008153652   -0.032640878377818955   -0.0007428288283527603
-0.024002343911556694   -0.043132545163300416   -0.0011464052524606456
-0.018082293282943345   -0.04325106411456497   -0.0009693154147053935
-0.01912464021299227   -0.032580623309283296   -0.0006826316892185845
-0.023968584661845753   -0.04308818717996985   -0.0010331570351633063
-0.018119881575069812   -0.043213736179284486   -0.0008794538180486805
-0.01912464021299227   -0.032580623309283296   -0.0006826316892185845
-0.025290329069555896   -0.03248006315067466   -0.0007698130368391354
-0.023968584661845753   -0.04308818717996985   -0.0010331570351633063
-0.025266244525789423   -0.03244613231263858   -0.0006909760638468559
-0.018119881575069812   -0.043213736179284486   -0.0008794538180486805
-0.023887330121582673   -0.0430741015756272   -0.0009104405582440013
-0.025266244525789423   -0.03244613231263858   -0.0006909760638468559
-0.023968584661845753   -0.04308818717996985   -0.0010331570351633063
-0.018119881575069812   -0.043213736179284486   -0.0008794538180486805
-0.025266244525789423   -0.03244613231263858   -0.0006909760638468559
-0.01917749099961638   -0.03252646276698326   -0.0006166232112539021
-0.01912464021299227   -0.032580623309283296   -0.0006826316892185845
-0.018119881575069812   -0.043213736179284486   -0.0008794538180486805
-0.025266244525789423   -0.03244613231263858   -0.0006909760638468559
-0.01912464021299227   -0.032580623309283296   -0.0006826316892185845
-0.023968584661845753   -0.04308818717996985   -0.0010331570351633063
0.004856742380208564   -0.03300339314549083   -4.843838948446847e-05
0.004352889180447919   -0.022019548751326723   0.00013271378538191756
-0.001374617097123358   -0.03294850493763834   -0.000286441946341663
0.004779786646213665   -0.03286455202874389   -4.402522593849731e-05
0.004352889180447919   -0.022019548751326723   0.00013271378538191756
-0.0019245190327230575   -0.021915997971922542   -5.646990241457173e-05
-0.001374617097123358   -0.03294850493763834   -0.000286441946341663
-0.0020110614961056958   -0.02180633390102878   -1.1554313380291569e-05
0.004779786646213665   -0.03286455202874389   -4.402522593849731e-05
-0.0014470727391183897   -0.03282738314506824   -0.0002649123146685552
-0.0020110614961056958   -0.02180633390102878   -1.1554313380291569e-05
-0.001374617097123358   -0.03294850493763834   -0.000286441946341663
0.004779786646213665   -0.03286455202874389   -4.402522593849731e-05
-0.0020110614961056958   -0.02180633390102878   -1.1554313380291569e-05
0.004216540854771597   -0.02188725884109993   0.00018865127315111432
0.004352889180447919   -0.022019548751326723   0.00013271378538191756
0.004779786646213665   -0.03286455202874389   -4.402522593849731e-05
-0.0020110614961056958   -0.02180633390102878   -1.1554313380291569e-05
0.004352889180447919   -0.022019548751326723   0.00013271378538191756
-0.001374617097123358   -0.03294850493763834   -0.000286441946341663
0.004779786646213665   -0.03286455202874389   -4.402522593849731e-05
0.004216540854771597   -0.02188725884109993   0.00018865127315111432
-0.0014470727391183897   -0.03282738314506824   -0.0002649123146685552
0.004685376368751533   -0.03274044668838445   -2.735150225144612e-05
0.004216540854771597   -0.02188725884109993   0.00018865127315111432
-0.0020110614961056958   -0.02180633390102878   -1.1554313380291569e-05
-0.0014470727391183897   -0.03282738314506824   -0.0002649123146685552
-0.002112293338138347   -0.02169058417768904   4.1346286595081705e-05
0.004685376368751533   -0.03274044668838445   -2.735150225144612e-05
-0.0015300191471365207   -0.03271303806872372   -0.00023738306112708912
-0.002112293338138347   -0.02169058417768904   4.1346286595081705e-05
-0.0014470727391183897   -0.03282738314506824   -0.0002649123146685552
0.004685376368751533   -0.03274044668838445   -2.735150225144612e-05
-0.002112293338138347   -0.02169058417768904   4.1346286595081705e-05
0.004064378623968627   -0.021755858460525017   0.00026896578265586327
0.004216540854771597   -0.02188725884109993   0.00018865127315111432
0.004685376368751533   -0.03274044668838445   -2.735150225144612e-05
-0.002112293338138347   -0.02169058417768904   4.1346286595081705e-05
0.004216540854771597   -0.02188725884109993   0.00018865127315111432
-0.0014470727391183897   -0.03282738314506824   -0.0002649123146685552
0.004685376368751533   -0.03274044668838445   -2.735150225144612e-05
0.004064378623968627   -0.021755858460525017   0.00026896578265586327
-0.0015300191471365207   -0.03271303806872372   -0.00023738306112708912
0.0045609391729931805   -0.03261060748876955   1.0274544945507171e-06
0.004064378623968627   -0.021755858460525017   0.00026896578265586327
-0.002112293338138347   -0.02169058417768904   4.1346286595081705e-05
-0.0015300191471365207   -0.03271303806872372   -0.00023738306112708912
-0.0022169965161995225   -0.02156767468446585   0.00010212407884122252
0.0045609391729931805   -0.03261060748876955   1.0274544945507171e-06
-0.001623104477585939   -0.03260390619900295   -0.00020234990354471599
-0.0022169965161995225   -0.02156767468446585   0.00010212407884122252
-0.0015300191471365207   -0.03271303806872372   -0.00023738306112708912
0.0045609391729931805   -0.03261060748876955   1.0274544945507171e-06
-0.0022169965161995225   -0.02156767468446585   0.00010212407884122252
0.0038784596105765493   -0.0215944495134997   0.00035733602694883036
0.004064378623968627   -0.021755858460525017   0.00026896578265586327
0.0045609391729931805   -0.03261060748876955   1.0274544945507171e-06
-0.0022169965161995225   -0.02156767468446585   0.00010212407884122252
0.004064378623968627   -0.021755858460525017   0.00026896578265586327
-0.0015300191471365207   -0.03271303806872372   -0.00023738306112708912
-0.001374617097123358   -0.03294850493763834   -0.000286441946341663
-0.0019245190327230575   -0.021915997971922542   -5.646990241457173e-05
-0.007279164799650062   -0.0328846198112373   -0.00048792552737072587
-0.0014470727391183897   -0.03282738314506824   -0.0002649123146685552
-0.0019245190327230575   -0.021915997971922542   -5.646990241457173e-05
-0.007835888832256135   -0.02188920103264146   -0.00023883927908870833
-0.007279164799650062   -0.0328846198112373   -0.00048792552737072587
-0.007914104682124421   -0.021793473079973848   -0.00019706508247126225
-0.0014470727391183897   -0.03282738314506824   -0.0002649123146685552
-0.007353056106130237   -0.03278328942772986   -0.0004549944485673885
-0.007914104682124421   -0.021793473079973848   -0.00019706508247126225
-0.007279164799650062   -0.0328846198112373   -0.00048792552737072587
-0.0014470727391183897   -0.03282738314506824   -0.0002649123146685552
-0.007914104682124421   -0.021793473079973848   -0.00019706508247126225
-0.0020110614961056958   -0.02180633390102878   -1.1554313380291569e-05
-0.0019245190327230575   -0.021915997971922542   -5.646990241457173e-05
-0.0014470727391183897   -0.03282738314506824   -0.0002649123146685552
-0.007914104682124421   -0.021793473079973848   -0.00019706508247126225
-0.0019245190327230575   -0.021915997971922542   -5.646990241457173e-05
-0.007279164799650062   -0.0328846198112373   -0.00048792552737072587
-0.0014470727391183897   -0.03282738314506824   -0.0002649123146685552
-0.0020110614961056958   -0.02180633390102878   -1.1554313380291569e-05
-0.007353056106130237   -0.03278328942772986   -0.0004549944485673885
-0.0015300191471365207   -0.03271303806872372   -0.00023738306112708912
-0.0020110614961056958   -0.02180633390102878   -1.1554313380291569e-05
-0.007914104682124421   -0.021793473079973848   -0.00019706508247126225
-0.007353056106130237   -0.03278328942772986   -0.0004549944485673885
-0.007995011918867216   -0.021693894556964778   -0.00015114975737235756
-0.0015300191471365207   -0.03271303806872372   -0.00023738306112708912
-0.007428599216478664   -0.0326872198684269   -0.00041634741429372635
-0.007995011918867216   -0.021693894556964778   -0.00015114975737235756
-0.007353056106130237   -0.03278328942772986   -0.0004549944485673885
-0.0015300191471365207   -0.03271303806872372   -0.00023738306112708912
-0.007995011918867216   -0.021693894556964778   -0.00015114975737235756
-0.002112293338138347   -0.02169058417768904   4.1346286595081705e-05
-0.0020110614961056958   -0.02180633390102878   -1.1554313380291569e-05
-0.0015300191471365207   -0.03271303806872372   -0.00023738306112708912
-0.007995011918867216   -0.021693894556964778   -0.00015114975737235756
-0.0020110614961056958   -0.02180633390102878   -1.1554313380291569e-05
-0.007353056106130237   -0.03278328942772986   -0.0004549944485673885
-0.0015300191471365207   -0.03271303806872372   -0.00023738306112708912
-0.002112293338138347   -0.02169058417768904   4.1346286595081705e-05
-0.007428599216478664   -0.0326872198684269   -0.00041634741429372635
-0.001623104477585939   -0.03260390619900295   -0.00020234990354471599
-0.002112293338138347   -0.02169058417768904   4.1346286595081705e-05
-0.007995011918867216   -0.021693894556964778   -0.00015114975737235756
-0.007428599216478664   -0.0326872198684269   -0.00041634741429372635
-0.00807923964555436   -0.021592242319366933   -0.00010026492664515613
-0.001623104477585939   -0.03260390619900295   -0.00020234990354471599
-0.0075089416702294265   -0.03259789397888209   -0.00037192144070095294
-0.00807923964555436   -0.021592242319366933   -0.00010026492664515613
-0.007428599216478664   -0.0326872198684269   -0.00041634741429372635
-0.001623104477585939   -0.03260390619900295   -0.00020234990354471599
-0.00807923964555436   -0.021592242319366933   -0.00010026492664515613
-0.0022169965161995225   -0.02156767468446585   0.00010212407884122252
-0.002112293338138347   -0.02169058417768904   4.1346286595081705e-05
-0.001623104477585939   -0.03260390619900295   -0.00020234990354471599
-0.00807923964555436   -0.021592242319366933   -0.00010026492664515613
-0.002112293338138347   -0.02169058417768904   4.1346286595081705e-05
-0.007428599216478664   -0.0326872198684269   -0.00041634741429372635
-0.007279164799650062   -0.0328846198112373   -0.00048792552737072587
-0.007835888832256135   -0.02188920103264146   -0.00023883927908870833
-0.013087701731695172   -0.03280804993418103   -0.0006590716468979658
-0.007353056106130237   -0.03278328942772986   -0.0004549944485673885
-0.007835888832256135   -0.02188920103264146   -0.00023883927908870833
-0.013686701135655378   -0.021881754228397145   -0.00040369337418208153
-0.013087701731695172   -0.03280804993418103   -0.0006590716468979658
-0.013761469426563915   -0.021797805181239794   -0.000363855703646915
-0.007353056106130237   -0.03278328942772986   -0.0004549944485673885
-0.013161049709300302   -0.032725065123806955   -0.0006147437337066494
-0.013761469426563915   -0.021797805181239794   -0.000363855703646915
-0.013087701731695172   -0.03280804993418103   -0.0006590716468979658
-0.007353056106130237   -0.03278328942772986   -0.0004549944485673885
-0.013761469426563915   -0.021797805181239794   -0.000363855703646915
-0.007914104682124421   -0.021793473079973848   -0.00019706508247126225
-0.007835888832256135   -0.02188920103264146   -0.00023883927908870833
-0.007353056106130237   -0.03278328942772986   -0.0004549944485673885
-0.013761469426563915   -0.021797805181239794   -0.000363855703646915
-0.007835888832256135   -0.02188920103264146   -0.00023883927908870833
-0.013087701731695172   -0.03280804993418103   -0.0006590716468979658
-0.007353056106130237   -0.03278328942772986   -0.0004549944485673885
-0.007914104682124421   -0.021793473079973848   -0.00019706508247126225
-0.013161049709300302   -0.032725065123806955   -0.0006147437337066494
-0.007428599216478664   -0.0326872198684269   -0.00041634741429372635
-0.007914104682124421   -0.021793473079973848   -0.00019706508247126225
-0.013761469426563915   -0.021797805181239794   -0.000363855703646915
-0.013161049709300302   -0.032725065123806955   -0.0006147437337066494
-0.013832693799409785   -0.021712332057512006   -0.00032039752027145216
-0.007428599216478664   -0.0326872198684269   -0.00041634741429372635
-0.013229654517389434   -0.03264764155456447   -0.0005648953751866914
-0.013832693799409785   -0.021712332057512006   -0.00032039752027145216
-0.013161049709300302   -0.032725065123806955   -0.0006147437337066494
-0.007428599216478664   -0.0326872198684269   -0.00041634741429372635
-0.013832693799409785   -0.021712332057512006   -0.00032039752027145216
-0.007995011918867216   -0.021693894556964778   -0.00015114975737235756
-0.007914104682124421   -0.021793473079973848   -0.00019706508247126225
-0.007428599216478664   -0.0326872198684269   -0.00041634741429372635
-0.013832693799409785   -0.021712332057512006   -0.00032039752027145216
-0.007914104682124421   -0.021793473079973848   -0.00019706508247126225
-0.013161049709300302   -0.032725065123806955   -0.0006147437337066494
-0.007428599216478664   -0.0326872198684269   -0.00041634741429372635
-0.007995011918867216   -0.021693894556964778   -0.00015114975737235756
-0.013229654517389434   -0.03264764155456447   -0.0005648953751866914
-0.0075089416702294265   -0.03259789397888209   -0.00037192144070095294
-0.007995011918867216   -0.021693894556964778   -0.00015114975737235756
-0.013832693799409785   -0.021712332057512006   -0.00032039752027145216
-0.013229654517389434   -0.03264764155456447   -0.0005648953751866914
-0.013903201318467106   -0.021624848212330364   -0.00027352463572603305
-0.0075089416702294265   -0.03259789397888209   -0.00037192144070095294
-0.013298504642733341   -0.03257599451161438   -0.0005098003660421153
-0.013903201318467106   -0.021624848212330364   -0.00027352463572603305
-0.013229654517389434   -0.03264764155456447   -0.0005648953751866914
-0.0075089416702294265   -0.03259789397888209   -0.00037192144070095294
-0.013903201318467106   -0.021624848212330364   -0.00027352463572603305
-0.00807923964555436   -0.021592242319366933   -0.00010026492664515613
-0.007995011918867216   -0.021693894556964778   -0.00015114975737235756
-0.0075089416702294265   -0.03259789397888209   -0.00037192144070095294
-0.013903201318467106   -0.021624848212330364   -0.00027352463572603305
-0.007995011918867216   -0.021693894556964778   -0.00015114975737235756
-0.013229654517389434   -0.03264764155456447   -0.0005648953751866914
-0.013087701731695172   -0.03280804993418103   -0.0006590716468979658
-0.013686701135655378   -0.021881754228397145   -0.00040369337418208153
-0.019001127477393135   -0.03270456149848638   -0.0007984182675557309
-0.013161049709300302   -0.032725065123806955   -0.0006147437337066494
-0.013686701135655378   -0.021881754228397145   -0.00040369337418208153
-0.019661447984396806   -0.02184778279134502   -0.0005421876622110107
-0.019001127477393135   -0.03270456149848638   -0.0007984182675557309
-0.019732726435107525   -0.02177934977419987   -0.0005044857753258018
-0.013161049709300302   -0.032725065123806955   -0.0006147437337066494
-0.01907137008153652   -0.032640878377818955   -0.0007428288283527603
-0.019732726435107525   -0.02177934977419987   -0.0005044857753258018
-0.019001127477393135   -0.03270456149848638   -0.0007984182675557309
-0.013161049709300302   -0.032725065123806955   -0.0006147437337066494
-0.019732726435107525   -0.02177934977419987   -0.0005044857753258018
-0.013761469426563915   -0.021797805181239794   -0.000363855703646915
-0.013686701135655378   -0.021881754228397145   -0.00040369337418208153
-0.013161049709300302   -0.032725065123806955   -0.0006147437337066494
-0.019732726435107525   -0.02177934977419987   -0.0005044857753258018
-0.013686701135655378   -0.021881754228397145   -0.00040369337418208153
-0.019001127477393135   -0.03270456149848638   -0.0007984182675557309
-0.013161049709300302   -0.032725065123806955   -0.0006147437337066494
-0.013761469426563915   -0.021797805181239794   -0.000363855703646915
-0.01907137008153652   -0.032640878377818955   -0.0007428288283527603
-0.013229654517389434   -0.03264764155456447   -0.0005648953751866914
-0.013761469426563915   -0.021797805181239794   -0.000363855703646915
-0.019732726435107525   -0.02177934977419987   -0.0005044857753258018
-0.01907137008153652   -0.032640878377818955   -0.0007428288283527603
-0.019793128480042135   -0.021707161201710696   -0.00046421471810584997
-0.013229654517389434   -0.03264764155456447   -0.0005648953751866914
-0.01912464021299227   -0.032580623309283296   -0.0006826316892185845
-0.019793128480042135   -0.021707161201710696   -0.00046421471810584997
-0.01907137008153652   -0.032640878377818955   -0.0007428288283527603
-0.013229654517389434   -0.03264764155456447   -0.0005648953751866914
-0.019793128480042135   -0.021707161201710696   -0.00046421471810584997
-0.013832693799409785   -0.021712332057512006   -0.00032039752027145216
-0.013761469426563915   -0.021797805181239794   -0.000363855703646915
-0.013229654517389434   -0.03264764155456447   -0.0005648953751866914
-0.019793128480042135   -0.021707161201710696   -0.00046421471810584997
-0.013761469426563915   -0.021797805181239794   -0.000363855703646915
-0.01907137008153652   -0.032640878377818955   -0.0007428288283527603
-0.013229654517389434   -0.03264764155456447   -0.0005648953751866914
-0.013832693799409785   -0.021712332057512006   -0.00032039752027145216
-0.01912464021299227   -0.032580623309283296   -0.0006826316892185845
-0.013298504642733341   -0.03257599451161438   -0.0005098003660421153
-0.013832693799409785   -0.021712332057512006   -0.00032039752027145216
-0.019793128480042135   -0.021707161201710696   -0.00046421471810584997
-0.01912464021299227   -0.032580623309283296   -0.0006826316892185845
-0.019850217726332803   -0.02163306803308766   -0.00042025372561014547
-0.013298504642733341   -0.03257599451161438   -0.0005098003660421153
-0.01917749099961638   -0.03252646276698326   -0.0006166232112539021
-0.019850217726332803   -0.02163306803308766   -0.00042025372561014547
-0.01912464021299227   -0.032580623309283296   -0.0006826316892185845
-0.013298504642733341   -0.03257599451161438   -0.0005098003660421153
-0.019850217726332803   -0.02163306803308766   -0.00042025372561014547
-0.013903201318467106   -0.021624848212330364   -0.00027352463572603305
-0.013832693799409785   -0.021712332057512006   -0.00032039752027145216
-0.013298504642733341   -0.03257599451161438   -0.0005098003660421153
-0.019850217726332803   -0.02163306803308766   -0.00042025372561014547
-0.013832693799409785   -0.021712332057512006   -0.00032039752027145216
-0.01912464021299227   -0.032580623309283296   -0.0006826316892185845
-0.019001127477393135   -0.03270456149848638   -0.0007984182675557309
-0.019661447984396806   -0.02184778279134502   -0.0005421876622110107
-0.025268355964397415   -0.03258233911959671   -0.0009018531602110212
-0.01907137008153652   -0.032640878377818955   -0.0007428288283527603
-0.019661447984396806   -0.02184778279134502   -0.0005421876622110107
-0.025919833256652557   -0.02179183859937399   -0.0006446869248952384
-0.025268355964397415   -0.03258233911959671   -0.0009018531602110212
-0.025964175743544468   -0.0217343803085794   -0.0006164334995089918
-0.01907137008153652   -0.032640878377818955   -0.0007428288283527603
-0.025279201436957832   -0.032531500588963126   -0.0008404727356336477
-0.025964175743544468   -0.0217343803085794   -0.0006164334995089918
-0.025268355964397415   -0.03258233911959671   -0.0009018531602110212
-0.01907137008153652   -0.032640878377818955   -0.0007428288283527603
-0.025964175743544468   -0.0217343803085794   -0.0006164334995089918
-0.019732726435107525   -0.02177934977419987   -0.0005044857753258018
-0.019661447984396806   -0.02184778279134502   -0.0005421876622110107
-0.01907137008153652   -0.032640878377818955   -0.0007428288283527603
-0.025964175743544468   -0.0217343803085794   -0.0006164334995089918
-0.019661447984396806   -0.02184778279134502   -0.0005421876622110107
-0.025268355964397415   -0.03258233911959671   -0.0009018531602110212
-0.01907137008153652   -0.032640878377818955   -0.0007428288283527603
-0.019732726435107525   -0.02177934977419987   -0.0005044857753258018
-0.025279201436957832   -0.032531500588963126   -0.0008404727356336477
-0.01912464021299227   -0.032580623309283296   -0.0006826316892185845
-0.019732726435107525   -0.02177934977419987   -0.0005044857753258018
-0.025964175743544468   -0.0217343803085794   -0.0006164334995089918
-0.025279201436957832   -0.032531500588963126   -0.0008404727356336477
-0.02600472181096786   -0.021669369339905677   -0.0005818736695250499
-0.01912464021299227   -0.032580623309283296   -0.0006826316892185845
-0.025290329069555896   -0.03248006315067466   -0.0007698130368391354
-0.02600472181096786   -0.021669369339905677   -0.0005818736695250499
-0.025279201436957832   -0.032531500588963126   -0.0008404727356336477
-0.01912464021299227   -0.032580623309283296   -0.0006826316892185845
-0.02600472181096786   -0.021669369339905677   -0.0005818736695250499
-0.019793128480042135   -0.021707161201710696   -0.00046421471810584997
-0.019732726435107525   -0.02177934977419987   -0.0005044857753258018
-0.01912464021299227   -0.032580623309283296   -0.0006826316892185845
-0.02600472181096786   -0.021669369339905677   -0.0005818736695250499
-0.019732726435107525   -0.02177934977419987   -0.0005044857753258018
-0.025279201436957832   -0.032531500588963126   -0.0008404727356336477
-0.01912464021299227   -0.032580623309283296   -0.0006826316892185845
-0.019793128480042135   -0.021707161201710696   -0.00046421471810584997
-0.025290329069555896   -0.03248006315067466   -0.0007698130368391354
-0.01917749099961638   -0.03252646276698326   -0.0006166232112539021
-0.019793128480042135   -0.021707161201710696   -0.00046421471810584997
-0.02600472181096786   -0.021669369339905677   -0.0005818736695250499
-0.025290329069555896   -0.03248006315067466   -0.0007698130368391354
-0.026024419912762466   -0.02160969502446568   -0.0005425860515066637
-0.01917749099961638   -0.03252646276698326   -0.0006166232112539021
-0.025266244525789423   -0.03244613231263858   -0.0006909760638468559
-0.026024419912762466   -0.02160969502446568   -0.0005425860515066637
-0.025290329069555896   -0.03248006315067466   -0.0007698130368391354
-0.01917749099961638   -0.03252646276698326   -0.0006166232112539021
-0.026024419912762466   -0.02160969502446568   -0.0005425860515066637
-0.019850217726332803   -0.02163306803308766   -0.00042025372561014547
-0.019793128480042135   -0.021707161201710696   -0.00046421471810584997
-0.01917749099961638   -0.03252646276698326   -0.0006166232112539021
-0.026024419912762466   -0.02160969502446568   -0.0005425860515066637
-0.019793128480042135   -0.021707161201710696   -0.00046421471810584997
-0.025290329069555896   -0.03248006315067466   -0.0007698130368391354
0.004352889180447919   -0.022019548751326723   0.00013271378538191756
0.003049429755700718   -0.011057221975770302   0.00014254388121383172
-0.0019245190327230575   -0.021915997971922542   -5.646990241457173e-05
0.004216540854771597   -0.02188725884109993   0.00018865127315111432
0.003049429755700718   -0.011057221975770302   0.00014254388121383172
-0.00280382868505523   -0.010913787075867553   7.238931158961994e-05
-0.0019245190327230575   -0.021915997971922542   -5.646990241457173e-05
-0.002889902212335508   -0.010858386630691266   0.00013477437880182977
0.004216540854771597   -0.02188725884109993   0.00018865127315111432
-0.0020110614961056958   -0.02180633390102878   -1.1554313380291569e-05
-0.002889902212335508   -0.010858386630691266   0.00013477437880182977
-0.0019245190327230575   -0.021915997971922542   -5.646990241457173e-05
0.004216540854771597   -0.02188725884109993   0.00018865127315111432
-0.002889902212335508   -0.010858386630691266   0.00013477437880182977
0.0027811641286815086   -0.010916711945861548   0.0002969947504897145
0.003049429755700718   -0.011057221975770302   0.00014254388121383172
0.004216540854771597   -0.02188725884109993   0.00018865127315111432
-0.002889902212335508   -0.010858386630691266   0.00013477437880182977
0.003049429755700718   -0.011057221975770302   0.00014254388121383172
-0.0019245190327230575   -0.021915997971922542   -5.646990241457173e-05
0.004216540854771597   -0.02188725884109993   0.00018865127315111432
0.0027811641286815086   -0.010916711945861548   0.0002969947504897145
-0.0020110614961056958   -0.02180633390102878   -1.1554313380291569e-05
0.004064378623968627   -0.021755858460525017   0.00026896578265586327
0.0027811641286815086   -0.010916711945861548   0.0002969947504897145
-0.002889902212335508   -0.010858386630691266   0.00013477437880182977
-0.0020110614961056958   -0.02180633390102878   -1.1554313380291569e-05
-0.0030029990230488685   -0.01075980887136675   0.00021052031167719285
0.004064378623968627   -0.021755858460525017   0.00026896578265586327
-0.002112293338138347   -0.02169058417768904   4.1346286595081705e-05
-0.0030029990230488685   -0.01075980887136675   0.00021052031167719285
-0.0020110614961056958   -0.02180633390102878   -1.1554313380291569e-05
0.004064378623968627   -0.021755858460525017   0.00026896578265586327
-0.0030029990230488685   -0.01075980887136675   0.00021052031167719285
0.0026240621704178868   -0.010801739627336687   0.0004122701016075216
0.0027811641286815086   -0.010916711945861548   0.0002969947504897145
0.004064378623968627   -0.021755858460525017   0.00026896578265586327
-0.0030029990230488685   -0.01075980887136675   0.00021052031167719285
0.0027811641286815086   -0.010916711945861548   0.0002969947504897145
-0.0020110614961056958   -0.02180633390102878   -1.1554313380291569e-05
0.004064378623968627   -0.021755858460525017   0.00026896578265586327
0.0026240621704178868   -0.010801739627336687   0.0004122701016075216
-0.002112293338138347   -0.02169058417768904   4.1346286595081705e-05
0.0038784596105765493   -0.0215944495134997   0.00035733602694883036
0.0026240621704178868   -0.010801739627336687   0.0004122701016075216
-0.0030029990230488685   -0.01075980887136675   0.00021052031167719285
-0.002112293338138347   -0.02169058417768904   4.1346286595081705e-05
-0.003098072406835223   -0.01065380033884536   0.00027720011558090494
0.0038784596105765493   -0.0215944495134997   0.00035733602694883036
-0.0022169965161995225   -0.02156767468446585   0.00010212407884122252
-0.003098072406835223   -0.01065380033884536   0.00027720011558090494
-0.002112293338138347   -0.02169058417768904   4.1346286595081705e-05
0.0038784596105765493   -0.0215944495134997   0.00035733602694883036
-0.003098072406835223   -0.01065380033884536   0.00027720011558090494
0.002422748327940141   -0.010626057110473609   0.0005442581436497836
0.0026240621704178868   -0.010801739627336687   0.0004122701016075216
0.0038784596105765493   -0.0215944495134997   0.00035733602694883036
-0.003098072406835223   -0.01065380033884536   0.00027720011558090494
0.0026240621704178868   -0.010801739627336687   0.0004122701016075216
-0.002112293338138347   -0.02169058417768904   4.1346286595081705e-05
-0.0019245190327230575   -0.021915997971922542   -5.646990241457173e-05
-0.00280382868505523   -0.010913787075867553   7.238931158961994e-05
-0.007835888832256135   -0.02188920103264146   -0.00023883927908870833
-0.0020110614961056958   -0.02180633390102878   -1.1554313380291569e-05
-0.00280382868505523   -0.010913787075867553   7.238931158961994e-05
-0.008375099988858898   -0.011075052385836646   -7.276247794660337e-05
-0.007835888832256135   -0.02188920103264146   -0.00023883927908870833
-0.008454332332652505   -0.010990394575498089   -2.8581686201363455e-05
-0.0020110614961056958   -0.02180633390102878   -1.1554313380291569e-05
-0.007914104682124421   -0.021793473079973848   -0.00019706508247126225
-0.008454332332652505   -0.010990394575498089   -2.8581686201363455e-05
-0.007835888832256135   -0.02188920103264146   -0.00023883927908870833
-0.0020110614961056958   -0.02180633390102878   -1.1554313380291569e-05
-0.008454332332652505   -0.010990394575498089   -2.8581686201363455e-05
-0.002889902212335508   -0.010858386630691266   0.00013477437880182977
-0.00280382868505523   -0.010913787075867553   7.238931158961994e-05
-0.0020110614961056958   -0.02180633390102878   -1.1554313380291569e-05
-0.008454332332652505   -0.010990394575498089   -2.8581686201363455e-05
-0.00280382868505523   -0.010913787075867553   7.238931158961994e-05
-0.007835888832256135   -0.02188920103264146   -0.00023883927908870833
-0.0020110614961056958   -0.02180633390102878   -1.1554313380291569e-05
-0.002889902212335508   -0.010858386630691266   0.00013477437880182977
-0.007914104682124421   -0.021793473079973848   -0.00019706508247126225
-0.002112293338138347   -0.02169058417768904   4.1346286595081705e-05
-0.002889902212335508   -0.010858386630691266   0.00013477437880182977
-0.008454332332652505   -0.010990394575498089   -2.8581686201363455e-05
-0.007914104682124421   -0.021793473079973848   -0.00019706508247126225
-0.008537254567797506   -0.010894823895835685   1.816930150036647e-05
-0.002112293338138347   -0.02169058417768904   4.1346286595081705e-05
-0.007995011918867216   -0.021693894556964778   -0.00015114975737235756
-0.008537254567797506   -0.010894823895835685   1.816930150036647e-05
-0.007914104682124421   -0.021793473079973848   -0.00019706508247126225
-0.002112293338138347   -0.02169058417768904   4.1346286595081705e-05
-0.008537254567797506   -0.010894823895835685   1.816930150036647e-05
-0.0030029990230488685   -0.01075980887136675   0.00021052031167719285
-0.002889902212335508   -0.010858386630691266   0.00013477437880182977
-0.002112293338138347   -0.02169058417768904   4.1346286595081705e-05
-0.008537254567797506   -0.010894823895835685   1.816930150036647e-05
-0.002889902212335508   -0.010858386630691266   0.00013477437880182977
-0.007914104682124421   -0.021793473079973848   -0.00019706508247126225
-0.002112293338138347   -0.02169058417768904   4.1346286595081705e-05
-0.0030029990230488685   -0.01075980887136675   0.00021052031167719285
-0.007995011918867216   -0.021693894556964778   -0.00015114975737235756
-0.0022169965161995225   -0.02156767468446585   0.00010212407884122252
-0.0030029990230488685   -0.01075980887136675   0.00021052031167719285
-0.008537254567797506   -0.010894823895835685   1.816930150036647e-05
-0.007995011918867216   -0.021693894556964778   -0.00015114975737235756
-0.008616060969144208   -0.010790078669780358   6.972462104441053e-05
-0.0022169965161995225   -0.02156767468446585   0.00010212407884122252
-0.00807923964555436   -0.021592242319366933   -0.00010026492664515613
-0.008616060969144208   -0.010790078669780358   6.972462104441053e-05
-0.007995011918867216   -0.021693894556964778   -0.00015114975737235756
-0.0022169965161995225   -0.02156767468446585   0.00010212407884122252
-0.008616060969144208   -0.010790078669780358   6.972462104441053e-05
-0.003098072406835223   -0.01065380033884536   0.00027720011558090494
-0.0030029990230488685   -0.01075980887136675   0.00021052031167719285
-0.0022169965161995225   -0.02156767468446585   0.00010212407884122252
-0.008616060969144208   -0.010790078669780358   6.972462104441053e-05
-0.0030029990230488685   -0.01075980887136675   0.00021052031167719285
-0.007995011918867216   -0.021693894556964778   -0.00015114975737235756
-0.007835888832256135   -0.02188920103264146   -0.00023883927908870833
-0.008375099988858898   -0.011075052385836646   -7.276247794660337e-05
-0.013686701135655378   -0.021881754228397145   -0.00040369337418208153
-0.007914104682124421   -0.021793473079973848   -0.00019706508247126225
-0.008375099988858898   -0.011075052385836646   -7.276247794660337e-05
-0.014083152012769865   -0.011201027692104746   -0.0002335968762853646
-0.013686701135655378   -0.021881754228397145   -0.00040369337418208153
-0.014154303975518114   -0.011114116842616102   -0.00019937052526025699
-0.007914104682124421   -0.021793473079973848   -0.00019706508247126225
-0.013761469426563915   -0.021797805181239794   -0.000363855703646915
-0.014154303975518114   -0.011114116842616102   -0.00019937052526025699
-0.013686701135655378   -0.021881754228397145   -0.00040369337418208153
-0.007914104682124421   -0.021793473079973848   -0.00019706508247126225
-0.014154303975518114   -0.011114116842616102   -0.00019937052526025699
-0.008454332332652505   -0.010990394575498089   -2.8581686201363455e-05
-0.008375099988858898   -0.011075052385836646   -7.276247794660337e-05
-0.007914104682124421   -0.021793473079973848   -0.00019706508247126225
-0.014154303975518114   -0.011114116842616102   -0.00019937052526025699
-0.008375099988858898   -0.011075052385836646   -7.276247794660337e-05
-0.013686701135655378   -0.021881754228397145   -0.00040369337418208153
-0.007914104682124421   -0.021793473079973848   -0.00019706508247126225
-0.008454332332652505   -0.010990394575498089   -2.8581686201363455e-05
-0.013761469426563915   -0.021797805181239794   -0.000363855703646915
-0.007995011918867216   -0.021693894556964778   -0.00015114975737235756
-0.008454332332652505   -0.010990394575498089   -2.8581686201363455e-05
-0.014154303975518114   -0.011114116842616102   -0.00019937052526025699
-0.013761469426563915   -0.021797805181239794   -0.000363855703646915
-0.014222401355585808   -0.011022331592262964   -0.00016526052388625938
-0.007995011918867216   -0.021693894556964778   -0.00015114975737235756
-0.013832693799409785   -0.021712332057512006   -0.00032039752027145216
-0.014222401355585808   -0.011022331592262964   -0.00016526052388625938
-0.013761469426563915   -0.021797805181239794   -0.000363855703646915
-0.007995011918867216   -0.021693894556964778   -0.00015114975737235756
-0.014222401355585808   -0.011022331592262964   -0.00016526052388625938
-0.008537254567797506   -0.010894823895835685   1.816930150036647e-05
-0.008454332332652505   -0.010990394575498089   -2.8581686201363455e-05
-0.007995011918867216   -0.021693894556964778   -0.00015114975737235756
-0.014222401355585808   -0.011022331592262964   -0.00016526052388625938
-0.008454332332652505   -0.010990394575498089   -2.8581686201363455e-05
-0.013761469426563915   -0.021797805181239794   -0.000363855703646915
-0.007995011918867216   -0.021693894556964778   -0.00015114975737235756
-0.008537254567797506   -0.010894823895835685   1.816930150036647e-05
-0.013832693799409785   -0.021712332057512006   -0.00032039752027145216
-0.00807923964555436   -0.021592242319366933   -0.00010026492664515613
-0.008537254567797506   -0.010894823895835685   1.816930150036647e-05
-0.014222401355585808   -0.011022331592262964   -0.00016526052388625938
-0.013832693799409785   -0.021712332057512006   -0.00032039752027145216
-0.014285163580919297   -0.010922961495584003   -0.00012813041919473883
-0.00807923964555436   -0.021592242319366933   -0.00010026492664515613
-0.013903201318467106   -0.021624848212330364   -0.00027352463572603305
-0.014285163580919297   -0.010922961495584003   -0.00012813041919473883
-0.013832693799409785   -0.021712332057512006   -0.00032039752027145216
-0.00807923964555436   -0.021592242319366933   -0.00010026492664515613
-0.014285163580919297   -0.010922961495584003   -0.00012813041919473883
-0.008616060969144208   -0.010790078669780358   6.972462104441053e-05
-0.008537254567797506   -0.010894823895835685   1.816930150036647e-05
-0.00807923964555436   -0.021592242319366933   -0.00010026492664515613
-0.014285163580919297   -0.010922961495584003   -0.00012813041919473883
-0.008537254567797506   -0.010894823895835685   1.816930150036647e-05
-0.013832693799409785   -0.021712332057512006   -0.00032039752027145216
-0.013686701135655378   -0.021881754228397145   -0.00040369337418208153
-0.014083152012769865   -0.011201027692104746   -0.0002335968762853646
-0.019661447984396806   -0.02184778279134502   -0.0005421876622110107
-0.013761469426563915   -0.021797805181239794   -0.000363855703646915
-0.014083152012769865   -0.011201027692104746   -0.0002335968762853646
-0.019991699559837327   -0.011252704832048563   -0.00038208757805471843
-0.019661447984396806   -0.02184778279134502   -0.0005421876622110107
-0.02005579923609932   -0.011174623704910434   -0.00035714701478646853
-0.013761469426563915   -0.021797805181239794   -0.000363855703646915
-0.019732726435107525   -0.02177934977419987   -0.0005044857753258018
-0.02005579923609932   -0.011174623704910434   -0.00035714701478646853
-0.019661447984396806   -0.02184778279134502   -0.0005421876622110107
-0.013761469426563915   -0.021797805181239794   -0.000363855703646915
-0.02005579923609932   -0.011174623704910434   -0.00035714701478646853
-0.014154303975518114   -0.011114116842616102   -0.00019937052526025699
-0.014083152012769865   -0.011201027692104746   -0.0002335968762853646
-0.013761469426563915   -0.021797805181239794   -0.000363855703646915
-0.02005579923609932   -0.011174623704910434   -0.00035714701478646853
-0.014083152012769865   -0.011201027692104746   -0.0002335968762853646
-0.019661447984396806   -0.02184778279134502   -0.0005421876622110107
-0.013761469426563915   -0.021797805181239794   -0.000363855703646915
-0.014154303975518114   -0.011114116842616102   -0.00019937052526025699
-0.019732726435107525   -0.02177934977419987   -0.0005044857753258018
-0.013832693799409785   -0.021712332057512006   -0.00032039752027145216
-0.014154303975518114   -0.011114116842616102   -0.00019937052526025699
-0.02005579923609932   -0.011174623704910434   -0.00035714701478646853
-0.019732726435107525   -0.02177934977419987   -0.0005044857753258018
-0.020112918472640354   -0.011089592825460074   -0.0003329226617432946
-0.013832693799409785   -0.021712332057512006   -0.00032039752027145216
-0.019793128480042135   -0.021707161201710696   -0.00046421471810584997
-0.020112918472640354   -0.011089592825460074   -0.0003329226617432946
-0.019732726435107525   -0.02177934977419987   -0.0005044857753258018
-0.013832693799409785   -0.021712332057512006   -0.00032039752027145216
-0.020112918472640354   -0.011089592825460074   -0.0003329226617432946
-0.014222401355585808   -0.011022331592262964   -0.00016526052388625938
-0.014154303975518114   -0.011114116842616102   -0.00019937052526025699
-0.013832693799409785   -0.021712332057512006   -0.00032039752027145216
-0.020112918472640354   -0.011089592825460074   -0.0003329226617432946
-0.014154303975518114   -0.011114116842616102   -0.00019937052526025699
-0.019732726435107525   -0.02177934977419987   -0.0005044857753258018
-0.013832693799409785   -0.021712332057512006   -0.00032039752027145216
-0.014222401355585808   -0.011022331592262964   -0.00016526052388625938
-0.019793128480042135   -0.021707161201710696   -0.00046421471810584997
-0.013903201318467106   -0.021624848212330364   -0.00027352463572603305
-0.014222401355585808   -0.011022331592262964   -0.00016526052388625938
-0.020112918472640354   -0.011089592825460074   -0.0003329226617432946
-0.019793128480042135   -0.021707161201710696   -0.00046421471810584997
-0.020164639271993683   -0.01099908465678459   -0.0003079850998296113
-0.013903201318467106   -0.021624848212330364   -0.00027352463572603305
-0.019850217726332803   -0.02163306803308766   -0.00042025372561014547
-0.020164639271993683   -0.01099908465678459   -0.0003079850998296113
-0.019793128480042135   -0.021707161201710696   -0.00046421471810584997
-0.013903201318467106   -0.021624848212330364   -0.00027352463572603305
-0.020164639271993683   -0.01099908465678459   -0.0003079850998296113
-0.014285163580919297   -0.010922961495584003   -0.00012813041919473883
-0.014222401355585808   -0.011022331592262964   -0.00016526052388625938
-0.013903201318467106   -0.021624848212330364   -0.00027352463572603305
-0.020164639271993683   -0.01099908465678459   -0.0003079850998296113
-0.014222401355585808   -0.011022331592262964   -0.00016526052388625938
-0.019793128480042135   -0.021707161201710696   -0.00046421471810584997
-0.019661447984396806   -0.02184778279134502   -0.0005421876622110107
-0.019991699559837327   -0.011252704832048563   -0.00038208757805471843
-0.025919833256652557   -0.02179183859937399   -0.0006446869248952384
-0.019732726435107525   -0.02177934977419987   -0.0005044857753258018
-0.019991699559837327   -0.011252704832048563   -0.00038208757805471843
-0.026110385645369577   -0.01125851252250269   -0.0005054043513364251
-0.025919833256652557   -0.02179183859937399   -0.0006446869248952384
-0.026165484352813424   -0.011182710628949672   -0.0004947165384086132
-0.019732726435107525   -0.02177934977419987   -0.0005044857753258018
-0.025964175743544468   -0.0217343803085794   -0.0006164334995089918
-0.026165484352813424   -0.011182710628949672   -0.0004947165384086132
-0.025919833256652557   -0.02179183859937399   -0.0006446869248952384
-0.019732726435107525   -0.02177934977419987   -0.0005044857753258018
-0.026165484352813424   -0.011182710628949672   -0.0004947165384086132
-0.02005579923609932   -0.011174623704910434   -0.00035714701478646853
-0.019991699559837327   -0.011252704832048563   -0.00038208757805471843
-0.019732726435107525   -0.02177934977419987   -0.0005044857753258018
-0.026165484352813424   -0.011182710628949672   -0.0004947165384086132
-0.019991699559837327   -0.011252704832048563   -0.00038208757805471843
-0.025919833256652557   -0.02179183859937399   -0.0006446869248952384
-0.019732726435107525   -0.02177934977419987   -0.0005044857753258018
-0.02005579923609932   -0.011174623704910434   -0.00035714701478646853
-0.025964175743544468   -0.0217343803085794   -0.0006164334995089918
-0.019793128480042135   -0.021707161201710696   -0.00046421471810584997
-0.02005579923609932   -0.011174623704910434   -0.00035714701478646853
-0.026165484352813424   -0.011182710628949672   -0.0004947165384086132
-0.025964175743544468   -0.0217343803085794   -0.0006164334995089918
-0.02621484793865751   -0.011100768699973753   -0.00048222021399205785
-0.019793128480042135   -0.021707161201710696   -0.00046421471810584997
-0.02600472181096786   -0.021669369339905677   -0.0005818736695250499
-0.02621484793865751   -0.011100768699973753   -0.00048222021399205785
-0.025964175743544468   -0.0217343803085794   -0.0006164334995089918
-0.019793128480042135   -0.021707161201710696   -0.00046421471810584997
-0.02621484793865751   -0.011100768699973753   -0.00048222021399205785
-0.020112918472640354   -0.011089592825460074   -0.0003329226617432946
-0.02005579923609932   -0.011174623704910434   -0.00035714701478646853
-0.019793128480042135   -0.021707161201710696   -0.00046421471810584997
-0.02621484793865751   -0.011100768699973753   -0.00048222021399205785
-0.02005579923609932   -0.011174623704910434   -0.00035714701478646853
-0.025964175743544468   -0.0217343803085794   -0.0006164334995089918
-0.019793128480042135   -0.021707161201710696   -0.00046421471810584997
-0.020112918472640354   -0.011089592825460074   -0.0003329226617432946
-0.02600472181096786   -0.021669369339905677   -0.0005818736695250499
-0.019850217726332803   -0.02163306803308766   -0.00042025372561014547
-0.020112918472640354   -0.011089592825460074   -0.0003329226617432946
-0.02621484793865751   -0.011100768699973753   -0.00048222021399205785
-0.02600472181096786   -0.021669369339905677   -0.0005818736695250499
-0.026256390067323384   -0.011013997169078756   -0.0004706106588005744
-0.019850217726332803   -0.02163306803308766   -0.00042025372561014547
-0.026024419912762466   -0.02160969502446568   -0.0005425860515066637
-0.026256390067323384   -0.011013997169078756   -0.0004706106588005744
-0.02600472181096786   -0.021669369339905677   -0.0005818736695250499
-0.019850217726332803   -0.02163306803308766   -0.00042025372561014547
-0.026256390067323384   -0.011013997169078756   -0.0004706106588005744
-0.020164639271993683   -0.01099908465678459   -0.0003079850998296113
-0.020112918472640354   -0.011089592825460074   -0.0003329226617432946
-0.019850217726332803   -0.02163306803308766   -0.00042025372561014547
-0.026256390067323384   -0.011013997169078756   -0.0004706106588005744
-0.020112918472640354   -0.011089592825460074   -0.0003329226617432946
-0.02600472181096786   -0.021669369339905677   -0.0005818736695250499
0.003049429755700718   -0.011057221975770302   0.00014254388121383172
0.0   0.0   0.0
-0.00280382868505523   -0.010913787075867553   7.238931158961994e-05
0.0027811641286815086   -0.010916711945861548   0.0002969947504897145
0.0   0.0   0.0
-0.003521289975767335   -0.0008904057877314111   -3.0240114052525418e-05
-0.00280382868505523   -0.010913787075867553   7.238931158961994e-05
-0.0037316265742847023   -0.0006915141741442644   9.081377667570877e-05
0.0027811641286815086   -0.010916711945861548   0.0002969947504897145
-0.002889902212335508   -0.010858386630691266   0.00013477437880182977
-0.0037316265742847023   -0.0006915141741442644   9.081377667570877e-05
-0.00280382868505523   -0.010913787075867553   7.238931158961994e-05
0.0027811641286815086   -0.010916711945861548   0.0002969947504897145
-0.0037316265742847023   -0.0006915141741442644   9.081377667570877e-05
0.0   0.0   0.0
0.0   0.0   0.0
0.0027811641286815086   -0.010916711945861548   0.0002969947504897145
-0.0037316265742847023   -0.0006915141741442644   9.081377667570877e-05
0.0   0.0   0.0
-0.00280382868505523   -0.010913787075867553   7.238931158961994e-05
0.0027811641286815086   -0.010916711945861548   0.0002969947504897145
0.0   0.0   0.0
-0.002889902212335508   -0.010858386630691266   0.00013477437880182977
0.0026240621704178868   -0.010801739627336687   0.0004122701016075216
0.0   0.0   0.0
-0.0037316265742847023   -0.0006915141741442644   9.081377667570877e-05
-0.002889902212335508   -0.010858386630691266   0.00013477437880182977
-0.0038635605018941966   -0.000595603403626128   0.0001606127037932231
0.0026240621704178868   -0.010801739627336687   0.0004122701016075216
-0.0030029990230488685   -0.01075980887136675   0.00021052031167719285
-0.0038635605018941966   -0.000595603403626128   0.0001606127037932231
-0.002889902212335508   -0.010858386630691266   0.00013477437880182977
0.0026240621704178868   -0.010801739627336687   0.0004122701016075216
-0.0038635605018941966   -0.000595603403626128   0.0001606127037932231
0.0   0.0   0.0
0.0   0.0   0.0
0.0026240621704178868   -0.010801739627336687   0.0004122701016075216
-0.0038635605018941966   -0.000595603403626128   0.0001606127037932231
0.0   0.0   0.0
-0.002889902212335508   -0.010858386630691266   0.00013477437880182977
0.0026240621704178868   -0.010801739627336687   0.0004122701016075216
0.0   0.0   0.0
-0.0030029990230488685   -0.01075980887136675   0.00021052031167719285
0.002422748327940141   -0.010626057110473609   0.0005442581436497836
0.0   0.0   0.0
-0.0038635605018941966   -0.000595603403626128   0.0001606127037932231
-0.0030029990230488685   -0.01075980887136675   0.00021052031167719285
-0.004040321959172426   -0.00046828185292581865   0.000240714932839037
0.002422748327940141   -0.010626057110473609   0.0005442581436497836
-0.003098072406835223   -0.01065380033884536   0.00027720011558090494
-0.004040321959172426   -0.00046828185292581865   0.000240714932839037
-0.0030029990230488685   -0.01075980887136675   0.00021052031167719285
0.002422748327940141   -0.010626057110473609   0.0005442581436497836
-0.004040321959172426   -0.00046828185292581865   0.000240714932839037
0.0   0.0   0.0
0.0   0.0   0.0
0.002422748327940141   -0.010626057110473609   0.0005442581436497836
-0.004040321959172426   -0.00046828185292581865   0.000240714932839037
0.0   0.0   0.0
-0.0030029990230488685   -0.01075980887136675   0.00021052031167719285
-0.00280382868505523   -0.010913787075867553   7.238931158961994e-05
-0.003521289975767335   -0.0008904057877314111   -3.0240114052525418e-05
-0.008375099988858898   -0.011075052385836646   -7.276247794660337e-05
-0.002889902212335508   -0.010858386630691266   0.00013477437880182977
-0.003521289975767335   -0.0008904057877314111   -3.0240114052525418e-05
-0.008625189003697553   -0.0011654182350427846   -2.9377921242075107e-05
-0.008375099988858898   -0.011075052385836646   -7.276247794660337e-05
-0.00873347697889075   -0.0010565561337144975   1.5275525628749968e-06
-0.002889902212335508   -0.010858386630691266   0.00013477437880182977
-0.008454332332652505   -0.010990394575498089   -2.8581686201363455e-05
-0.00873347697889075   -0.0010565561337144975   1.5275525628749968e-06
-0.008375099988858898   -0.011075052385836646   -7.276247794660337e-05
-0.002889902212335508   -0.010858386630691266   0.00013477437880182977
-0.00873347697889075   -0.0010565561337144975   1.5275525628749968e-06
-0.0037316265742847023   -0.0006915141741442644   9.081377667570877e-05
-0.003521289975767335   -0.0008904057877314111   -3.0240114052525418e-05
-0.002889902212335508   -0.010858386630691266   0.00013477437880182977
-0.00873347697889075   -0.0010565561337144975   1.5275525628749968e-06
-0.003521289975767335   -0.0008904057877314111   -3.0240114052525418e-05
-0.008375099988858898   -0.011075052385836646   -7.276247794660337e-05
-0.002889902212335508   -0.010858386630691266   0.00013477437880182977
-0.0037316265742847023   -0.0006915141741442644   9.081377667570877e-05
-0.008454332332652505   -0.010990394575498089   -2.8581686201363455e-05
-0.0030029990230488685   -0.01075980887136675   0.00021052031167719285
-0.0037316265742847023   -0.0006915141741442644   9.081377667570877e-05
-0.00873347697889075   -0.0010565561337144975   1.5275525628749968e-06
-0.008454332332652505   -0.010990394575498089   -2.8581686201363455e-05
-0.008841274958901742   -0.0009292264326081554   5.698280680457532e-05
-0.0030029990230488685   -0.01075980887136675   0.00021052031167719285
-0.008537254567797506   -0.010894823895835685   1.816930150036647e-05
-0.008841274958901742   -0.0009292264326081554   5.698280680457532e-05
-0.008454332332652505   -0.010990394575498089   -2.8581686201363455e-05
-0.0030029990230488685   -0.01075980887136675   0.00021052031167719285
-0.008841274958901742   -0.0009292264326081554   5.698280680457532e-05
-0.0038635605018941966   -0.000595603403626128   0.0001606127037932231
-0.0037316265742847023   -0.0006915141741442644   9.081377667570877e-05
-0.0030029990230488685   -0.01075980887136675   0.00021052031167719285
-0.008841274958901742   -0.0009292264326081554   5.698280680457532e-05
-0.0037316265742847023   -0.0006915141741442644   9.081377667570877e-05
-0.008454332332652505   -0.010990394575498089   -2.8581686201363455e-05
-0.0030029990230488685   -0.01075980887136675   0.00021052031167719285
-0.0038635605018941966   -0.000595603403626128   0.0001606127037932231
-0.008537254567797506   -0.010894823895835685   1.816930150036647e-05
-0.003098072406835223   -0.01065380033884536   0.00027720011558090494
-0.0038635605018941966   -0.000595603403626128   0.0001606127037932231
-0.008841274958901742   -0.0009292264326081554   5.698280680457532e-05
-0.008537254567797506   -0.010894823895835685   1.816930150036647e-05
-0.008960507467428581   -0.0007821128046150742   0.00011002132934426818
-0.003098072406835223   -0.01065380033884536   0.00027720011558090494
-0.008616060969144208   -0.010790078669780358   6.972462104441053e-05
-0.008960507467428581   -0.0007821128046150742   0.00011002132934426818
-0.008537254567797506   -0.010894823895835685   1.816930150036647e-05
-0.003098072406835223   -0.01065380033884536   0.00027720011558090494
-0.008960507467428581   -0.0007821128046150742   0.00011002132934426818
-0.004040321959172426   -0.00046828185292581865   0.000240714932839037
-0.0038635605018941966   -0.000595603403626128   0.0001606127037932231
-0.003098072406835223   -0.01065380033884536   0.00027720011558090494
-0.008960507467428581   -0.0007821128046150742   0.00011002132934426818
-0.0038635605018941966   -0.000595603403626128   0.0001606127037932231
-0.008537254567797506   -0.010894823895835685   1.816930150036647e-05
-0.008375099988858898   -0.011075052385836646   -7.276247794660337e-05
-0.008625189003697553   -0.0011654182350427846   -2.9377921242075107e-05
-0.014083152012769865   -0.011201027692104746   -0.0002335968762853646
-0.008454332332652505   -0.010990394575498089   -2.8581686201363455e-05
-0.008625189003697553   -0.0011654182350427846   -2.9377921242075107e-05
-0.01422257925676571   -0.0012416796798588134   -0.000131522774812947
-0.014083152012769865   -0.011201027692104746   -0.0002335968762853646
-0.014288203770047607   -0.001156567081133362   -0.0001230516507778386
-0.008454332332652505   -0.010990394575498089   -2.8581686201363455e-05
-0.014154303975518114   -0.011114116842616102   -0.00019937052526025699
-0.014288203770047607   -0.001156567081133362   -0.0001230516507778386
-0.014083152012769865   -0.011201027692104746   -0.0002335968762853646
-0.008454332332652505   -0.010990394575498089   -2.8581686201363455e-05
-0.014288203770047607   -0.001156567081133362   -0.0001230516507778386
-0.00873347697889075   -0.0010565561337144975   1.5275525628749968e-06
-0.008625189003697553   -0.0011654182350427846   -2.9377921242075107e-05
-0.008454332332652505   -0.010990394575498089   -2.8581686201363455e-05
-0.014288203770047607   -0.001156567081133362   -0.0001230516507778386
-0.008625189003697553   -0.0011654182350427846   -2.9377921242075107e-05
-0.014083152012769865   -0.011201027692104746   -0.0002335968762853646
-0.008454332332652505   -0.010990394575498089   -2.8581686201363455e-05
-0.00873347697889075   -0.0010565561337144975   1.5275525628749968e-06
-0.014154303975518114   -0.011114116842616102   -0.00019937052526025699
-0.008537254567797506   -0.010894823895835685   1.816930150036647e-05
-0.00873347697889075   -0.0010565561337144975   1.5275525628749968e-06
-0.014288203770047607   -0.001156567081133362   -0.0001230516507778386
-0.014154303975518114   -0.011114116842616102   -0.00019937052526025699
-0.014356426673292145   -0.0010578924575403862   -0.00010813374412953184
-0.008537254567797506   -0.010894823895835685   1.816930150036647e-05
-0.014222401355585808   -0.011022331592262964   -0.00016526052388625938
-0.014356426673292145   -0.0010578924575403862   -0.00010813374412953184
-0.014154303975518114   -0.011114116842616102   -0.00019937052526025699
-0.008537254567797506   -0.010894823895835685   1.816930150036647e-05
-0.014356426673292145   -0.0010578924575403862   -0.00010813374412953184
-0.008841274958901742   -0.0009292264326081554   5.698280680457532e-05
-0.00873347697889075   -0.0010565561337144975   1.5275525628749968e-06
-0.008537254567797506   -0.010894823895835685   1.816930150036647e-05
-0.014356426673292145   -0.0010578924575403862   -0.00010813374412953184
-0.00873347697889075   -0.0010565561337144975   1.5275525628749968e-06
-0.014154303975518114   -0.011114116842616102   -0.00019937052526025699
-0.008537254567797506   -0.010894823895835685   1.816930150036647e-05
-0.008841274958901742   -0.0009292264326081554   5.698280680457532e-05
-0.014222401355585808   -0.011022331592262964   -0.00016526052388625938
-0.008616060969144208   -0.010790078669780358   6.972462104441053e-05
-0.008841274958901742   -0.0009292264326081554   5.698280680457532e-05
-0.014356426673292145   -0.0010578924575403862   -0.00010813374412953184
-0.014222401355585808   -0.011022331592262964   -0.00016526052388625938
-0.014421045579170962   -0.0009380207840275703   -8.839597802221464e-05
-0.008616060969144208   -0.010790078669780358   6.972462104441053e-05
-0.014285163580919297   -0.010922961495584003   -0.00012813041919473883
-0.014421045579170962   -0.0009380207840275703   -8.839597802221464e-05
-0.014222401355585808   -0.011022331592262964   -0.00016526052388625938
-0.008616060969144208   -0.010790078669780358   6.972462104441053e-05
-0.014421045579170962   -0.0009380207840275703   -8.839597802221464e-05
-0.008960507467428581   -0.0007821128046150742   0.00011002132934426818
-0.008841274958901742   -0.0009292264326081554   5.698280680457532e-05
-0.008616060969144208   -0.010790078669780358   6.972462104441053e-05
-0.014421045579170962   -0.0009380207840275703   -8.839597802221464e-05
-0.008841274958901742   -0.0009292264326081554   5.698280680457532e-05
-0.014222401355585808   -0.011022331592262964   -0.00016526052388625938
-0.014083152012769865   -0.011201027692104746   -0.0002335968762853646
-0.01422257925676571   -0.0012416796798588134   -0.000131522774812947
-0.019991699559837327   -0.011252704832048563   -0.00038208757805471843
-0.014154303975518114   -0.011114116842616102   -0.00019937052526025699
-0.01422257925676571   -0.0012416796798588134   -0.000131522774812947
-0.020095043393081914   -0.0012279038017422952   -0.0002778629176662265
-0.019991699559837327   -0.011252704832048563   -0.00038208757805471843
-0.02013934703298428   -0.0011512540401711767   -0.0002742496813370059
-0.014154303975518114   -0.011114116842616102   -0.00019937052526025699
-0.02005579923609932   -0.011174623704910434   -0.00035714701478646853
-0.02013934703298428   -0.0011512540401711767   -0.0002742496813370059
-0.019991699559837327   -0.011252704832048563   -0.00038208757805471843
-0.014154303975518114   -0.011114116842616102   -0.00019937052526025699
-0.02013934703298428   -0.0011512540401711767   -0.0002742496813370059
-0.014288203770047607   -0.001156567081133362   -0.0001230516507778386
-0.01422257925676571   -0.0012416796798588134   -0.000131522774812947
-0.014154303975518114   -0.011114116842616102   -0.00019937052526025699
-0.02013934703298428   -0.0011512540401711767   -0.0002742496813370059
-0.01422257925676571   -0.0012416796798588134   -0.000131522774812947
-0.019991699559837327   -0.011252704832048563   -0.00038208757805471843
-0.014154303975518114   -0.011114116842616102   -0.00019937052526025699
-0.014288203770047607   -0.001156567081133362   -0.0001230516507778386
-0.02005579923609932   -0.011174623704910434   -0.00035714701478646853
-0.014222401355585808   -0.011022331592262964   -0.00016526052388625938
-0.014288203770047607   -0.001156567081133362   -0.0001230516507778386
-0.02013934703298428   -0.0011512540401711767   -0.0002742496813370059
-0.02005579923609932   -0.011174623704910434   -0.00035714701478646853
-0.020185573432818987   -0.0010660460816036487   -0.0002718118121811842
-0.014222401355585808   -0.011022331592262964   -0.00016526052388625938
-0.020112918472640354   -0.011089592825460074   -0.0003329226617432946
-0.020185573432818987   -0.0010660460816036487   -0.0002718118121811842
-0.02005579923609932   -0.011174623704910434   -0.00035714701478646853
-0.014222401355585808   -0.011022331592262964   -0.00016526052388625938
-0.020185573432818987   -0.0010660460816036487   -0.0002718118121811842
-0.014356426673292145   -0.0010578924575403862   -0.00010813374412953184
-0.014288203770047607   -0.001156567081133362   -0.0001230516507778386
-0.014222401355585808   -0.011022331592262964   -0.00016526052388625938
-0.020185573432818987   -0.0010660460816036487   -0.0002718118121811842
-0.014288203770047607   -0.001156567081133362   -0.0001230516507778386
-0.02005579923609932   -0.011174623704910434   -0.00035714701478646853
-0.014222401355585808   -0.011022331592262964   -0.00016526052388625938
-0.014356426673292145   -0.0010578924575403862   -0.00010813374412953184
-0.020112918472640354   -0.011089592825460074   -0.0003329226617432946
-0.014285163580919297   -0.010922961495584003   -0.00012813041919473883
-0.014356426673292145   -0.0010578924575403862   -0.00010813374412953184
-0.020185573432818987   -0.0010660460816036487   -0.0002718118121811842
-0.020112918472640354   -0.011089592825460074   -0.0003329226617432946
-0.020220581560831542   -0.0009738969580240137   -0.00027075323025128276
-0.014285163580919297   -0.010922961495584003   -0.00012813041919473883
-0.020164639271993683   -0.01099908465678459   -0.0003079850998296113
-0.020220581560831542   -0.0009738969580240137   -0.00027075323025128276
-0.020112918472640354   -0.011089592825460074   -0.0003329226617432946
-0.014285163580919297   -0.010922961495584003   -0.00012813041919473883
-0.020220581560831542   -0.0009738969580240137   -0.00027075323025128276
-0.014421045579170962   -0.0009380207840275703   -8.839597802221464e-05
-0.014356426673292145   -0.0010578924575403862   -0.00010813374412953184
-0.014285163580919297   -0.010922961495584003   -0.00012813041919473883
-0.020220581560831542   -0.0009738969580240137   -0.00027075323025128276
-0.014356426673292145   -0.0010578924575403862   -0.00010813374412953184
-0.020112918472640354   -0.011089592825460074   -0.0003329226617432946
-0.019991699559837327   -0.011252704832048563   -0.00038208757805471843
-0.020095043393081914   -0.0012279038017422952   -0.0002778629176662265
-0.026110385645369577   -0.01125851252250269   -0.0005054043513364251
-0.02005579923609932   -0.011174623704910434   -0.00035714701478646853
-0.020095043393081914   -0.0012279038017422952   -0.0002778629176662265
-0.026129402908433342   -0.0012189756076321154   -0.0004218746876294081
-0.026110385645369577   -0.01125851252250269   -0.0005054043513364251
-0.026165054807692417   -0.0011357883408991973   -0.0004218433757816651
-0.02005579923609932   -0.011174623704910434   -0.00035714701478646853
-0.026165484352813424   -0.011182710628949672   -0.0004947165384086132
-0.026165054807692417   -0.0011357883408991973   -0.0004218433757816651
-0.026110385645369577   -0.01125851252250269   -0.0005054043513364251
-0.02005579923609932   -0.011174623704910434   -0.00035714701478646853
-0.026165054807692417   -0.0011357883408991973   -0.0004218433757816651
-0.02013934703298428   -0.0011512540401711767   -0.0002742496813370059
-0.020095043393081914   -0.0012279038017422952   -0.0002778629176662265
-0.02005579923609932   -0.011174623704910434   -0.00035714701478646853
-0.026165054807692417   -0.0011357883408991973   -0.0004218433757816651
-0.020095043393081914   -0.0012279038017422952   -0.0002778629176662265
-0.026110385645369577   -0.01125851252250269   -0.0005054043513364251
-0.02005579923609932   -0.011174623704910434   -0.00035714701478646853
-0.02013934703298428   -0.0011512540401711767   -0.0002742496813370059
-0.026165484352813424   -0.011182710628949672   -0.0004947165384086132
-0.020112918472640354   -0.011089592825460074   -0.0003329226617432946
-0.02013934703298428   -0.0011512540401711767   -0.0002742496813370059
-0.026165054807692417   -0.0011357883408991973   -0.0004218433757816651
-0.026165484352813424   -0.011182710628949672   -0.0004947165384086132
-0.026204200350122164   -0.0010527555326528893   -0.0004282992994411779
-0.020112918472640354   -0.011089592825460074   -0.0003329226617432946
-0.02621484793865751   -0.011100768699973753   -0.00048222021399205785
-0.026204200350122164   -0.0010527555326528893   -0.0004282992994411779
-0.026165484352813424   -0.011182710628949672   -0.0004947165384086132
-0.020112918472640354   -0.011089592825460074   -0.0003329226617432946
-0.026204200350122164   -0.0010527555326528893   -0.0004282992994411779
-0.020185573432818987   -0.0010660460816036487   -0.0002718118121811842
-0.02013934703298428   -0.0011512540401711767   -0.0002742496813370059
-0.020112918472640354   -0.011089592825460074   -0.0003329226617432946
-0.026204200350122164   -0.0010527555326528893   -0.0004282992994411779
-0.02013934703298428   -0.0011512540401711767   -0.0002742496813370059
-0.026165484352813424   -0.011182710628949672   -0.0004947165384086132
-0.020112918472640354   -0.011089592825460074   -0.0003329226617432946
-0.020185573432818987   -0.0010660460816036487   -0.0002718118121811842
-0.02621484793865751   -0.011100768699973753   -0.00048222021399205785
-0.020164639271993683   -0.01099908465678459   -0.0003079850998296113
-0.020185573432818987   -0.0010660460816036487   -0.0002718118121811842
-0.026204200350122164   -0.0010527555326528893   -0.0004282992994411779
-0.02621484793865751   -0.011100768699973753   -0.00048222021399205785
-0.02623300670662275   -0.0009624068314660956   -0.0004351805405075932
-0.020164639271993683   -0.01099908465678459   -0.0003079850998296113
-0.026256390067323384   -0.011013997169078756   -0.0004706106588005744
-0.02623300670662275   -0.0009624068314660956   -0.0004351805405075932
-0.02621484793865751   -0.011100768699973753   -0.00048222021399205785
-0.020164639271993683   -0.01099908465678459   -0.0003079850998296113
-0.02623300670662275   -0.0009624068314660956   -0.0004351805405075932
-0.020220581560831542   -0.0009738969580240137   -0.00027075323025128276
-0.020185573432818987   -0.0010660460816036487   -0.0002718118121811842
-0.020164639271993683   -0.01099908465678459   -0.0003079850998296113
-0.02623300670662275   -0.0009624068314660956   -0.0004351805405075932
-0.020185573432818987   -0.0010660460816036487   -0.0002718118121811842
-0.02621484793865751   -0.011100768699973753   -0.00048222021399205785
              </DataArray>   
          </PointData>  
       </Piece>  
   </UnstructuredGrid> 
</VTKFile> 
