<?xml version="1.0"?> 
<VTKFile type="UnstructuredGrid"> 
   <UnstructuredGrid> 
      <Piece NumberOfPoints="6000"  NumberOfCells="1500">  
          <Points>  
             <DataArray type="Float64" NumberOfComponents="3" format="ascii">   
-500.0   0.0   0.0
-450.0   0.0   0.0
-500.0   30.0   0.0
-500.0   0.0   16.666666666666668
-450.0   0.0   0.0
-450.0   30.0   0.0
-500.0   30.0   0.0
-450.0   30.0   16.666666666666668
-500.0   0.0   16.666666666666668
-500.0   30.0   16.666666666666668
-450.0   30.0   16.666666666666668
-500.0   30.0   0.0
-500.0   0.0   16.666666666666668
-450.0   30.0   16.666666666666668
-450.0   0.0   16.666666666666668
-450.0   0.0   0.0
-500.0   0.0   16.666666666666668
-450.0   30.0   16.666666666666668
-450.0   0.0   0.0
-500.0   30.0   0.0
-500.0   0.0   16.666666666666668
-450.0   0.0   16.666666666666668
-500.0   30.0   16.666666666666668
-500.0   0.0   33.333333333333336
-450.0   0.0   16.666666666666668
-450.0   30.0   16.666666666666668
-500.0   30.0   16.666666666666668
-450.0   30.0   33.333333333333336
-500.0   0.0   33.333333333333336
-500.0   30.0   33.333333333333336
-450.0   30.0   33.333333333333336
-500.0   30.0   16.666666666666668
-500.0   0.0   33.333333333333336
-450.0   30.0   33.333333333333336
-450.0   0.0   33.333333333333336
-450.0   0.0   16.666666666666668
-500.0   0.0   33.333333333333336
-450.0   30.0   33.333333333333336
-450.0   0.0   16.666666666666668
-500.0   30.0   16.666666666666668
-500.0   0.0   33.333333333333336
-450.0   0.0   33.333333333333336
-500.0   30.0   33.333333333333336
-500.0   0.0   50.0
-450.0   0.0   33.333333333333336
-450.0   30.0   33.333333333333336
-500.0   30.0   33.333333333333336
-450.0   30.0   50.0
-500.0   0.0   50.0
-500.0   30.0   50.0
-450.0   30.0   50.0
-500.0   30.0   33.333333333333336
-500.0   0.0   50.0
-450.0   30.0   50.0
-450.0   0.0   50.0
-450.0   0.0   33.333333333333336
-500.0   0.0   50.0
-450.0   30.0   50.0
-450.0   0.0   33.333333333333336
-500.0   30.0   33.333333333333336
-500.0   30.0   0.0
-450.0   30.0   0.0
-500.0   60.0   0.0
-500.0   30.0   16.666666666666668
-450.0   30.0   0.0
-450.0   60.0   0.0
-500.0   60.0   0.0
-450.0   60.0   16.666666666666668
-500.0   30.0   16.666666666666668
-500.0   60.0   16.666666666666668
-450.0   60.0   16.666666666666668
-500.0   60.0   0.0
-500.0   30.0   16.666666666666668
-450.0   60.0   16.666666666666668
-450.0   30.0   16.666666666666668
-450.0   30.0   0.0
-500.0   30.0   16.666666666666668
-450.0   60.0   16.666666666666668
-450.0   30.0   0.0
-500.0   60.0   0.0
-500.0   30.0   16.666666666666668
-450.0   30.0   16.666666666666668
-500.0   60.0   16.666666666666668
-500.0   30.0   33.333333333333336
-450.0   30.0   16.666666666666668
-450.0   60.0   16.666666666666668
-500.0   60.0   16.666666666666668
-450.0   60.0   33.333333333333336
-500.0   30.0   33.333333333333336
-500.0   60.0   33.333333333333336
-450.0   60.0   33.333333333333336
-500.0   60.0   16.666666666666668
-500.0   30.0   33.333333333333336
-450.0   60.0   33.333333333333336
-450.0   30.0   33.333333333333336
-450.0   30.0   16.666666666666668
-500.0   30.0   33.333333333333336
-450.0   60.0   33.333333333333336
-450.0   30.0   16.666666666666668
-500.0   60.0   16.666666666666668
-500.0   30.0   33.333333333333336
-450.0   30.0   33.333333333333336
-500.0   60.0   33.333333333333336
-500.0   30.0   50.0
-450.0   30.0   33.333333333333336
-450.0   60.0   33.333333333333336
-500.0   60.0   33.333333333333336
-450.0   60.0   50.0
-500.0   30.0   50.0
-500.0   60.0   50.0
-450.0   60.0   50.0
-500.0   60.0   33.333333333333336
-500.0   30.0   50.0
-450.0   60.0   50.0
-450.0   30.0   50.0
-450.0   30.0   33.333333333333336
-500.0   30.0   50.0
-450.0   60.0   50.0
-450.0   30.0   33.333333333333336
-500.0   60.0   33.333333333333336
-500.0   60.0   0.0
-450.0   60.0   0.0
-500.0   90.0   0.0
-500.0   60.0   16.666666666666668
-450.0   60.0   0.0
-450.0   90.0   0.0
-500.0   90.0   0.0
-450.0   90.0   16.666666666666668
-500.0   60.0   16.666666666666668
-500.0   90.0   16.666666666666668
-450.0   90.0   16.666666666666668
-500.0   90.0   0.0
-500.0   60.0   16.666666666666668
-450.0   90.0   16.666666666666668
-450.0   60.0   16.666666666666668
-450.0   60.0   0.0
-500.0   60.0   16.666666666666668
-450.0   90.0   16.666666666666668
-450.0   60.0   0.0
-500.0   90.0   0.0
-500.0   60.0   16.666666666666668
-450.0   60.0   16.666666666666668
-500.0   90.0   16.666666666666668
-500.0   60.0   33.333333333333336
-450.0   60.0   16.666666666666668
-450.0   90.0   16.666666666666668
-500.0   90.0   16.666666666666668
-450.0   90.0   33.333333333333336
-500.0   60.0   33.333333333333336
-500.0   90.0   33.333333333333336
-450.0   90.0   33.333333333333336
-500.0   90.0   16.666666666666668
-500.0   60.0   33.333333333333336
-450.0   90.0   33.333333333333336
-450.0   60.0   33.333333333333336
-450.0   60.0   16.666666666666668
-500.0   60.0   33.333333333333336
-450.0   90.0   33.333333333333336
-450.0   60.0   16.666666666666668
-500.0   90.0   16.666666666666668
-500.0   60.0   33.333333333333336
-450.0   60.0   33.333333333333336
-500.0   90.0   33.333333333333336
-500.0   60.0   50.0
-450.0   60.0   33.333333333333336
-450.0   90.0   33.333333333333336
-500.0   90.0   33.333333333333336
-450.0   90.0   50.0
-500.0   60.0   50.0
-500.0   90.0   50.0
-450.0   90.0   50.0
-500.0   90.0   33.333333333333336
-500.0   60.0   50.0
-450.0   90.0   50.0
-450.0   60.0   50.0
-450.0   60.0   33.333333333333336
-500.0   60.0   50.0
-450.0   90.0   50.0
-450.0   60.0   33.333333333333336
-500.0   90.0   33.333333333333336
-500.0   90.0   0.0
-450.0   90.0   0.0
-500.0   120.0   0.0
-500.0   90.0   16.666666666666668
-450.0   90.0   0.0
-450.0   120.0   0.0
-500.0   120.0   0.0
-450.0   120.0   16.666666666666668
-500.0   90.0   16.666666666666668
-500.0   120.0   16.666666666666668
-450.0   120.0   16.666666666666668
-500.0   120.0   0.0
-500.0   90.0   16.666666666666668
-450.0   120.0   16.666666666666668
-450.0   90.0   16.666666666666668
-450.0   90.0   0.0
-500.0   90.0   16.666666666666668
-450.0   120.0   16.666666666666668
-450.0   90.0   0.0
-500.0   120.0   0.0
-500.0   90.0   16.666666666666668
-450.0   90.0   16.666666666666668
-500.0   120.0   16.666666666666668
-500.0   90.0   33.333333333333336
-450.0   90.0   16.666666666666668
-450.0   120.0   16.666666666666668
-500.0   120.0   16.666666666666668
-450.0   120.0   33.333333333333336
-500.0   90.0   33.333333333333336
-500.0   120.0   33.333333333333336
-450.0   120.0   33.333333333333336
-500.0   120.0   16.666666666666668
-500.0   90.0   33.333333333333336
-450.0   120.0   33.333333333333336
-450.0   90.0   33.333333333333336
-450.0   90.0   16.666666666666668
-500.0   90.0   33.333333333333336
-450.0   120.0   33.333333333333336
-450.0   90.0   16.666666666666668
-500.0   120.0   16.666666666666668
-500.0   90.0   33.333333333333336
-450.0   90.0   33.333333333333336
-500.0   120.0   33.333333333333336
-500.0   90.0   50.0
-450.0   90.0   33.333333333333336
-450.0   120.0   33.333333333333336
-500.0   120.0   33.333333333333336
-450.0   120.0   50.0
-500.0   90.0   50.0
-500.0   120.0   50.0
-450.0   120.0   50.0
-500.0   120.0   33.333333333333336
-500.0   90.0   50.0
-450.0   120.0   50.0
-450.0   90.0   50.0
-450.0   90.0   33.333333333333336
-500.0   90.0   50.0
-450.0   120.0   50.0
-450.0   90.0   33.333333333333336
-500.0   120.0   33.333333333333336
-500.0   120.0   0.0
-450.0   120.0   0.0
-500.0   150.0   0.0
-500.0   120.0   16.666666666666668
-450.0   120.0   0.0
-450.0   150.0   0.0
-500.0   150.0   0.0
-450.0   150.0   16.666666666666668
-500.0   120.0   16.666666666666668
-500.0   150.0   16.666666666666668
-450.0   150.0   16.666666666666668
-500.0   150.0   0.0
-500.0   120.0   16.666666666666668
-450.0   150.0   16.666666666666668
-450.0   120.0   16.666666666666668
-450.0   120.0   0.0
-500.0   120.0   16.666666666666668
-450.0   150.0   16.666666666666668
-450.0   120.0   0.0
-500.0   150.0   0.0
-500.0   120.0   16.666666666666668
-450.0   120.0   16.666666666666668
-500.0   150.0   16.666666666666668
-500.0   120.0   33.333333333333336
-450.0   120.0   16.666666666666668
-450.0   150.0   16.666666666666668
-500.0   150.0   16.666666666666668
-450.0   150.0   33.333333333333336
-500.0   120.0   33.333333333333336
-500.0   150.0   33.333333333333336
-450.0   150.0   33.333333333333336
-500.0   150.0   16.666666666666668
-500.0   120.0   33.333333333333336
-450.0   150.0   33.333333333333336
-450.0   120.0   33.333333333333336
-450.0   120.0   16.666666666666668
-500.0   120.0   33.333333333333336
-450.0   150.0   33.333333333333336
-450.0   120.0   16.666666666666668
-500.0   150.0   16.666666666666668
-500.0   120.0   33.333333333333336
-450.0   120.0   33.333333333333336
-500.0   150.0   33.333333333333336
-500.0   120.0   50.0
-450.0   120.0   33.333333333333336
-450.0   150.0   33.333333333333336
-500.0   150.0   33.333333333333336
-450.0   150.0   50.0
-500.0   120.0   50.0
-500.0   150.0   50.0
-450.0   150.0   50.0
-500.0   150.0   33.333333333333336
-500.0   120.0   50.0
-450.0   150.0   50.0
-450.0   120.0   50.0
-450.0   120.0   33.333333333333336
-500.0   120.0   50.0
-450.0   150.0   50.0
-450.0   120.0   33.333333333333336
-500.0   150.0   33.333333333333336
-450.0   0.0   0.0
-400.0   0.0   0.0
-450.0   30.0   0.0
-450.0   0.0   16.666666666666668
-400.0   0.0   0.0
-400.0   30.0   0.0
-450.0   30.0   0.0
-400.0   30.0   16.666666666666668
-450.0   0.0   16.666666666666668
-450.0   30.0   16.666666666666668
-400.0   30.0   16.666666666666668
-450.0   30.0   0.0
-450.0   0.0   16.666666666666668
-400.0   30.0   16.666666666666668
-400.0   0.0   16.666666666666668
-400.0   0.0   0.0
-450.0   0.0   16.666666666666668
-400.0   30.0   16.666666666666668
-400.0   0.0   0.0
-450.0   30.0   0.0
-450.0   0.0   16.666666666666668
-400.0   0.0   16.666666666666668
-450.0   30.0   16.666666666666668
-450.0   0.0   33.333333333333336
-400.0   0.0   16.666666666666668
-400.0   30.0   16.666666666666668
-450.0   30.0   16.666666666666668
-400.0   30.0   33.333333333333336
-450.0   0.0   33.333333333333336
-450.0   30.0   33.333333333333336
-400.0   30.0   33.333333333333336
-450.0   30.0   16.666666666666668
-450.0   0.0   33.333333333333336
-400.0   30.0   33.333333333333336
-400.0   0.0   33.333333333333336
-400.0   0.0   16.666666666666668
-450.0   0.0   33.333333333333336
-400.0   30.0   33.333333333333336
-400.0   0.0   16.666666666666668
-450.0   30.0   16.666666666666668
-450.0   0.0   33.333333333333336
-400.0   0.0   33.333333333333336
-450.0   30.0   33.333333333333336
-450.0   0.0   50.0
-400.0   0.0   33.333333333333336
-400.0   30.0   33.333333333333336
-450.0   30.0   33.333333333333336
-400.0   30.0   50.0
-450.0   0.0   50.0
-450.0   30.0   50.0
-400.0   30.0   50.0
-450.0   30.0   33.333333333333336
-450.0   0.0   50.0
-400.0   30.0   50.0
-400.0   0.0   50.0
-400.0   0.0   33.333333333333336
-450.0   0.0   50.0
-400.0   30.0   50.0
-400.0   0.0   33.333333333333336
-450.0   30.0   33.333333333333336
-450.0   30.0   0.0
-400.0   30.0   0.0
-450.0   60.0   0.0
-450.0   30.0   16.666666666666668
-400.0   30.0   0.0
-400.0   60.0   0.0
-450.0   60.0   0.0
-400.0   60.0   16.666666666666668
-450.0   30.0   16.666666666666668
-450.0   60.0   16.666666666666668
-400.0   60.0   16.666666666666668
-450.0   60.0   0.0
-450.0   30.0   16.666666666666668
-400.0   60.0   16.666666666666668
-400.0   30.0   16.666666666666668
-400.0   30.0   0.0
-450.0   30.0   16.666666666666668
-400.0   60.0   16.666666666666668
-400.0   30.0   0.0
-450.0   60.0   0.0
-450.0   30.0   16.666666666666668
-400.0   30.0   16.666666666666668
-450.0   60.0   16.666666666666668
-450.0   30.0   33.333333333333336
-400.0   30.0   16.666666666666668
-400.0   60.0   16.666666666666668
-450.0   60.0   16.666666666666668
-400.0   60.0   33.333333333333336
-450.0   30.0   33.333333333333336
-450.0   60.0   33.333333333333336
-400.0   60.0   33.333333333333336
-450.0   60.0   16.666666666666668
-450.0   30.0   33.333333333333336
-400.0   60.0   33.333333333333336
-400.0   30.0   33.333333333333336
-400.0   30.0   16.666666666666668
-450.0   30.0   33.333333333333336
-400.0   60.0   33.333333333333336
-400.0   30.0   16.666666666666668
-450.0   60.0   16.666666666666668
-450.0   30.0   33.333333333333336
-400.0   30.0   33.333333333333336
-450.0   60.0   33.333333333333336
-450.0   30.0   50.0
-400.0   30.0   33.333333333333336
-400.0   60.0   33.333333333333336
-450.0   60.0   33.333333333333336
-400.0   60.0   50.0
-450.0   30.0   50.0
-450.0   60.0   50.0
-400.0   60.0   50.0
-450.0   60.0   33.333333333333336
-450.0   30.0   50.0
-400.0   60.0   50.0
-400.0   30.0   50.0
-400.0   30.0   33.333333333333336
-450.0   30.0   50.0
-400.0   60.0   50.0
-400.0   30.0   33.333333333333336
-450.0   60.0   33.333333333333336
-450.0   60.0   0.0
-400.0   60.0   0.0
-450.0   90.0   0.0
-450.0   60.0   16.666666666666668
-400.0   60.0   0.0
-400.0   90.0   0.0
-450.0   90.0   0.0
-400.0   90.0   16.666666666666668
-450.0   60.0   16.666666666666668
-450.0   90.0   16.666666666666668
-400.0   90.0   16.666666666666668
-450.0   90.0   0.0
-450.0   60.0   16.666666666666668
-400.0   90.0   16.666666666666668
-400.0   60.0   16.666666666666668
-400.0   60.0   0.0
-450.0   60.0   16.666666666666668
-400.0   90.0   16.666666666666668
-400.0   60.0   0.0
-450.0   90.0   0.0
-450.0   60.0   16.666666666666668
-400.0   60.0   16.666666666666668
-450.0   90.0   16.666666666666668
-450.0   60.0   33.333333333333336
-400.0   60.0   16.666666666666668
-400.0   90.0   16.666666666666668
-450.0   90.0   16.666666666666668
-400.0   90.0   33.333333333333336
-450.0   60.0   33.333333333333336
-450.0   90.0   33.333333333333336
-400.0   90.0   33.333333333333336
-450.0   90.0   16.666666666666668
-450.0   60.0   33.333333333333336
-400.0   90.0   33.333333333333336
-400.0   60.0   33.333333333333336
-400.0   60.0   16.666666666666668
-450.0   60.0   33.333333333333336
-400.0   90.0   33.333333333333336
-400.0   60.0   16.666666666666668
-450.0   90.0   16.666666666666668
-450.0   60.0   33.333333333333336
-400.0   60.0   33.333333333333336
-450.0   90.0   33.333333333333336
-450.0   60.0   50.0
-400.0   60.0   33.333333333333336
-400.0   90.0   33.333333333333336
-450.0   90.0   33.333333333333336
-400.0   90.0   50.0
-450.0   60.0   50.0
-450.0   90.0   50.0
-400.0   90.0   50.0
-450.0   90.0   33.333333333333336
-450.0   60.0   50.0
-400.0   90.0   50.0
-400.0   60.0   50.0
-400.0   60.0   33.333333333333336
-450.0   60.0   50.0
-400.0   90.0   50.0
-400.0   60.0   33.333333333333336
-450.0   90.0   33.333333333333336
-450.0   90.0   0.0
-400.0   90.0   0.0
-450.0   120.0   0.0
-450.0   90.0   16.666666666666668
-400.0   90.0   0.0
-400.0   120.0   0.0
-450.0   120.0   0.0
-400.0   120.0   16.666666666666668
-450.0   90.0   16.666666666666668
-450.0   120.0   16.666666666666668
-400.0   120.0   16.666666666666668
-450.0   120.0   0.0
-450.0   90.0   16.666666666666668
-400.0   120.0   16.666666666666668
-400.0   90.0   16.666666666666668
-400.0   90.0   0.0
-450.0   90.0   16.666666666666668
-400.0   120.0   16.666666666666668
-400.0   90.0   0.0
-450.0   120.0   0.0
-450.0   90.0   16.666666666666668
-400.0   90.0   16.666666666666668
-450.0   120.0   16.666666666666668
-450.0   90.0   33.333333333333336
-400.0   90.0   16.666666666666668
-400.0   120.0   16.666666666666668
-450.0   120.0   16.666666666666668
-400.0   120.0   33.333333333333336
-450.0   90.0   33.333333333333336
-450.0   120.0   33.333333333333336
-400.0   120.0   33.333333333333336
-450.0   120.0   16.666666666666668
-450.0   90.0   33.333333333333336
-400.0   120.0   33.333333333333336
-400.0   90.0   33.333333333333336
-400.0   90.0   16.666666666666668
-450.0   90.0   33.333333333333336
-400.0   120.0   33.333333333333336
-400.0   90.0   16.666666666666668
-450.0   120.0   16.666666666666668
-450.0   90.0   33.333333333333336
-400.0   90.0   33.333333333333336
-450.0   120.0   33.333333333333336
-450.0   90.0   50.0
-400.0   90.0   33.333333333333336
-400.0   120.0   33.333333333333336
-450.0   120.0   33.333333333333336
-400.0   120.0   50.0
-450.0   90.0   50.0
-450.0   120.0   50.0
-400.0   120.0   50.0
-450.0   120.0   33.333333333333336
-450.0   90.0   50.0
-400.0   120.0   50.0
-400.0   90.0   50.0
-400.0   90.0   33.333333333333336
-450.0   90.0   50.0
-400.0   120.0   50.0
-400.0   90.0   33.333333333333336
-450.0   120.0   33.333333333333336
-450.0   120.0   0.0
-400.0   120.0   0.0
-450.0   150.0   0.0
-450.0   120.0   16.666666666666668
-400.0   120.0   0.0
-400.0   150.0   0.0
-450.0   150.0   0.0
-400.0   150.0   16.666666666666668
-450.0   120.0   16.666666666666668
-450.0   150.0   16.666666666666668
-400.0   150.0   16.666666666666668
-450.0   150.0   0.0
-450.0   120.0   16.666666666666668
-400.0   150.0   16.666666666666668
-400.0   120.0   16.666666666666668
-400.0   120.0   0.0
-450.0   120.0   16.666666666666668
-400.0   150.0   16.666666666666668
-400.0   120.0   0.0
-450.0   150.0   0.0
-450.0   120.0   16.666666666666668
-400.0   120.0   16.666666666666668
-450.0   150.0   16.666666666666668
-450.0   120.0   33.333333333333336
-400.0   120.0   16.666666666666668
-400.0   150.0   16.666666666666668
-450.0   150.0   16.666666666666668
-400.0   150.0   33.333333333333336
-450.0   120.0   33.333333333333336
-450.0   150.0   33.333333333333336
-400.0   150.0   33.333333333333336
-450.0   150.0   16.666666666666668
-450.0   120.0   33.333333333333336
-400.0   150.0   33.333333333333336
-400.0   120.0   33.333333333333336
-400.0   120.0   16.666666666666668
-450.0   120.0   33.333333333333336
-400.0   150.0   33.333333333333336
-400.0   120.0   16.666666666666668
-450.0   150.0   16.666666666666668
-450.0   120.0   33.333333333333336
-400.0   120.0   33.333333333333336
-450.0   150.0   33.333333333333336
-450.0   120.0   50.0
-400.0   120.0   33.333333333333336
-400.0   150.0   33.333333333333336
-450.0   150.0   33.333333333333336
-400.0   150.0   50.0
-450.0   120.0   50.0
-450.0   150.0   50.0
-400.0   150.0   50.0
-450.0   150.0   33.333333333333336
-450.0   120.0   50.0
-400.0   150.0   50.0
-400.0   120.0   50.0
-400.0   120.0   33.333333333333336
-450.0   120.0   50.0
-400.0   150.0   50.0
-400.0   120.0   33.333333333333336
-450.0   150.0   33.333333333333336
-400.0   0.0   0.0
-350.0   0.0   0.0
-400.0   30.0   0.0
-400.0   0.0   16.666666666666668
-350.0   0.0   0.0
-350.0   30.0   0.0
-400.0   30.0   0.0
-350.0   30.0   16.666666666666668
-400.0   0.0   16.666666666666668
-400.0   30.0   16.666666666666668
-350.0   30.0   16.666666666666668
-400.0   30.0   0.0
-400.0   0.0   16.666666666666668
-350.0   30.0   16.666666666666668
-350.0   0.0   16.666666666666668
-350.0   0.0   0.0
-400.0   0.0   16.666666666666668
-350.0   30.0   16.666666666666668
-350.0   0.0   0.0
-400.0   30.0   0.0
-400.0   0.0   16.666666666666668
-350.0   0.0   16.666666666666668
-400.0   30.0   16.666666666666668
-400.0   0.0   33.333333333333336
-350.0   0.0   16.666666666666668
-350.0   30.0   16.666666666666668
-400.0   30.0   16.666666666666668
-350.0   30.0   33.333333333333336
-400.0   0.0   33.333333333333336
-400.0   30.0   33.333333333333336
-350.0   30.0   33.333333333333336
-400.0   30.0   16.666666666666668
-400.0   0.0   33.333333333333336
-350.0   30.0   33.333333333333336
-350.0   0.0   33.333333333333336
-350.0   0.0   16.666666666666668
-400.0   0.0   33.333333333333336
-350.0   30.0   33.333333333333336
-350.0   0.0   16.666666666666668
-400.0   30.0   16.666666666666668
-400.0   0.0   33.333333333333336
-350.0   0.0   33.333333333333336
-400.0   30.0   33.333333333333336
-400.0   0.0   50.0
-350.0   0.0   33.333333333333336
-350.0   30.0   33.333333333333336
-400.0   30.0   33.333333333333336
-350.0   30.0   50.0
-400.0   0.0   50.0
-400.0   30.0   50.0
-350.0   30.0   50.0
-400.0   30.0   33.333333333333336
-400.0   0.0   50.0
-350.0   30.0   50.0
-350.0   0.0   50.0
-350.0   0.0   33.333333333333336
-400.0   0.0   50.0
-350.0   30.0   50.0
-350.0   0.0   33.333333333333336
-400.0   30.0   33.333333333333336
-400.0   30.0   0.0
-350.0   30.0   0.0
-400.0   60.0   0.0
-400.0   30.0   16.666666666666668
-350.0   30.0   0.0
-350.0   60.0   0.0
-400.0   60.0   0.0
-350.0   60.0   16.666666666666668
-400.0   30.0   16.666666666666668
-400.0   60.0   16.666666666666668
-350.0   60.0   16.666666666666668
-400.0   60.0   0.0
-400.0   30.0   16.666666666666668
-350.0   60.0   16.666666666666668
-350.0   30.0   16.666666666666668
-350.0   30.0   0.0
-400.0   30.0   16.666666666666668
-350.0   60.0   16.666666666666668
-350.0   30.0   0.0
-400.0   60.0   0.0
-400.0   30.0   16.666666666666668
-350.0   30.0   16.666666666666668
-400.0   60.0   16.666666666666668
-400.0   30.0   33.333333333333336
-350.0   30.0   16.666666666666668
-350.0   60.0   16.666666666666668
-400.0   60.0   16.666666666666668
-350.0   60.0   33.333333333333336
-400.0   30.0   33.333333333333336
-400.0   60.0   33.333333333333336
-350.0   60.0   33.333333333333336
-400.0   60.0   16.666666666666668
-400.0   30.0   33.333333333333336
-350.0   60.0   33.333333333333336
-350.0   30.0   33.333333333333336
-350.0   30.0   16.666666666666668
-400.0   30.0   33.333333333333336
-350.0   60.0   33.333333333333336
-350.0   30.0   16.666666666666668
-400.0   60.0   16.666666666666668
-400.0   30.0   33.333333333333336
-350.0   30.0   33.333333333333336
-400.0   60.0   33.333333333333336
-400.0   30.0   50.0
-350.0   30.0   33.333333333333336
-350.0   60.0   33.333333333333336
-400.0   60.0   33.333333333333336
-350.0   60.0   50.0
-400.0   30.0   50.0
-400.0   60.0   50.0
-350.0   60.0   50.0
-400.0   60.0   33.333333333333336
-400.0   30.0   50.0
-350.0   60.0   50.0
-350.0   30.0   50.0
-350.0   30.0   33.333333333333336
-400.0   30.0   50.0
-350.0   60.0   50.0
-350.0   30.0   33.333333333333336
-400.0   60.0   33.333333333333336
-400.0   60.0   0.0
-350.0   60.0   0.0
-400.0   90.0   0.0
-400.0   60.0   16.666666666666668
-350.0   60.0   0.0
-350.0   90.0   0.0
-400.0   90.0   0.0
-350.0   90.0   16.666666666666668
-400.0   60.0   16.666666666666668
-400.0   90.0   16.666666666666668
-350.0   90.0   16.666666666666668
-400.0   90.0   0.0
-400.0   60.0   16.666666666666668
-350.0   90.0   16.666666666666668
-350.0   60.0   16.666666666666668
-350.0   60.0   0.0
-400.0   60.0   16.666666666666668
-350.0   90.0   16.666666666666668
-350.0   60.0   0.0
-400.0   90.0   0.0
-400.0   60.0   16.666666666666668
-350.0   60.0   16.666666666666668
-400.0   90.0   16.666666666666668
-400.0   60.0   33.333333333333336
-350.0   60.0   16.666666666666668
-350.0   90.0   16.666666666666668
-400.0   90.0   16.666666666666668
-350.0   90.0   33.333333333333336
-400.0   60.0   33.333333333333336
-400.0   90.0   33.333333333333336
-350.0   90.0   33.333333333333336
-400.0   90.0   16.666666666666668
-400.0   60.0   33.333333333333336
-350.0   90.0   33.333333333333336
-350.0   60.0   33.333333333333336
-350.0   60.0   16.666666666666668
-400.0   60.0   33.333333333333336
-350.0   90.0   33.333333333333336
-350.0   60.0   16.666666666666668
-400.0   90.0   16.666666666666668
-400.0   60.0   33.333333333333336
-350.0   60.0   33.333333333333336
-400.0   90.0   33.333333333333336
-400.0   60.0   50.0
-350.0   60.0   33.333333333333336
-350.0   90.0   33.333333333333336
-400.0   90.0   33.333333333333336
-350.0   90.0   50.0
-400.0   60.0   50.0
-400.0   90.0   50.0
-350.0   90.0   50.0
-400.0   90.0   33.333333333333336
-400.0   60.0   50.0
-350.0   90.0   50.0
-350.0   60.0   50.0
-350.0   60.0   33.333333333333336
-400.0   60.0   50.0
-350.0   90.0   50.0
-350.0   60.0   33.333333333333336
-400.0   90.0   33.333333333333336
-400.0   90.0   0.0
-350.0   90.0   0.0
-400.0   120.0   0.0
-400.0   90.0   16.666666666666668
-350.0   90.0   0.0
-350.0   120.0   0.0
-400.0   120.0   0.0
-350.0   120.0   16.666666666666668
-400.0   90.0   16.666666666666668
-400.0   120.0   16.666666666666668
-350.0   120.0   16.666666666666668
-400.0   120.0   0.0
-400.0   90.0   16.666666666666668
-350.0   120.0   16.666666666666668
-350.0   90.0   16.666666666666668
-350.0   90.0   0.0
-400.0   90.0   16.666666666666668
-350.0   120.0   16.666666666666668
-350.0   90.0   0.0
-400.0   120.0   0.0
-400.0   90.0   16.666666666666668
-350.0   90.0   16.666666666666668
-400.0   120.0   16.666666666666668
-400.0   90.0   33.333333333333336
-350.0   90.0   16.666666666666668
-350.0   120.0   16.666666666666668
-400.0   120.0   16.666666666666668
-350.0   120.0   33.333333333333336
-400.0   90.0   33.333333333333336
-400.0   120.0   33.333333333333336
-350.0   120.0   33.333333333333336
-400.0   120.0   16.666666666666668
-400.0   90.0   33.333333333333336
-350.0   120.0   33.333333333333336
-350.0   90.0   33.333333333333336
-350.0   90.0   16.666666666666668
-400.0   90.0   33.333333333333336
-350.0   120.0   33.333333333333336
-350.0   90.0   16.666666666666668
-400.0   120.0   16.666666666666668
-400.0   90.0   33.333333333333336
-350.0   90.0   33.333333333333336
-400.0   120.0   33.333333333333336
-400.0   90.0   50.0
-350.0   90.0   33.333333333333336
-350.0   120.0   33.333333333333336
-400.0   120.0   33.333333333333336
-350.0   120.0   50.0
-400.0   90.0   50.0
-400.0   120.0   50.0
-350.0   120.0   50.0
-400.0   120.0   33.333333333333336
-400.0   90.0   50.0
-350.0   120.0   50.0
-350.0   90.0   50.0
-350.0   90.0   33.333333333333336
-400.0   90.0   50.0
-350.0   120.0   50.0
-350.0   90.0   33.333333333333336
-400.0   120.0   33.333333333333336
-400.0   120.0   0.0
-350.0   120.0   0.0
-400.0   150.0   0.0
-400.0   120.0   16.666666666666668
-350.0   120.0   0.0
-350.0   150.0   0.0
-400.0   150.0   0.0
-350.0   150.0   16.666666666666668
-400.0   120.0   16.666666666666668
-400.0   150.0   16.666666666666668
-350.0   150.0   16.666666666666668
-400.0   150.0   0.0
-400.0   120.0   16.666666666666668
-350.0   150.0   16.666666666666668
-350.0   120.0   16.666666666666668
-350.0   120.0   0.0
-400.0   120.0   16.666666666666668
-350.0   150.0   16.666666666666668
-350.0   120.0   0.0
-400.0   150.0   0.0
-400.0   120.0   16.666666666666668
-350.0   120.0   16.666666666666668
-400.0   150.0   16.666666666666668
-400.0   120.0   33.333333333333336
-350.0   120.0   16.666666666666668
-350.0   150.0   16.666666666666668
-400.0   150.0   16.666666666666668
-350.0   150.0   33.333333333333336
-400.0   120.0   33.333333333333336
-400.0   150.0   33.333333333333336
-350.0   150.0   33.333333333333336
-400.0   150.0   16.666666666666668
-400.0   120.0   33.333333333333336
-350.0   150.0   33.333333333333336
-350.0   120.0   33.333333333333336
-350.0   120.0   16.666666666666668
-400.0   120.0   33.333333333333336
-350.0   150.0   33.333333333333336
-350.0   120.0   16.666666666666668
-400.0   150.0   16.666666666666668
-400.0   120.0   33.333333333333336
-350.0   120.0   33.333333333333336
-400.0   150.0   33.333333333333336
-400.0   120.0   50.0
-350.0   120.0   33.333333333333336
-350.0   150.0   33.333333333333336
-400.0   150.0   33.333333333333336
-350.0   150.0   50.0
-400.0   120.0   50.0
-400.0   150.0   50.0
-350.0   150.0   50.0
-400.0   150.0   33.333333333333336
-400.0   120.0   50.0
-350.0   150.0   50.0
-350.0   120.0   50.0
-350.0   120.0   33.333333333333336
-400.0   120.0   50.0
-350.0   150.0   50.0
-350.0   120.0   33.333333333333336
-400.0   150.0   33.333333333333336
-350.0   0.0   0.0
-300.0   0.0   0.0
-350.0   30.0   0.0
-350.0   0.0   16.666666666666668
-300.0   0.0   0.0
-300.0   30.0   0.0
-350.0   30.0   0.0
-300.0   30.0   16.666666666666668
-350.0   0.0   16.666666666666668
-350.0   30.0   16.666666666666668
-300.0   30.0   16.666666666666668
-350.0   30.0   0.0
-350.0   0.0   16.666666666666668
-300.0   30.0   16.666666666666668
-300.0   0.0   16.666666666666668
-300.0   0.0   0.0
-350.0   0.0   16.666666666666668
-300.0   30.0   16.666666666666668
-300.0   0.0   0.0
-350.0   30.0   0.0
-350.0   0.0   16.666666666666668
-300.0   0.0   16.666666666666668
-350.0   30.0   16.666666666666668
-350.0   0.0   33.333333333333336
-300.0   0.0   16.666666666666668
-300.0   30.0   16.666666666666668
-350.0   30.0   16.666666666666668
-300.0   30.0   33.333333333333336
-350.0   0.0   33.333333333333336
-350.0   30.0   33.333333333333336
-300.0   30.0   33.333333333333336
-350.0   30.0   16.666666666666668
-350.0   0.0   33.333333333333336
-300.0   30.0   33.333333333333336
-300.0   0.0   33.333333333333336
-300.0   0.0   16.666666666666668
-350.0   0.0   33.333333333333336
-300.0   30.0   33.333333333333336
-300.0   0.0   16.666666666666668
-350.0   30.0   16.666666666666668
-350.0   0.0   33.333333333333336
-300.0   0.0   33.333333333333336
-350.0   30.0   33.333333333333336
-350.0   0.0   50.0
-300.0   0.0   33.333333333333336
-300.0   30.0   33.333333333333336
-350.0   30.0   33.333333333333336
-300.0   30.0   50.0
-350.0   0.0   50.0
-350.0   30.0   50.0
-300.0   30.0   50.0
-350.0   30.0   33.333333333333336
-350.0   0.0   50.0
-300.0   30.0   50.0
-300.0   0.0   50.0
-300.0   0.0   33.333333333333336
-350.0   0.0   50.0
-300.0   30.0   50.0
-300.0   0.0   33.333333333333336
-350.0   30.0   33.333333333333336
-350.0   30.0   0.0
-300.0   30.0   0.0
-350.0   60.0   0.0
-350.0   30.0   16.666666666666668
-300.0   30.0   0.0
-300.0   60.0   0.0
-350.0   60.0   0.0
-300.0   60.0   16.666666666666668
-350.0   30.0   16.666666666666668
-350.0   60.0   16.666666666666668
-300.0   60.0   16.666666666666668
-350.0   60.0   0.0
-350.0   30.0   16.666666666666668
-300.0   60.0   16.666666666666668
-300.0   30.0   16.666666666666668
-300.0   30.0   0.0
-350.0   30.0   16.666666666666668
-300.0   60.0   16.666666666666668
-300.0   30.0   0.0
-350.0   60.0   0.0
-350.0   30.0   16.666666666666668
-300.0   30.0   16.666666666666668
-350.0   60.0   16.666666666666668
-350.0   30.0   33.333333333333336
-300.0   30.0   16.666666666666668
-300.0   60.0   16.666666666666668
-350.0   60.0   16.666666666666668
-300.0   60.0   33.333333333333336
-350.0   30.0   33.333333333333336
-350.0   60.0   33.333333333333336
-300.0   60.0   33.333333333333336
-350.0   60.0   16.666666666666668
-350.0   30.0   33.333333333333336
-300.0   60.0   33.333333333333336
-300.0   30.0   33.333333333333336
-300.0   30.0   16.666666666666668
-350.0   30.0   33.333333333333336
-300.0   60.0   33.333333333333336
-300.0   30.0   16.666666666666668
-350.0   60.0   16.666666666666668
-350.0   30.0   33.333333333333336
-300.0   30.0   33.333333333333336
-350.0   60.0   33.333333333333336
-350.0   30.0   50.0
-300.0   30.0   33.333333333333336
-300.0   60.0   33.333333333333336
-350.0   60.0   33.333333333333336
-300.0   60.0   50.0
-350.0   30.0   50.0
-350.0   60.0   50.0
-300.0   60.0   50.0
-350.0   60.0   33.333333333333336
-350.0   30.0   50.0
-300.0   60.0   50.0
-300.0   30.0   50.0
-300.0   30.0   33.333333333333336
-350.0   30.0   50.0
-300.0   60.0   50.0
-300.0   30.0   33.333333333333336
-350.0   60.0   33.333333333333336
-350.0   60.0   0.0
-300.0   60.0   0.0
-350.0   90.0   0.0
-350.0   60.0   16.666666666666668
-300.0   60.0   0.0
-300.0   90.0   0.0
-350.0   90.0   0.0
-300.0   90.0   16.666666666666668
-350.0   60.0   16.666666666666668
-350.0   90.0   16.666666666666668
-300.0   90.0   16.666666666666668
-350.0   90.0   0.0
-350.0   60.0   16.666666666666668
-300.0   90.0   16.666666666666668
-300.0   60.0   16.666666666666668
-300.0   60.0   0.0
-350.0   60.0   16.666666666666668
-300.0   90.0   16.666666666666668
-300.0   60.0   0.0
-350.0   90.0   0.0
-350.0   60.0   16.666666666666668
-300.0   60.0   16.666666666666668
-350.0   90.0   16.666666666666668
-350.0   60.0   33.333333333333336
-300.0   60.0   16.666666666666668
-300.0   90.0   16.666666666666668
-350.0   90.0   16.666666666666668
-300.0   90.0   33.333333333333336
-350.0   60.0   33.333333333333336
-350.0   90.0   33.333333333333336
-300.0   90.0   33.333333333333336
-350.0   90.0   16.666666666666668
-350.0   60.0   33.333333333333336
-300.0   90.0   33.333333333333336
-300.0   60.0   33.333333333333336
-300.0   60.0   16.666666666666668
-350.0   60.0   33.333333333333336
-300.0   90.0   33.333333333333336
-300.0   60.0   16.666666666666668
-350.0   90.0   16.666666666666668
-350.0   60.0   33.333333333333336
-300.0   60.0   33.333333333333336
-350.0   90.0   33.333333333333336
-350.0   60.0   50.0
-300.0   60.0   33.333333333333336
-300.0   90.0   33.333333333333336
-350.0   90.0   33.333333333333336
-300.0   90.0   50.0
-350.0   60.0   50.0
-350.0   90.0   50.0
-300.0   90.0   50.0
-350.0   90.0   33.333333333333336
-350.0   60.0   50.0
-300.0   90.0   50.0
-300.0   60.0   50.0
-300.0   60.0   33.333333333333336
-350.0   60.0   50.0
-300.0   90.0   50.0
-300.0   60.0   33.333333333333336
-350.0   90.0   33.333333333333336
-350.0   90.0   0.0
-300.0   90.0   0.0
-350.0   120.0   0.0
-350.0   90.0   16.666666666666668
-300.0   90.0   0.0
-300.0   120.0   0.0
-350.0   120.0   0.0
-300.0   120.0   16.666666666666668
-350.0   90.0   16.666666666666668
-350.0   120.0   16.666666666666668
-300.0   120.0   16.666666666666668
-350.0   120.0   0.0
-350.0   90.0   16.666666666666668
-300.0   120.0   16.666666666666668
-300.0   90.0   16.666666666666668
-300.0   90.0   0.0
-350.0   90.0   16.666666666666668
-300.0   120.0   16.666666666666668
-300.0   90.0   0.0
-350.0   120.0   0.0
-350.0   90.0   16.666666666666668
-300.0   90.0   16.666666666666668
-350.0   120.0   16.666666666666668
-350.0   90.0   33.333333333333336
-300.0   90.0   16.666666666666668
-300.0   120.0   16.666666666666668
-350.0   120.0   16.666666666666668
-300.0   120.0   33.333333333333336
-350.0   90.0   33.333333333333336
-350.0   120.0   33.333333333333336
-300.0   120.0   33.333333333333336
-350.0   120.0   16.666666666666668
-350.0   90.0   33.333333333333336
-300.0   120.0   33.333333333333336
-300.0   90.0   33.333333333333336
-300.0   90.0   16.666666666666668
-350.0   90.0   33.333333333333336
-300.0   120.0   33.333333333333336
-300.0   90.0   16.666666666666668
-350.0   120.0   16.666666666666668
-350.0   90.0   33.333333333333336
-300.0   90.0   33.333333333333336
-350.0   120.0   33.333333333333336
-350.0   90.0   50.0
-300.0   90.0   33.333333333333336
-300.0   120.0   33.333333333333336
-350.0   120.0   33.333333333333336
-300.0   120.0   50.0
-350.0   90.0   50.0
-350.0   120.0   50.0
-300.0   120.0   50.0
-350.0   120.0   33.333333333333336
-350.0   90.0   50.0
-300.0   120.0   50.0
-300.0   90.0   50.0
-300.0   90.0   33.333333333333336
-350.0   90.0   50.0
-300.0   120.0   50.0
-300.0   90.0   33.333333333333336
-350.0   120.0   33.333333333333336
-350.0   120.0   0.0
-300.0   120.0   0.0
-350.0   150.0   0.0
-350.0   120.0   16.666666666666668
-300.0   120.0   0.0
-300.0   150.0   0.0
-350.0   150.0   0.0
-300.0   150.0   16.666666666666668
-350.0   120.0   16.666666666666668
-350.0   150.0   16.666666666666668
-300.0   150.0   16.666666666666668
-350.0   150.0   0.0
-350.0   120.0   16.666666666666668
-300.0   150.0   16.666666666666668
-300.0   120.0   16.666666666666668
-300.0   120.0   0.0
-350.0   120.0   16.666666666666668
-300.0   150.0   16.666666666666668
-300.0   120.0   0.0
-350.0   150.0   0.0
-350.0   120.0   16.666666666666668
-300.0   120.0   16.666666666666668
-350.0   150.0   16.666666666666668
-350.0   120.0   33.333333333333336
-300.0   120.0   16.666666666666668
-300.0   150.0   16.666666666666668
-350.0   150.0   16.666666666666668
-300.0   150.0   33.333333333333336
-350.0   120.0   33.333333333333336
-350.0   150.0   33.333333333333336
-300.0   150.0   33.333333333333336
-350.0   150.0   16.666666666666668
-350.0   120.0   33.333333333333336
-300.0   150.0   33.333333333333336
-300.0   120.0   33.333333333333336
-300.0   120.0   16.666666666666668
-350.0   120.0   33.333333333333336
-300.0   150.0   33.333333333333336
-300.0   120.0   16.666666666666668
-350.0   150.0   16.666666666666668
-350.0   120.0   33.333333333333336
-300.0   120.0   33.333333333333336
-350.0   150.0   33.333333333333336
-350.0   120.0   50.0
-300.0   120.0   33.333333333333336
-300.0   150.0   33.333333333333336
-350.0   150.0   33.333333333333336
-300.0   150.0   50.0
-350.0   120.0   50.0
-350.0   150.0   50.0
-300.0   150.0   50.0
-350.0   150.0   33.333333333333336
-350.0   120.0   50.0
-300.0   150.0   50.0
-300.0   120.0   50.0
-300.0   120.0   33.333333333333336
-350.0   120.0   50.0
-300.0   150.0   50.0
-300.0   120.0   33.333333333333336
-350.0   150.0   33.333333333333336
-300.0   0.0   0.0
-250.0   0.0   0.0
-300.0   30.0   0.0
-300.0   0.0   16.666666666666668
-250.0   0.0   0.0
-250.0   30.0   0.0
-300.0   30.0   0.0
-250.0   30.0   16.666666666666668
-300.0   0.0   16.666666666666668
-300.0   30.0   16.666666666666668
-250.0   30.0   16.666666666666668
-300.0   30.0   0.0
-300.0   0.0   16.666666666666668
-250.0   30.0   16.666666666666668
-250.0   0.0   16.666666666666668
-250.0   0.0   0.0
-300.0   0.0   16.666666666666668
-250.0   30.0   16.666666666666668
-250.0   0.0   0.0
-300.0   30.0   0.0
-300.0   0.0   16.666666666666668
-250.0   0.0   16.666666666666668
-300.0   30.0   16.666666666666668
-300.0   0.0   33.333333333333336
-250.0   0.0   16.666666666666668
-250.0   30.0   16.666666666666668
-300.0   30.0   16.666666666666668
-250.0   30.0   33.333333333333336
-300.0   0.0   33.333333333333336
-300.0   30.0   33.333333333333336
-250.0   30.0   33.333333333333336
-300.0   30.0   16.666666666666668
-300.0   0.0   33.333333333333336
-250.0   30.0   33.333333333333336
-250.0   0.0   33.333333333333336
-250.0   0.0   16.666666666666668
-300.0   0.0   33.333333333333336
-250.0   30.0   33.333333333333336
-250.0   0.0   16.666666666666668
-300.0   30.0   16.666666666666668
-300.0   0.0   33.333333333333336
-250.0   0.0   33.333333333333336
-300.0   30.0   33.333333333333336
-300.0   0.0   50.0
-250.0   0.0   33.333333333333336
-250.0   30.0   33.333333333333336
-300.0   30.0   33.333333333333336
-250.0   30.0   50.0
-300.0   0.0   50.0
-300.0   30.0   50.0
-250.0   30.0   50.0
-300.0   30.0   33.333333333333336
-300.0   0.0   50.0
-250.0   30.0   50.0
-250.0   0.0   50.0
-250.0   0.0   33.333333333333336
-300.0   0.0   50.0
-250.0   30.0   50.0
-250.0   0.0   33.333333333333336
-300.0   30.0   33.333333333333336
-300.0   30.0   0.0
-250.0   30.0   0.0
-300.0   60.0   0.0
-300.0   30.0   16.666666666666668
-250.0   30.0   0.0
-250.0   60.0   0.0
-300.0   60.0   0.0
-250.0   60.0   16.666666666666668
-300.0   30.0   16.666666666666668
-300.0   60.0   16.666666666666668
-250.0   60.0   16.666666666666668
-300.0   60.0   0.0
-300.0   30.0   16.666666666666668
-250.0   60.0   16.666666666666668
-250.0   30.0   16.666666666666668
-250.0   30.0   0.0
-300.0   30.0   16.666666666666668
-250.0   60.0   16.666666666666668
-250.0   30.0   0.0
-300.0   60.0   0.0
-300.0   30.0   16.666666666666668
-250.0   30.0   16.666666666666668
-300.0   60.0   16.666666666666668
-300.0   30.0   33.333333333333336
-250.0   30.0   16.666666666666668
-250.0   60.0   16.666666666666668
-300.0   60.0   16.666666666666668
-250.0   60.0   33.333333333333336
-300.0   30.0   33.333333333333336
-300.0   60.0   33.333333333333336
-250.0   60.0   33.333333333333336
-300.0   60.0   16.666666666666668
-300.0   30.0   33.333333333333336
-250.0   60.0   33.333333333333336
-250.0   30.0   33.333333333333336
-250.0   30.0   16.666666666666668
-300.0   30.0   33.333333333333336
-250.0   60.0   33.333333333333336
-250.0   30.0   16.666666666666668
-300.0   60.0   16.666666666666668
-300.0   30.0   33.333333333333336
-250.0   30.0   33.333333333333336
-300.0   60.0   33.333333333333336
-300.0   30.0   50.0
-250.0   30.0   33.333333333333336
-250.0   60.0   33.333333333333336
-300.0   60.0   33.333333333333336
-250.0   60.0   50.0
-300.0   30.0   50.0
-300.0   60.0   50.0
-250.0   60.0   50.0
-300.0   60.0   33.333333333333336
-300.0   30.0   50.0
-250.0   60.0   50.0
-250.0   30.0   50.0
-250.0   30.0   33.333333333333336
-300.0   30.0   50.0
-250.0   60.0   50.0
-250.0   30.0   33.333333333333336
-300.0   60.0   33.333333333333336
-300.0   60.0   0.0
-250.0   60.0   0.0
-300.0   90.0   0.0
-300.0   60.0   16.666666666666668
-250.0   60.0   0.0
-250.0   90.0   0.0
-300.0   90.0   0.0
-250.0   90.0   16.666666666666668
-300.0   60.0   16.666666666666668
-300.0   90.0   16.666666666666668
-250.0   90.0   16.666666666666668
-300.0   90.0   0.0
-300.0   60.0   16.666666666666668
-250.0   90.0   16.666666666666668
-250.0   60.0   16.666666666666668
-250.0   60.0   0.0
-300.0   60.0   16.666666666666668
-250.0   90.0   16.666666666666668
-250.0   60.0   0.0
-300.0   90.0   0.0
-300.0   60.0   16.666666666666668
-250.0   60.0   16.666666666666668
-300.0   90.0   16.666666666666668
-300.0   60.0   33.333333333333336
-250.0   60.0   16.666666666666668
-250.0   90.0   16.666666666666668
-300.0   90.0   16.666666666666668
-250.0   90.0   33.333333333333336
-300.0   60.0   33.333333333333336
-300.0   90.0   33.333333333333336
-250.0   90.0   33.333333333333336
-300.0   90.0   16.666666666666668
-300.0   60.0   33.333333333333336
-250.0   90.0   33.333333333333336
-250.0   60.0   33.333333333333336
-250.0   60.0   16.666666666666668
-300.0   60.0   33.333333333333336
-250.0   90.0   33.333333333333336
-250.0   60.0   16.666666666666668
-300.0   90.0   16.666666666666668
-300.0   60.0   33.333333333333336
-250.0   60.0   33.333333333333336
-300.0   90.0   33.333333333333336
-300.0   60.0   50.0
-250.0   60.0   33.333333333333336
-250.0   90.0   33.333333333333336
-300.0   90.0   33.333333333333336
-250.0   90.0   50.0
-300.0   60.0   50.0
-300.0   90.0   50.0
-250.0   90.0   50.0
-300.0   90.0   33.333333333333336
-300.0   60.0   50.0
-250.0   90.0   50.0
-250.0   60.0   50.0
-250.0   60.0   33.333333333333336
-300.0   60.0   50.0
-250.0   90.0   50.0
-250.0   60.0   33.333333333333336
-300.0   90.0   33.333333333333336
-300.0   90.0   0.0
-250.0   90.0   0.0
-300.0   120.0   0.0
-300.0   90.0   16.666666666666668
-250.0   90.0   0.0
-250.0   120.0   0.0
-300.0   120.0   0.0
-250.0   120.0   16.666666666666668
-300.0   90.0   16.666666666666668
-300.0   120.0   16.666666666666668
-250.0   120.0   16.666666666666668
-300.0   120.0   0.0
-300.0   90.0   16.666666666666668
-250.0   120.0   16.666666666666668
-250.0   90.0   16.666666666666668
-250.0   90.0   0.0
-300.0   90.0   16.666666666666668
-250.0   120.0   16.666666666666668
-250.0   90.0   0.0
-300.0   120.0   0.0
-300.0   90.0   16.666666666666668
-250.0   90.0   16.666666666666668
-300.0   120.0   16.666666666666668
-300.0   90.0   33.333333333333336
-250.0   90.0   16.666666666666668
-250.0   120.0   16.666666666666668
-300.0   120.0   16.666666666666668
-250.0   120.0   33.333333333333336
-300.0   90.0   33.333333333333336
-300.0   120.0   33.333333333333336
-250.0   120.0   33.333333333333336
-300.0   120.0   16.666666666666668
-300.0   90.0   33.333333333333336
-250.0   120.0   33.333333333333336
-250.0   90.0   33.333333333333336
-250.0   90.0   16.666666666666668
-300.0   90.0   33.333333333333336
-250.0   120.0   33.333333333333336
-250.0   90.0   16.666666666666668
-300.0   120.0   16.666666666666668
-300.0   90.0   33.333333333333336
-250.0   90.0   33.333333333333336
-300.0   120.0   33.333333333333336
-300.0   90.0   50.0
-250.0   90.0   33.333333333333336
-250.0   120.0   33.333333333333336
-300.0   120.0   33.333333333333336
-250.0   120.0   50.0
-300.0   90.0   50.0
-300.0   120.0   50.0
-250.0   120.0   50.0
-300.0   120.0   33.333333333333336
-300.0   90.0   50.0
-250.0   120.0   50.0
-250.0   90.0   50.0
-250.0   90.0   33.333333333333336
-300.0   90.0   50.0
-250.0   120.0   50.0
-250.0   90.0   33.333333333333336
-300.0   120.0   33.333333333333336
-300.0   120.0   0.0
-250.0   120.0   0.0
-300.0   150.0   0.0
-300.0   120.0   16.666666666666668
-250.0   120.0   0.0
-250.0   150.0   0.0
-300.0   150.0   0.0
-250.0   150.0   16.666666666666668
-300.0   120.0   16.666666666666668
-300.0   150.0   16.666666666666668
-250.0   150.0   16.666666666666668
-300.0   150.0   0.0
-300.0   120.0   16.666666666666668
-250.0   150.0   16.666666666666668
-250.0   120.0   16.666666666666668
-250.0   120.0   0.0
-300.0   120.0   16.666666666666668
-250.0   150.0   16.666666666666668
-250.0   120.0   0.0
-300.0   150.0   0.0
-300.0   120.0   16.666666666666668
-250.0   120.0   16.666666666666668
-300.0   150.0   16.666666666666668
-300.0   120.0   33.333333333333336
-250.0   120.0   16.666666666666668
-250.0   150.0   16.666666666666668
-300.0   150.0   16.666666666666668
-250.0   150.0   33.333333333333336
-300.0   120.0   33.333333333333336
-300.0   150.0   33.333333333333336
-250.0   150.0   33.333333333333336
-300.0   150.0   16.666666666666668
-300.0   120.0   33.333333333333336
-250.0   150.0   33.333333333333336
-250.0   120.0   33.333333333333336
-250.0   120.0   16.666666666666668
-300.0   120.0   33.333333333333336
-250.0   150.0   33.333333333333336
-250.0   120.0   16.666666666666668
-300.0   150.0   16.666666666666668
-300.0   120.0   33.333333333333336
-250.0   120.0   33.333333333333336
-300.0   150.0   33.333333333333336
-300.0   120.0   50.0
-250.0   120.0   33.333333333333336
-250.0   150.0   33.333333333333336
-300.0   150.0   33.333333333333336
-250.0   150.0   50.0
-300.0   120.0   50.0
-300.0   150.0   50.0
-250.0   150.0   50.0
-300.0   150.0   33.333333333333336
-300.0   120.0   50.0
-250.0   150.0   50.0
-250.0   120.0   50.0
-250.0   120.0   33.333333333333336
-300.0   120.0   50.0
-250.0   150.0   50.0
-250.0   120.0   33.333333333333336
-300.0   150.0   33.333333333333336
-250.0   0.0   0.0
-200.0   0.0   0.0
-250.0   30.0   0.0
-250.0   0.0   16.666666666666668
-200.0   0.0   0.0
-200.0   30.0   0.0
-250.0   30.0   0.0
-200.0   30.0   16.666666666666668
-250.0   0.0   16.666666666666668
-250.0   30.0   16.666666666666668
-200.0   30.0   16.666666666666668
-250.0   30.0   0.0
-250.0   0.0   16.666666666666668
-200.0   30.0   16.666666666666668
-200.0   0.0   16.666666666666668
-200.0   0.0   0.0
-250.0   0.0   16.666666666666668
-200.0   30.0   16.666666666666668
-200.0   0.0   0.0
-250.0   30.0   0.0
-250.0   0.0   16.666666666666668
-200.0   0.0   16.666666666666668
-250.0   30.0   16.666666666666668
-250.0   0.0   33.333333333333336
-200.0   0.0   16.666666666666668
-200.0   30.0   16.666666666666668
-250.0   30.0   16.666666666666668
-200.0   30.0   33.333333333333336
-250.0   0.0   33.333333333333336
-250.0   30.0   33.333333333333336
-200.0   30.0   33.333333333333336
-250.0   30.0   16.666666666666668
-250.0   0.0   33.333333333333336
-200.0   30.0   33.333333333333336
-200.0   0.0   33.333333333333336
-200.0   0.0   16.666666666666668
-250.0   0.0   33.333333333333336
-200.0   30.0   33.333333333333336
-200.0   0.0   16.666666666666668
-250.0   30.0   16.666666666666668
-250.0   0.0   33.333333333333336
-200.0   0.0   33.333333333333336
-250.0   30.0   33.333333333333336
-250.0   0.0   50.0
-200.0   0.0   33.333333333333336
-200.0   30.0   33.333333333333336
-250.0   30.0   33.333333333333336
-200.0   30.0   50.0
-250.0   0.0   50.0
-250.0   30.0   50.0
-200.0   30.0   50.0
-250.0   30.0   33.333333333333336
-250.0   0.0   50.0
-200.0   30.0   50.0
-200.0   0.0   50.0
-200.0   0.0   33.333333333333336
-250.0   0.0   50.0
-200.0   30.0   50.0
-200.0   0.0   33.333333333333336
-250.0   30.0   33.333333333333336
-250.0   30.0   0.0
-200.0   30.0   0.0
-250.0   60.0   0.0
-250.0   30.0   16.666666666666668
-200.0   30.0   0.0
-200.0   60.0   0.0
-250.0   60.0   0.0
-200.0   60.0   16.666666666666668
-250.0   30.0   16.666666666666668
-250.0   60.0   16.666666666666668
-200.0   60.0   16.666666666666668
-250.0   60.0   0.0
-250.0   30.0   16.666666666666668
-200.0   60.0   16.666666666666668
-200.0   30.0   16.666666666666668
-200.0   30.0   0.0
-250.0   30.0   16.666666666666668
-200.0   60.0   16.666666666666668
-200.0   30.0   0.0
-250.0   60.0   0.0
-250.0   30.0   16.666666666666668
-200.0   30.0   16.666666666666668
-250.0   60.0   16.666666666666668
-250.0   30.0   33.333333333333336
-200.0   30.0   16.666666666666668
-200.0   60.0   16.666666666666668
-250.0   60.0   16.666666666666668
-200.0   60.0   33.333333333333336
-250.0   30.0   33.333333333333336
-250.0   60.0   33.333333333333336
-200.0   60.0   33.333333333333336
-250.0   60.0   16.666666666666668
-250.0   30.0   33.333333333333336
-200.0   60.0   33.333333333333336
-200.0   30.0   33.333333333333336
-200.0   30.0   16.666666666666668
-250.0   30.0   33.333333333333336
-200.0   60.0   33.333333333333336
-200.0   30.0   16.666666666666668
-250.0   60.0   16.666666666666668
-250.0   30.0   33.333333333333336
-200.0   30.0   33.333333333333336
-250.0   60.0   33.333333333333336
-250.0   30.0   50.0
-200.0   30.0   33.333333333333336
-200.0   60.0   33.333333333333336
-250.0   60.0   33.333333333333336
-200.0   60.0   50.0
-250.0   30.0   50.0
-250.0   60.0   50.0
-200.0   60.0   50.0
-250.0   60.0   33.333333333333336
-250.0   30.0   50.0
-200.0   60.0   50.0
-200.0   30.0   50.0
-200.0   30.0   33.333333333333336
-250.0   30.0   50.0
-200.0   60.0   50.0
-200.0   30.0   33.333333333333336
-250.0   60.0   33.333333333333336
-250.0   60.0   0.0
-200.0   60.0   0.0
-250.0   90.0   0.0
-250.0   60.0   16.666666666666668
-200.0   60.0   0.0
-200.0   90.0   0.0
-250.0   90.0   0.0
-200.0   90.0   16.666666666666668
-250.0   60.0   16.666666666666668
-250.0   90.0   16.666666666666668
-200.0   90.0   16.666666666666668
-250.0   90.0   0.0
-250.0   60.0   16.666666666666668
-200.0   90.0   16.666666666666668
-200.0   60.0   16.666666666666668
-200.0   60.0   0.0
-250.0   60.0   16.666666666666668
-200.0   90.0   16.666666666666668
-200.0   60.0   0.0
-250.0   90.0   0.0
-250.0   60.0   16.666666666666668
-200.0   60.0   16.666666666666668
-250.0   90.0   16.666666666666668
-250.0   60.0   33.333333333333336
-200.0   60.0   16.666666666666668
-200.0   90.0   16.666666666666668
-250.0   90.0   16.666666666666668
-200.0   90.0   33.333333333333336
-250.0   60.0   33.333333333333336
-250.0   90.0   33.333333333333336
-200.0   90.0   33.333333333333336
-250.0   90.0   16.666666666666668
-250.0   60.0   33.333333333333336
-200.0   90.0   33.333333333333336
-200.0   60.0   33.333333333333336
-200.0   60.0   16.666666666666668
-250.0   60.0   33.333333333333336
-200.0   90.0   33.333333333333336
-200.0   60.0   16.666666666666668
-250.0   90.0   16.666666666666668
-250.0   60.0   33.333333333333336
-200.0   60.0   33.333333333333336
-250.0   90.0   33.333333333333336
-250.0   60.0   50.0
-200.0   60.0   33.333333333333336
-200.0   90.0   33.333333333333336
-250.0   90.0   33.333333333333336
-200.0   90.0   50.0
-250.0   60.0   50.0
-250.0   90.0   50.0
-200.0   90.0   50.0
-250.0   90.0   33.333333333333336
-250.0   60.0   50.0
-200.0   90.0   50.0
-200.0   60.0   50.0
-200.0   60.0   33.333333333333336
-250.0   60.0   50.0
-200.0   90.0   50.0
-200.0   60.0   33.333333333333336
-250.0   90.0   33.333333333333336
-250.0   90.0   0.0
-200.0   90.0   0.0
-250.0   120.0   0.0
-250.0   90.0   16.666666666666668
-200.0   90.0   0.0
-200.0   120.0   0.0
-250.0   120.0   0.0
-200.0   120.0   16.666666666666668
-250.0   90.0   16.666666666666668
-250.0   120.0   16.666666666666668
-200.0   120.0   16.666666666666668
-250.0   120.0   0.0
-250.0   90.0   16.666666666666668
-200.0   120.0   16.666666666666668
-200.0   90.0   16.666666666666668
-200.0   90.0   0.0
-250.0   90.0   16.666666666666668
-200.0   120.0   16.666666666666668
-200.0   90.0   0.0
-250.0   120.0   0.0
-250.0   90.0   16.666666666666668
-200.0   90.0   16.666666666666668
-250.0   120.0   16.666666666666668
-250.0   90.0   33.333333333333336
-200.0   90.0   16.666666666666668
-200.0   120.0   16.666666666666668
-250.0   120.0   16.666666666666668
-200.0   120.0   33.333333333333336
-250.0   90.0   33.333333333333336
-250.0   120.0   33.333333333333336
-200.0   120.0   33.333333333333336
-250.0   120.0   16.666666666666668
-250.0   90.0   33.333333333333336
-200.0   120.0   33.333333333333336
-200.0   90.0   33.333333333333336
-200.0   90.0   16.666666666666668
-250.0   90.0   33.333333333333336
-200.0   120.0   33.333333333333336
-200.0   90.0   16.666666666666668
-250.0   120.0   16.666666666666668
-250.0   90.0   33.333333333333336
-200.0   90.0   33.333333333333336
-250.0   120.0   33.333333333333336
-250.0   90.0   50.0
-200.0   90.0   33.333333333333336
-200.0   120.0   33.333333333333336
-250.0   120.0   33.333333333333336
-200.0   120.0   50.0
-250.0   90.0   50.0
-250.0   120.0   50.0
-200.0   120.0   50.0
-250.0   120.0   33.333333333333336
-250.0   90.0   50.0
-200.0   120.0   50.0
-200.0   90.0   50.0
-200.0   90.0   33.333333333333336
-250.0   90.0   50.0
-200.0   120.0   50.0
-200.0   90.0   33.333333333333336
-250.0   120.0   33.333333333333336
-250.0   120.0   0.0
-200.0   120.0   0.0
-250.0   150.0   0.0
-250.0   120.0   16.666666666666668
-200.0   120.0   0.0
-200.0   150.0   0.0
-250.0   150.0   0.0
-200.0   150.0   16.666666666666668
-250.0   120.0   16.666666666666668
-250.0   150.0   16.666666666666668
-200.0   150.0   16.666666666666668
-250.0   150.0   0.0
-250.0   120.0   16.666666666666668
-200.0   150.0   16.666666666666668
-200.0   120.0   16.666666666666668
-200.0   120.0   0.0
-250.0   120.0   16.666666666666668
-200.0   150.0   16.666666666666668
-200.0   120.0   0.0
-250.0   150.0   0.0
-250.0   120.0   16.666666666666668
-200.0   120.0   16.666666666666668
-250.0   150.0   16.666666666666668
-250.0   120.0   33.333333333333336
-200.0   120.0   16.666666666666668
-200.0   150.0   16.666666666666668
-250.0   150.0   16.666666666666668
-200.0   150.0   33.333333333333336
-250.0   120.0   33.333333333333336
-250.0   150.0   33.333333333333336
-200.0   150.0   33.333333333333336
-250.0   150.0   16.666666666666668
-250.0   120.0   33.333333333333336
-200.0   150.0   33.333333333333336
-200.0   120.0   33.333333333333336
-200.0   120.0   16.666666666666668
-250.0   120.0   33.333333333333336
-200.0   150.0   33.333333333333336
-200.0   120.0   16.666666666666668
-250.0   150.0   16.666666666666668
-250.0   120.0   33.333333333333336
-200.0   120.0   33.333333333333336
-250.0   150.0   33.333333333333336
-250.0   120.0   50.0
-200.0   120.0   33.333333333333336
-200.0   150.0   33.333333333333336
-250.0   150.0   33.333333333333336
-200.0   150.0   50.0
-250.0   120.0   50.0
-250.0   150.0   50.0
-200.0   150.0   50.0
-250.0   150.0   33.333333333333336
-250.0   120.0   50.0
-200.0   150.0   50.0
-200.0   120.0   50.0
-200.0   120.0   33.333333333333336
-250.0   120.0   50.0
-200.0   150.0   50.0
-200.0   120.0   33.333333333333336
-250.0   150.0   33.333333333333336
-200.0   0.0   0.0
-150.0   0.0   0.0
-200.0   30.0   0.0
-200.0   0.0   16.666666666666668
-150.0   0.0   0.0
-150.0   30.0   0.0
-200.0   30.0   0.0
-150.0   30.0   16.666666666666668
-200.0   0.0   16.666666666666668
-200.0   30.0   16.666666666666668
-150.0   30.0   16.666666666666668
-200.0   30.0   0.0
-200.0   0.0   16.666666666666668
-150.0   30.0   16.666666666666668
-150.0   0.0   16.666666666666668
-150.0   0.0   0.0
-200.0   0.0   16.666666666666668
-150.0   30.0   16.666666666666668
-150.0   0.0   0.0
-200.0   30.0   0.0
-200.0   0.0   16.666666666666668
-150.0   0.0   16.666666666666668
-200.0   30.0   16.666666666666668
-200.0   0.0   33.333333333333336
-150.0   0.0   16.666666666666668
-150.0   30.0   16.666666666666668
-200.0   30.0   16.666666666666668
-150.0   30.0   33.333333333333336
-200.0   0.0   33.333333333333336
-200.0   30.0   33.333333333333336
-150.0   30.0   33.333333333333336
-200.0   30.0   16.666666666666668
-200.0   0.0   33.333333333333336
-150.0   30.0   33.333333333333336
-150.0   0.0   33.333333333333336
-150.0   0.0   16.666666666666668
-200.0   0.0   33.333333333333336
-150.0   30.0   33.333333333333336
-150.0   0.0   16.666666666666668
-200.0   30.0   16.666666666666668
-200.0   0.0   33.333333333333336
-150.0   0.0   33.333333333333336
-200.0   30.0   33.333333333333336
-200.0   0.0   50.0
-150.0   0.0   33.333333333333336
-150.0   30.0   33.333333333333336
-200.0   30.0   33.333333333333336
-150.0   30.0   50.0
-200.0   0.0   50.0
-200.0   30.0   50.0
-150.0   30.0   50.0
-200.0   30.0   33.333333333333336
-200.0   0.0   50.0
-150.0   30.0   50.0
-150.0   0.0   50.0
-150.0   0.0   33.333333333333336
-200.0   0.0   50.0
-150.0   30.0   50.0
-150.0   0.0   33.333333333333336
-200.0   30.0   33.333333333333336
-200.0   30.0   0.0
-150.0   30.0   0.0
-200.0   60.0   0.0
-200.0   30.0   16.666666666666668
-150.0   30.0   0.0
-150.0   60.0   0.0
-200.0   60.0   0.0
-150.0   60.0   16.666666666666668
-200.0   30.0   16.666666666666668
-200.0   60.0   16.666666666666668
-150.0   60.0   16.666666666666668
-200.0   60.0   0.0
-200.0   30.0   16.666666666666668
-150.0   60.0   16.666666666666668
-150.0   30.0   16.666666666666668
-150.0   30.0   0.0
-200.0   30.0   16.666666666666668
-150.0   60.0   16.666666666666668
-150.0   30.0   0.0
-200.0   60.0   0.0
-200.0   30.0   16.666666666666668
-150.0   30.0   16.666666666666668
-200.0   60.0   16.666666666666668
-200.0   30.0   33.333333333333336
-150.0   30.0   16.666666666666668
-150.0   60.0   16.666666666666668
-200.0   60.0   16.666666666666668
-150.0   60.0   33.333333333333336
-200.0   30.0   33.333333333333336
-200.0   60.0   33.333333333333336
-150.0   60.0   33.333333333333336
-200.0   60.0   16.666666666666668
-200.0   30.0   33.333333333333336
-150.0   60.0   33.333333333333336
-150.0   30.0   33.333333333333336
-150.0   30.0   16.666666666666668
-200.0   30.0   33.333333333333336
-150.0   60.0   33.333333333333336
-150.0   30.0   16.666666666666668
-200.0   60.0   16.666666666666668
-200.0   30.0   33.333333333333336
-150.0   30.0   33.333333333333336
-200.0   60.0   33.333333333333336
-200.0   30.0   50.0
-150.0   30.0   33.333333333333336
-150.0   60.0   33.333333333333336
-200.0   60.0   33.333333333333336
-150.0   60.0   50.0
-200.0   30.0   50.0
-200.0   60.0   50.0
-150.0   60.0   50.0
-200.0   60.0   33.333333333333336
-200.0   30.0   50.0
-150.0   60.0   50.0
-150.0   30.0   50.0
-150.0   30.0   33.333333333333336
-200.0   30.0   50.0
-150.0   60.0   50.0
-150.0   30.0   33.333333333333336
-200.0   60.0   33.333333333333336
-200.0   60.0   0.0
-150.0   60.0   0.0
-200.0   90.0   0.0
-200.0   60.0   16.666666666666668
-150.0   60.0   0.0
-150.0   90.0   0.0
-200.0   90.0   0.0
-150.0   90.0   16.666666666666668
-200.0   60.0   16.666666666666668
-200.0   90.0   16.666666666666668
-150.0   90.0   16.666666666666668
-200.0   90.0   0.0
-200.0   60.0   16.666666666666668
-150.0   90.0   16.666666666666668
-150.0   60.0   16.666666666666668
-150.0   60.0   0.0
-200.0   60.0   16.666666666666668
-150.0   90.0   16.666666666666668
-150.0   60.0   0.0
-200.0   90.0   0.0
-200.0   60.0   16.666666666666668
-150.0   60.0   16.666666666666668
-200.0   90.0   16.666666666666668
-200.0   60.0   33.333333333333336
-150.0   60.0   16.666666666666668
-150.0   90.0   16.666666666666668
-200.0   90.0   16.666666666666668
-150.0   90.0   33.333333333333336
-200.0   60.0   33.333333333333336
-200.0   90.0   33.333333333333336
-150.0   90.0   33.333333333333336
-200.0   90.0   16.666666666666668
-200.0   60.0   33.333333333333336
-150.0   90.0   33.333333333333336
-150.0   60.0   33.333333333333336
-150.0   60.0   16.666666666666668
-200.0   60.0   33.333333333333336
-150.0   90.0   33.333333333333336
-150.0   60.0   16.666666666666668
-200.0   90.0   16.666666666666668
-200.0   60.0   33.333333333333336
-150.0   60.0   33.333333333333336
-200.0   90.0   33.333333333333336
-200.0   60.0   50.0
-150.0   60.0   33.333333333333336
-150.0   90.0   33.333333333333336
-200.0   90.0   33.333333333333336
-150.0   90.0   50.0
-200.0   60.0   50.0
-200.0   90.0   50.0
-150.0   90.0   50.0
-200.0   90.0   33.333333333333336
-200.0   60.0   50.0
-150.0   90.0   50.0
-150.0   60.0   50.0
-150.0   60.0   33.333333333333336
-200.0   60.0   50.0
-150.0   90.0   50.0
-150.0   60.0   33.333333333333336
-200.0   90.0   33.333333333333336
-200.0   90.0   0.0
-150.0   90.0   0.0
-200.0   120.0   0.0
-200.0   90.0   16.666666666666668
-150.0   90.0   0.0
-150.0   120.0   0.0
-200.0   120.0   0.0
-150.0   120.0   16.666666666666668
-200.0   90.0   16.666666666666668
-200.0   120.0   16.666666666666668
-150.0   120.0   16.666666666666668
-200.0   120.0   0.0
-200.0   90.0   16.666666666666668
-150.0   120.0   16.666666666666668
-150.0   90.0   16.666666666666668
-150.0   90.0   0.0
-200.0   90.0   16.666666666666668
-150.0   120.0   16.666666666666668
-150.0   90.0   0.0
-200.0   120.0   0.0
-200.0   90.0   16.666666666666668
-150.0   90.0   16.666666666666668
-200.0   120.0   16.666666666666668
-200.0   90.0   33.333333333333336
-150.0   90.0   16.666666666666668
-150.0   120.0   16.666666666666668
-200.0   120.0   16.666666666666668
-150.0   120.0   33.333333333333336
-200.0   90.0   33.333333333333336
-200.0   120.0   33.333333333333336
-150.0   120.0   33.333333333333336
-200.0   120.0   16.666666666666668
-200.0   90.0   33.333333333333336
-150.0   120.0   33.333333333333336
-150.0   90.0   33.333333333333336
-150.0   90.0   16.666666666666668
-200.0   90.0   33.333333333333336
-150.0   120.0   33.333333333333336
-150.0   90.0   16.666666666666668
-200.0   120.0   16.666666666666668
-200.0   90.0   33.333333333333336
-150.0   90.0   33.333333333333336
-200.0   120.0   33.333333333333336
-200.0   90.0   50.0
-150.0   90.0   33.333333333333336
-150.0   120.0   33.333333333333336
-200.0   120.0   33.333333333333336
-150.0   120.0   50.0
-200.0   90.0   50.0
-200.0   120.0   50.0
-150.0   120.0   50.0
-200.0   120.0   33.333333333333336
-200.0   90.0   50.0
-150.0   120.0   50.0
-150.0   90.0   50.0
-150.0   90.0   33.333333333333336
-200.0   90.0   50.0
-150.0   120.0   50.0
-150.0   90.0   33.333333333333336
-200.0   120.0   33.333333333333336
-200.0   120.0   0.0
-150.0   120.0   0.0
-200.0   150.0   0.0
-200.0   120.0   16.666666666666668
-150.0   120.0   0.0
-150.0   150.0   0.0
-200.0   150.0   0.0
-150.0   150.0   16.666666666666668
-200.0   120.0   16.666666666666668
-200.0   150.0   16.666666666666668
-150.0   150.0   16.666666666666668
-200.0   150.0   0.0
-200.0   120.0   16.666666666666668
-150.0   150.0   16.666666666666668
-150.0   120.0   16.666666666666668
-150.0   120.0   0.0
-200.0   120.0   16.666666666666668
-150.0   150.0   16.666666666666668
-150.0   120.0   0.0
-200.0   150.0   0.0
-200.0   120.0   16.666666666666668
-150.0   120.0   16.666666666666668
-200.0   150.0   16.666666666666668
-200.0   120.0   33.333333333333336
-150.0   120.0   16.666666666666668
-150.0   150.0   16.666666666666668
-200.0   150.0   16.666666666666668
-150.0   150.0   33.333333333333336
-200.0   120.0   33.333333333333336
-200.0   150.0   33.333333333333336
-150.0   150.0   33.333333333333336
-200.0   150.0   16.666666666666668
-200.0   120.0   33.333333333333336
-150.0   150.0   33.333333333333336
-150.0   120.0   33.333333333333336
-150.0   120.0   16.666666666666668
-200.0   120.0   33.333333333333336
-150.0   150.0   33.333333333333336
-150.0   120.0   16.666666666666668
-200.0   150.0   16.666666666666668
-200.0   120.0   33.333333333333336
-150.0   120.0   33.333333333333336
-200.0   150.0   33.333333333333336
-200.0   120.0   50.0
-150.0   120.0   33.333333333333336
-150.0   150.0   33.333333333333336
-200.0   150.0   33.333333333333336
-150.0   150.0   50.0
-200.0   120.0   50.0
-200.0   150.0   50.0
-150.0   150.0   50.0
-200.0   150.0   33.333333333333336
-200.0   120.0   50.0
-150.0   150.0   50.0
-150.0   120.0   50.0
-150.0   120.0   33.333333333333336
-200.0   120.0   50.0
-150.0   150.0   50.0
-150.0   120.0   33.333333333333336
-200.0   150.0   33.333333333333336
-150.0   0.0   0.0
-100.0   0.0   0.0
-150.0   30.0   0.0
-150.0   0.0   16.666666666666668
-100.0   0.0   0.0
-100.0   30.0   0.0
-150.0   30.0   0.0
-100.0   30.0   16.666666666666668
-150.0   0.0   16.666666666666668
-150.0   30.0   16.666666666666668
-100.0   30.0   16.666666666666668
-150.0   30.0   0.0
-150.0   0.0   16.666666666666668
-100.0   30.0   16.666666666666668
-100.0   0.0   16.666666666666668
-100.0   0.0   0.0
-150.0   0.0   16.666666666666668
-100.0   30.0   16.666666666666668
-100.0   0.0   0.0
-150.0   30.0   0.0
-150.0   0.0   16.666666666666668
-100.0   0.0   16.666666666666668
-150.0   30.0   16.666666666666668
-150.0   0.0   33.333333333333336
-100.0   0.0   16.666666666666668
-100.0   30.0   16.666666666666668
-150.0   30.0   16.666666666666668
-100.0   30.0   33.333333333333336
-150.0   0.0   33.333333333333336
-150.0   30.0   33.333333333333336
-100.0   30.0   33.333333333333336
-150.0   30.0   16.666666666666668
-150.0   0.0   33.333333333333336
-100.0   30.0   33.333333333333336
-100.0   0.0   33.333333333333336
-100.0   0.0   16.666666666666668
-150.0   0.0   33.333333333333336
-100.0   30.0   33.333333333333336
-100.0   0.0   16.666666666666668
-150.0   30.0   16.666666666666668
-150.0   0.0   33.333333333333336
-100.0   0.0   33.333333333333336
-150.0   30.0   33.333333333333336
-150.0   0.0   50.0
-100.0   0.0   33.333333333333336
-100.0   30.0   33.333333333333336
-150.0   30.0   33.333333333333336
-100.0   30.0   50.0
-150.0   0.0   50.0
-150.0   30.0   50.0
-100.0   30.0   50.0
-150.0   30.0   33.333333333333336
-150.0   0.0   50.0
-100.0   30.0   50.0
-100.0   0.0   50.0
-100.0   0.0   33.333333333333336
-150.0   0.0   50.0
-100.0   30.0   50.0
-100.0   0.0   33.333333333333336
-150.0   30.0   33.333333333333336
-150.0   30.0   0.0
-100.0   30.0   0.0
-150.0   60.0   0.0
-150.0   30.0   16.666666666666668
-100.0   30.0   0.0
-100.0   60.0   0.0
-150.0   60.0   0.0
-100.0   60.0   16.666666666666668
-150.0   30.0   16.666666666666668
-150.0   60.0   16.666666666666668
-100.0   60.0   16.666666666666668
-150.0   60.0   0.0
-150.0   30.0   16.666666666666668
-100.0   60.0   16.666666666666668
-100.0   30.0   16.666666666666668
-100.0   30.0   0.0
-150.0   30.0   16.666666666666668
-100.0   60.0   16.666666666666668
-100.0   30.0   0.0
-150.0   60.0   0.0
-150.0   30.0   16.666666666666668
-100.0   30.0   16.666666666666668
-150.0   60.0   16.666666666666668
-150.0   30.0   33.333333333333336
-100.0   30.0   16.666666666666668
-100.0   60.0   16.666666666666668
-150.0   60.0   16.666666666666668
-100.0   60.0   33.333333333333336
-150.0   30.0   33.333333333333336
-150.0   60.0   33.333333333333336
-100.0   60.0   33.333333333333336
-150.0   60.0   16.666666666666668
-150.0   30.0   33.333333333333336
-100.0   60.0   33.333333333333336
-100.0   30.0   33.333333333333336
-100.0   30.0   16.666666666666668
-150.0   30.0   33.333333333333336
-100.0   60.0   33.333333333333336
-100.0   30.0   16.666666666666668
-150.0   60.0   16.666666666666668
-150.0   30.0   33.333333333333336
-100.0   30.0   33.333333333333336
-150.0   60.0   33.333333333333336
-150.0   30.0   50.0
-100.0   30.0   33.333333333333336
-100.0   60.0   33.333333333333336
-150.0   60.0   33.333333333333336
-100.0   60.0   50.0
-150.0   30.0   50.0
-150.0   60.0   50.0
-100.0   60.0   50.0
-150.0   60.0   33.333333333333336
-150.0   30.0   50.0
-100.0   60.0   50.0
-100.0   30.0   50.0
-100.0   30.0   33.333333333333336
-150.0   30.0   50.0
-100.0   60.0   50.0
-100.0   30.0   33.333333333333336
-150.0   60.0   33.333333333333336
-150.0   60.0   0.0
-100.0   60.0   0.0
-150.0   90.0   0.0
-150.0   60.0   16.666666666666668
-100.0   60.0   0.0
-100.0   90.0   0.0
-150.0   90.0   0.0
-100.0   90.0   16.666666666666668
-150.0   60.0   16.666666666666668
-150.0   90.0   16.666666666666668
-100.0   90.0   16.666666666666668
-150.0   90.0   0.0
-150.0   60.0   16.666666666666668
-100.0   90.0   16.666666666666668
-100.0   60.0   16.666666666666668
-100.0   60.0   0.0
-150.0   60.0   16.666666666666668
-100.0   90.0   16.666666666666668
-100.0   60.0   0.0
-150.0   90.0   0.0
-150.0   60.0   16.666666666666668
-100.0   60.0   16.666666666666668
-150.0   90.0   16.666666666666668
-150.0   60.0   33.333333333333336
-100.0   60.0   16.666666666666668
-100.0   90.0   16.666666666666668
-150.0   90.0   16.666666666666668
-100.0   90.0   33.333333333333336
-150.0   60.0   33.333333333333336
-150.0   90.0   33.333333333333336
-100.0   90.0   33.333333333333336
-150.0   90.0   16.666666666666668
-150.0   60.0   33.333333333333336
-100.0   90.0   33.333333333333336
-100.0   60.0   33.333333333333336
-100.0   60.0   16.666666666666668
-150.0   60.0   33.333333333333336
-100.0   90.0   33.333333333333336
-100.0   60.0   16.666666666666668
-150.0   90.0   16.666666666666668
-150.0   60.0   33.333333333333336
-100.0   60.0   33.333333333333336
-150.0   90.0   33.333333333333336
-150.0   60.0   50.0
-100.0   60.0   33.333333333333336
-100.0   90.0   33.333333333333336
-150.0   90.0   33.333333333333336
-100.0   90.0   50.0
-150.0   60.0   50.0
-150.0   90.0   50.0
-100.0   90.0   50.0
-150.0   90.0   33.333333333333336
-150.0   60.0   50.0
-100.0   90.0   50.0
-100.0   60.0   50.0
-100.0   60.0   33.333333333333336
-150.0   60.0   50.0
-100.0   90.0   50.0
-100.0   60.0   33.333333333333336
-150.0   90.0   33.333333333333336
-150.0   90.0   0.0
-100.0   90.0   0.0
-150.0   120.0   0.0
-150.0   90.0   16.666666666666668
-100.0   90.0   0.0
-100.0   120.0   0.0
-150.0   120.0   0.0
-100.0   120.0   16.666666666666668
-150.0   90.0   16.666666666666668
-150.0   120.0   16.666666666666668
-100.0   120.0   16.666666666666668
-150.0   120.0   0.0
-150.0   90.0   16.666666666666668
-100.0   120.0   16.666666666666668
-100.0   90.0   16.666666666666668
-100.0   90.0   0.0
-150.0   90.0   16.666666666666668
-100.0   120.0   16.666666666666668
-100.0   90.0   0.0
-150.0   120.0   0.0
-150.0   90.0   16.666666666666668
-100.0   90.0   16.666666666666668
-150.0   120.0   16.666666666666668
-150.0   90.0   33.333333333333336
-100.0   90.0   16.666666666666668
-100.0   120.0   16.666666666666668
-150.0   120.0   16.666666666666668
-100.0   120.0   33.333333333333336
-150.0   90.0   33.333333333333336
-150.0   120.0   33.333333333333336
-100.0   120.0   33.333333333333336
-150.0   120.0   16.666666666666668
-150.0   90.0   33.333333333333336
-100.0   120.0   33.333333333333336
-100.0   90.0   33.333333333333336
-100.0   90.0   16.666666666666668
-150.0   90.0   33.333333333333336
-100.0   120.0   33.333333333333336
-100.0   90.0   16.666666666666668
-150.0   120.0   16.666666666666668
-150.0   90.0   33.333333333333336
-100.0   90.0   33.333333333333336
-150.0   120.0   33.333333333333336
-150.0   90.0   50.0
-100.0   90.0   33.333333333333336
-100.0   120.0   33.333333333333336
-150.0   120.0   33.333333333333336
-100.0   120.0   50.0
-150.0   90.0   50.0
-150.0   120.0   50.0
-100.0   120.0   50.0
-150.0   120.0   33.333333333333336
-150.0   90.0   50.0
-100.0   120.0   50.0
-100.0   90.0   50.0
-100.0   90.0   33.333333333333336
-150.0   90.0   50.0
-100.0   120.0   50.0
-100.0   90.0   33.333333333333336
-150.0   120.0   33.333333333333336
-150.0   120.0   0.0
-100.0   120.0   0.0
-150.0   150.0   0.0
-150.0   120.0   16.666666666666668
-100.0   120.0   0.0
-100.0   150.0   0.0
-150.0   150.0   0.0
-100.0   150.0   16.666666666666668
-150.0   120.0   16.666666666666668
-150.0   150.0   16.666666666666668
-100.0   150.0   16.666666666666668
-150.0   150.0   0.0
-150.0   120.0   16.666666666666668
-100.0   150.0   16.666666666666668
-100.0   120.0   16.666666666666668
-100.0   120.0   0.0
-150.0   120.0   16.666666666666668
-100.0   150.0   16.666666666666668
-100.0   120.0   0.0
-150.0   150.0   0.0
-150.0   120.0   16.666666666666668
-100.0   120.0   16.666666666666668
-150.0   150.0   16.666666666666668
-150.0   120.0   33.333333333333336
-100.0   120.0   16.666666666666668
-100.0   150.0   16.666666666666668
-150.0   150.0   16.666666666666668
-100.0   150.0   33.333333333333336
-150.0   120.0   33.333333333333336
-150.0   150.0   33.333333333333336
-100.0   150.0   33.333333333333336
-150.0   150.0   16.666666666666668
-150.0   120.0   33.333333333333336
-100.0   150.0   33.333333333333336
-100.0   120.0   33.333333333333336
-100.0   120.0   16.666666666666668
-150.0   120.0   33.333333333333336
-100.0   150.0   33.333333333333336
-100.0   120.0   16.666666666666668
-150.0   150.0   16.666666666666668
-150.0   120.0   33.333333333333336
-100.0   120.0   33.333333333333336
-150.0   150.0   33.333333333333336
-150.0   120.0   50.0
-100.0   120.0   33.333333333333336
-100.0   150.0   33.333333333333336
-150.0   150.0   33.333333333333336
-100.0   150.0   50.0
-150.0   120.0   50.0
-150.0   150.0   50.0
-100.0   150.0   50.0
-150.0   150.0   33.333333333333336
-150.0   120.0   50.0
-100.0   150.0   50.0
-100.0   120.0   50.0
-100.0   120.0   33.333333333333336
-150.0   120.0   50.0
-100.0   150.0   50.0
-100.0   120.0   33.333333333333336
-150.0   150.0   33.333333333333336
-100.0   0.0   0.0
-50.0   0.0   0.0
-100.0   30.0   0.0
-100.0   0.0   16.666666666666668
-50.0   0.0   0.0
-50.0   30.0   0.0
-100.0   30.0   0.0
-50.0   30.0   16.666666666666668
-100.0   0.0   16.666666666666668
-100.0   30.0   16.666666666666668
-50.0   30.0   16.666666666666668
-100.0   30.0   0.0
-100.0   0.0   16.666666666666668
-50.0   30.0   16.666666666666668
-50.0   0.0   16.666666666666668
-50.0   0.0   0.0
-100.0   0.0   16.666666666666668
-50.0   30.0   16.666666666666668
-50.0   0.0   0.0
-100.0   30.0   0.0
-100.0   0.0   16.666666666666668
-50.0   0.0   16.666666666666668
-100.0   30.0   16.666666666666668
-100.0   0.0   33.333333333333336
-50.0   0.0   16.666666666666668
-50.0   30.0   16.666666666666668
-100.0   30.0   16.666666666666668
-50.0   30.0   33.333333333333336
-100.0   0.0   33.333333333333336
-100.0   30.0   33.333333333333336
-50.0   30.0   33.333333333333336
-100.0   30.0   16.666666666666668
-100.0   0.0   33.333333333333336
-50.0   30.0   33.333333333333336
-50.0   0.0   33.333333333333336
-50.0   0.0   16.666666666666668
-100.0   0.0   33.333333333333336
-50.0   30.0   33.333333333333336
-50.0   0.0   16.666666666666668
-100.0   30.0   16.666666666666668
-100.0   0.0   33.333333333333336
-50.0   0.0   33.333333333333336
-100.0   30.0   33.333333333333336
-100.0   0.0   50.0
-50.0   0.0   33.333333333333336
-50.0   30.0   33.333333333333336
-100.0   30.0   33.333333333333336
-50.0   30.0   50.0
-100.0   0.0   50.0
-100.0   30.0   50.0
-50.0   30.0   50.0
-100.0   30.0   33.333333333333336
-100.0   0.0   50.0
-50.0   30.0   50.0
-50.0   0.0   50.0
-50.0   0.0   33.333333333333336
-100.0   0.0   50.0
-50.0   30.0   50.0
-50.0   0.0   33.333333333333336
-100.0   30.0   33.333333333333336
-100.0   30.0   0.0
-50.0   30.0   0.0
-100.0   60.0   0.0
-100.0   30.0   16.666666666666668
-50.0   30.0   0.0
-50.0   60.0   0.0
-100.0   60.0   0.0
-50.0   60.0   16.666666666666668
-100.0   30.0   16.666666666666668
-100.0   60.0   16.666666666666668
-50.0   60.0   16.666666666666668
-100.0   60.0   0.0
-100.0   30.0   16.666666666666668
-50.0   60.0   16.666666666666668
-50.0   30.0   16.666666666666668
-50.0   30.0   0.0
-100.0   30.0   16.666666666666668
-50.0   60.0   16.666666666666668
-50.0   30.0   0.0
-100.0   60.0   0.0
-100.0   30.0   16.666666666666668
-50.0   30.0   16.666666666666668
-100.0   60.0   16.666666666666668
-100.0   30.0   33.333333333333336
-50.0   30.0   16.666666666666668
-50.0   60.0   16.666666666666668
-100.0   60.0   16.666666666666668
-50.0   60.0   33.333333333333336
-100.0   30.0   33.333333333333336
-100.0   60.0   33.333333333333336
-50.0   60.0   33.333333333333336
-100.0   60.0   16.666666666666668
-100.0   30.0   33.333333333333336
-50.0   60.0   33.333333333333336
-50.0   30.0   33.333333333333336
-50.0   30.0   16.666666666666668
-100.0   30.0   33.333333333333336
-50.0   60.0   33.333333333333336
-50.0   30.0   16.666666666666668
-100.0   60.0   16.666666666666668
-100.0   30.0   33.333333333333336
-50.0   30.0   33.333333333333336
-100.0   60.0   33.333333333333336
-100.0   30.0   50.0
-50.0   30.0   33.333333333333336
-50.0   60.0   33.333333333333336
-100.0   60.0   33.333333333333336
-50.0   60.0   50.0
-100.0   30.0   50.0
-100.0   60.0   50.0
-50.0   60.0   50.0
-100.0   60.0   33.333333333333336
-100.0   30.0   50.0
-50.0   60.0   50.0
-50.0   30.0   50.0
-50.0   30.0   33.333333333333336
-100.0   30.0   50.0
-50.0   60.0   50.0
-50.0   30.0   33.333333333333336
-100.0   60.0   33.333333333333336
-100.0   60.0   0.0
-50.0   60.0   0.0
-100.0   90.0   0.0
-100.0   60.0   16.666666666666668
-50.0   60.0   0.0
-50.0   90.0   0.0
-100.0   90.0   0.0
-50.0   90.0   16.666666666666668
-100.0   60.0   16.666666666666668
-100.0   90.0   16.666666666666668
-50.0   90.0   16.666666666666668
-100.0   90.0   0.0
-100.0   60.0   16.666666666666668
-50.0   90.0   16.666666666666668
-50.0   60.0   16.666666666666668
-50.0   60.0   0.0
-100.0   60.0   16.666666666666668
-50.0   90.0   16.666666666666668
-50.0   60.0   0.0
-100.0   90.0   0.0
-100.0   60.0   16.666666666666668
-50.0   60.0   16.666666666666668
-100.0   90.0   16.666666666666668
-100.0   60.0   33.333333333333336
-50.0   60.0   16.666666666666668
-50.0   90.0   16.666666666666668
-100.0   90.0   16.666666666666668
-50.0   90.0   33.333333333333336
-100.0   60.0   33.333333333333336
-100.0   90.0   33.333333333333336
-50.0   90.0   33.333333333333336
-100.0   90.0   16.666666666666668
-100.0   60.0   33.333333333333336
-50.0   90.0   33.333333333333336
-50.0   60.0   33.333333333333336
-50.0   60.0   16.666666666666668
-100.0   60.0   33.333333333333336
-50.0   90.0   33.333333333333336
-50.0   60.0   16.666666666666668
-100.0   90.0   16.666666666666668
-100.0   60.0   33.333333333333336
-50.0   60.0   33.333333333333336
-100.0   90.0   33.333333333333336
-100.0   60.0   50.0
-50.0   60.0   33.333333333333336
-50.0   90.0   33.333333333333336
-100.0   90.0   33.333333333333336
-50.0   90.0   50.0
-100.0   60.0   50.0
-100.0   90.0   50.0
-50.0   90.0   50.0
-100.0   90.0   33.333333333333336
-100.0   60.0   50.0
-50.0   90.0   50.0
-50.0   60.0   50.0
-50.0   60.0   33.333333333333336
-100.0   60.0   50.0
-50.0   90.0   50.0
-50.0   60.0   33.333333333333336
-100.0   90.0   33.333333333333336
-100.0   90.0   0.0
-50.0   90.0   0.0
-100.0   120.0   0.0
-100.0   90.0   16.666666666666668
-50.0   90.0   0.0
-50.0   120.0   0.0
-100.0   120.0   0.0
-50.0   120.0   16.666666666666668
-100.0   90.0   16.666666666666668
-100.0   120.0   16.666666666666668
-50.0   120.0   16.666666666666668
-100.0   120.0   0.0
-100.0   90.0   16.666666666666668
-50.0   120.0   16.666666666666668
-50.0   90.0   16.666666666666668
-50.0   90.0   0.0
-100.0   90.0   16.666666666666668
-50.0   120.0   16.666666666666668
-50.0   90.0   0.0
-100.0   120.0   0.0
-100.0   90.0   16.666666666666668
-50.0   90.0   16.666666666666668
-100.0   120.0   16.666666666666668
-100.0   90.0   33.333333333333336
-50.0   90.0   16.666666666666668
-50.0   120.0   16.666666666666668
-100.0   120.0   16.666666666666668
-50.0   120.0   33.333333333333336
-100.0   90.0   33.333333333333336
-100.0   120.0   33.333333333333336
-50.0   120.0   33.333333333333336
-100.0   120.0   16.666666666666668
-100.0   90.0   33.333333333333336
-50.0   120.0   33.333333333333336
-50.0   90.0   33.333333333333336
-50.0   90.0   16.666666666666668
-100.0   90.0   33.333333333333336
-50.0   120.0   33.333333333333336
-50.0   90.0   16.666666666666668
-100.0   120.0   16.666666666666668
-100.0   90.0   33.333333333333336
-50.0   90.0   33.333333333333336
-100.0   120.0   33.333333333333336
-100.0   90.0   50.0
-50.0   90.0   33.333333333333336
-50.0   120.0   33.333333333333336
-100.0   120.0   33.333333333333336
-50.0   120.0   50.0
-100.0   90.0   50.0
-100.0   120.0   50.0
-50.0   120.0   50.0
-100.0   120.0   33.333333333333336
-100.0   90.0   50.0
-50.0   120.0   50.0
-50.0   90.0   50.0
-50.0   90.0   33.333333333333336
-100.0   90.0   50.0
-50.0   120.0   50.0
-50.0   90.0   33.333333333333336
-100.0   120.0   33.333333333333336
-100.0   120.0   0.0
-50.0   120.0   0.0
-100.0   150.0   0.0
-100.0   120.0   16.666666666666668
-50.0   120.0   0.0
-50.0   150.0   0.0
-100.0   150.0   0.0
-50.0   150.0   16.666666666666668
-100.0   120.0   16.666666666666668
-100.0   150.0   16.666666666666668
-50.0   150.0   16.666666666666668
-100.0   150.0   0.0
-100.0   120.0   16.666666666666668
-50.0   150.0   16.666666666666668
-50.0   120.0   16.666666666666668
-50.0   120.0   0.0
-100.0   120.0   16.666666666666668
-50.0   150.0   16.666666666666668
-50.0   120.0   0.0
-100.0   150.0   0.0
-100.0   120.0   16.666666666666668
-50.0   120.0   16.666666666666668
-100.0   150.0   16.666666666666668
-100.0   120.0   33.333333333333336
-50.0   120.0   16.666666666666668
-50.0   150.0   16.666666666666668
-100.0   150.0   16.666666666666668
-50.0   150.0   33.333333333333336
-100.0   120.0   33.333333333333336
-100.0   150.0   33.333333333333336
-50.0   150.0   33.333333333333336
-100.0   150.0   16.666666666666668
-100.0   120.0   33.333333333333336
-50.0   150.0   33.333333333333336
-50.0   120.0   33.333333333333336
-50.0   120.0   16.666666666666668
-100.0   120.0   33.333333333333336
-50.0   150.0   33.333333333333336
-50.0   120.0   16.666666666666668
-100.0   150.0   16.666666666666668
-100.0   120.0   33.333333333333336
-50.0   120.0   33.333333333333336
-100.0   150.0   33.333333333333336
-100.0   120.0   50.0
-50.0   120.0   33.333333333333336
-50.0   150.0   33.333333333333336
-100.0   150.0   33.333333333333336
-50.0   150.0   50.0
-100.0   120.0   50.0
-100.0   150.0   50.0
-50.0   150.0   50.0
-100.0   150.0   33.333333333333336
-100.0   120.0   50.0
-50.0   150.0   50.0
-50.0   120.0   50.0
-50.0   120.0   33.333333333333336
-100.0   120.0   50.0
-50.0   150.0   50.0
-50.0   120.0   33.333333333333336
-100.0   150.0   33.333333333333336
-50.0   0.0   0.0
0.0   0.0   0.0
-50.0   30.0   0.0
-50.0   0.0   16.666666666666668
0.0   0.0   0.0
0.0   30.0   0.0
-50.0   30.0   0.0
0.0   30.0   16.666666666666668
-50.0   0.0   16.666666666666668
-50.0   30.0   16.666666666666668
0.0   30.0   16.666666666666668
-50.0   30.0   0.0
-50.0   0.0   16.666666666666668
0.0   30.0   16.666666666666668
0.0   0.0   16.666666666666668
0.0   0.0   0.0
-50.0   0.0   16.666666666666668
0.0   30.0   16.666666666666668
0.0   0.0   0.0
-50.0   30.0   0.0
-50.0   0.0   16.666666666666668
0.0   0.0   16.666666666666668
-50.0   30.0   16.666666666666668
-50.0   0.0   33.333333333333336
0.0   0.0   16.666666666666668
0.0   30.0   16.666666666666668
-50.0   30.0   16.666666666666668
0.0   30.0   33.333333333333336
-50.0   0.0   33.333333333333336
-50.0   30.0   33.333333333333336
0.0   30.0   33.333333333333336
-50.0   30.0   16.666666666666668
-50.0   0.0   33.333333333333336
0.0   30.0   33.333333333333336
0.0   0.0   33.333333333333336
0.0   0.0   16.666666666666668
-50.0   0.0   33.333333333333336
0.0   30.0   33.333333333333336
0.0   0.0   16.666666666666668
-50.0   30.0   16.666666666666668
-50.0   0.0   33.333333333333336
0.0   0.0   33.333333333333336
-50.0   30.0   33.333333333333336
-50.0   0.0   50.0
0.0   0.0   33.333333333333336
0.0   30.0   33.333333333333336
-50.0   30.0   33.333333333333336
0.0   30.0   50.0
-50.0   0.0   50.0
-50.0   30.0   50.0
0.0   30.0   50.0
-50.0   30.0   33.333333333333336
-50.0   0.0   50.0
0.0   30.0   50.0
0.0   0.0   50.0
0.0   0.0   33.333333333333336
-50.0   0.0   50.0
0.0   30.0   50.0
0.0   0.0   33.333333333333336
-50.0   30.0   33.333333333333336
-50.0   30.0   0.0
0.0   30.0   0.0
-50.0   60.0   0.0
-50.0   30.0   16.666666666666668
0.0   30.0   0.0
0.0   60.0   0.0
-50.0   60.0   0.0
0.0   60.0   16.666666666666668
-50.0   30.0   16.666666666666668
-50.0   60.0   16.666666666666668
0.0   60.0   16.666666666666668
-50.0   60.0   0.0
-50.0   30.0   16.666666666666668
0.0   60.0   16.666666666666668
0.0   30.0   16.666666666666668
0.0   30.0   0.0
-50.0   30.0   16.666666666666668
0.0   60.0   16.666666666666668
0.0   30.0   0.0
-50.0   60.0   0.0
-50.0   30.0   16.666666666666668
0.0   30.0   16.666666666666668
-50.0   60.0   16.666666666666668
-50.0   30.0   33.333333333333336
0.0   30.0   16.666666666666668
0.0   60.0   16.666666666666668
-50.0   60.0   16.666666666666668
0.0   60.0   33.333333333333336
-50.0   30.0   33.333333333333336
-50.0   60.0   33.333333333333336
0.0   60.0   33.333333333333336
-50.0   60.0   16.666666666666668
-50.0   30.0   33.333333333333336
0.0   60.0   33.333333333333336
0.0   30.0   33.333333333333336
0.0   30.0   16.666666666666668
-50.0   30.0   33.333333333333336
0.0   60.0   33.333333333333336
0.0   30.0   16.666666666666668
-50.0   60.0   16.666666666666668
-50.0   30.0   33.333333333333336
0.0   30.0   33.333333333333336
-50.0   60.0   33.333333333333336
-50.0   30.0   50.0
0.0   30.0   33.333333333333336
0.0   60.0   33.333333333333336
-50.0   60.0   33.333333333333336
0.0   60.0   50.0
-50.0   30.0   50.0
-50.0   60.0   50.0
0.0   60.0   50.0
-50.0   60.0   33.333333333333336
-50.0   30.0   50.0
0.0   60.0   50.0
0.0   30.0   50.0
0.0   30.0   33.333333333333336
-50.0   30.0   50.0
0.0   60.0   50.0
0.0   30.0   33.333333333333336
-50.0   60.0   33.333333333333336
-50.0   60.0   0.0
0.0   60.0   0.0
-50.0   90.0   0.0
-50.0   60.0   16.666666666666668
0.0   60.0   0.0
0.0   90.0   0.0
-50.0   90.0   0.0
0.0   90.0   16.666666666666668
-50.0   60.0   16.666666666666668
-50.0   90.0   16.666666666666668
0.0   90.0   16.666666666666668
-50.0   90.0   0.0
-50.0   60.0   16.666666666666668
0.0   90.0   16.666666666666668
0.0   60.0   16.666666666666668
0.0   60.0   0.0
-50.0   60.0   16.666666666666668
0.0   90.0   16.666666666666668
0.0   60.0   0.0
-50.0   90.0   0.0
-50.0   60.0   16.666666666666668
0.0   60.0   16.666666666666668
-50.0   90.0   16.666666666666668
-50.0   60.0   33.333333333333336
0.0   60.0   16.666666666666668
0.0   90.0   16.666666666666668
-50.0   90.0   16.666666666666668
0.0   90.0   33.333333333333336
-50.0   60.0   33.333333333333336
-50.0   90.0   33.333333333333336
0.0   90.0   33.333333333333336
-50.0   90.0   16.666666666666668
-50.0   60.0   33.333333333333336
0.0   90.0   33.333333333333336
0.0   60.0   33.333333333333336
0.0   60.0   16.666666666666668
-50.0   60.0   33.333333333333336
0.0   90.0   33.333333333333336
0.0   60.0   16.666666666666668
-50.0   90.0   16.666666666666668
-50.0   60.0   33.333333333333336
0.0   60.0   33.333333333333336
-50.0   90.0   33.333333333333336
-50.0   60.0   50.0
0.0   60.0   33.333333333333336
0.0   90.0   33.333333333333336
-50.0   90.0   33.333333333333336
0.0   90.0   50.0
-50.0   60.0   50.0
-50.0   90.0   50.0
0.0   90.0   50.0
-50.0   90.0   33.333333333333336
-50.0   60.0   50.0
0.0   90.0   50.0
0.0   60.0   50.0
0.0   60.0   33.333333333333336
-50.0   60.0   50.0
0.0   90.0   50.0
0.0   60.0   33.333333333333336
-50.0   90.0   33.333333333333336
-50.0   90.0   0.0
0.0   90.0   0.0
-50.0   120.0   0.0
-50.0   90.0   16.666666666666668
0.0   90.0   0.0
0.0   120.0   0.0
-50.0   120.0   0.0
0.0   120.0   16.666666666666668
-50.0   90.0   16.666666666666668
-50.0   120.0   16.666666666666668
0.0   120.0   16.666666666666668
-50.0   120.0   0.0
-50.0   90.0   16.666666666666668
0.0   120.0   16.666666666666668
0.0   90.0   16.666666666666668
0.0   90.0   0.0
-50.0   90.0   16.666666666666668
0.0   120.0   16.666666666666668
0.0   90.0   0.0
-50.0   120.0   0.0
-50.0   90.0   16.666666666666668
0.0   90.0   16.666666666666668
-50.0   120.0   16.666666666666668
-50.0   90.0   33.333333333333336
0.0   90.0   16.666666666666668
0.0   120.0   16.666666666666668
-50.0   120.0   16.666666666666668
0.0   120.0   33.333333333333336
-50.0   90.0   33.333333333333336
-50.0   120.0   33.333333333333336
0.0   120.0   33.333333333333336
-50.0   120.0   16.666666666666668
-50.0   90.0   33.333333333333336
0.0   120.0   33.333333333333336
0.0   90.0   33.333333333333336
0.0   90.0   16.666666666666668
-50.0   90.0   33.333333333333336
0.0   120.0   33.333333333333336
0.0   90.0   16.666666666666668
-50.0   120.0   16.666666666666668
-50.0   90.0   33.333333333333336
0.0   90.0   33.333333333333336
-50.0   120.0   33.333333333333336
-50.0   90.0   50.0
0.0   90.0   33.333333333333336
0.0   120.0   33.333333333333336
-50.0   120.0   33.333333333333336
0.0   120.0   50.0
-50.0   90.0   50.0
-50.0   120.0   50.0
0.0   120.0   50.0
-50.0   120.0   33.333333333333336
-50.0   90.0   50.0
0.0   120.0   50.0
0.0   90.0   50.0
0.0   90.0   33.333333333333336
-50.0   90.0   50.0
0.0   120.0   50.0
0.0   90.0   33.333333333333336
-50.0   120.0   33.333333333333336
-50.0   120.0   0.0
0.0   120.0   0.0
-50.0   150.0   0.0
-50.0   120.0   16.666666666666668
0.0   120.0   0.0
0.0   150.0   0.0
-50.0   150.0   0.0
0.0   150.0   16.666666666666668
-50.0   120.0   16.666666666666668
-50.0   150.0   16.666666666666668
0.0   150.0   16.666666666666668
-50.0   150.0   0.0
-50.0   120.0   16.666666666666668
0.0   150.0   16.666666666666668
0.0   120.0   16.666666666666668
0.0   120.0   0.0
-50.0   120.0   16.666666666666668
0.0   150.0   16.666666666666668
0.0   120.0   0.0
-50.0   150.0   0.0
-50.0   120.0   16.666666666666668
0.0   120.0   16.666666666666668
-50.0   150.0   16.666666666666668
-50.0   120.0   33.333333333333336
0.0   120.0   16.666666666666668
0.0   150.0   16.666666666666668
-50.0   150.0   16.666666666666668
0.0   150.0   33.333333333333336
-50.0   120.0   33.333333333333336
-50.0   150.0   33.333333333333336
0.0   150.0   33.333333333333336
-50.0   150.0   16.666666666666668
-50.0   120.0   33.333333333333336
0.0   150.0   33.333333333333336
0.0   120.0   33.333333333333336
0.0   120.0   16.666666666666668
-50.0   120.0   33.333333333333336
0.0   150.0   33.333333333333336
0.0   120.0   16.666666666666668
-50.0   150.0   16.666666666666668
-50.0   120.0   33.333333333333336
0.0   120.0   33.333333333333336
-50.0   150.0   33.333333333333336
-50.0   120.0   50.0
0.0   120.0   33.333333333333336
0.0   150.0   33.333333333333336
-50.0   150.0   33.333333333333336
0.0   150.0   50.0
-50.0   120.0   50.0
-50.0   150.0   50.0
0.0   150.0   50.0
-50.0   150.0   33.333333333333336
-50.0   120.0   50.0
0.0   150.0   50.0
0.0   120.0   50.0
0.0   120.0   33.333333333333336
-50.0   120.0   50.0
0.0   150.0   50.0
0.0   120.0   33.333333333333336
-50.0   150.0   33.333333333333336
0.0   0.0   0.0
50.0   0.0   0.0
0.0   30.0   0.0
0.0   0.0   16.666666666666668
50.0   0.0   0.0
50.0   30.0   0.0
0.0   30.0   0.0
50.0   30.0   16.666666666666668
0.0   0.0   16.666666666666668
0.0   30.0   16.666666666666668
50.0   30.0   16.666666666666668
0.0   30.0   0.0
0.0   0.0   16.666666666666668
50.0   30.0   16.666666666666668
50.0   0.0   16.666666666666668
50.0   0.0   0.0
0.0   0.0   16.666666666666668
50.0   30.0   16.666666666666668
50.0   0.0   0.0
0.0   30.0   0.0
0.0   0.0   16.666666666666668
50.0   0.0   16.666666666666668
0.0   30.0   16.666666666666668
0.0   0.0   33.333333333333336
50.0   0.0   16.666666666666668
50.0   30.0   16.666666666666668
0.0   30.0   16.666666666666668
50.0   30.0   33.333333333333336
0.0   0.0   33.333333333333336
0.0   30.0   33.333333333333336
50.0   30.0   33.333333333333336
0.0   30.0   16.666666666666668
0.0   0.0   33.333333333333336
50.0   30.0   33.333333333333336
50.0   0.0   33.333333333333336
50.0   0.0   16.666666666666668
0.0   0.0   33.333333333333336
50.0   30.0   33.333333333333336
50.0   0.0   16.666666666666668
0.0   30.0   16.666666666666668
0.0   0.0   33.333333333333336
50.0   0.0   33.333333333333336
0.0   30.0   33.333333333333336
0.0   0.0   50.0
50.0   0.0   33.333333333333336
50.0   30.0   33.333333333333336
0.0   30.0   33.333333333333336
50.0   30.0   50.0
0.0   0.0   50.0
0.0   30.0   50.0
50.0   30.0   50.0
0.0   30.0   33.333333333333336
0.0   0.0   50.0
50.0   30.0   50.0
50.0   0.0   50.0
50.0   0.0   33.333333333333336
0.0   0.0   50.0
50.0   30.0   50.0
50.0   0.0   33.333333333333336
0.0   30.0   33.333333333333336
0.0   30.0   0.0
50.0   30.0   0.0
0.0   60.0   0.0
0.0   30.0   16.666666666666668
50.0   30.0   0.0
50.0   60.0   0.0
0.0   60.0   0.0
50.0   60.0   16.666666666666668
0.0   30.0   16.666666666666668
0.0   60.0   16.666666666666668
50.0   60.0   16.666666666666668
0.0   60.0   0.0
0.0   30.0   16.666666666666668
50.0   60.0   16.666666666666668
50.0   30.0   16.666666666666668
50.0   30.0   0.0
0.0   30.0   16.666666666666668
50.0   60.0   16.666666666666668
50.0   30.0   0.0
0.0   60.0   0.0
0.0   30.0   16.666666666666668
50.0   30.0   16.666666666666668
0.0   60.0   16.666666666666668
0.0   30.0   33.333333333333336
50.0   30.0   16.666666666666668
50.0   60.0   16.666666666666668
0.0   60.0   16.666666666666668
50.0   60.0   33.333333333333336
0.0   30.0   33.333333333333336
0.0   60.0   33.333333333333336
50.0   60.0   33.333333333333336
0.0   60.0   16.666666666666668
0.0   30.0   33.333333333333336
50.0   60.0   33.333333333333336
50.0   30.0   33.333333333333336
50.0   30.0   16.666666666666668
0.0   30.0   33.333333333333336
50.0   60.0   33.333333333333336
50.0   30.0   16.666666666666668
0.0   60.0   16.666666666666668
0.0   30.0   33.333333333333336
50.0   30.0   33.333333333333336
0.0   60.0   33.333333333333336
0.0   30.0   50.0
50.0   30.0   33.333333333333336
50.0   60.0   33.333333333333336
0.0   60.0   33.333333333333336
50.0   60.0   50.0
0.0   30.0   50.0
0.0   60.0   50.0
50.0   60.0   50.0
0.0   60.0   33.333333333333336
0.0   30.0   50.0
50.0   60.0   50.0
50.0   30.0   50.0
50.0   30.0   33.333333333333336
0.0   30.0   50.0
50.0   60.0   50.0
50.0   30.0   33.333333333333336
0.0   60.0   33.333333333333336
0.0   60.0   0.0
50.0   60.0   0.0
0.0   90.0   0.0
0.0   60.0   16.666666666666668
50.0   60.0   0.0
50.0   90.0   0.0
0.0   90.0   0.0
50.0   90.0   16.666666666666668
0.0   60.0   16.666666666666668
0.0   90.0   16.666666666666668
50.0   90.0   16.666666666666668
0.0   90.0   0.0
0.0   60.0   16.666666666666668
50.0   90.0   16.666666666666668
50.0   60.0   16.666666666666668
50.0   60.0   0.0
0.0   60.0   16.666666666666668
50.0   90.0   16.666666666666668
50.0   60.0   0.0
0.0   90.0   0.0
0.0   60.0   16.666666666666668
50.0   60.0   16.666666666666668
0.0   90.0   16.666666666666668
0.0   60.0   33.333333333333336
50.0   60.0   16.666666666666668
50.0   90.0   16.666666666666668
0.0   90.0   16.666666666666668
50.0   90.0   33.333333333333336
0.0   60.0   33.333333333333336
0.0   90.0   33.333333333333336
50.0   90.0   33.333333333333336
0.0   90.0   16.666666666666668
0.0   60.0   33.333333333333336
50.0   90.0   33.333333333333336
50.0   60.0   33.333333333333336
50.0   60.0   16.666666666666668
0.0   60.0   33.333333333333336
50.0   90.0   33.333333333333336
50.0   60.0   16.666666666666668
0.0   90.0   16.666666666666668
0.0   60.0   33.333333333333336
50.0   60.0   33.333333333333336
0.0   90.0   33.333333333333336
0.0   60.0   50.0
50.0   60.0   33.333333333333336
50.0   90.0   33.333333333333336
0.0   90.0   33.333333333333336
50.0   90.0   50.0
0.0   60.0   50.0
0.0   90.0   50.0
50.0   90.0   50.0
0.0   90.0   33.333333333333336
0.0   60.0   50.0
50.0   90.0   50.0
50.0   60.0   50.0
50.0   60.0   33.333333333333336
0.0   60.0   50.0
50.0   90.0   50.0
50.0   60.0   33.333333333333336
0.0   90.0   33.333333333333336
0.0   90.0   0.0
50.0   90.0   0.0
0.0   120.0   0.0
0.0   90.0   16.666666666666668
50.0   90.0   0.0
50.0   120.0   0.0
0.0   120.0   0.0
50.0   120.0   16.666666666666668
0.0   90.0   16.666666666666668
0.0   120.0   16.666666666666668
50.0   120.0   16.666666666666668
0.0   120.0   0.0
0.0   90.0   16.666666666666668
50.0   120.0   16.666666666666668
50.0   90.0   16.666666666666668
50.0   90.0   0.0
0.0   90.0   16.666666666666668
50.0   120.0   16.666666666666668
50.0   90.0   0.0
0.0   120.0   0.0
0.0   90.0   16.666666666666668
50.0   90.0   16.666666666666668
0.0   120.0   16.666666666666668
0.0   90.0   33.333333333333336
50.0   90.0   16.666666666666668
50.0   120.0   16.666666666666668
0.0   120.0   16.666666666666668
50.0   120.0   33.333333333333336
0.0   90.0   33.333333333333336
0.0   120.0   33.333333333333336
50.0   120.0   33.333333333333336
0.0   120.0   16.666666666666668
0.0   90.0   33.333333333333336
50.0   120.0   33.333333333333336
50.0   90.0   33.333333333333336
50.0   90.0   16.666666666666668
0.0   90.0   33.333333333333336
50.0   120.0   33.333333333333336
50.0   90.0   16.666666666666668
0.0   120.0   16.666666666666668
0.0   90.0   33.333333333333336
50.0   90.0   33.333333333333336
0.0   120.0   33.333333333333336
0.0   90.0   50.0
50.0   90.0   33.333333333333336
50.0   120.0   33.333333333333336
0.0   120.0   33.333333333333336
50.0   120.0   50.0
0.0   90.0   50.0
0.0   120.0   50.0
50.0   120.0   50.0
0.0   120.0   33.333333333333336
0.0   90.0   50.0
50.0   120.0   50.0
50.0   90.0   50.0
50.0   90.0   33.333333333333336
0.0   90.0   50.0
50.0   120.0   50.0
50.0   90.0   33.333333333333336
0.0   120.0   33.333333333333336
0.0   120.0   0.0
50.0   120.0   0.0
0.0   150.0   0.0
0.0   120.0   16.666666666666668
50.0   120.0   0.0
50.0   150.0   0.0
0.0   150.0   0.0
50.0   150.0   16.666666666666668
0.0   120.0   16.666666666666668
0.0   150.0   16.666666666666668
50.0   150.0   16.666666666666668
0.0   150.0   0.0
0.0   120.0   16.666666666666668
50.0   150.0   16.666666666666668
50.0   120.0   16.666666666666668
50.0   120.0   0.0
0.0   120.0   16.666666666666668
50.0   150.0   16.666666666666668
50.0   120.0   0.0
0.0   150.0   0.0
0.0   120.0   16.666666666666668
50.0   120.0   16.666666666666668
0.0   150.0   16.666666666666668
0.0   120.0   33.333333333333336
50.0   120.0   16.666666666666668
50.0   150.0   16.666666666666668
0.0   150.0   16.666666666666668
50.0   150.0   33.333333333333336
0.0   120.0   33.333333333333336
0.0   150.0   33.333333333333336
50.0   150.0   33.333333333333336
0.0   150.0   16.666666666666668
0.0   120.0   33.333333333333336
50.0   150.0   33.333333333333336
50.0   120.0   33.333333333333336
50.0   120.0   16.666666666666668
0.0   120.0   33.333333333333336
50.0   150.0   33.333333333333336
50.0   120.0   16.666666666666668
0.0   150.0   16.666666666666668
0.0   120.0   33.333333333333336
50.0   120.0   33.333333333333336
0.0   150.0   33.333333333333336
0.0   120.0   50.0
50.0   120.0   33.333333333333336
50.0   150.0   33.333333333333336
0.0   150.0   33.333333333333336
50.0   150.0   50.0
0.0   120.0   50.0
0.0   150.0   50.0
50.0   150.0   50.0
0.0   150.0   33.333333333333336
0.0   120.0   50.0
50.0   150.0   50.0
50.0   120.0   50.0
50.0   120.0   33.333333333333336
0.0   120.0   50.0
50.0   150.0   50.0
50.0   120.0   33.333333333333336
0.0   150.0   33.333333333333336
50.0   0.0   0.0
100.0   0.0   0.0
50.0   30.0   0.0
50.0   0.0   16.666666666666668
100.0   0.0   0.0
100.0   30.0   0.0
50.0   30.0   0.0
100.0   30.0   16.666666666666668
50.0   0.0   16.666666666666668
50.0   30.0   16.666666666666668
100.0   30.0   16.666666666666668
50.0   30.0   0.0
50.0   0.0   16.666666666666668
100.0   30.0   16.666666666666668
100.0   0.0   16.666666666666668
100.0   0.0   0.0
50.0   0.0   16.666666666666668
100.0   30.0   16.666666666666668
100.0   0.0   0.0
50.0   30.0   0.0
50.0   0.0   16.666666666666668
100.0   0.0   16.666666666666668
50.0   30.0   16.666666666666668
50.0   0.0   33.333333333333336
100.0   0.0   16.666666666666668
100.0   30.0   16.666666666666668
50.0   30.0   16.666666666666668
100.0   30.0   33.333333333333336
50.0   0.0   33.333333333333336
50.0   30.0   33.333333333333336
100.0   30.0   33.333333333333336
50.0   30.0   16.666666666666668
50.0   0.0   33.333333333333336
100.0   30.0   33.333333333333336
100.0   0.0   33.333333333333336
100.0   0.0   16.666666666666668
50.0   0.0   33.333333333333336
100.0   30.0   33.333333333333336
100.0   0.0   16.666666666666668
50.0   30.0   16.666666666666668
50.0   0.0   33.333333333333336
100.0   0.0   33.333333333333336
50.0   30.0   33.333333333333336
50.0   0.0   50.0
100.0   0.0   33.333333333333336
100.0   30.0   33.333333333333336
50.0   30.0   33.333333333333336
100.0   30.0   50.0
50.0   0.0   50.0
50.0   30.0   50.0
100.0   30.0   50.0
50.0   30.0   33.333333333333336
50.0   0.0   50.0
100.0   30.0   50.0
100.0   0.0   50.0
100.0   0.0   33.333333333333336
50.0   0.0   50.0
100.0   30.0   50.0
100.0   0.0   33.333333333333336
50.0   30.0   33.333333333333336
50.0   30.0   0.0
100.0   30.0   0.0
50.0   60.0   0.0
50.0   30.0   16.666666666666668
100.0   30.0   0.0
100.0   60.0   0.0
50.0   60.0   0.0
100.0   60.0   16.666666666666668
50.0   30.0   16.666666666666668
50.0   60.0   16.666666666666668
100.0   60.0   16.666666666666668
50.0   60.0   0.0
50.0   30.0   16.666666666666668
100.0   60.0   16.666666666666668
100.0   30.0   16.666666666666668
100.0   30.0   0.0
50.0   30.0   16.666666666666668
100.0   60.0   16.666666666666668
100.0   30.0   0.0
50.0   60.0   0.0
50.0   30.0   16.666666666666668
100.0   30.0   16.666666666666668
50.0   60.0   16.666666666666668
50.0   30.0   33.333333333333336
100.0   30.0   16.666666666666668
100.0   60.0   16.666666666666668
50.0   60.0   16.666666666666668
100.0   60.0   33.333333333333336
50.0   30.0   33.333333333333336
50.0   60.0   33.333333333333336
100.0   60.0   33.333333333333336
50.0   60.0   16.666666666666668
50.0   30.0   33.333333333333336
100.0   60.0   33.333333333333336
100.0   30.0   33.333333333333336
100.0   30.0   16.666666666666668
50.0   30.0   33.333333333333336
100.0   60.0   33.333333333333336
100.0   30.0   16.666666666666668
50.0   60.0   16.666666666666668
50.0   30.0   33.333333333333336
100.0   30.0   33.333333333333336
50.0   60.0   33.333333333333336
50.0   30.0   50.0
100.0   30.0   33.333333333333336
100.0   60.0   33.333333333333336
50.0   60.0   33.333333333333336
100.0   60.0   50.0
50.0   30.0   50.0
50.0   60.0   50.0
100.0   60.0   50.0
50.0   60.0   33.333333333333336
50.0   30.0   50.0
100.0   60.0   50.0
100.0   30.0   50.0
100.0   30.0   33.333333333333336
50.0   30.0   50.0
100.0   60.0   50.0
100.0   30.0   33.333333333333336
50.0   60.0   33.333333333333336
50.0   60.0   0.0
100.0   60.0   0.0
50.0   90.0   0.0
50.0   60.0   16.666666666666668
100.0   60.0   0.0
100.0   90.0   0.0
50.0   90.0   0.0
100.0   90.0   16.666666666666668
50.0   60.0   16.666666666666668
50.0   90.0   16.666666666666668
100.0   90.0   16.666666666666668
50.0   90.0   0.0
50.0   60.0   16.666666666666668
100.0   90.0   16.666666666666668
100.0   60.0   16.666666666666668
100.0   60.0   0.0
50.0   60.0   16.666666666666668
100.0   90.0   16.666666666666668
100.0   60.0   0.0
50.0   90.0   0.0
50.0   60.0   16.666666666666668
100.0   60.0   16.666666666666668
50.0   90.0   16.666666666666668
50.0   60.0   33.333333333333336
100.0   60.0   16.666666666666668
100.0   90.0   16.666666666666668
50.0   90.0   16.666666666666668
100.0   90.0   33.333333333333336
50.0   60.0   33.333333333333336
50.0   90.0   33.333333333333336
100.0   90.0   33.333333333333336
50.0   90.0   16.666666666666668
50.0   60.0   33.333333333333336
100.0   90.0   33.333333333333336
100.0   60.0   33.333333333333336
100.0   60.0   16.666666666666668
50.0   60.0   33.333333333333336
100.0   90.0   33.333333333333336
100.0   60.0   16.666666666666668
50.0   90.0   16.666666666666668
50.0   60.0   33.333333333333336
100.0   60.0   33.333333333333336
50.0   90.0   33.333333333333336
50.0   60.0   50.0
100.0   60.0   33.333333333333336
100.0   90.0   33.333333333333336
50.0   90.0   33.333333333333336
100.0   90.0   50.0
50.0   60.0   50.0
50.0   90.0   50.0
100.0   90.0   50.0
50.0   90.0   33.333333333333336
50.0   60.0   50.0
100.0   90.0   50.0
100.0   60.0   50.0
100.0   60.0   33.333333333333336
50.0   60.0   50.0
100.0   90.0   50.0
100.0   60.0   33.333333333333336
50.0   90.0   33.333333333333336
50.0   90.0   0.0
100.0   90.0   0.0
50.0   120.0   0.0
50.0   90.0   16.666666666666668
100.0   90.0   0.0
100.0   120.0   0.0
50.0   120.0   0.0
100.0   120.0   16.666666666666668
50.0   90.0   16.666666666666668
50.0   120.0   16.666666666666668
100.0   120.0   16.666666666666668
50.0   120.0   0.0
50.0   90.0   16.666666666666668
100.0   120.0   16.666666666666668
100.0   90.0   16.666666666666668
100.0   90.0   0.0
50.0   90.0   16.666666666666668
100.0   120.0   16.666666666666668
100.0   90.0   0.0
50.0   120.0   0.0
50.0   90.0   16.666666666666668
100.0   90.0   16.666666666666668
50.0   120.0   16.666666666666668
50.0   90.0   33.333333333333336
100.0   90.0   16.666666666666668
100.0   120.0   16.666666666666668
50.0   120.0   16.666666666666668
100.0   120.0   33.333333333333336
50.0   90.0   33.333333333333336
50.0   120.0   33.333333333333336
100.0   120.0   33.333333333333336
50.0   120.0   16.666666666666668
50.0   90.0   33.333333333333336
100.0   120.0   33.333333333333336
100.0   90.0   33.333333333333336
100.0   90.0   16.666666666666668
50.0   90.0   33.333333333333336
100.0   120.0   33.333333333333336
100.0   90.0   16.666666666666668
50.0   120.0   16.666666666666668
50.0   90.0   33.333333333333336
100.0   90.0   33.333333333333336
50.0   120.0   33.333333333333336
50.0   90.0   50.0
100.0   90.0   33.333333333333336
100.0   120.0   33.333333333333336
50.0   120.0   33.333333333333336
100.0   120.0   50.0
50.0   90.0   50.0
50.0   120.0   50.0
100.0   120.0   50.0
50.0   120.0   33.333333333333336
50.0   90.0   50.0
100.0   120.0   50.0
100.0   90.0   50.0
100.0   90.0   33.333333333333336
50.0   90.0   50.0
100.0   120.0   50.0
100.0   90.0   33.333333333333336
50.0   120.0   33.333333333333336
50.0   120.0   0.0
100.0   120.0   0.0
50.0   150.0   0.0
50.0   120.0   16.666666666666668
100.0   120.0   0.0
100.0   150.0   0.0
50.0   150.0   0.0
100.0   150.0   16.666666666666668
50.0   120.0   16.666666666666668
50.0   150.0   16.666666666666668
100.0   150.0   16.666666666666668
50.0   150.0   0.0
50.0   120.0   16.666666666666668
100.0   150.0   16.666666666666668
100.0   120.0   16.666666666666668
100.0   120.0   0.0
50.0   120.0   16.666666666666668
100.0   150.0   16.666666666666668
100.0   120.0   0.0
50.0   150.0   0.0
50.0   120.0   16.666666666666668
100.0   120.0   16.666666666666668
50.0   150.0   16.666666666666668
50.0   120.0   33.333333333333336
100.0   120.0   16.666666666666668
100.0   150.0   16.666666666666668
50.0   150.0   16.666666666666668
100.0   150.0   33.333333333333336
50.0   120.0   33.333333333333336
50.0   150.0   33.333333333333336
100.0   150.0   33.333333333333336
50.0   150.0   16.666666666666668
50.0   120.0   33.333333333333336
100.0   150.0   33.333333333333336
100.0   120.0   33.333333333333336
100.0   120.0   16.666666666666668
50.0   120.0   33.333333333333336
100.0   150.0   33.333333333333336
100.0   120.0   16.666666666666668
50.0   150.0   16.666666666666668
50.0   120.0   33.333333333333336
100.0   120.0   33.333333333333336
50.0   150.0   33.333333333333336
50.0   120.0   50.0
100.0   120.0   33.333333333333336
100.0   150.0   33.333333333333336
50.0   150.0   33.333333333333336
100.0   150.0   50.0
50.0   120.0   50.0
50.0   150.0   50.0
100.0   150.0   50.0
50.0   150.0   33.333333333333336
50.0   120.0   50.0
100.0   150.0   50.0
100.0   120.0   50.0
100.0   120.0   33.333333333333336
50.0   120.0   50.0
100.0   150.0   50.0
100.0   120.0   33.333333333333336
50.0   150.0   33.333333333333336
100.0   0.0   0.0
150.0   0.0   0.0
100.0   30.0   0.0
100.0   0.0   16.666666666666668
150.0   0.0   0.0
150.0   30.0   0.0
100.0   30.0   0.0
150.0   30.0   16.666666666666668
100.0   0.0   16.666666666666668
100.0   30.0   16.666666666666668
150.0   30.0   16.666666666666668
100.0   30.0   0.0
100.0   0.0   16.666666666666668
150.0   30.0   16.666666666666668
150.0   0.0   16.666666666666668
150.0   0.0   0.0
100.0   0.0   16.666666666666668
150.0   30.0   16.666666666666668
150.0   0.0   0.0
100.0   30.0   0.0
100.0   0.0   16.666666666666668
150.0   0.0   16.666666666666668
100.0   30.0   16.666666666666668
100.0   0.0   33.333333333333336
150.0   0.0   16.666666666666668
150.0   30.0   16.666666666666668
100.0   30.0   16.666666666666668
150.0   30.0   33.333333333333336
100.0   0.0   33.333333333333336
100.0   30.0   33.333333333333336
150.0   30.0   33.333333333333336
100.0   30.0   16.666666666666668
100.0   0.0   33.333333333333336
150.0   30.0   33.333333333333336
150.0   0.0   33.333333333333336
150.0   0.0   16.666666666666668
100.0   0.0   33.333333333333336
150.0   30.0   33.333333333333336
150.0   0.0   16.666666666666668
100.0   30.0   16.666666666666668
100.0   0.0   33.333333333333336
150.0   0.0   33.333333333333336
100.0   30.0   33.333333333333336
100.0   0.0   50.0
150.0   0.0   33.333333333333336
150.0   30.0   33.333333333333336
100.0   30.0   33.333333333333336
150.0   30.0   50.0
100.0   0.0   50.0
100.0   30.0   50.0
150.0   30.0   50.0
100.0   30.0   33.333333333333336
100.0   0.0   50.0
150.0   30.0   50.0
150.0   0.0   50.0
150.0   0.0   33.333333333333336
100.0   0.0   50.0
150.0   30.0   50.0
150.0   0.0   33.333333333333336
100.0   30.0   33.333333333333336
100.0   30.0   0.0
150.0   30.0   0.0
100.0   60.0   0.0
100.0   30.0   16.666666666666668
150.0   30.0   0.0
150.0   60.0   0.0
100.0   60.0   0.0
150.0   60.0   16.666666666666668
100.0   30.0   16.666666666666668
100.0   60.0   16.666666666666668
150.0   60.0   16.666666666666668
100.0   60.0   0.0
100.0   30.0   16.666666666666668
150.0   60.0   16.666666666666668
150.0   30.0   16.666666666666668
150.0   30.0   0.0
100.0   30.0   16.666666666666668
150.0   60.0   16.666666666666668
150.0   30.0   0.0
100.0   60.0   0.0
100.0   30.0   16.666666666666668
150.0   30.0   16.666666666666668
100.0   60.0   16.666666666666668
100.0   30.0   33.333333333333336
150.0   30.0   16.666666666666668
150.0   60.0   16.666666666666668
100.0   60.0   16.666666666666668
150.0   60.0   33.333333333333336
100.0   30.0   33.333333333333336
100.0   60.0   33.333333333333336
150.0   60.0   33.333333333333336
100.0   60.0   16.666666666666668
100.0   30.0   33.333333333333336
150.0   60.0   33.333333333333336
150.0   30.0   33.333333333333336
150.0   30.0   16.666666666666668
100.0   30.0   33.333333333333336
150.0   60.0   33.333333333333336
150.0   30.0   16.666666666666668
100.0   60.0   16.666666666666668
100.0   30.0   33.333333333333336
150.0   30.0   33.333333333333336
100.0   60.0   33.333333333333336
100.0   30.0   50.0
150.0   30.0   33.333333333333336
150.0   60.0   33.333333333333336
100.0   60.0   33.333333333333336
150.0   60.0   50.0
100.0   30.0   50.0
100.0   60.0   50.0
150.0   60.0   50.0
100.0   60.0   33.333333333333336
100.0   30.0   50.0
150.0   60.0   50.0
150.0   30.0   50.0
150.0   30.0   33.333333333333336
100.0   30.0   50.0
150.0   60.0   50.0
150.0   30.0   33.333333333333336
100.0   60.0   33.333333333333336
100.0   60.0   0.0
150.0   60.0   0.0
100.0   90.0   0.0
100.0   60.0   16.666666666666668
150.0   60.0   0.0
150.0   90.0   0.0
100.0   90.0   0.0
150.0   90.0   16.666666666666668
100.0   60.0   16.666666666666668
100.0   90.0   16.666666666666668
150.0   90.0   16.666666666666668
100.0   90.0   0.0
100.0   60.0   16.666666666666668
150.0   90.0   16.666666666666668
150.0   60.0   16.666666666666668
150.0   60.0   0.0
100.0   60.0   16.666666666666668
150.0   90.0   16.666666666666668
150.0   60.0   0.0
100.0   90.0   0.0
100.0   60.0   16.666666666666668
150.0   60.0   16.666666666666668
100.0   90.0   16.666666666666668
100.0   60.0   33.333333333333336
150.0   60.0   16.666666666666668
150.0   90.0   16.666666666666668
100.0   90.0   16.666666666666668
150.0   90.0   33.333333333333336
100.0   60.0   33.333333333333336
100.0   90.0   33.333333333333336
150.0   90.0   33.333333333333336
100.0   90.0   16.666666666666668
100.0   60.0   33.333333333333336
150.0   90.0   33.333333333333336
150.0   60.0   33.333333333333336
150.0   60.0   16.666666666666668
100.0   60.0   33.333333333333336
150.0   90.0   33.333333333333336
150.0   60.0   16.666666666666668
100.0   90.0   16.666666666666668
100.0   60.0   33.333333333333336
150.0   60.0   33.333333333333336
100.0   90.0   33.333333333333336
100.0   60.0   50.0
150.0   60.0   33.333333333333336
150.0   90.0   33.333333333333336
100.0   90.0   33.333333333333336
150.0   90.0   50.0
100.0   60.0   50.0
100.0   90.0   50.0
150.0   90.0   50.0
100.0   90.0   33.333333333333336
100.0   60.0   50.0
150.0   90.0   50.0
150.0   60.0   50.0
150.0   60.0   33.333333333333336
100.0   60.0   50.0
150.0   90.0   50.0
150.0   60.0   33.333333333333336
100.0   90.0   33.333333333333336
100.0   90.0   0.0
150.0   90.0   0.0
100.0   120.0   0.0
100.0   90.0   16.666666666666668
150.0   90.0   0.0
150.0   120.0   0.0
100.0   120.0   0.0
150.0   120.0   16.666666666666668
100.0   90.0   16.666666666666668
100.0   120.0   16.666666666666668
150.0   120.0   16.666666666666668
100.0   120.0   0.0
100.0   90.0   16.666666666666668
150.0   120.0   16.666666666666668
150.0   90.0   16.666666666666668
150.0   90.0   0.0
100.0   90.0   16.666666666666668
150.0   120.0   16.666666666666668
150.0   90.0   0.0
100.0   120.0   0.0
100.0   90.0   16.666666666666668
150.0   90.0   16.666666666666668
100.0   120.0   16.666666666666668
100.0   90.0   33.333333333333336
150.0   90.0   16.666666666666668
150.0   120.0   16.666666666666668
100.0   120.0   16.666666666666668
150.0   120.0   33.333333333333336
100.0   90.0   33.333333333333336
100.0   120.0   33.333333333333336
150.0   120.0   33.333333333333336
100.0   120.0   16.666666666666668
100.0   90.0   33.333333333333336
150.0   120.0   33.333333333333336
150.0   90.0   33.333333333333336
150.0   90.0   16.666666666666668
100.0   90.0   33.333333333333336
150.0   120.0   33.333333333333336
150.0   90.0   16.666666666666668
100.0   120.0   16.666666666666668
100.0   90.0   33.333333333333336
150.0   90.0   33.333333333333336
100.0   120.0   33.333333333333336
100.0   90.0   50.0
150.0   90.0   33.333333333333336
150.0   120.0   33.333333333333336
100.0   120.0   33.333333333333336
150.0   120.0   50.0
100.0   90.0   50.0
100.0   120.0   50.0
150.0   120.0   50.0
100.0   120.0   33.333333333333336
100.0   90.0   50.0
150.0   120.0   50.0
150.0   90.0   50.0
150.0   90.0   33.333333333333336
100.0   90.0   50.0
150.0   120.0   50.0
150.0   90.0   33.333333333333336
100.0   120.0   33.333333333333336
100.0   120.0   0.0
150.0   120.0   0.0
100.0   150.0   0.0
100.0   120.0   16.666666666666668
150.0   120.0   0.0
150.0   150.0   0.0
100.0   150.0   0.0
150.0   150.0   16.666666666666668
100.0   120.0   16.666666666666668
100.0   150.0   16.666666666666668
150.0   150.0   16.666666666666668
100.0   150.0   0.0
100.0   120.0   16.666666666666668
150.0   150.0   16.666666666666668
150.0   120.0   16.666666666666668
150.0   120.0   0.0
100.0   120.0   16.666666666666668
150.0   150.0   16.666666666666668
150.0   120.0   0.0
100.0   150.0   0.0
100.0   120.0   16.666666666666668
150.0   120.0   16.666666666666668
100.0   150.0   16.666666666666668
100.0   120.0   33.333333333333336
150.0   120.0   16.666666666666668
150.0   150.0   16.666666666666668
100.0   150.0   16.666666666666668
150.0   150.0   33.333333333333336
100.0   120.0   33.333333333333336
100.0   150.0   33.333333333333336
150.0   150.0   33.333333333333336
100.0   150.0   16.666666666666668
100.0   120.0   33.333333333333336
150.0   150.0   33.333333333333336
150.0   120.0   33.333333333333336
150.0   120.0   16.666666666666668
100.0   120.0   33.333333333333336
150.0   150.0   33.333333333333336
150.0   120.0   16.666666666666668
100.0   150.0   16.666666666666668
100.0   120.0   33.333333333333336
150.0   120.0   33.333333333333336
100.0   150.0   33.333333333333336
100.0   120.0   50.0
150.0   120.0   33.333333333333336
150.0   150.0   33.333333333333336
100.0   150.0   33.333333333333336
150.0   150.0   50.0
100.0   120.0   50.0
100.0   150.0   50.0
150.0   150.0   50.0
100.0   150.0   33.333333333333336
100.0   120.0   50.0
150.0   150.0   50.0
150.0   120.0   50.0
150.0   120.0   33.333333333333336
100.0   120.0   50.0
150.0   150.0   50.0
150.0   120.0   33.333333333333336
100.0   150.0   33.333333333333336
150.0   0.0   0.0
200.0   0.0   0.0
150.0   30.0   0.0
150.0   0.0   16.666666666666668
200.0   0.0   0.0
200.0   30.0   0.0
150.0   30.0   0.0
200.0   30.0   16.666666666666668
150.0   0.0   16.666666666666668
150.0   30.0   16.666666666666668
200.0   30.0   16.666666666666668
150.0   30.0   0.0
150.0   0.0   16.666666666666668
200.0   30.0   16.666666666666668
200.0   0.0   16.666666666666668
200.0   0.0   0.0
150.0   0.0   16.666666666666668
200.0   30.0   16.666666666666668
200.0   0.0   0.0
150.0   30.0   0.0
150.0   0.0   16.666666666666668
200.0   0.0   16.666666666666668
150.0   30.0   16.666666666666668
150.0   0.0   33.333333333333336
200.0   0.0   16.666666666666668
200.0   30.0   16.666666666666668
150.0   30.0   16.666666666666668
200.0   30.0   33.333333333333336
150.0   0.0   33.333333333333336
150.0   30.0   33.333333333333336
200.0   30.0   33.333333333333336
150.0   30.0   16.666666666666668
150.0   0.0   33.333333333333336
200.0   30.0   33.333333333333336
200.0   0.0   33.333333333333336
200.0   0.0   16.666666666666668
150.0   0.0   33.333333333333336
200.0   30.0   33.333333333333336
200.0   0.0   16.666666666666668
150.0   30.0   16.666666666666668
150.0   0.0   33.333333333333336
200.0   0.0   33.333333333333336
150.0   30.0   33.333333333333336
150.0   0.0   50.0
200.0   0.0   33.333333333333336
200.0   30.0   33.333333333333336
150.0   30.0   33.333333333333336
200.0   30.0   50.0
150.0   0.0   50.0
150.0   30.0   50.0
200.0   30.0   50.0
150.0   30.0   33.333333333333336
150.0   0.0   50.0
200.0   30.0   50.0
200.0   0.0   50.0
200.0   0.0   33.333333333333336
150.0   0.0   50.0
200.0   30.0   50.0
200.0   0.0   33.333333333333336
150.0   30.0   33.333333333333336
150.0   30.0   0.0
200.0   30.0   0.0
150.0   60.0   0.0
150.0   30.0   16.666666666666668
200.0   30.0   0.0
200.0   60.0   0.0
150.0   60.0   0.0
200.0   60.0   16.666666666666668
150.0   30.0   16.666666666666668
150.0   60.0   16.666666666666668
200.0   60.0   16.666666666666668
150.0   60.0   0.0
150.0   30.0   16.666666666666668
200.0   60.0   16.666666666666668
200.0   30.0   16.666666666666668
200.0   30.0   0.0
150.0   30.0   16.666666666666668
200.0   60.0   16.666666666666668
200.0   30.0   0.0
150.0   60.0   0.0
150.0   30.0   16.666666666666668
200.0   30.0   16.666666666666668
150.0   60.0   16.666666666666668
150.0   30.0   33.333333333333336
200.0   30.0   16.666666666666668
200.0   60.0   16.666666666666668
150.0   60.0   16.666666666666668
200.0   60.0   33.333333333333336
150.0   30.0   33.333333333333336
150.0   60.0   33.333333333333336
200.0   60.0   33.333333333333336
150.0   60.0   16.666666666666668
150.0   30.0   33.333333333333336
200.0   60.0   33.333333333333336
200.0   30.0   33.333333333333336
200.0   30.0   16.666666666666668
150.0   30.0   33.333333333333336
200.0   60.0   33.333333333333336
200.0   30.0   16.666666666666668
150.0   60.0   16.666666666666668
150.0   30.0   33.333333333333336
200.0   30.0   33.333333333333336
150.0   60.0   33.333333333333336
150.0   30.0   50.0
200.0   30.0   33.333333333333336
200.0   60.0   33.333333333333336
150.0   60.0   33.333333333333336
200.0   60.0   50.0
150.0   30.0   50.0
150.0   60.0   50.0
200.0   60.0   50.0
150.0   60.0   33.333333333333336
150.0   30.0   50.0
200.0   60.0   50.0
200.0   30.0   50.0
200.0   30.0   33.333333333333336
150.0   30.0   50.0
200.0   60.0   50.0
200.0   30.0   33.333333333333336
150.0   60.0   33.333333333333336
150.0   60.0   0.0
200.0   60.0   0.0
150.0   90.0   0.0
150.0   60.0   16.666666666666668
200.0   60.0   0.0
200.0   90.0   0.0
150.0   90.0   0.0
200.0   90.0   16.666666666666668
150.0   60.0   16.666666666666668
150.0   90.0   16.666666666666668
200.0   90.0   16.666666666666668
150.0   90.0   0.0
150.0   60.0   16.666666666666668
200.0   90.0   16.666666666666668
200.0   60.0   16.666666666666668
200.0   60.0   0.0
150.0   60.0   16.666666666666668
200.0   90.0   16.666666666666668
200.0   60.0   0.0
150.0   90.0   0.0
150.0   60.0   16.666666666666668
200.0   60.0   16.666666666666668
150.0   90.0   16.666666666666668
150.0   60.0   33.333333333333336
200.0   60.0   16.666666666666668
200.0   90.0   16.666666666666668
150.0   90.0   16.666666666666668
200.0   90.0   33.333333333333336
150.0   60.0   33.333333333333336
150.0   90.0   33.333333333333336
200.0   90.0   33.333333333333336
150.0   90.0   16.666666666666668
150.0   60.0   33.333333333333336
200.0   90.0   33.333333333333336
200.0   60.0   33.333333333333336
200.0   60.0   16.666666666666668
150.0   60.0   33.333333333333336
200.0   90.0   33.333333333333336
200.0   60.0   16.666666666666668
150.0   90.0   16.666666666666668
150.0   60.0   33.333333333333336
200.0   60.0   33.333333333333336
150.0   90.0   33.333333333333336
150.0   60.0   50.0
200.0   60.0   33.333333333333336
200.0   90.0   33.333333333333336
150.0   90.0   33.333333333333336
200.0   90.0   50.0
150.0   60.0   50.0
150.0   90.0   50.0
200.0   90.0   50.0
150.0   90.0   33.333333333333336
150.0   60.0   50.0
200.0   90.0   50.0
200.0   60.0   50.0
200.0   60.0   33.333333333333336
150.0   60.0   50.0
200.0   90.0   50.0
200.0   60.0   33.333333333333336
150.0   90.0   33.333333333333336
150.0   90.0   0.0
200.0   90.0   0.0
150.0   120.0   0.0
150.0   90.0   16.666666666666668
200.0   90.0   0.0
200.0   120.0   0.0
150.0   120.0   0.0
200.0   120.0   16.666666666666668
150.0   90.0   16.666666666666668
150.0   120.0   16.666666666666668
200.0   120.0   16.666666666666668
150.0   120.0   0.0
150.0   90.0   16.666666666666668
200.0   120.0   16.666666666666668
200.0   90.0   16.666666666666668
200.0   90.0   0.0
150.0   90.0   16.666666666666668
200.0   120.0   16.666666666666668
200.0   90.0   0.0
150.0   120.0   0.0
150.0   90.0   16.666666666666668
200.0   90.0   16.666666666666668
150.0   120.0   16.666666666666668
150.0   90.0   33.333333333333336
200.0   90.0   16.666666666666668
200.0   120.0   16.666666666666668
150.0   120.0   16.666666666666668
200.0   120.0   33.333333333333336
150.0   90.0   33.333333333333336
150.0   120.0   33.333333333333336
200.0   120.0   33.333333333333336
150.0   120.0   16.666666666666668
150.0   90.0   33.333333333333336
200.0   120.0   33.333333333333336
200.0   90.0   33.333333333333336
200.0   90.0   16.666666666666668
150.0   90.0   33.333333333333336
200.0   120.0   33.333333333333336
200.0   90.0   16.666666666666668
150.0   120.0   16.666666666666668
150.0   90.0   33.333333333333336
200.0   90.0   33.333333333333336
150.0   120.0   33.333333333333336
150.0   90.0   50.0
200.0   90.0   33.333333333333336
200.0   120.0   33.333333333333336
150.0   120.0   33.333333333333336
200.0   120.0   50.0
150.0   90.0   50.0
150.0   120.0   50.0
200.0   120.0   50.0
150.0   120.0   33.333333333333336
150.0   90.0   50.0
200.0   120.0   50.0
200.0   90.0   50.0
200.0   90.0   33.333333333333336
150.0   90.0   50.0
200.0   120.0   50.0
200.0   90.0   33.333333333333336
150.0   120.0   33.333333333333336
150.0   120.0   0.0
200.0   120.0   0.0
150.0   150.0   0.0
150.0   120.0   16.666666666666668
200.0   120.0   0.0
200.0   150.0   0.0
150.0   150.0   0.0
200.0   150.0   16.666666666666668
150.0   120.0   16.666666666666668
150.0   150.0   16.666666666666668
200.0   150.0   16.666666666666668
150.0   150.0   0.0
150.0   120.0   16.666666666666668
200.0   150.0   16.666666666666668
200.0   120.0   16.666666666666668
200.0   120.0   0.0
150.0   120.0   16.666666666666668
200.0   150.0   16.666666666666668
200.0   120.0   0.0
150.0   150.0   0.0
150.0   120.0   16.666666666666668
200.0   120.0   16.666666666666668
150.0   150.0   16.666666666666668
150.0   120.0   33.333333333333336
200.0   120.0   16.666666666666668
200.0   150.0   16.666666666666668
150.0   150.0   16.666666666666668
200.0   150.0   33.333333333333336
150.0   120.0   33.333333333333336
150.0   150.0   33.333333333333336
200.0   150.0   33.333333333333336
150.0   150.0   16.666666666666668
150.0   120.0   33.333333333333336
200.0   150.0   33.333333333333336
200.0   120.0   33.333333333333336
200.0   120.0   16.666666666666668
150.0   120.0   33.333333333333336
200.0   150.0   33.333333333333336
200.0   120.0   16.666666666666668
150.0   150.0   16.666666666666668
150.0   120.0   33.333333333333336
200.0   120.0   33.333333333333336
150.0   150.0   33.333333333333336
150.0   120.0   50.0
200.0   120.0   33.333333333333336
200.0   150.0   33.333333333333336
150.0   150.0   33.333333333333336
200.0   150.0   50.0
150.0   120.0   50.0
150.0   150.0   50.0
200.0   150.0   50.0
150.0   150.0   33.333333333333336
150.0   120.0   50.0
200.0   150.0   50.0
200.0   120.0   50.0
200.0   120.0   33.333333333333336
150.0   120.0   50.0
200.0   150.0   50.0
200.0   120.0   33.333333333333336
150.0   150.0   33.333333333333336
200.0   0.0   0.0
250.0   0.0   0.0
200.0   30.0   0.0
200.0   0.0   16.666666666666668
250.0   0.0   0.0
250.0   30.0   0.0
200.0   30.0   0.0
250.0   30.0   16.666666666666668
200.0   0.0   16.666666666666668
200.0   30.0   16.666666666666668
250.0   30.0   16.666666666666668
200.0   30.0   0.0
200.0   0.0   16.666666666666668
250.0   30.0   16.666666666666668
250.0   0.0   16.666666666666668
250.0   0.0   0.0
200.0   0.0   16.666666666666668
250.0   30.0   16.666666666666668
250.0   0.0   0.0
200.0   30.0   0.0
200.0   0.0   16.666666666666668
250.0   0.0   16.666666666666668
200.0   30.0   16.666666666666668
200.0   0.0   33.333333333333336
250.0   0.0   16.666666666666668
250.0   30.0   16.666666666666668
200.0   30.0   16.666666666666668
250.0   30.0   33.333333333333336
200.0   0.0   33.333333333333336
200.0   30.0   33.333333333333336
250.0   30.0   33.333333333333336
200.0   30.0   16.666666666666668
200.0   0.0   33.333333333333336
250.0   30.0   33.333333333333336
250.0   0.0   33.333333333333336
250.0   0.0   16.666666666666668
200.0   0.0   33.333333333333336
250.0   30.0   33.333333333333336
250.0   0.0   16.666666666666668
200.0   30.0   16.666666666666668
200.0   0.0   33.333333333333336
250.0   0.0   33.333333333333336
200.0   30.0   33.333333333333336
200.0   0.0   50.0
250.0   0.0   33.333333333333336
250.0   30.0   33.333333333333336
200.0   30.0   33.333333333333336
250.0   30.0   50.0
200.0   0.0   50.0
200.0   30.0   50.0
250.0   30.0   50.0
200.0   30.0   33.333333333333336
200.0   0.0   50.0
250.0   30.0   50.0
250.0   0.0   50.0
250.0   0.0   33.333333333333336
200.0   0.0   50.0
250.0   30.0   50.0
250.0   0.0   33.333333333333336
200.0   30.0   33.333333333333336
200.0   30.0   0.0
250.0   30.0   0.0
200.0   60.0   0.0
200.0   30.0   16.666666666666668
250.0   30.0   0.0
250.0   60.0   0.0
200.0   60.0   0.0
250.0   60.0   16.666666666666668
200.0   30.0   16.666666666666668
200.0   60.0   16.666666666666668
250.0   60.0   16.666666666666668
200.0   60.0   0.0
200.0   30.0   16.666666666666668
250.0   60.0   16.666666666666668
250.0   30.0   16.666666666666668
250.0   30.0   0.0
200.0   30.0   16.666666666666668
250.0   60.0   16.666666666666668
250.0   30.0   0.0
200.0   60.0   0.0
200.0   30.0   16.666666666666668
250.0   30.0   16.666666666666668
200.0   60.0   16.666666666666668
200.0   30.0   33.333333333333336
250.0   30.0   16.666666666666668
250.0   60.0   16.666666666666668
200.0   60.0   16.666666666666668
250.0   60.0   33.333333333333336
200.0   30.0   33.333333333333336
200.0   60.0   33.333333333333336
250.0   60.0   33.333333333333336
200.0   60.0   16.666666666666668
200.0   30.0   33.333333333333336
250.0   60.0   33.333333333333336
250.0   30.0   33.333333333333336
250.0   30.0   16.666666666666668
200.0   30.0   33.333333333333336
250.0   60.0   33.333333333333336
250.0   30.0   16.666666666666668
200.0   60.0   16.666666666666668
200.0   30.0   33.333333333333336
250.0   30.0   33.333333333333336
200.0   60.0   33.333333333333336
200.0   30.0   50.0
250.0   30.0   33.333333333333336
250.0   60.0   33.333333333333336
200.0   60.0   33.333333333333336
250.0   60.0   50.0
200.0   30.0   50.0
200.0   60.0   50.0
250.0   60.0   50.0
200.0   60.0   33.333333333333336
200.0   30.0   50.0
250.0   60.0   50.0
250.0   30.0   50.0
250.0   30.0   33.333333333333336
200.0   30.0   50.0
250.0   60.0   50.0
250.0   30.0   33.333333333333336
200.0   60.0   33.333333333333336
200.0   60.0   0.0
250.0   60.0   0.0
200.0   90.0   0.0
200.0   60.0   16.666666666666668
250.0   60.0   0.0
250.0   90.0   0.0
200.0   90.0   0.0
250.0   90.0   16.666666666666668
200.0   60.0   16.666666666666668
200.0   90.0   16.666666666666668
250.0   90.0   16.666666666666668
200.0   90.0   0.0
200.0   60.0   16.666666666666668
250.0   90.0   16.666666666666668
250.0   60.0   16.666666666666668
250.0   60.0   0.0
200.0   60.0   16.666666666666668
250.0   90.0   16.666666666666668
250.0   60.0   0.0
200.0   90.0   0.0
200.0   60.0   16.666666666666668
250.0   60.0   16.666666666666668
200.0   90.0   16.666666666666668
200.0   60.0   33.333333333333336
250.0   60.0   16.666666666666668
250.0   90.0   16.666666666666668
200.0   90.0   16.666666666666668
250.0   90.0   33.333333333333336
200.0   60.0   33.333333333333336
200.0   90.0   33.333333333333336
250.0   90.0   33.333333333333336
200.0   90.0   16.666666666666668
200.0   60.0   33.333333333333336
250.0   90.0   33.333333333333336
250.0   60.0   33.333333333333336
250.0   60.0   16.666666666666668
200.0   60.0   33.333333333333336
250.0   90.0   33.333333333333336
250.0   60.0   16.666666666666668
200.0   90.0   16.666666666666668
200.0   60.0   33.333333333333336
250.0   60.0   33.333333333333336
200.0   90.0   33.333333333333336
200.0   60.0   50.0
250.0   60.0   33.333333333333336
250.0   90.0   33.333333333333336
200.0   90.0   33.333333333333336
250.0   90.0   50.0
200.0   60.0   50.0
200.0   90.0   50.0
250.0   90.0   50.0
200.0   90.0   33.333333333333336
200.0   60.0   50.0
250.0   90.0   50.0
250.0   60.0   50.0
250.0   60.0   33.333333333333336
200.0   60.0   50.0
250.0   90.0   50.0
250.0   60.0   33.333333333333336
200.0   90.0   33.333333333333336
200.0   90.0   0.0
250.0   90.0   0.0
200.0   120.0   0.0
200.0   90.0   16.666666666666668
250.0   90.0   0.0
250.0   120.0   0.0
200.0   120.0   0.0
250.0   120.0   16.666666666666668
200.0   90.0   16.666666666666668
200.0   120.0   16.666666666666668
250.0   120.0   16.666666666666668
200.0   120.0   0.0
200.0   90.0   16.666666666666668
250.0   120.0   16.666666666666668
250.0   90.0   16.666666666666668
250.0   90.0   0.0
200.0   90.0   16.666666666666668
250.0   120.0   16.666666666666668
250.0   90.0   0.0
200.0   120.0   0.0
200.0   90.0   16.666666666666668
250.0   90.0   16.666666666666668
200.0   120.0   16.666666666666668
200.0   90.0   33.333333333333336
250.0   90.0   16.666666666666668
250.0   120.0   16.666666666666668
200.0   120.0   16.666666666666668
250.0   120.0   33.333333333333336
200.0   90.0   33.333333333333336
200.0   120.0   33.333333333333336
250.0   120.0   33.333333333333336
200.0   120.0   16.666666666666668
200.0   90.0   33.333333333333336
250.0   120.0   33.333333333333336
250.0   90.0   33.333333333333336
250.0   90.0   16.666666666666668
200.0   90.0   33.333333333333336
250.0   120.0   33.333333333333336
250.0   90.0   16.666666666666668
200.0   120.0   16.666666666666668
200.0   90.0   33.333333333333336
250.0   90.0   33.333333333333336
200.0   120.0   33.333333333333336
200.0   90.0   50.0
250.0   90.0   33.333333333333336
250.0   120.0   33.333333333333336
200.0   120.0   33.333333333333336
250.0   120.0   50.0
200.0   90.0   50.0
200.0   120.0   50.0
250.0   120.0   50.0
200.0   120.0   33.333333333333336
200.0   90.0   50.0
250.0   120.0   50.0
250.0   90.0   50.0
250.0   90.0   33.333333333333336
200.0   90.0   50.0
250.0   120.0   50.0
250.0   90.0   33.333333333333336
200.0   120.0   33.333333333333336
200.0   120.0   0.0
250.0   120.0   0.0
200.0   150.0   0.0
200.0   120.0   16.666666666666668
250.0   120.0   0.0
250.0   150.0   0.0
200.0   150.0   0.0
250.0   150.0   16.666666666666668
200.0   120.0   16.666666666666668
200.0   150.0   16.666666666666668
250.0   150.0   16.666666666666668
200.0   150.0   0.0
200.0   120.0   16.666666666666668
250.0   150.0   16.666666666666668
250.0   120.0   16.666666666666668
250.0   120.0   0.0
200.0   120.0   16.666666666666668
250.0   150.0   16.666666666666668
250.0   120.0   0.0
200.0   150.0   0.0
200.0   120.0   16.666666666666668
250.0   120.0   16.666666666666668
200.0   150.0   16.666666666666668
200.0   120.0   33.333333333333336
250.0   120.0   16.666666666666668
250.0   150.0   16.666666666666668
200.0   150.0   16.666666666666668
250.0   150.0   33.333333333333336
200.0   120.0   33.333333333333336
200.0   150.0   33.333333333333336
250.0   150.0   33.333333333333336
200.0   150.0   16.666666666666668
200.0   120.0   33.333333333333336
250.0   150.0   33.333333333333336
250.0   120.0   33.333333333333336
250.0   120.0   16.666666666666668
200.0   120.0   33.333333333333336
250.0   150.0   33.333333333333336
250.0   120.0   16.666666666666668
200.0   150.0   16.666666666666668
200.0   120.0   33.333333333333336
250.0   120.0   33.333333333333336
200.0   150.0   33.333333333333336
200.0   120.0   50.0
250.0   120.0   33.333333333333336
250.0   150.0   33.333333333333336
200.0   150.0   33.333333333333336
250.0   150.0   50.0
200.0   120.0   50.0
200.0   150.0   50.0
250.0   150.0   50.0
200.0   150.0   33.333333333333336
200.0   120.0   50.0
250.0   150.0   50.0
250.0   120.0   50.0
250.0   120.0   33.333333333333336
200.0   120.0   50.0
250.0   150.0   50.0
250.0   120.0   33.333333333333336
200.0   150.0   33.333333333333336
250.0   0.0   0.0
300.0   0.0   0.0
250.0   30.0   0.0
250.0   0.0   16.666666666666668
300.0   0.0   0.0
300.0   30.0   0.0
250.0   30.0   0.0
300.0   30.0   16.666666666666668
250.0   0.0   16.666666666666668
250.0   30.0   16.666666666666668
300.0   30.0   16.666666666666668
250.0   30.0   0.0
250.0   0.0   16.666666666666668
300.0   30.0   16.666666666666668
300.0   0.0   16.666666666666668
300.0   0.0   0.0
250.0   0.0   16.666666666666668
300.0   30.0   16.666666666666668
300.0   0.0   0.0
250.0   30.0   0.0
250.0   0.0   16.666666666666668
300.0   0.0   16.666666666666668
250.0   30.0   16.666666666666668
250.0   0.0   33.333333333333336
300.0   0.0   16.666666666666668
300.0   30.0   16.666666666666668
250.0   30.0   16.666666666666668
300.0   30.0   33.333333333333336
250.0   0.0   33.333333333333336
250.0   30.0   33.333333333333336
300.0   30.0   33.333333333333336
250.0   30.0   16.666666666666668
250.0   0.0   33.333333333333336
300.0   30.0   33.333333333333336
300.0   0.0   33.333333333333336
300.0   0.0   16.666666666666668
250.0   0.0   33.333333333333336
300.0   30.0   33.333333333333336
300.0   0.0   16.666666666666668
250.0   30.0   16.666666666666668
250.0   0.0   33.333333333333336
300.0   0.0   33.333333333333336
250.0   30.0   33.333333333333336
250.0   0.0   50.0
300.0   0.0   33.333333333333336
300.0   30.0   33.333333333333336
250.0   30.0   33.333333333333336
300.0   30.0   50.0
250.0   0.0   50.0
250.0   30.0   50.0
300.0   30.0   50.0
250.0   30.0   33.333333333333336
250.0   0.0   50.0
300.0   30.0   50.0
300.0   0.0   50.0
300.0   0.0   33.333333333333336
250.0   0.0   50.0
300.0   30.0   50.0
300.0   0.0   33.333333333333336
250.0   30.0   33.333333333333336
250.0   30.0   0.0
300.0   30.0   0.0
250.0   60.0   0.0
250.0   30.0   16.666666666666668
300.0   30.0   0.0
300.0   60.0   0.0
250.0   60.0   0.0
300.0   60.0   16.666666666666668
250.0   30.0   16.666666666666668
250.0   60.0   16.666666666666668
300.0   60.0   16.666666666666668
250.0   60.0   0.0
250.0   30.0   16.666666666666668
300.0   60.0   16.666666666666668
300.0   30.0   16.666666666666668
300.0   30.0   0.0
250.0   30.0   16.666666666666668
300.0   60.0   16.666666666666668
300.0   30.0   0.0
250.0   60.0   0.0
250.0   30.0   16.666666666666668
300.0   30.0   16.666666666666668
250.0   60.0   16.666666666666668
250.0   30.0   33.333333333333336
300.0   30.0   16.666666666666668
300.0   60.0   16.666666666666668
250.0   60.0   16.666666666666668
300.0   60.0   33.333333333333336
250.0   30.0   33.333333333333336
250.0   60.0   33.333333333333336
300.0   60.0   33.333333333333336
250.0   60.0   16.666666666666668
250.0   30.0   33.333333333333336
300.0   60.0   33.333333333333336
300.0   30.0   33.333333333333336
300.0   30.0   16.666666666666668
250.0   30.0   33.333333333333336
300.0   60.0   33.333333333333336
300.0   30.0   16.666666666666668
250.0   60.0   16.666666666666668
250.0   30.0   33.333333333333336
300.0   30.0   33.333333333333336
250.0   60.0   33.333333333333336
250.0   30.0   50.0
300.0   30.0   33.333333333333336
300.0   60.0   33.333333333333336
250.0   60.0   33.333333333333336
300.0   60.0   50.0
250.0   30.0   50.0
250.0   60.0   50.0
300.0   60.0   50.0
250.0   60.0   33.333333333333336
250.0   30.0   50.0
300.0   60.0   50.0
300.0   30.0   50.0
300.0   30.0   33.333333333333336
250.0   30.0   50.0
300.0   60.0   50.0
300.0   30.0   33.333333333333336
250.0   60.0   33.333333333333336
250.0   60.0   0.0
300.0   60.0   0.0
250.0   90.0   0.0
250.0   60.0   16.666666666666668
300.0   60.0   0.0
300.0   90.0   0.0
250.0   90.0   0.0
300.0   90.0   16.666666666666668
250.0   60.0   16.666666666666668
250.0   90.0   16.666666666666668
300.0   90.0   16.666666666666668
250.0   90.0   0.0
250.0   60.0   16.666666666666668
300.0   90.0   16.666666666666668
300.0   60.0   16.666666666666668
300.0   60.0   0.0
250.0   60.0   16.666666666666668
300.0   90.0   16.666666666666668
300.0   60.0   0.0
250.0   90.0   0.0
250.0   60.0   16.666666666666668
300.0   60.0   16.666666666666668
250.0   90.0   16.666666666666668
250.0   60.0   33.333333333333336
300.0   60.0   16.666666666666668
300.0   90.0   16.666666666666668
250.0   90.0   16.666666666666668
300.0   90.0   33.333333333333336
250.0   60.0   33.333333333333336
250.0   90.0   33.333333333333336
300.0   90.0   33.333333333333336
250.0   90.0   16.666666666666668
250.0   60.0   33.333333333333336
300.0   90.0   33.333333333333336
300.0   60.0   33.333333333333336
300.0   60.0   16.666666666666668
250.0   60.0   33.333333333333336
300.0   90.0   33.333333333333336
300.0   60.0   16.666666666666668
250.0   90.0   16.666666666666668
250.0   60.0   33.333333333333336
300.0   60.0   33.333333333333336
250.0   90.0   33.333333333333336
250.0   60.0   50.0
300.0   60.0   33.333333333333336
300.0   90.0   33.333333333333336
250.0   90.0   33.333333333333336
300.0   90.0   50.0
250.0   60.0   50.0
250.0   90.0   50.0
300.0   90.0   50.0
250.0   90.0   33.333333333333336
250.0   60.0   50.0
300.0   90.0   50.0
300.0   60.0   50.0
300.0   60.0   33.333333333333336
250.0   60.0   50.0
300.0   90.0   50.0
300.0   60.0   33.333333333333336
250.0   90.0   33.333333333333336
250.0   90.0   0.0
300.0   90.0   0.0
250.0   120.0   0.0
250.0   90.0   16.666666666666668
300.0   90.0   0.0
300.0   120.0   0.0
250.0   120.0   0.0
300.0   120.0   16.666666666666668
250.0   90.0   16.666666666666668
250.0   120.0   16.666666666666668
300.0   120.0   16.666666666666668
250.0   120.0   0.0
250.0   90.0   16.666666666666668
300.0   120.0   16.666666666666668
300.0   90.0   16.666666666666668
300.0   90.0   0.0
250.0   90.0   16.666666666666668
300.0   120.0   16.666666666666668
300.0   90.0   0.0
250.0   120.0   0.0
250.0   90.0   16.666666666666668
300.0   90.0   16.666666666666668
250.0   120.0   16.666666666666668
250.0   90.0   33.333333333333336
300.0   90.0   16.666666666666668
300.0   120.0   16.666666666666668
250.0   120.0   16.666666666666668
300.0   120.0   33.333333333333336
250.0   90.0   33.333333333333336
250.0   120.0   33.333333333333336
300.0   120.0   33.333333333333336
250.0   120.0   16.666666666666668
250.0   90.0   33.333333333333336
300.0   120.0   33.333333333333336
300.0   90.0   33.333333333333336
300.0   90.0   16.666666666666668
250.0   90.0   33.333333333333336
300.0   120.0   33.333333333333336
300.0   90.0   16.666666666666668
250.0   120.0   16.666666666666668
250.0   90.0   33.333333333333336
300.0   90.0   33.333333333333336
250.0   120.0   33.333333333333336
250.0   90.0   50.0
300.0   90.0   33.333333333333336
300.0   120.0   33.333333333333336
250.0   120.0   33.333333333333336
300.0   120.0   50.0
250.0   90.0   50.0
250.0   120.0   50.0
300.0   120.0   50.0
250.0   120.0   33.333333333333336
250.0   90.0   50.0
300.0   120.0   50.0
300.0   90.0   50.0
300.0   90.0   33.333333333333336
250.0   90.0   50.0
300.0   120.0   50.0
300.0   90.0   33.333333333333336
250.0   120.0   33.333333333333336
250.0   120.0   0.0
300.0   120.0   0.0
250.0   150.0   0.0
250.0   120.0   16.666666666666668
300.0   120.0   0.0
300.0   150.0   0.0
250.0   150.0   0.0
300.0   150.0   16.666666666666668
250.0   120.0   16.666666666666668
250.0   150.0   16.666666666666668
300.0   150.0   16.666666666666668
250.0   150.0   0.0
250.0   120.0   16.666666666666668
300.0   150.0   16.666666666666668
300.0   120.0   16.666666666666668
300.0   120.0   0.0
250.0   120.0   16.666666666666668
300.0   150.0   16.666666666666668
300.0   120.0   0.0
250.0   150.0   0.0
250.0   120.0   16.666666666666668
300.0   120.0   16.666666666666668
250.0   150.0   16.666666666666668
250.0   120.0   33.333333333333336
300.0   120.0   16.666666666666668
300.0   150.0   16.666666666666668
250.0   150.0   16.666666666666668
300.0   150.0   33.333333333333336
250.0   120.0   33.333333333333336
250.0   150.0   33.333333333333336
300.0   150.0   33.333333333333336
250.0   150.0   16.666666666666668
250.0   120.0   33.333333333333336
300.0   150.0   33.333333333333336
300.0   120.0   33.333333333333336
300.0   120.0   16.666666666666668
250.0   120.0   33.333333333333336
300.0   150.0   33.333333333333336
300.0   120.0   16.666666666666668
250.0   150.0   16.666666666666668
250.0   120.0   33.333333333333336
300.0   120.0   33.333333333333336
250.0   150.0   33.333333333333336
250.0   120.0   50.0
300.0   120.0   33.333333333333336
300.0   150.0   33.333333333333336
250.0   150.0   33.333333333333336
300.0   150.0   50.0
250.0   120.0   50.0
250.0   150.0   50.0
300.0   150.0   50.0
250.0   150.0   33.333333333333336
250.0   120.0   50.0
300.0   150.0   50.0
300.0   120.0   50.0
300.0   120.0   33.333333333333336
250.0   120.0   50.0
300.0   150.0   50.0
300.0   120.0   33.333333333333336
250.0   150.0   33.333333333333336
300.0   0.0   0.0
350.0   0.0   0.0
300.0   30.0   0.0
300.0   0.0   16.666666666666668
350.0   0.0   0.0
350.0   30.0   0.0
300.0   30.0   0.0
350.0   30.0   16.666666666666668
300.0   0.0   16.666666666666668
300.0   30.0   16.666666666666668
350.0   30.0   16.666666666666668
300.0   30.0   0.0
300.0   0.0   16.666666666666668
350.0   30.0   16.666666666666668
350.0   0.0   16.666666666666668
350.0   0.0   0.0
300.0   0.0   16.666666666666668
350.0   30.0   16.666666666666668
350.0   0.0   0.0
300.0   30.0   0.0
300.0   0.0   16.666666666666668
350.0   0.0   16.666666666666668
300.0   30.0   16.666666666666668
300.0   0.0   33.333333333333336
350.0   0.0   16.666666666666668
350.0   30.0   16.666666666666668
300.0   30.0   16.666666666666668
350.0   30.0   33.333333333333336
300.0   0.0   33.333333333333336
300.0   30.0   33.333333333333336
350.0   30.0   33.333333333333336
300.0   30.0   16.666666666666668
300.0   0.0   33.333333333333336
350.0   30.0   33.333333333333336
350.0   0.0   33.333333333333336
350.0   0.0   16.666666666666668
300.0   0.0   33.333333333333336
350.0   30.0   33.333333333333336
350.0   0.0   16.666666666666668
300.0   30.0   16.666666666666668
300.0   0.0   33.333333333333336
350.0   0.0   33.333333333333336
300.0   30.0   33.333333333333336
300.0   0.0   50.0
350.0   0.0   33.333333333333336
350.0   30.0   33.333333333333336
300.0   30.0   33.333333333333336
350.0   30.0   50.0
300.0   0.0   50.0
300.0   30.0   50.0
350.0   30.0   50.0
300.0   30.0   33.333333333333336
300.0   0.0   50.0
350.0   30.0   50.0
350.0   0.0   50.0
350.0   0.0   33.333333333333336
300.0   0.0   50.0
350.0   30.0   50.0
350.0   0.0   33.333333333333336
300.0   30.0   33.333333333333336
300.0   30.0   0.0
350.0   30.0   0.0
300.0   60.0   0.0
300.0   30.0   16.666666666666668
350.0   30.0   0.0
350.0   60.0   0.0
300.0   60.0   0.0
350.0   60.0   16.666666666666668
300.0   30.0   16.666666666666668
300.0   60.0   16.666666666666668
350.0   60.0   16.666666666666668
300.0   60.0   0.0
300.0   30.0   16.666666666666668
350.0   60.0   16.666666666666668
350.0   30.0   16.666666666666668
350.0   30.0   0.0
300.0   30.0   16.666666666666668
350.0   60.0   16.666666666666668
350.0   30.0   0.0
300.0   60.0   0.0
300.0   30.0   16.666666666666668
350.0   30.0   16.666666666666668
300.0   60.0   16.666666666666668
300.0   30.0   33.333333333333336
350.0   30.0   16.666666666666668
350.0   60.0   16.666666666666668
300.0   60.0   16.666666666666668
350.0   60.0   33.333333333333336
300.0   30.0   33.333333333333336
300.0   60.0   33.333333333333336
350.0   60.0   33.333333333333336
300.0   60.0   16.666666666666668
300.0   30.0   33.333333333333336
350.0   60.0   33.333333333333336
350.0   30.0   33.333333333333336
350.0   30.0   16.666666666666668
300.0   30.0   33.333333333333336
350.0   60.0   33.333333333333336
350.0   30.0   16.666666666666668
300.0   60.0   16.666666666666668
300.0   30.0   33.333333333333336
350.0   30.0   33.333333333333336
300.0   60.0   33.333333333333336
300.0   30.0   50.0
350.0   30.0   33.333333333333336
350.0   60.0   33.333333333333336
300.0   60.0   33.333333333333336
350.0   60.0   50.0
300.0   30.0   50.0
300.0   60.0   50.0
350.0   60.0   50.0
300.0   60.0   33.333333333333336
300.0   30.0   50.0
350.0   60.0   50.0
350.0   30.0   50.0
350.0   30.0   33.333333333333336
300.0   30.0   50.0
350.0   60.0   50.0
350.0   30.0   33.333333333333336
300.0   60.0   33.333333333333336
300.0   60.0   0.0
350.0   60.0   0.0
300.0   90.0   0.0
300.0   60.0   16.666666666666668
350.0   60.0   0.0
350.0   90.0   0.0
300.0   90.0   0.0
350.0   90.0   16.666666666666668
300.0   60.0   16.666666666666668
300.0   90.0   16.666666666666668
350.0   90.0   16.666666666666668
300.0   90.0   0.0
300.0   60.0   16.666666666666668
350.0   90.0   16.666666666666668
350.0   60.0   16.666666666666668
350.0   60.0   0.0
300.0   60.0   16.666666666666668
350.0   90.0   16.666666666666668
350.0   60.0   0.0
300.0   90.0   0.0
300.0   60.0   16.666666666666668
350.0   60.0   16.666666666666668
300.0   90.0   16.666666666666668
300.0   60.0   33.333333333333336
350.0   60.0   16.666666666666668
350.0   90.0   16.666666666666668
300.0   90.0   16.666666666666668
350.0   90.0   33.333333333333336
300.0   60.0   33.333333333333336
300.0   90.0   33.333333333333336
350.0   90.0   33.333333333333336
300.0   90.0   16.666666666666668
300.0   60.0   33.333333333333336
350.0   90.0   33.333333333333336
350.0   60.0   33.333333333333336
350.0   60.0   16.666666666666668
300.0   60.0   33.333333333333336
350.0   90.0   33.333333333333336
350.0   60.0   16.666666666666668
300.0   90.0   16.666666666666668
300.0   60.0   33.333333333333336
350.0   60.0   33.333333333333336
300.0   90.0   33.333333333333336
300.0   60.0   50.0
350.0   60.0   33.333333333333336
350.0   90.0   33.333333333333336
300.0   90.0   33.333333333333336
350.0   90.0   50.0
300.0   60.0   50.0
300.0   90.0   50.0
350.0   90.0   50.0
300.0   90.0   33.333333333333336
300.0   60.0   50.0
350.0   90.0   50.0
350.0   60.0   50.0
350.0   60.0   33.333333333333336
300.0   60.0   50.0
350.0   90.0   50.0
350.0   60.0   33.333333333333336
300.0   90.0   33.333333333333336
300.0   90.0   0.0
350.0   90.0   0.0
300.0   120.0   0.0
300.0   90.0   16.666666666666668
350.0   90.0   0.0
350.0   120.0   0.0
300.0   120.0   0.0
350.0   120.0   16.666666666666668
300.0   90.0   16.666666666666668
300.0   120.0   16.666666666666668
350.0   120.0   16.666666666666668
300.0   120.0   0.0
300.0   90.0   16.666666666666668
350.0   120.0   16.666666666666668
350.0   90.0   16.666666666666668
350.0   90.0   0.0
300.0   90.0   16.666666666666668
350.0   120.0   16.666666666666668
350.0   90.0   0.0
300.0   120.0   0.0
300.0   90.0   16.666666666666668
350.0   90.0   16.666666666666668
300.0   120.0   16.666666666666668
300.0   90.0   33.333333333333336
350.0   90.0   16.666666666666668
350.0   120.0   16.666666666666668
300.0   120.0   16.666666666666668
350.0   120.0   33.333333333333336
300.0   90.0   33.333333333333336
300.0   120.0   33.333333333333336
350.0   120.0   33.333333333333336
300.0   120.0   16.666666666666668
300.0   90.0   33.333333333333336
350.0   120.0   33.333333333333336
350.0   90.0   33.333333333333336
350.0   90.0   16.666666666666668
300.0   90.0   33.333333333333336
350.0   120.0   33.333333333333336
350.0   90.0   16.666666666666668
300.0   120.0   16.666666666666668
300.0   90.0   33.333333333333336
350.0   90.0   33.333333333333336
300.0   120.0   33.333333333333336
300.0   90.0   50.0
350.0   90.0   33.333333333333336
350.0   120.0   33.333333333333336
300.0   120.0   33.333333333333336
350.0   120.0   50.0
300.0   90.0   50.0
300.0   120.0   50.0
350.0   120.0   50.0
300.0   120.0   33.333333333333336
300.0   90.0   50.0
350.0   120.0   50.0
350.0   90.0   50.0
350.0   90.0   33.333333333333336
300.0   90.0   50.0
350.0   120.0   50.0
350.0   90.0   33.333333333333336
300.0   120.0   33.333333333333336
300.0   120.0   0.0
350.0   120.0   0.0
300.0   150.0   0.0
300.0   120.0   16.666666666666668
350.0   120.0   0.0
350.0   150.0   0.0
300.0   150.0   0.0
350.0   150.0   16.666666666666668
300.0   120.0   16.666666666666668
300.0   150.0   16.666666666666668
350.0   150.0   16.666666666666668
300.0   150.0   0.0
300.0   120.0   16.666666666666668
350.0   150.0   16.666666666666668
350.0   120.0   16.666666666666668
350.0   120.0   0.0
300.0   120.0   16.666666666666668
350.0   150.0   16.666666666666668
350.0   120.0   0.0
300.0   150.0   0.0
300.0   120.0   16.666666666666668
350.0   120.0   16.666666666666668
300.0   150.0   16.666666666666668
300.0   120.0   33.333333333333336
350.0   120.0   16.666666666666668
350.0   150.0   16.666666666666668
300.0   150.0   16.666666666666668
350.0   150.0   33.333333333333336
300.0   120.0   33.333333333333336
300.0   150.0   33.333333333333336
350.0   150.0   33.333333333333336
300.0   150.0   16.666666666666668
300.0   120.0   33.333333333333336
350.0   150.0   33.333333333333336
350.0   120.0   33.333333333333336
350.0   120.0   16.666666666666668
300.0   120.0   33.333333333333336
350.0   150.0   33.333333333333336
350.0   120.0   16.666666666666668
300.0   150.0   16.666666666666668
300.0   120.0   33.333333333333336
350.0   120.0   33.333333333333336
300.0   150.0   33.333333333333336
300.0   120.0   50.0
350.0   120.0   33.333333333333336
350.0   150.0   33.333333333333336
300.0   150.0   33.333333333333336
350.0   150.0   50.0
300.0   120.0   50.0
300.0   150.0   50.0
350.0   150.0   50.0
300.0   150.0   33.333333333333336
300.0   120.0   50.0
350.0   150.0   50.0
350.0   120.0   50.0
350.0   120.0   33.333333333333336
300.0   120.0   50.0
350.0   150.0   50.0
350.0   120.0   33.333333333333336
300.0   150.0   33.333333333333336
350.0   0.0   0.0
400.0   0.0   0.0
350.0   30.0   0.0
350.0   0.0   16.666666666666668
400.0   0.0   0.0
400.0   30.0   0.0
350.0   30.0   0.0
400.0   30.0   16.666666666666668
350.0   0.0   16.666666666666668
350.0   30.0   16.666666666666668
400.0   30.0   16.666666666666668
350.0   30.0   0.0
350.0   0.0   16.666666666666668
400.0   30.0   16.666666666666668
400.0   0.0   16.666666666666668
400.0   0.0   0.0
350.0   0.0   16.666666666666668
400.0   30.0   16.666666666666668
400.0   0.0   0.0
350.0   30.0   0.0
350.0   0.0   16.666666666666668
400.0   0.0   16.666666666666668
350.0   30.0   16.666666666666668
350.0   0.0   33.333333333333336
400.0   0.0   16.666666666666668
400.0   30.0   16.666666666666668
350.0   30.0   16.666666666666668
400.0   30.0   33.333333333333336
350.0   0.0   33.333333333333336
350.0   30.0   33.333333333333336
400.0   30.0   33.333333333333336
350.0   30.0   16.666666666666668
350.0   0.0   33.333333333333336
400.0   30.0   33.333333333333336
400.0   0.0   33.333333333333336
400.0   0.0   16.666666666666668
350.0   0.0   33.333333333333336
400.0   30.0   33.333333333333336
400.0   0.0   16.666666666666668
350.0   30.0   16.666666666666668
350.0   0.0   33.333333333333336
400.0   0.0   33.333333333333336
350.0   30.0   33.333333333333336
350.0   0.0   50.0
400.0   0.0   33.333333333333336
400.0   30.0   33.333333333333336
350.0   30.0   33.333333333333336
400.0   30.0   50.0
350.0   0.0   50.0
350.0   30.0   50.0
400.0   30.0   50.0
350.0   30.0   33.333333333333336
350.0   0.0   50.0
400.0   30.0   50.0
400.0   0.0   50.0
400.0   0.0   33.333333333333336
350.0   0.0   50.0
400.0   30.0   50.0
400.0   0.0   33.333333333333336
350.0   30.0   33.333333333333336
350.0   30.0   0.0
400.0   30.0   0.0
350.0   60.0   0.0
350.0   30.0   16.666666666666668
400.0   30.0   0.0
400.0   60.0   0.0
350.0   60.0   0.0
400.0   60.0   16.666666666666668
350.0   30.0   16.666666666666668
350.0   60.0   16.666666666666668
400.0   60.0   16.666666666666668
350.0   60.0   0.0
350.0   30.0   16.666666666666668
400.0   60.0   16.666666666666668
400.0   30.0   16.666666666666668
400.0   30.0   0.0
350.0   30.0   16.666666666666668
400.0   60.0   16.666666666666668
400.0   30.0   0.0
350.0   60.0   0.0
350.0   30.0   16.666666666666668
400.0   30.0   16.666666666666668
350.0   60.0   16.666666666666668
350.0   30.0   33.333333333333336
400.0   30.0   16.666666666666668
400.0   60.0   16.666666666666668
350.0   60.0   16.666666666666668
400.0   60.0   33.333333333333336
350.0   30.0   33.333333333333336
350.0   60.0   33.333333333333336
400.0   60.0   33.333333333333336
350.0   60.0   16.666666666666668
350.0   30.0   33.333333333333336
400.0   60.0   33.333333333333336
400.0   30.0   33.333333333333336
400.0   30.0   16.666666666666668
350.0   30.0   33.333333333333336
400.0   60.0   33.333333333333336
400.0   30.0   16.666666666666668
350.0   60.0   16.666666666666668
350.0   30.0   33.333333333333336
400.0   30.0   33.333333333333336
350.0   60.0   33.333333333333336
350.0   30.0   50.0
400.0   30.0   33.333333333333336
400.0   60.0   33.333333333333336
350.0   60.0   33.333333333333336
400.0   60.0   50.0
350.0   30.0   50.0
350.0   60.0   50.0
400.0   60.0   50.0
350.0   60.0   33.333333333333336
350.0   30.0   50.0
400.0   60.0   50.0
400.0   30.0   50.0
400.0   30.0   33.333333333333336
350.0   30.0   50.0
400.0   60.0   50.0
400.0   30.0   33.333333333333336
350.0   60.0   33.333333333333336
350.0   60.0   0.0
400.0   60.0   0.0
350.0   90.0   0.0
350.0   60.0   16.666666666666668
400.0   60.0   0.0
400.0   90.0   0.0
350.0   90.0   0.0
400.0   90.0   16.666666666666668
350.0   60.0   16.666666666666668
350.0   90.0   16.666666666666668
400.0   90.0   16.666666666666668
350.0   90.0   0.0
350.0   60.0   16.666666666666668
400.0   90.0   16.666666666666668
400.0   60.0   16.666666666666668
400.0   60.0   0.0
350.0   60.0   16.666666666666668
400.0   90.0   16.666666666666668
400.0   60.0   0.0
350.0   90.0   0.0
350.0   60.0   16.666666666666668
400.0   60.0   16.666666666666668
350.0   90.0   16.666666666666668
350.0   60.0   33.333333333333336
400.0   60.0   16.666666666666668
400.0   90.0   16.666666666666668
350.0   90.0   16.666666666666668
400.0   90.0   33.333333333333336
350.0   60.0   33.333333333333336
350.0   90.0   33.333333333333336
400.0   90.0   33.333333333333336
350.0   90.0   16.666666666666668
350.0   60.0   33.333333333333336
400.0   90.0   33.333333333333336
400.0   60.0   33.333333333333336
400.0   60.0   16.666666666666668
350.0   60.0   33.333333333333336
400.0   90.0   33.333333333333336
400.0   60.0   16.666666666666668
350.0   90.0   16.666666666666668
350.0   60.0   33.333333333333336
400.0   60.0   33.333333333333336
350.0   90.0   33.333333333333336
350.0   60.0   50.0
400.0   60.0   33.333333333333336
400.0   90.0   33.333333333333336
350.0   90.0   33.333333333333336
400.0   90.0   50.0
350.0   60.0   50.0
350.0   90.0   50.0
400.0   90.0   50.0
350.0   90.0   33.333333333333336
350.0   60.0   50.0
400.0   90.0   50.0
400.0   60.0   50.0
400.0   60.0   33.333333333333336
350.0   60.0   50.0
400.0   90.0   50.0
400.0   60.0   33.333333333333336
350.0   90.0   33.333333333333336
350.0   90.0   0.0
400.0   90.0   0.0
350.0   120.0   0.0
350.0   90.0   16.666666666666668
400.0   90.0   0.0
400.0   120.0   0.0
350.0   120.0   0.0
400.0   120.0   16.666666666666668
350.0   90.0   16.666666666666668
350.0   120.0   16.666666666666668
400.0   120.0   16.666666666666668
350.0   120.0   0.0
350.0   90.0   16.666666666666668
400.0   120.0   16.666666666666668
400.0   90.0   16.666666666666668
400.0   90.0   0.0
350.0   90.0   16.666666666666668
400.0   120.0   16.666666666666668
400.0   90.0   0.0
350.0   120.0   0.0
350.0   90.0   16.666666666666668
400.0   90.0   16.666666666666668
350.0   120.0   16.666666666666668
350.0   90.0   33.333333333333336
400.0   90.0   16.666666666666668
400.0   120.0   16.666666666666668
350.0   120.0   16.666666666666668
400.0   120.0   33.333333333333336
350.0   90.0   33.333333333333336
350.0   120.0   33.333333333333336
400.0   120.0   33.333333333333336
350.0   120.0   16.666666666666668
350.0   90.0   33.333333333333336
400.0   120.0   33.333333333333336
400.0   90.0   33.333333333333336
400.0   90.0   16.666666666666668
350.0   90.0   33.333333333333336
400.0   120.0   33.333333333333336
400.0   90.0   16.666666666666668
350.0   120.0   16.666666666666668
350.0   90.0   33.333333333333336
400.0   90.0   33.333333333333336
350.0   120.0   33.333333333333336
350.0   90.0   50.0
400.0   90.0   33.333333333333336
400.0   120.0   33.333333333333336
350.0   120.0   33.333333333333336
400.0   120.0   50.0
350.0   90.0   50.0
350.0   120.0   50.0
400.0   120.0   50.0
350.0   120.0   33.333333333333336
350.0   90.0   50.0
400.0   120.0   50.0
400.0   90.0   50.0
400.0   90.0   33.333333333333336
350.0   90.0   50.0
400.0   120.0   50.0
400.0   90.0   33.333333333333336
350.0   120.0   33.333333333333336
350.0   120.0   0.0
400.0   120.0   0.0
350.0   150.0   0.0
350.0   120.0   16.666666666666668
400.0   120.0   0.0
400.0   150.0   0.0
350.0   150.0   0.0
400.0   150.0   16.666666666666668
350.0   120.0   16.666666666666668
350.0   150.0   16.666666666666668
400.0   150.0   16.666666666666668
350.0   150.0   0.0
350.0   120.0   16.666666666666668
400.0   150.0   16.666666666666668
400.0   120.0   16.666666666666668
400.0   120.0   0.0
350.0   120.0   16.666666666666668
400.0   150.0   16.666666666666668
400.0   120.0   0.0
350.0   150.0   0.0
350.0   120.0   16.666666666666668
400.0   120.0   16.666666666666668
350.0   150.0   16.666666666666668
350.0   120.0   33.333333333333336
400.0   120.0   16.666666666666668
400.0   150.0   16.666666666666668
350.0   150.0   16.666666666666668
400.0   150.0   33.333333333333336
350.0   120.0   33.333333333333336
350.0   150.0   33.333333333333336
400.0   150.0   33.333333333333336
350.0   150.0   16.666666666666668
350.0   120.0   33.333333333333336
400.0   150.0   33.333333333333336
400.0   120.0   33.333333333333336
400.0   120.0   16.666666666666668
350.0   120.0   33.333333333333336
400.0   150.0   33.333333333333336
400.0   120.0   16.666666666666668
350.0   150.0   16.666666666666668
350.0   120.0   33.333333333333336
400.0   120.0   33.333333333333336
350.0   150.0   33.333333333333336
350.0   120.0   50.0
400.0   120.0   33.333333333333336
400.0   150.0   33.333333333333336
350.0   150.0   33.333333333333336
400.0   150.0   50.0
350.0   120.0   50.0
350.0   150.0   50.0
400.0   150.0   50.0
350.0   150.0   33.333333333333336
350.0   120.0   50.0
400.0   150.0   50.0
400.0   120.0   50.0
400.0   120.0   33.333333333333336
350.0   120.0   50.0
400.0   150.0   50.0
400.0   120.0   33.333333333333336
350.0   150.0   33.333333333333336
400.0   0.0   0.0
450.0   0.0   0.0
400.0   30.0   0.0
400.0   0.0   16.666666666666668
450.0   0.0   0.0
450.0   30.0   0.0
400.0   30.0   0.0
450.0   30.0   16.666666666666668
400.0   0.0   16.666666666666668
400.0   30.0   16.666666666666668
450.0   30.0   16.666666666666668
400.0   30.0   0.0
400.0   0.0   16.666666666666668
450.0   30.0   16.666666666666668
450.0   0.0   16.666666666666668
450.0   0.0   0.0
400.0   0.0   16.666666666666668
450.0   30.0   16.666666666666668
450.0   0.0   0.0
400.0   30.0   0.0
400.0   0.0   16.666666666666668
450.0   0.0   16.666666666666668
400.0   30.0   16.666666666666668
400.0   0.0   33.333333333333336
450.0   0.0   16.666666666666668
450.0   30.0   16.666666666666668
400.0   30.0   16.666666666666668
450.0   30.0   33.333333333333336
400.0   0.0   33.333333333333336
400.0   30.0   33.333333333333336
450.0   30.0   33.333333333333336
400.0   30.0   16.666666666666668
400.0   0.0   33.333333333333336
450.0   30.0   33.333333333333336
450.0   0.0   33.333333333333336
450.0   0.0   16.666666666666668
400.0   0.0   33.333333333333336
450.0   30.0   33.333333333333336
450.0   0.0   16.666666666666668
400.0   30.0   16.666666666666668
400.0   0.0   33.333333333333336
450.0   0.0   33.333333333333336
400.0   30.0   33.333333333333336
400.0   0.0   50.0
450.0   0.0   33.333333333333336
450.0   30.0   33.333333333333336
400.0   30.0   33.333333333333336
450.0   30.0   50.0
400.0   0.0   50.0
400.0   30.0   50.0
450.0   30.0   50.0
400.0   30.0   33.333333333333336
400.0   0.0   50.0
450.0   30.0   50.0
450.0   0.0   50.0
450.0   0.0   33.333333333333336
400.0   0.0   50.0
450.0   30.0   50.0
450.0   0.0   33.333333333333336
400.0   30.0   33.333333333333336
400.0   30.0   0.0
450.0   30.0   0.0
400.0   60.0   0.0
400.0   30.0   16.666666666666668
450.0   30.0   0.0
450.0   60.0   0.0
400.0   60.0   0.0
450.0   60.0   16.666666666666668
400.0   30.0   16.666666666666668
400.0   60.0   16.666666666666668
450.0   60.0   16.666666666666668
400.0   60.0   0.0
400.0   30.0   16.666666666666668
450.0   60.0   16.666666666666668
450.0   30.0   16.666666666666668
450.0   30.0   0.0
400.0   30.0   16.666666666666668
450.0   60.0   16.666666666666668
450.0   30.0   0.0
400.0   60.0   0.0
400.0   30.0   16.666666666666668
450.0   30.0   16.666666666666668
400.0   60.0   16.666666666666668
400.0   30.0   33.333333333333336
450.0   30.0   16.666666666666668
450.0   60.0   16.666666666666668
400.0   60.0   16.666666666666668
450.0   60.0   33.333333333333336
400.0   30.0   33.333333333333336
400.0   60.0   33.333333333333336
450.0   60.0   33.333333333333336
400.0   60.0   16.666666666666668
400.0   30.0   33.333333333333336
450.0   60.0   33.333333333333336
450.0   30.0   33.333333333333336
450.0   30.0   16.666666666666668
400.0   30.0   33.333333333333336
450.0   60.0   33.333333333333336
450.0   30.0   16.666666666666668
400.0   60.0   16.666666666666668
400.0   30.0   33.333333333333336
450.0   30.0   33.333333333333336
400.0   60.0   33.333333333333336
400.0   30.0   50.0
450.0   30.0   33.333333333333336
450.0   60.0   33.333333333333336
400.0   60.0   33.333333333333336
450.0   60.0   50.0
400.0   30.0   50.0
400.0   60.0   50.0
450.0   60.0   50.0
400.0   60.0   33.333333333333336
400.0   30.0   50.0
450.0   60.0   50.0
450.0   30.0   50.0
450.0   30.0   33.333333333333336
400.0   30.0   50.0
450.0   60.0   50.0
450.0   30.0   33.333333333333336
400.0   60.0   33.333333333333336
400.0   60.0   0.0
450.0   60.0   0.0
400.0   90.0   0.0
400.0   60.0   16.666666666666668
450.0   60.0   0.0
450.0   90.0   0.0
400.0   90.0   0.0
450.0   90.0   16.666666666666668
400.0   60.0   16.666666666666668
400.0   90.0   16.666666666666668
450.0   90.0   16.666666666666668
400.0   90.0   0.0
400.0   60.0   16.666666666666668
450.0   90.0   16.666666666666668
450.0   60.0   16.666666666666668
450.0   60.0   0.0
400.0   60.0   16.666666666666668
450.0   90.0   16.666666666666668
450.0   60.0   0.0
400.0   90.0   0.0
400.0   60.0   16.666666666666668
450.0   60.0   16.666666666666668
400.0   90.0   16.666666666666668
400.0   60.0   33.333333333333336
450.0   60.0   16.666666666666668
450.0   90.0   16.666666666666668
400.0   90.0   16.666666666666668
450.0   90.0   33.333333333333336
400.0   60.0   33.333333333333336
400.0   90.0   33.333333333333336
450.0   90.0   33.333333333333336
400.0   90.0   16.666666666666668
400.0   60.0   33.333333333333336
450.0   90.0   33.333333333333336
450.0   60.0   33.333333333333336
450.0   60.0   16.666666666666668
400.0   60.0   33.333333333333336
450.0   90.0   33.333333333333336
450.0   60.0   16.666666666666668
400.0   90.0   16.666666666666668
400.0   60.0   33.333333333333336
450.0   60.0   33.333333333333336
400.0   90.0   33.333333333333336
400.0   60.0   50.0
450.0   60.0   33.333333333333336
450.0   90.0   33.333333333333336
400.0   90.0   33.333333333333336
450.0   90.0   50.0
400.0   60.0   50.0
400.0   90.0   50.0
450.0   90.0   50.0
400.0   90.0   33.333333333333336
400.0   60.0   50.0
450.0   90.0   50.0
450.0   60.0   50.0
450.0   60.0   33.333333333333336
400.0   60.0   50.0
450.0   90.0   50.0
450.0   60.0   33.333333333333336
400.0   90.0   33.333333333333336
400.0   90.0   0.0
450.0   90.0   0.0
400.0   120.0   0.0
400.0   90.0   16.666666666666668
450.0   90.0   0.0
450.0   120.0   0.0
400.0   120.0   0.0
450.0   120.0   16.666666666666668
400.0   90.0   16.666666666666668
400.0   120.0   16.666666666666668
450.0   120.0   16.666666666666668
400.0   120.0   0.0
400.0   90.0   16.666666666666668
450.0   120.0   16.666666666666668
450.0   90.0   16.666666666666668
450.0   90.0   0.0
400.0   90.0   16.666666666666668
450.0   120.0   16.666666666666668
450.0   90.0   0.0
400.0   120.0   0.0
400.0   90.0   16.666666666666668
450.0   90.0   16.666666666666668
400.0   120.0   16.666666666666668
400.0   90.0   33.333333333333336
450.0   90.0   16.666666666666668
450.0   120.0   16.666666666666668
400.0   120.0   16.666666666666668
450.0   120.0   33.333333333333336
400.0   90.0   33.333333333333336
400.0   120.0   33.333333333333336
450.0   120.0   33.333333333333336
400.0   120.0   16.666666666666668
400.0   90.0   33.333333333333336
450.0   120.0   33.333333333333336
450.0   90.0   33.333333333333336
450.0   90.0   16.666666666666668
400.0   90.0   33.333333333333336
450.0   120.0   33.333333333333336
450.0   90.0   16.666666666666668
400.0   120.0   16.666666666666668
400.0   90.0   33.333333333333336
450.0   90.0   33.333333333333336
400.0   120.0   33.333333333333336
400.0   90.0   50.0
450.0   90.0   33.333333333333336
450.0   120.0   33.333333333333336
400.0   120.0   33.333333333333336
450.0   120.0   50.0
400.0   90.0   50.0
400.0   120.0   50.0
450.0   120.0   50.0
400.0   120.0   33.333333333333336
400.0   90.0   50.0
450.0   120.0   50.0
450.0   90.0   50.0
450.0   90.0   33.333333333333336
400.0   90.0   50.0
450.0   120.0   50.0
450.0   90.0   33.333333333333336
400.0   120.0   33.333333333333336
400.0   120.0   0.0
450.0   120.0   0.0
400.0   150.0   0.0
400.0   120.0   16.666666666666668
450.0   120.0   0.0
450.0   150.0   0.0
400.0   150.0   0.0
450.0   150.0   16.666666666666668
400.0   120.0   16.666666666666668
400.0   150.0   16.666666666666668
450.0   150.0   16.666666666666668
400.0   150.0   0.0
400.0   120.0   16.666666666666668
450.0   150.0   16.666666666666668
450.0   120.0   16.666666666666668
450.0   120.0   0.0
400.0   120.0   16.666666666666668
450.0   150.0   16.666666666666668
450.0   120.0   0.0
400.0   150.0   0.0
400.0   120.0   16.666666666666668
450.0   120.0   16.666666666666668
400.0   150.0   16.666666666666668
400.0   120.0   33.333333333333336
450.0   120.0   16.666666666666668
450.0   150.0   16.666666666666668
400.0   150.0   16.666666666666668
450.0   150.0   33.333333333333336
400.0   120.0   33.333333333333336
400.0   150.0   33.333333333333336
450.0   150.0   33.333333333333336
400.0   150.0   16.666666666666668
400.0   120.0   33.333333333333336
450.0   150.0   33.333333333333336
450.0   120.0   33.333333333333336
450.0   120.0   16.666666666666668
400.0   120.0   33.333333333333336
450.0   150.0   33.333333333333336
450.0   120.0   16.666666666666668
400.0   150.0   16.666666666666668
400.0   120.0   33.333333333333336
450.0   120.0   33.333333333333336
400.0   150.0   33.333333333333336
400.0   120.0   50.0
450.0   120.0   33.333333333333336
450.0   150.0   33.333333333333336
400.0   150.0   33.333333333333336
450.0   150.0   50.0
400.0   120.0   50.0
400.0   150.0   50.0
450.0   150.0   50.0
400.0   150.0   33.333333333333336
400.0   120.0   50.0
450.0   150.0   50.0
450.0   120.0   50.0
450.0   120.0   33.333333333333336
400.0   120.0   50.0
450.0   150.0   50.0
450.0   120.0   33.333333333333336
400.0   150.0   33.333333333333336
450.0   0.0   0.0
500.0   0.0   0.0
450.0   30.0   0.0
450.0   0.0   16.666666666666668
500.0   0.0   0.0
500.0   30.0   0.0
450.0   30.0   0.0
500.0   30.0   16.666666666666668
450.0   0.0   16.666666666666668
450.0   30.0   16.666666666666668
500.0   30.0   16.666666666666668
450.0   30.0   0.0
450.0   0.0   16.666666666666668
500.0   30.0   16.666666666666668
500.0   0.0   16.666666666666668
500.0   0.0   0.0
450.0   0.0   16.666666666666668
500.0   30.0   16.666666666666668
500.0   0.0   0.0
450.0   30.0   0.0
450.0   0.0   16.666666666666668
500.0   0.0   16.666666666666668
450.0   30.0   16.666666666666668
450.0   0.0   33.333333333333336
500.0   0.0   16.666666666666668
500.0   30.0   16.666666666666668
450.0   30.0   16.666666666666668
500.0   30.0   33.333333333333336
450.0   0.0   33.333333333333336
450.0   30.0   33.333333333333336
500.0   30.0   33.333333333333336
450.0   30.0   16.666666666666668
450.0   0.0   33.333333333333336
500.0   30.0   33.333333333333336
500.0   0.0   33.333333333333336
500.0   0.0   16.666666666666668
450.0   0.0   33.333333333333336
500.0   30.0   33.333333333333336
500.0   0.0   16.666666666666668
450.0   30.0   16.666666666666668
450.0   0.0   33.333333333333336
500.0   0.0   33.333333333333336
450.0   30.0   33.333333333333336
450.0   0.0   50.0
500.0   0.0   33.333333333333336
500.0   30.0   33.333333333333336
450.0   30.0   33.333333333333336
500.0   30.0   50.0
450.0   0.0   50.0
450.0   30.0   50.0
500.0   30.0   50.0
450.0   30.0   33.333333333333336
450.0   0.0   50.0
500.0   30.0   50.0
500.0   0.0   50.0
500.0   0.0   33.333333333333336
450.0   0.0   50.0
500.0   30.0   50.0
500.0   0.0   33.333333333333336
450.0   30.0   33.333333333333336
450.0   30.0   0.0
500.0   30.0   0.0
450.0   60.0   0.0
450.0   30.0   16.666666666666668
500.0   30.0   0.0
500.0   60.0   0.0
450.0   60.0   0.0
500.0   60.0   16.666666666666668
450.0   30.0   16.666666666666668
450.0   60.0   16.666666666666668
500.0   60.0   16.666666666666668
450.0   60.0   0.0
450.0   30.0   16.666666666666668
500.0   60.0   16.666666666666668
500.0   30.0   16.666666666666668
500.0   30.0   0.0
450.0   30.0   16.666666666666668
500.0   60.0   16.666666666666668
500.0   30.0   0.0
450.0   60.0   0.0
450.0   30.0   16.666666666666668
500.0   30.0   16.666666666666668
450.0   60.0   16.666666666666668
450.0   30.0   33.333333333333336
500.0   30.0   16.666666666666668
500.0   60.0   16.666666666666668
450.0   60.0   16.666666666666668
500.0   60.0   33.333333333333336
450.0   30.0   33.333333333333336
450.0   60.0   33.333333333333336
500.0   60.0   33.333333333333336
450.0   60.0   16.666666666666668
450.0   30.0   33.333333333333336
500.0   60.0   33.333333333333336
500.0   30.0   33.333333333333336
500.0   30.0   16.666666666666668
450.0   30.0   33.333333333333336
500.0   60.0   33.333333333333336
500.0   30.0   16.666666666666668
450.0   60.0   16.666666666666668
450.0   30.0   33.333333333333336
500.0   30.0   33.333333333333336
450.0   60.0   33.333333333333336
450.0   30.0   50.0
500.0   30.0   33.333333333333336
500.0   60.0   33.333333333333336
450.0   60.0   33.333333333333336
500.0   60.0   50.0
450.0   30.0   50.0
450.0   60.0   50.0
500.0   60.0   50.0
450.0   60.0   33.333333333333336
450.0   30.0   50.0
500.0   60.0   50.0
500.0   30.0   50.0
500.0   30.0   33.333333333333336
450.0   30.0   50.0
500.0   60.0   50.0
500.0   30.0   33.333333333333336
450.0   60.0   33.333333333333336
450.0   60.0   0.0
500.0   60.0   0.0
450.0   90.0   0.0
450.0   60.0   16.666666666666668
500.0   60.0   0.0
500.0   90.0   0.0
450.0   90.0   0.0
500.0   90.0   16.666666666666668
450.0   60.0   16.666666666666668
450.0   90.0   16.666666666666668
500.0   90.0   16.666666666666668
450.0   90.0   0.0
450.0   60.0   16.666666666666668
500.0   90.0   16.666666666666668
500.0   60.0   16.666666666666668
500.0   60.0   0.0
450.0   60.0   16.666666666666668
500.0   90.0   16.666666666666668
500.0   60.0   0.0
450.0   90.0   0.0
450.0   60.0   16.666666666666668
500.0   60.0   16.666666666666668
450.0   90.0   16.666666666666668
450.0   60.0   33.333333333333336
500.0   60.0   16.666666666666668
500.0   90.0   16.666666666666668
450.0   90.0   16.666666666666668
500.0   90.0   33.333333333333336
450.0   60.0   33.333333333333336
450.0   90.0   33.333333333333336
500.0   90.0   33.333333333333336
450.0   90.0   16.666666666666668
450.0   60.0   33.333333333333336
500.0   90.0   33.333333333333336
500.0   60.0   33.333333333333336
500.0   60.0   16.666666666666668
450.0   60.0   33.333333333333336
500.0   90.0   33.333333333333336
500.0   60.0   16.666666666666668
450.0   90.0   16.666666666666668
450.0   60.0   33.333333333333336
500.0   60.0   33.333333333333336
450.0   90.0   33.333333333333336
450.0   60.0   50.0
500.0   60.0   33.333333333333336
500.0   90.0   33.333333333333336
450.0   90.0   33.333333333333336
500.0   90.0   50.0
450.0   60.0   50.0
450.0   90.0   50.0
500.0   90.0   50.0
450.0   90.0   33.333333333333336
450.0   60.0   50.0
500.0   90.0   50.0
500.0   60.0   50.0
500.0   60.0   33.333333333333336
450.0   60.0   50.0
500.0   90.0   50.0
500.0   60.0   33.333333333333336
450.0   90.0   33.333333333333336
450.0   90.0   0.0
500.0   90.0   0.0
450.0   120.0   0.0
450.0   90.0   16.666666666666668
500.0   90.0   0.0
500.0   120.0   0.0
450.0   120.0   0.0
500.0   120.0   16.666666666666668
450.0   90.0   16.666666666666668
450.0   120.0   16.666666666666668
500.0   120.0   16.666666666666668
450.0   120.0   0.0
450.0   90.0   16.666666666666668
500.0   120.0   16.666666666666668
500.0   90.0   16.666666666666668
500.0   90.0   0.0
450.0   90.0   16.666666666666668
500.0   120.0   16.666666666666668
500.0   90.0   0.0
450.0   120.0   0.0
450.0   90.0   16.666666666666668
500.0   90.0   16.666666666666668
450.0   120.0   16.666666666666668
450.0   90.0   33.333333333333336
500.0   90.0   16.666666666666668
500.0   120.0   16.666666666666668
450.0   120.0   16.666666666666668
500.0   120.0   33.333333333333336
450.0   90.0   33.333333333333336
450.0   120.0   33.333333333333336
500.0   120.0   33.333333333333336
450.0   120.0   16.666666666666668
450.0   90.0   33.333333333333336
500.0   120.0   33.333333333333336
500.0   90.0   33.333333333333336
500.0   90.0   16.666666666666668
450.0   90.0   33.333333333333336
500.0   120.0   33.333333333333336
500.0   90.0   16.666666666666668
450.0   120.0   16.666666666666668
450.0   90.0   33.333333333333336
500.0   90.0   33.333333333333336
450.0   120.0   33.333333333333336
450.0   90.0   50.0
500.0   90.0   33.333333333333336
500.0   120.0   33.333333333333336
450.0   120.0   33.333333333333336
500.0   120.0   50.0
450.0   90.0   50.0
450.0   120.0   50.0
500.0   120.0   50.0
450.0   120.0   33.333333333333336
450.0   90.0   50.0
500.0   120.0   50.0
500.0   90.0   50.0
500.0   90.0   33.333333333333336
450.0   90.0   50.0
500.0   120.0   50.0
500.0   90.0   33.333333333333336
450.0   120.0   33.333333333333336
450.0   120.0   0.0
500.0   120.0   0.0
450.0   150.0   0.0
450.0   120.0   16.666666666666668
500.0   120.0   0.0
500.0   150.0   0.0
450.0   150.0   0.0
500.0   150.0   16.666666666666668
450.0   120.0   16.666666666666668
450.0   150.0   16.666666666666668
500.0   150.0   16.666666666666668
450.0   150.0   0.0
450.0   120.0   16.666666666666668
500.0   150.0   16.666666666666668
500.0   120.0   16.666666666666668
500.0   120.0   0.0
450.0   120.0   16.666666666666668
500.0   150.0   16.666666666666668
500.0   120.0   0.0
450.0   150.0   0.0
450.0   120.0   16.666666666666668
500.0   120.0   16.666666666666668
450.0   150.0   16.666666666666668
450.0   120.0   33.333333333333336
500.0   120.0   16.666666666666668
500.0   150.0   16.666666666666668
450.0   150.0   16.666666666666668
500.0   150.0   33.333333333333336
450.0   120.0   33.333333333333336
450.0   150.0   33.333333333333336
500.0   150.0   33.333333333333336
450.0   150.0   16.666666666666668
450.0   120.0   33.333333333333336
500.0   150.0   33.333333333333336
500.0   120.0   33.333333333333336
500.0   120.0   16.666666666666668
450.0   120.0   33.333333333333336
500.0   150.0   33.333333333333336
500.0   120.0   16.666666666666668
450.0   150.0   16.666666666666668
450.0   120.0   33.333333333333336
500.0   120.0   33.333333333333336
450.0   150.0   33.333333333333336
450.0   120.0   50.0
500.0   120.0   33.333333333333336
500.0   150.0   33.333333333333336
450.0   150.0   33.333333333333336
500.0   150.0   50.0
450.0   120.0   50.0
450.0   150.0   50.0
500.0   150.0   50.0
450.0   150.0   33.333333333333336
450.0   120.0   50.0
500.0   150.0   50.0
500.0   120.0   50.0
500.0   120.0   33.333333333333336
450.0   120.0   50.0
500.0   150.0   50.0
500.0   120.0   33.333333333333336
450.0   150.0   33.333333333333336
             </DataArray>   
          </Points>  
          <Cells>  
             <DataArray type="Int32" Name="connectivity" format="ascii">   
0   1   2   3
4   5   6   7
8   9   10   11
12   13   14   15
16   17   18   19
20   21   22   23
24   25   26   27
28   29   30   31
32   33   34   35
36   37   38   39
40   41   42   43
44   45   46   47
48   49   50   51
52   53   54   55
56   57   58   59
60   61   62   63
64   65   66   67
68   69   70   71
72   73   74   75
76   77   78   79
80   81   82   83
84   85   86   87
88   89   90   91
92   93   94   95
96   97   98   99
100   101   102   103
104   105   106   107
108   109   110   111
112   113   114   115
116   117   118   119
120   121   122   123
124   125   126   127
128   129   130   131
132   133   134   135
136   137   138   139
140   141   142   143
144   145   146   147
148   149   150   151
152   153   154   155
156   157   158   159
160   161   162   163
164   165   166   167
168   169   170   171
172   173   174   175
176   177   178   179
180   181   182   183
184   185   186   187
188   189   190   191
192   193   194   195
196   197   198   199
200   201   202   203
204   205   206   207
208   209   210   211
212   213   214   215
216   217   218   219
220   221   222   223
224   225   226   227
228   229   230   231
232   233   234   235
236   237   238   239
240   241   242   243
244   245   246   247
248   249   250   251
252   253   254   255
256   257   258   259
260   261   262   263
264   265   266   267
268   269   270   271
272   273   274   275
276   277   278   279
280   281   282   283
284   285   286   287
288   289   290   291
292   293   294   295
296   297   298   299
300   301   302   303
304   305   306   307
308   309   310   311
312   313   314   315
316   317   318   319
320   321   322   323
324   325   326   327
328   329   330   331
332   333   334   335
336   337   338   339
340   341   342   343
344   345   346   347
348   349   350   351
352   353   354   355
356   357   358   359
360   361   362   363
364   365   366   367
368   369   370   371
372   373   374   375
376   377   378   379
380   381   382   383
384   385   386   387
388   389   390   391
392   393   394   395
396   397   398   399
400   401   402   403
404   405   406   407
408   409   410   411
412   413   414   415
416   417   418   419
420   421   422   423
424   425   426   427
428   429   430   431
432   433   434   435
436   437   438   439
440   441   442   443
444   445   446   447
448   449   450   451
452   453   454   455
456   457   458   459
460   461   462   463
464   465   466   467
468   469   470   471
472   473   474   475
476   477   478   479
480   481   482   483
484   485   486   487
488   489   490   491
492   493   494   495
496   497   498   499
500   501   502   503
504   505   506   507
508   509   510   511
512   513   514   515
516   517   518   519
520   521   522   523
524   525   526   527
528   529   530   531
532   533   534   535
536   537   538   539
540   541   542   543
544   545   546   547
548   549   550   551
552   553   554   555
556   557   558   559
560   561   562   563
564   565   566   567
568   569   570   571
572   573   574   575
576   577   578   579
580   581   582   583
584   585   586   587
588   589   590   591
592   593   594   595
596   597   598   599
600   601   602   603
604   605   606   607
608   609   610   611
612   613   614   615
616   617   618   619
620   621   622   623
624   625   626   627
628   629   630   631
632   633   634   635
636   637   638   639
640   641   642   643
644   645   646   647
648   649   650   651
652   653   654   655
656   657   658   659
660   661   662   663
664   665   666   667
668   669   670   671
672   673   674   675
676   677   678   679
680   681   682   683
684   685   686   687
688   689   690   691
692   693   694   695
696   697   698   699
700   701   702   703
704   705   706   707
708   709   710   711
712   713   714   715
716   717   718   719
720   721   722   723
724   725   726   727
728   729   730   731
732   733   734   735
736   737   738   739
740   741   742   743
744   745   746   747
748   749   750   751
752   753   754   755
756   757   758   759
760   761   762   763
764   765   766   767
768   769   770   771
772   773   774   775
776   777   778   779
780   781   782   783
784   785   786   787
788   789   790   791
792   793   794   795
796   797   798   799
800   801   802   803
804   805   806   807
808   809   810   811
812   813   814   815
816   817   818   819
820   821   822   823
824   825   826   827
828   829   830   831
832   833   834   835
836   837   838   839
840   841   842   843
844   845   846   847
848   849   850   851
852   853   854   855
856   857   858   859
860   861   862   863
864   865   866   867
868   869   870   871
872   873   874   875
876   877   878   879
880   881   882   883
884   885   886   887
888   889   890   891
892   893   894   895
896   897   898   899
900   901   902   903
904   905   906   907
908   909   910   911
912   913   914   915
916   917   918   919
920   921   922   923
924   925   926   927
928   929   930   931
932   933   934   935
936   937   938   939
940   941   942   943
944   945   946   947
948   949   950   951
952   953   954   955
956   957   958   959
960   961   962   963
964   965   966   967
968   969   970   971
972   973   974   975
976   977   978   979
980   981   982   983
984   985   986   987
988   989   990   991
992   993   994   995
996   997   998   999
1000   1001   1002   1003
1004   1005   1006   1007
1008   1009   1010   1011
1012   1013   1014   1015
1016   1017   1018   1019
1020   1021   1022   1023
1024   1025   1026   1027
1028   1029   1030   1031
1032   1033   1034   1035
1036   1037   1038   1039
1040   1041   1042   1043
1044   1045   1046   1047
1048   1049   1050   1051
1052   1053   1054   1055
1056   1057   1058   1059
1060   1061   1062   1063
1064   1065   1066   1067
1068   1069   1070   1071
1072   1073   1074   1075
1076   1077   1078   1079
1080   1081   1082   1083
1084   1085   1086   1087
1088   1089   1090   1091
1092   1093   1094   1095
1096   1097   1098   1099
1100   1101   1102   1103
1104   1105   1106   1107
1108   1109   1110   1111
1112   1113   1114   1115
1116   1117   1118   1119
1120   1121   1122   1123
1124   1125   1126   1127
1128   1129   1130   1131
1132   1133   1134   1135
1136   1137   1138   1139
1140   1141   1142   1143
1144   1145   1146   1147
1148   1149   1150   1151
1152   1153   1154   1155
1156   1157   1158   1159
1160   1161   1162   1163
1164   1165   1166   1167
1168   1169   1170   1171
1172   1173   1174   1175
1176   1177   1178   1179
1180   1181   1182   1183
1184   1185   1186   1187
1188   1189   1190   1191
1192   1193   1194   1195
1196   1197   1198   1199
1200   1201   1202   1203
1204   1205   1206   1207
1208   1209   1210   1211
1212   1213   1214   1215
1216   1217   1218   1219
1220   1221   1222   1223
1224   1225   1226   1227
1228   1229   1230   1231
1232   1233   1234   1235
1236   1237   1238   1239
1240   1241   1242   1243
1244   1245   1246   1247
1248   1249   1250   1251
1252   1253   1254   1255
1256   1257   1258   1259
1260   1261   1262   1263
1264   1265   1266   1267
1268   1269   1270   1271
1272   1273   1274   1275
1276   1277   1278   1279
1280   1281   1282   1283
1284   1285   1286   1287
1288   1289   1290   1291
1292   1293   1294   1295
1296   1297   1298   1299
1300   1301   1302   1303
1304   1305   1306   1307
1308   1309   1310   1311
1312   1313   1314   1315
1316   1317   1318   1319
1320   1321   1322   1323
1324   1325   1326   1327
1328   1329   1330   1331
1332   1333   1334   1335
1336   1337   1338   1339
1340   1341   1342   1343
1344   1345   1346   1347
1348   1349   1350   1351
1352   1353   1354   1355
1356   1357   1358   1359
1360   1361   1362   1363
1364   1365   1366   1367
1368   1369   1370   1371
1372   1373   1374   1375
1376   1377   1378   1379
1380   1381   1382   1383
1384   1385   1386   1387
1388   1389   1390   1391
1392   1393   1394   1395
1396   1397   1398   1399
1400   1401   1402   1403
1404   1405   1406   1407
1408   1409   1410   1411
1412   1413   1414   1415
1416   1417   1418   1419
1420   1421   1422   1423
1424   1425   1426   1427
1428   1429   1430   1431
1432   1433   1434   1435
1436   1437   1438   1439
1440   1441   1442   1443
1444   1445   1446   1447
1448   1449   1450   1451
1452   1453   1454   1455
1456   1457   1458   1459
1460   1461   1462   1463
1464   1465   1466   1467
1468   1469   1470   1471
1472   1473   1474   1475
1476   1477   1478   1479
1480   1481   1482   1483
1484   1485   1486   1487
1488   1489   1490   1491
1492   1493   1494   1495
1496   1497   1498   1499
1500   1501   1502   1503
1504   1505   1506   1507
1508   1509   1510   1511
1512   1513   1514   1515
1516   1517   1518   1519
1520   1521   1522   1523
1524   1525   1526   1527
1528   1529   1530   1531
1532   1533   1534   1535
1536   1537   1538   1539
1540   1541   1542   1543
1544   1545   1546   1547
1548   1549   1550   1551
1552   1553   1554   1555
1556   1557   1558   1559
1560   1561   1562   1563
1564   1565   1566   1567
1568   1569   1570   1571
1572   1573   1574   1575
1576   1577   1578   1579
1580   1581   1582   1583
1584   1585   1586   1587
1588   1589   1590   1591
1592   1593   1594   1595
1596   1597   1598   1599
1600   1601   1602   1603
1604   1605   1606   1607
1608   1609   1610   1611
1612   1613   1614   1615
1616   1617   1618   1619
1620   1621   1622   1623
1624   1625   1626   1627
1628   1629   1630   1631
1632   1633   1634   1635
1636   1637   1638   1639
1640   1641   1642   1643
1644   1645   1646   1647
1648   1649   1650   1651
1652   1653   1654   1655
1656   1657   1658   1659
1660   1661   1662   1663
1664   1665   1666   1667
1668   1669   1670   1671
1672   1673   1674   1675
1676   1677   1678   1679
1680   1681   1682   1683
1684   1685   1686   1687
1688   1689   1690   1691
1692   1693   1694   1695
1696   1697   1698   1699
1700   1701   1702   1703
1704   1705   1706   1707
1708   1709   1710   1711
1712   1713   1714   1715
1716   1717   1718   1719
1720   1721   1722   1723
1724   1725   1726   1727
1728   1729   1730   1731
1732   1733   1734   1735
1736   1737   1738   1739
1740   1741   1742   1743
1744   1745   1746   1747
1748   1749   1750   1751
1752   1753   1754   1755
1756   1757   1758   1759
1760   1761   1762   1763
1764   1765   1766   1767
1768   1769   1770   1771
1772   1773   1774   1775
1776   1777   1778   1779
1780   1781   1782   1783
1784   1785   1786   1787
1788   1789   1790   1791
1792   1793   1794   1795
1796   1797   1798   1799
1800   1801   1802   1803
1804   1805   1806   1807
1808   1809   1810   1811
1812   1813   1814   1815
1816   1817   1818   1819
1820   1821   1822   1823
1824   1825   1826   1827
1828   1829   1830   1831
1832   1833   1834   1835
1836   1837   1838   1839
1840   1841   1842   1843
1844   1845   1846   1847
1848   1849   1850   1851
1852   1853   1854   1855
1856   1857   1858   1859
1860   1861   1862   1863
1864   1865   1866   1867
1868   1869   1870   1871
1872   1873   1874   1875
1876   1877   1878   1879
1880   1881   1882   1883
1884   1885   1886   1887
1888   1889   1890   1891
1892   1893   1894   1895
1896   1897   1898   1899
1900   1901   1902   1903
1904   1905   1906   1907
1908   1909   1910   1911
1912   1913   1914   1915
1916   1917   1918   1919
1920   1921   1922   1923
1924   1925   1926   1927
1928   1929   1930   1931
1932   1933   1934   1935
1936   1937   1938   1939
1940   1941   1942   1943
1944   1945   1946   1947
1948   1949   1950   1951
1952   1953   1954   1955
1956   1957   1958   1959
1960   1961   1962   1963
1964   1965   1966   1967
1968   1969   1970   1971
1972   1973   1974   1975
1976   1977   1978   1979
1980   1981   1982   1983
1984   1985   1986   1987
1988   1989   1990   1991
1992   1993   1994   1995
1996   1997   1998   1999
2000   2001   2002   2003
2004   2005   2006   2007
2008   2009   2010   2011
2012   2013   2014   2015
2016   2017   2018   2019
2020   2021   2022   2023
2024   2025   2026   2027
2028   2029   2030   2031
2032   2033   2034   2035
2036   2037   2038   2039
2040   2041   2042   2043
2044   2045   2046   2047
2048   2049   2050   2051
2052   2053   2054   2055
2056   2057   2058   2059
2060   2061   2062   2063
2064   2065   2066   2067
2068   2069   2070   2071
2072   2073   2074   2075
2076   2077   2078   2079
2080   2081   2082   2083
2084   2085   2086   2087
2088   2089   2090   2091
2092   2093   2094   2095
2096   2097   2098   2099
2100   2101   2102   2103
2104   2105   2106   2107
2108   2109   2110   2111
2112   2113   2114   2115
2116   2117   2118   2119
2120   2121   2122   2123
2124   2125   2126   2127
2128   2129   2130   2131
2132   2133   2134   2135
2136   2137   2138   2139
2140   2141   2142   2143
2144   2145   2146   2147
2148   2149   2150   2151
2152   2153   2154   2155
2156   2157   2158   2159
2160   2161   2162   2163
2164   2165   2166   2167
2168   2169   2170   2171
2172   2173   2174   2175
2176   2177   2178   2179
2180   2181   2182   2183
2184   2185   2186   2187
2188   2189   2190   2191
2192   2193   2194   2195
2196   2197   2198   2199
2200   2201   2202   2203
2204   2205   2206   2207
2208   2209   2210   2211
2212   2213   2214   2215
2216   2217   2218   2219
2220   2221   2222   2223
2224   2225   2226   2227
2228   2229   2230   2231
2232   2233   2234   2235
2236   2237   2238   2239
2240   2241   2242   2243
2244   2245   2246   2247
2248   2249   2250   2251
2252   2253   2254   2255
2256   2257   2258   2259
2260   2261   2262   2263
2264   2265   2266   2267
2268   2269   2270   2271
2272   2273   2274   2275
2276   2277   2278   2279
2280   2281   2282   2283
2284   2285   2286   2287
2288   2289   2290   2291
2292   2293   2294   2295
2296   2297   2298   2299
2300   2301   2302   2303
2304   2305   2306   2307
2308   2309   2310   2311
2312   2313   2314   2315
2316   2317   2318   2319
2320   2321   2322   2323
2324   2325   2326   2327
2328   2329   2330   2331
2332   2333   2334   2335
2336   2337   2338   2339
2340   2341   2342   2343
2344   2345   2346   2347
2348   2349   2350   2351
2352   2353   2354   2355
2356   2357   2358   2359
2360   2361   2362   2363
2364   2365   2366   2367
2368   2369   2370   2371
2372   2373   2374   2375
2376   2377   2378   2379
2380   2381   2382   2383
2384   2385   2386   2387
2388   2389   2390   2391
2392   2393   2394   2395
2396   2397   2398   2399
2400   2401   2402   2403
2404   2405   2406   2407
2408   2409   2410   2411
2412   2413   2414   2415
2416   2417   2418   2419
2420   2421   2422   2423
2424   2425   2426   2427
2428   2429   2430   2431
2432   2433   2434   2435
2436   2437   2438   2439
2440   2441   2442   2443
2444   2445   2446   2447
2448   2449   2450   2451
2452   2453   2454   2455
2456   2457   2458   2459
2460   2461   2462   2463
2464   2465   2466   2467
2468   2469   2470   2471
2472   2473   2474   2475
2476   2477   2478   2479
2480   2481   2482   2483
2484   2485   2486   2487
2488   2489   2490   2491
2492   2493   2494   2495
2496   2497   2498   2499
2500   2501   2502   2503
2504   2505   2506   2507
2508   2509   2510   2511
2512   2513   2514   2515
2516   2517   2518   2519
2520   2521   2522   2523
2524   2525   2526   2527
2528   2529   2530   2531
2532   2533   2534   2535
2536   2537   2538   2539
2540   2541   2542   2543
2544   2545   2546   2547
2548   2549   2550   2551
2552   2553   2554   2555
2556   2557   2558   2559
2560   2561   2562   2563
2564   2565   2566   2567
2568   2569   2570   2571
2572   2573   2574   2575
2576   2577   2578   2579
2580   2581   2582   2583
2584   2585   2586   2587
2588   2589   2590   2591
2592   2593   2594   2595
2596   2597   2598   2599
2600   2601   2602   2603
2604   2605   2606   2607
2608   2609   2610   2611
2612   2613   2614   2615
2616   2617   2618   2619
2620   2621   2622   2623
2624   2625   2626   2627
2628   2629   2630   2631
2632   2633   2634   2635
2636   2637   2638   2639
2640   2641   2642   2643
2644   2645   2646   2647
2648   2649   2650   2651
2652   2653   2654   2655
2656   2657   2658   2659
2660   2661   2662   2663
2664   2665   2666   2667
2668   2669   2670   2671
2672   2673   2674   2675
2676   2677   2678   2679
2680   2681   2682   2683
2684   2685   2686   2687
2688   2689   2690   2691
2692   2693   2694   2695
2696   2697   2698   2699
2700   2701   2702   2703
2704   2705   2706   2707
2708   2709   2710   2711
2712   2713   2714   2715
2716   2717   2718   2719
2720   2721   2722   2723
2724   2725   2726   2727
2728   2729   2730   2731
2732   2733   2734   2735
2736   2737   2738   2739
2740   2741   2742   2743
2744   2745   2746   2747
2748   2749   2750   2751
2752   2753   2754   2755
2756   2757   2758   2759
2760   2761   2762   2763
2764   2765   2766   2767
2768   2769   2770   2771
2772   2773   2774   2775
2776   2777   2778   2779
2780   2781   2782   2783
2784   2785   2786   2787
2788   2789   2790   2791
2792   2793   2794   2795
2796   2797   2798   2799
2800   2801   2802   2803
2804   2805   2806   2807
2808   2809   2810   2811
2812   2813   2814   2815
2816   2817   2818   2819
2820   2821   2822   2823
2824   2825   2826   2827
2828   2829   2830   2831
2832   2833   2834   2835
2836   2837   2838   2839
2840   2841   2842   2843
2844   2845   2846   2847
2848   2849   2850   2851
2852   2853   2854   2855
2856   2857   2858   2859
2860   2861   2862   2863
2864   2865   2866   2867
2868   2869   2870   2871
2872   2873   2874   2875
2876   2877   2878   2879
2880   2881   2882   2883
2884   2885   2886   2887
2888   2889   2890   2891
2892   2893   2894   2895
2896   2897   2898   2899
2900   2901   2902   2903
2904   2905   2906   2907
2908   2909   2910   2911
2912   2913   2914   2915
2916   2917   2918   2919
2920   2921   2922   2923
2924   2925   2926   2927
2928   2929   2930   2931
2932   2933   2934   2935
2936   2937   2938   2939
2940   2941   2942   2943
2944   2945   2946   2947
2948   2949   2950   2951
2952   2953   2954   2955
2956   2957   2958   2959
2960   2961   2962   2963
2964   2965   2966   2967
2968   2969   2970   2971
2972   2973   2974   2975
2976   2977   2978   2979
2980   2981   2982   2983
2984   2985   2986   2987
2988   2989   2990   2991
2992   2993   2994   2995
2996   2997   2998   2999
3000   3001   3002   3003
3004   3005   3006   3007
3008   3009   3010   3011
3012   3013   3014   3015
3016   3017   3018   3019
3020   3021   3022   3023
3024   3025   3026   3027
3028   3029   3030   3031
3032   3033   3034   3035
3036   3037   3038   3039
3040   3041   3042   3043
3044   3045   3046   3047
3048   3049   3050   3051
3052   3053   3054   3055
3056   3057   3058   3059
3060   3061   3062   3063
3064   3065   3066   3067
3068   3069   3070   3071
3072   3073   3074   3075
3076   3077   3078   3079
3080   3081   3082   3083
3084   3085   3086   3087
3088   3089   3090   3091
3092   3093   3094   3095
3096   3097   3098   3099
3100   3101   3102   3103
3104   3105   3106   3107
3108   3109   3110   3111
3112   3113   3114   3115
3116   3117   3118   3119
3120   3121   3122   3123
3124   3125   3126   3127
3128   3129   3130   3131
3132   3133   3134   3135
3136   3137   3138   3139
3140   3141   3142   3143
3144   3145   3146   3147
3148   3149   3150   3151
3152   3153   3154   3155
3156   3157   3158   3159
3160   3161   3162   3163
3164   3165   3166   3167
3168   3169   3170   3171
3172   3173   3174   3175
3176   3177   3178   3179
3180   3181   3182   3183
3184   3185   3186   3187
3188   3189   3190   3191
3192   3193   3194   3195
3196   3197   3198   3199
3200   3201   3202   3203
3204   3205   3206   3207
3208   3209   3210   3211
3212   3213   3214   3215
3216   3217   3218   3219
3220   3221   3222   3223
3224   3225   3226   3227
3228   3229   3230   3231
3232   3233   3234   3235
3236   3237   3238   3239
3240   3241   3242   3243
3244   3245   3246   3247
3248   3249   3250   3251
3252   3253   3254   3255
3256   3257   3258   3259
3260   3261   3262   3263
3264   3265   3266   3267
3268   3269   3270   3271
3272   3273   3274   3275
3276   3277   3278   3279
3280   3281   3282   3283
3284   3285   3286   3287
3288   3289   3290   3291
3292   3293   3294   3295
3296   3297   3298   3299
3300   3301   3302   3303
3304   3305   3306   3307
3308   3309   3310   3311
3312   3313   3314   3315
3316   3317   3318   3319
3320   3321   3322   3323
3324   3325   3326   3327
3328   3329   3330   3331
3332   3333   3334   3335
3336   3337   3338   3339
3340   3341   3342   3343
3344   3345   3346   3347
3348   3349   3350   3351
3352   3353   3354   3355
3356   3357   3358   3359
3360   3361   3362   3363
3364   3365   3366   3367
3368   3369   3370   3371
3372   3373   3374   3375
3376   3377   3378   3379
3380   3381   3382   3383
3384   3385   3386   3387
3388   3389   3390   3391
3392   3393   3394   3395
3396   3397   3398   3399
3400   3401   3402   3403
3404   3405   3406   3407
3408   3409   3410   3411
3412   3413   3414   3415
3416   3417   3418   3419
3420   3421   3422   3423
3424   3425   3426   3427
3428   3429   3430   3431
3432   3433   3434   3435
3436   3437   3438   3439
3440   3441   3442   3443
3444   3445   3446   3447
3448   3449   3450   3451
3452   3453   3454   3455
3456   3457   3458   3459
3460   3461   3462   3463
3464   3465   3466   3467
3468   3469   3470   3471
3472   3473   3474   3475
3476   3477   3478   3479
3480   3481   3482   3483
3484   3485   3486   3487
3488   3489   3490   3491
3492   3493   3494   3495
3496   3497   3498   3499
3500   3501   3502   3503
3504   3505   3506   3507
3508   3509   3510   3511
3512   3513   3514   3515
3516   3517   3518   3519
3520   3521   3522   3523
3524   3525   3526   3527
3528   3529   3530   3531
3532   3533   3534   3535
3536   3537   3538   3539
3540   3541   3542   3543
3544   3545   3546   3547
3548   3549   3550   3551
3552   3553   3554   3555
3556   3557   3558   3559
3560   3561   3562   3563
3564   3565   3566   3567
3568   3569   3570   3571
3572   3573   3574   3575
3576   3577   3578   3579
3580   3581   3582   3583
3584   3585   3586   3587
3588   3589   3590   3591
3592   3593   3594   3595
3596   3597   3598   3599
3600   3601   3602   3603
3604   3605   3606   3607
3608   3609   3610   3611
3612   3613   3614   3615
3616   3617   3618   3619
3620   3621   3622   3623
3624   3625   3626   3627
3628   3629   3630   3631
3632   3633   3634   3635
3636   3637   3638   3639
3640   3641   3642   3643
3644   3645   3646   3647
3648   3649   3650   3651
3652   3653   3654   3655
3656   3657   3658   3659
3660   3661   3662   3663
3664   3665   3666   3667
3668   3669   3670   3671
3672   3673   3674   3675
3676   3677   3678   3679
3680   3681   3682   3683
3684   3685   3686   3687
3688   3689   3690   3691
3692   3693   3694   3695
3696   3697   3698   3699
3700   3701   3702   3703
3704   3705   3706   3707
3708   3709   3710   3711
3712   3713   3714   3715
3716   3717   3718   3719
3720   3721   3722   3723
3724   3725   3726   3727
3728   3729   3730   3731
3732   3733   3734   3735
3736   3737   3738   3739
3740   3741   3742   3743
3744   3745   3746   3747
3748   3749   3750   3751
3752   3753   3754   3755
3756   3757   3758   3759
3760   3761   3762   3763
3764   3765   3766   3767
3768   3769   3770   3771
3772   3773   3774   3775
3776   3777   3778   3779
3780   3781   3782   3783
3784   3785   3786   3787
3788   3789   3790   3791
3792   3793   3794   3795
3796   3797   3798   3799
3800   3801   3802   3803
3804   3805   3806   3807
3808   3809   3810   3811
3812   3813   3814   3815
3816   3817   3818   3819
3820   3821   3822   3823
3824   3825   3826   3827
3828   3829   3830   3831
3832   3833   3834   3835
3836   3837   3838   3839
3840   3841   3842   3843
3844   3845   3846   3847
3848   3849   3850   3851
3852   3853   3854   3855
3856   3857   3858   3859
3860   3861   3862   3863
3864   3865   3866   3867
3868   3869   3870   3871
3872   3873   3874   3875
3876   3877   3878   3879
3880   3881   3882   3883
3884   3885   3886   3887
3888   3889   3890   3891
3892   3893   3894   3895
3896   3897   3898   3899
3900   3901   3902   3903
3904   3905   3906   3907
3908   3909   3910   3911
3912   3913   3914   3915
3916   3917   3918   3919
3920   3921   3922   3923
3924   3925   3926   3927
3928   3929   3930   3931
3932   3933   3934   3935
3936   3937   3938   3939
3940   3941   3942   3943
3944   3945   3946   3947
3948   3949   3950   3951
3952   3953   3954   3955
3956   3957   3958   3959
3960   3961   3962   3963
3964   3965   3966   3967
3968   3969   3970   3971
3972   3973   3974   3975
3976   3977   3978   3979
3980   3981   3982   3983
3984   3985   3986   3987
3988   3989   3990   3991
3992   3993   3994   3995
3996   3997   3998   3999
4000   4001   4002   4003
4004   4005   4006   4007
4008   4009   4010   4011
4012   4013   4014   4015
4016   4017   4018   4019
4020   4021   4022   4023
4024   4025   4026   4027
4028   4029   4030   4031
4032   4033   4034   4035
4036   4037   4038   4039
4040   4041   4042   4043
4044   4045   4046   4047
4048   4049   4050   4051
4052   4053   4054   4055
4056   4057   4058   4059
4060   4061   4062   4063
4064   4065   4066   4067
4068   4069   4070   4071
4072   4073   4074   4075
4076   4077   4078   4079
4080   4081   4082   4083
4084   4085   4086   4087
4088   4089   4090   4091
4092   4093   4094   4095
4096   4097   4098   4099
4100   4101   4102   4103
4104   4105   4106   4107
4108   4109   4110   4111
4112   4113   4114   4115
4116   4117   4118   4119
4120   4121   4122   4123
4124   4125   4126   4127
4128   4129   4130   4131
4132   4133   4134   4135
4136   4137   4138   4139
4140   4141   4142   4143
4144   4145   4146   4147
4148   4149   4150   4151
4152   4153   4154   4155
4156   4157   4158   4159
4160   4161   4162   4163
4164   4165   4166   4167
4168   4169   4170   4171
4172   4173   4174   4175
4176   4177   4178   4179
4180   4181   4182   4183
4184   4185   4186   4187
4188   4189   4190   4191
4192   4193   4194   4195
4196   4197   4198   4199
4200   4201   4202   4203
4204   4205   4206   4207
4208   4209   4210   4211
4212   4213   4214   4215
4216   4217   4218   4219
4220   4221   4222   4223
4224   4225   4226   4227
4228   4229   4230   4231
4232   4233   4234   4235
4236   4237   4238   4239
4240   4241   4242   4243
4244   4245   4246   4247
4248   4249   4250   4251
4252   4253   4254   4255
4256   4257   4258   4259
4260   4261   4262   4263
4264   4265   4266   4267
4268   4269   4270   4271
4272   4273   4274   4275
4276   4277   4278   4279
4280   4281   4282   4283
4284   4285   4286   4287
4288   4289   4290   4291
4292   4293   4294   4295
4296   4297   4298   4299
4300   4301   4302   4303
4304   4305   4306   4307
4308   4309   4310   4311
4312   4313   4314   4315
4316   4317   4318   4319
4320   4321   4322   4323
4324   4325   4326   4327
4328   4329   4330   4331
4332   4333   4334   4335
4336   4337   4338   4339
4340   4341   4342   4343
4344   4345   4346   4347
4348   4349   4350   4351
4352   4353   4354   4355
4356   4357   4358   4359
4360   4361   4362   4363
4364   4365   4366   4367
4368   4369   4370   4371
4372   4373   4374   4375
4376   4377   4378   4379
4380   4381   4382   4383
4384   4385   4386   4387
4388   4389   4390   4391
4392   4393   4394   4395
4396   4397   4398   4399
4400   4401   4402   4403
4404   4405   4406   4407
4408   4409   4410   4411
4412   4413   4414   4415
4416   4417   4418   4419
4420   4421   4422   4423
4424   4425   4426   4427
4428   4429   4430   4431
4432   4433   4434   4435
4436   4437   4438   4439
4440   4441   4442   4443
4444   4445   4446   4447
4448   4449   4450   4451
4452   4453   4454   4455
4456   4457   4458   4459
4460   4461   4462   4463
4464   4465   4466   4467
4468   4469   4470   4471
4472   4473   4474   4475
4476   4477   4478   4479
4480   4481   4482   4483
4484   4485   4486   4487
4488   4489   4490   4491
4492   4493   4494   4495
4496   4497   4498   4499
4500   4501   4502   4503
4504   4505   4506   4507
4508   4509   4510   4511
4512   4513   4514   4515
4516   4517   4518   4519
4520   4521   4522   4523
4524   4525   4526   4527
4528   4529   4530   4531
4532   4533   4534   4535
4536   4537   4538   4539
4540   4541   4542   4543
4544   4545   4546   4547
4548   4549   4550   4551
4552   4553   4554   4555
4556   4557   4558   4559
4560   4561   4562   4563
4564   4565   4566   4567
4568   4569   4570   4571
4572   4573   4574   4575
4576   4577   4578   4579
4580   4581   4582   4583
4584   4585   4586   4587
4588   4589   4590   4591
4592   4593   4594   4595
4596   4597   4598   4599
4600   4601   4602   4603
4604   4605   4606   4607
4608   4609   4610   4611
4612   4613   4614   4615
4616   4617   4618   4619
4620   4621   4622   4623
4624   4625   4626   4627
4628   4629   4630   4631
4632   4633   4634   4635
4636   4637   4638   4639
4640   4641   4642   4643
4644   4645   4646   4647
4648   4649   4650   4651
4652   4653   4654   4655
4656   4657   4658   4659
4660   4661   4662   4663
4664   4665   4666   4667
4668   4669   4670   4671
4672   4673   4674   4675
4676   4677   4678   4679
4680   4681   4682   4683
4684   4685   4686   4687
4688   4689   4690   4691
4692   4693   4694   4695
4696   4697   4698   4699
4700   4701   4702   4703
4704   4705   4706   4707
4708   4709   4710   4711
4712   4713   4714   4715
4716   4717   4718   4719
4720   4721   4722   4723
4724   4725   4726   4727
4728   4729   4730   4731
4732   4733   4734   4735
4736   4737   4738   4739
4740   4741   4742   4743
4744   4745   4746   4747
4748   4749   4750   4751
4752   4753   4754   4755
4756   4757   4758   4759
4760   4761   4762   4763
4764   4765   4766   4767
4768   4769   4770   4771
4772   4773   4774   4775
4776   4777   4778   4779
4780   4781   4782   4783
4784   4785   4786   4787
4788   4789   4790   4791
4792   4793   4794   4795
4796   4797   4798   4799
4800   4801   4802   4803
4804   4805   4806   4807
4808   4809   4810   4811
4812   4813   4814   4815
4816   4817   4818   4819
4820   4821   4822   4823
4824   4825   4826   4827
4828   4829   4830   4831
4832   4833   4834   4835
4836   4837   4838   4839
4840   4841   4842   4843
4844   4845   4846   4847
4848   4849   4850   4851
4852   4853   4854   4855
4856   4857   4858   4859
4860   4861   4862   4863
4864   4865   4866   4867
4868   4869   4870   4871
4872   4873   4874   4875
4876   4877   4878   4879
4880   4881   4882   4883
4884   4885   4886   4887
4888   4889   4890   4891
4892   4893   4894   4895
4896   4897   4898   4899
4900   4901   4902   4903
4904   4905   4906   4907
4908   4909   4910   4911
4912   4913   4914   4915
4916   4917   4918   4919
4920   4921   4922   4923
4924   4925   4926   4927
4928   4929   4930   4931
4932   4933   4934   4935
4936   4937   4938   4939
4940   4941   4942   4943
4944   4945   4946   4947
4948   4949   4950   4951
4952   4953   4954   4955
4956   4957   4958   4959
4960   4961   4962   4963
4964   4965   4966   4967
4968   4969   4970   4971
4972   4973   4974   4975
4976   4977   4978   4979
4980   4981   4982   4983
4984   4985   4986   4987
4988   4989   4990   4991
4992   4993   4994   4995
4996   4997   4998   4999
5000   5001   5002   5003
5004   5005   5006   5007
5008   5009   5010   5011
5012   5013   5014   5015
5016   5017   5018   5019
5020   5021   5022   5023
5024   5025   5026   5027
5028   5029   5030   5031
5032   5033   5034   5035
5036   5037   5038   5039
5040   5041   5042   5043
5044   5045   5046   5047
5048   5049   5050   5051
5052   5053   5054   5055
5056   5057   5058   5059
5060   5061   5062   5063
5064   5065   5066   5067
5068   5069   5070   5071
5072   5073   5074   5075
5076   5077   5078   5079
5080   5081   5082   5083
5084   5085   5086   5087
5088   5089   5090   5091
5092   5093   5094   5095
5096   5097   5098   5099
5100   5101   5102   5103
5104   5105   5106   5107
5108   5109   5110   5111
5112   5113   5114   5115
5116   5117   5118   5119
5120   5121   5122   5123
5124   5125   5126   5127
5128   5129   5130   5131
5132   5133   5134   5135
5136   5137   5138   5139
5140   5141   5142   5143
5144   5145   5146   5147
5148   5149   5150   5151
5152   5153   5154   5155
5156   5157   5158   5159
5160   5161   5162   5163
5164   5165   5166   5167
5168   5169   5170   5171
5172   5173   5174   5175
5176   5177   5178   5179
5180   5181   5182   5183
5184   5185   5186   5187
5188   5189   5190   5191
5192   5193   5194   5195
5196   5197   5198   5199
5200   5201   5202   5203
5204   5205   5206   5207
5208   5209   5210   5211
5212   5213   5214   5215
5216   5217   5218   5219
5220   5221   5222   5223
5224   5225   5226   5227
5228   5229   5230   5231
5232   5233   5234   5235
5236   5237   5238   5239
5240   5241   5242   5243
5244   5245   5246   5247
5248   5249   5250   5251
5252   5253   5254   5255
5256   5257   5258   5259
5260   5261   5262   5263
5264   5265   5266   5267
5268   5269   5270   5271
5272   5273   5274   5275
5276   5277   5278   5279
5280   5281   5282   5283
5284   5285   5286   5287
5288   5289   5290   5291
5292   5293   5294   5295
5296   5297   5298   5299
5300   5301   5302   5303
5304   5305   5306   5307
5308   5309   5310   5311
5312   5313   5314   5315
5316   5317   5318   5319
5320   5321   5322   5323
5324   5325   5326   5327
5328   5329   5330   5331
5332   5333   5334   5335
5336   5337   5338   5339
5340   5341   5342   5343
5344   5345   5346   5347
5348   5349   5350   5351
5352   5353   5354   5355
5356   5357   5358   5359
5360   5361   5362   5363
5364   5365   5366   5367
5368   5369   5370   5371
5372   5373   5374   5375
5376   5377   5378   5379
5380   5381   5382   5383
5384   5385   5386   5387
5388   5389   5390   5391
5392   5393   5394   5395
5396   5397   5398   5399
5400   5401   5402   5403
5404   5405   5406   5407
5408   5409   5410   5411
5412   5413   5414   5415
5416   5417   5418   5419
5420   5421   5422   5423
5424   5425   5426   5427
5428   5429   5430   5431
5432   5433   5434   5435
5436   5437   5438   5439
5440   5441   5442   5443
5444   5445   5446   5447
5448   5449   5450   5451
5452   5453   5454   5455
5456   5457   5458   5459
5460   5461   5462   5463
5464   5465   5466   5467
5468   5469   5470   5471
5472   5473   5474   5475
5476   5477   5478   5479
5480   5481   5482   5483
5484   5485   5486   5487
5488   5489   5490   5491
5492   5493   5494   5495
5496   5497   5498   5499
5500   5501   5502   5503
5504   5505   5506   5507
5508   5509   5510   5511
5512   5513   5514   5515
5516   5517   5518   5519
5520   5521   5522   5523
5524   5525   5526   5527
5528   5529   5530   5531
5532   5533   5534   5535
5536   5537   5538   5539
5540   5541   5542   5543
5544   5545   5546   5547
5548   5549   5550   5551
5552   5553   5554   5555
5556   5557   5558   5559
5560   5561   5562   5563
5564   5565   5566   5567
5568   5569   5570   5571
5572   5573   5574   5575
5576   5577   5578   5579
5580   5581   5582   5583
5584   5585   5586   5587
5588   5589   5590   5591
5592   5593   5594   5595
5596   5597   5598   5599
5600   5601   5602   5603
5604   5605   5606   5607
5608   5609   5610   5611
5612   5613   5614   5615
5616   5617   5618   5619
5620   5621   5622   5623
5624   5625   5626   5627
5628   5629   5630   5631
5632   5633   5634   5635
5636   5637   5638   5639
5640   5641   5642   5643
5644   5645   5646   5647
5648   5649   5650   5651
5652   5653   5654   5655
5656   5657   5658   5659
5660   5661   5662   5663
5664   5665   5666   5667
5668   5669   5670   5671
5672   5673   5674   5675
5676   5677   5678   5679
5680   5681   5682   5683
5684   5685   5686   5687
5688   5689   5690   5691
5692   5693   5694   5695
5696   5697   5698   5699
5700   5701   5702   5703
5704   5705   5706   5707
5708   5709   5710   5711
5712   5713   5714   5715
5716   5717   5718   5719
5720   5721   5722   5723
5724   5725   5726   5727
5728   5729   5730   5731
5732   5733   5734   5735
5736   5737   5738   5739
5740   5741   5742   5743
5744   5745   5746   5747
5748   5749   5750   5751
5752   5753   5754   5755
5756   5757   5758   5759
5760   5761   5762   5763
5764   5765   5766   5767
5768   5769   5770   5771
5772   5773   5774   5775
5776   5777   5778   5779
5780   5781   5782   5783
5784   5785   5786   5787
5788   5789   5790   5791
5792   5793   5794   5795
5796   5797   5798   5799
5800   5801   5802   5803
5804   5805   5806   5807
5808   5809   5810   5811
5812   5813   5814   5815
5816   5817   5818   5819
5820   5821   5822   5823
5824   5825   5826   5827
5828   5829   5830   5831
5832   5833   5834   5835
5836   5837   5838   5839
5840   5841   5842   5843
5844   5845   5846   5847
5848   5849   5850   5851
5852   5853   5854   5855
5856   5857   5858   5859
5860   5861   5862   5863
5864   5865   5866   5867
5868   5869   5870   5871
5872   5873   5874   5875
5876   5877   5878   5879
5880   5881   5882   5883
5884   5885   5886   5887
5888   5889   5890   5891
5892   5893   5894   5895
5896   5897   5898   5899
5900   5901   5902   5903
5904   5905   5906   5907
5908   5909   5910   5911
5912   5913   5914   5915
5916   5917   5918   5919
5920   5921   5922   5923
5924   5925   5926   5927
5928   5929   5930   5931
5932   5933   5934   5935
5936   5937   5938   5939
5940   5941   5942   5943
5944   5945   5946   5947
5948   5949   5950   5951
5952   5953   5954   5955
5956   5957   5958   5959
5960   5961   5962   5963
5964   5965   5966   5967
5968   5969   5970   5971
5972   5973   5974   5975
5976   5977   5978   5979
5980   5981   5982   5983
5984   5985   5986   5987
5988   5989   5990   5991
5992   5993   5994   5995
5996   5997   5998   5999
              </DataArray>   
              <DataArray type="Int32" Name="offsets" format="ascii">   
4
8
12
16
20
24
28
32
36
40
44
48
52
56
60
64
68
72
76
80
84
88
92
96
100
104
108
112
116
120
124
128
132
136
140
144
148
152
156
160
164
168
172
176
180
184
188
192
196
200
204
208
212
216
220
224
228
232
236
240
244
248
252
256
260
264
268
272
276
280
284
288
292
296
300
304
308
312
316
320
324
328
332
336
340
344
348
352
356
360
364
368
372
376
380
384
388
392
396
400
404
408
412
416
420
424
428
432
436
440
444
448
452
456
460
464
468
472
476
480
484
488
492
496
500
504
508
512
516
520
524
528
532
536
540
544
548
552
556
560
564
568
572
576
580
584
588
592
596
600
604
608
612
616
620
624
628
632
636
640
644
648
652
656
660
664
668
672
676
680
684
688
692
696
700
704
708
712
716
720
724
728
732
736
740
744
748
752
756
760
764
768
772
776
780
784
788
792
796
800
804
808
812
816
820
824
828
832
836
840
844
848
852
856
860
864
868
872
876
880
884
888
892
896
900
904
908
912
916
920
924
928
932
936
940
944
948
952
956
960
964
968
972
976
980
984
988
992
996
1000
1004
1008
1012
1016
1020
1024
1028
1032
1036
1040
1044
1048
1052
1056
1060
1064
1068
1072
1076
1080
1084
1088
1092
1096
1100
1104
1108
1112
1116
1120
1124
1128
1132
1136
1140
1144
1148
1152
1156
1160
1164
1168
1172
1176
1180
1184
1188
1192
1196
1200
1204
1208
1212
1216
1220
1224
1228
1232
1236
1240
1244
1248
1252
1256
1260
1264
1268
1272
1276
1280
1284
1288
1292
1296
1300
1304
1308
1312
1316
1320
1324
1328
1332
1336
1340
1344
1348
1352
1356
1360
1364
1368
1372
1376
1380
1384
1388
1392
1396
1400
1404
1408
1412
1416
1420
1424
1428
1432
1436
1440
1444
1448
1452
1456
1460
1464
1468
1472
1476
1480
1484
1488
1492
1496
1500
1504
1508
1512
1516
1520
1524
1528
1532
1536
1540
1544
1548
1552
1556
1560
1564
1568
1572
1576
1580
1584
1588
1592
1596
1600
1604
1608
1612
1616
1620
1624
1628
1632
1636
1640
1644
1648
1652
1656
1660
1664
1668
1672
1676
1680
1684
1688
1692
1696
1700
1704
1708
1712
1716
1720
1724
1728
1732
1736
1740
1744
1748
1752
1756
1760
1764
1768
1772
1776
1780
1784
1788
1792
1796
1800
1804
1808
1812
1816
1820
1824
1828
1832
1836
1840
1844
1848
1852
1856
1860
1864
1868
1872
1876
1880
1884
1888
1892
1896
1900
1904
1908
1912
1916
1920
1924
1928
1932
1936
1940
1944
1948
1952
1956
1960
1964
1968
1972
1976
1980
1984
1988
1992
1996
2000
2004
2008
2012
2016
2020
2024
2028
2032
2036
2040
2044
2048
2052
2056
2060
2064
2068
2072
2076
2080
2084
2088
2092
2096
2100
2104
2108
2112
2116
2120
2124
2128
2132
2136
2140
2144
2148
2152
2156
2160
2164
2168
2172
2176
2180
2184
2188
2192
2196
2200
2204
2208
2212
2216
2220
2224
2228
2232
2236
2240
2244
2248
2252
2256
2260
2264
2268
2272
2276
2280
2284
2288
2292
2296
2300
2304
2308
2312
2316
2320
2324
2328
2332
2336
2340
2344
2348
2352
2356
2360
2364
2368
2372
2376
2380
2384
2388
2392
2396
2400
2404
2408
2412
2416
2420
2424
2428
2432
2436
2440
2444
2448
2452
2456
2460
2464
2468
2472
2476
2480
2484
2488
2492
2496
2500
2504
2508
2512
2516
2520
2524
2528
2532
2536
2540
2544
2548
2552
2556
2560
2564
2568
2572
2576
2580
2584
2588
2592
2596
2600
2604
2608
2612
2616
2620
2624
2628
2632
2636
2640
2644
2648
2652
2656
2660
2664
2668
2672
2676
2680
2684
2688
2692
2696
2700
2704
2708
2712
2716
2720
2724
2728
2732
2736
2740
2744
2748
2752
2756
2760
2764
2768
2772
2776
2780
2784
2788
2792
2796
2800
2804
2808
2812
2816
2820
2824
2828
2832
2836
2840
2844
2848
2852
2856
2860
2864
2868
2872
2876
2880
2884
2888
2892
2896
2900
2904
2908
2912
2916
2920
2924
2928
2932
2936
2940
2944
2948
2952
2956
2960
2964
2968
2972
2976
2980
2984
2988
2992
2996
3000
3004
3008
3012
3016
3020
3024
3028
3032
3036
3040
3044
3048
3052
3056
3060
3064
3068
3072
3076
3080
3084
3088
3092
3096
3100
3104
3108
3112
3116
3120
3124
3128
3132
3136
3140
3144
3148
3152
3156
3160
3164
3168
3172
3176
3180
3184
3188
3192
3196
3200
3204
3208
3212
3216
3220
3224
3228
3232
3236
3240
3244
3248
3252
3256
3260
3264
3268
3272
3276
3280
3284
3288
3292
3296
3300
3304
3308
3312
3316
3320
3324
3328
3332
3336
3340
3344
3348
3352
3356
3360
3364
3368
3372
3376
3380
3384
3388
3392
3396
3400
3404
3408
3412
3416
3420
3424
3428
3432
3436
3440
3444
3448
3452
3456
3460
3464
3468
3472
3476
3480
3484
3488
3492
3496
3500
3504
3508
3512
3516
3520
3524
3528
3532
3536
3540
3544
3548
3552
3556
3560
3564
3568
3572
3576
3580
3584
3588
3592
3596
3600
3604
3608
3612
3616
3620
3624
3628
3632
3636
3640
3644
3648
3652
3656
3660
3664
3668
3672
3676
3680
3684
3688
3692
3696
3700
3704
3708
3712
3716
3720
3724
3728
3732
3736
3740
3744
3748
3752
3756
3760
3764
3768
3772
3776
3780
3784
3788
3792
3796
3800
3804
3808
3812
3816
3820
3824
3828
3832
3836
3840
3844
3848
3852
3856
3860
3864
3868
3872
3876
3880
3884
3888
3892
3896
3900
3904
3908
3912
3916
3920
3924
3928
3932
3936
3940
3944
3948
3952
3956
3960
3964
3968
3972
3976
3980
3984
3988
3992
3996
4000
4004
4008
4012
4016
4020
4024
4028
4032
4036
4040
4044
4048
4052
4056
4060
4064
4068
4072
4076
4080
4084
4088
4092
4096
4100
4104
4108
4112
4116
4120
4124
4128
4132
4136
4140
4144
4148
4152
4156
4160
4164
4168
4172
4176
4180
4184
4188
4192
4196
4200
4204
4208
4212
4216
4220
4224
4228
4232
4236
4240
4244
4248
4252
4256
4260
4264
4268
4272
4276
4280
4284
4288
4292
4296
4300
4304
4308
4312
4316
4320
4324
4328
4332
4336
4340
4344
4348
4352
4356
4360
4364
4368
4372
4376
4380
4384
4388
4392
4396
4400
4404
4408
4412
4416
4420
4424
4428
4432
4436
4440
4444
4448
4452
4456
4460
4464
4468
4472
4476
4480
4484
4488
4492
4496
4500
4504
4508
4512
4516
4520
4524
4528
4532
4536
4540
4544
4548
4552
4556
4560
4564
4568
4572
4576
4580
4584
4588
4592
4596
4600
4604
4608
4612
4616
4620
4624
4628
4632
4636
4640
4644
4648
4652
4656
4660
4664
4668
4672
4676
4680
4684
4688
4692
4696
4700
4704
4708
4712
4716
4720
4724
4728
4732
4736
4740
4744
4748
4752
4756
4760
4764
4768
4772
4776
4780
4784
4788
4792
4796
4800
4804
4808
4812
4816
4820
4824
4828
4832
4836
4840
4844
4848
4852
4856
4860
4864
4868
4872
4876
4880
4884
4888
4892
4896
4900
4904
4908
4912
4916
4920
4924
4928
4932
4936
4940
4944
4948
4952
4956
4960
4964
4968
4972
4976
4980
4984
4988
4992
4996
5000
5004
5008
5012
5016
5020
5024
5028
5032
5036
5040
5044
5048
5052
5056
5060
5064
5068
5072
5076
5080
5084
5088
5092
5096
5100
5104
5108
5112
5116
5120
5124
5128
5132
5136
5140
5144
5148
5152
5156
5160
5164
5168
5172
5176
5180
5184
5188
5192
5196
5200
5204
5208
5212
5216
5220
5224
5228
5232
5236
5240
5244
5248
5252
5256
5260
5264
5268
5272
5276
5280
5284
5288
5292
5296
5300
5304
5308
5312
5316
5320
5324
5328
5332
5336
5340
5344
5348
5352
5356
5360
5364
5368
5372
5376
5380
5384
5388
5392
5396
5400
5404
5408
5412
5416
5420
5424
5428
5432
5436
5440
5444
5448
5452
5456
5460
5464
5468
5472
5476
5480
5484
5488
5492
5496
5500
5504
5508
5512
5516
5520
5524
5528
5532
5536
5540
5544
5548
5552
5556
5560
5564
5568
5572
5576
5580
5584
5588
5592
5596
5600
5604
5608
5612
5616
5620
5624
5628
5632
5636
5640
5644
5648
5652
5656
5660
5664
5668
5672
5676
5680
5684
5688
5692
5696
5700
5704
5708
5712
5716
5720
5724
5728
5732
5736
5740
5744
5748
5752
5756
5760
5764
5768
5772
5776
5780
5784
5788
5792
5796
5800
5804
5808
5812
5816
5820
5824
5828
5832
5836
5840
5844
5848
5852
5856
5860
5864
5868
5872
5876
5880
5884
5888
5892
5896
5900
5904
5908
5912
5916
5920
5924
5928
5932
5936
5940
5944
5948
5952
5956
5960
5964
5968
5972
5976
5980
5984
5988
5992
5996
6000
              </DataArray>   
              <DataArray type="UInt8" Name="types" format="ascii">   
10
10
10
10
10
10
10
10
10
10
10
10
10
10
10
10
10
10
10
10
10
10
10
10
10
10
10
10
10
10
10
10
10
10
10
10
10
10
10
10
10
10
10
10
10
10
10
10
10
10
10
10
10
10
10
10
10
10
10
10
10
10
10
10
10
10
10
10
10
10
10
10
10
10
10
10
10
10
10
10
10
10
10
10
10
10
10
10
10
10
10
10
10
10
10
10
10
10
10
10
10
10
10
10
10
10
10
10
10
10
10
10
10
10
10
10
10
10
10
10
10
10
10
10
10
10
10
10
10
10
10
10
10
10
10
10
10
10
10
10
10
10
10
10
10
10
10
10
10
10
10
10
10
10
10
10
10
10
10
10
10
10
10
10
10
10
10
10
10
10
10
10
10
10
10
10
10
10
10
10
10
10
10
10
10
10
10
10
10
10
10
10
10
10
10
10
10
10
10
10
10
10
10
10
10
10
10
10
10
10
10
10
10
10
10
10
10
10
10
10
10
10
10
10
10
10
10
10
10
10
10
10
10
10
10
10
10
10
10
10
10
10
10
10
10
10
10
10
10
10
10
10
10
10
10
10
10
10
10
10
10
10
10
10
10
10
10
10
10
10
10
10
10
10
10
10
10
10
10
10
10
10
10
10
10
10
10
10
10
10
10
10
10
10
10
10
10
10
10
10
10
10
10
10
10
10
10
10
10
10
10
10
10
10
10
10
10
10
10
10
10
10
10
10
10
10
10
10
10
10
10
10
10
10
10
10
10
10
10
10
10
10
10
10
10
10
10
10
10
10
10
10
10
10
10
10
10
10
10
10
10
10
10
10
10
10
10
10
10
10
10
10
10
10
10
10
10
10
10
10
10
10
10
10
10
10
10
10
10
10
10
10
10
10
10
10
10
10
10
10
10
10
10
10
10
10
10
10
10
10
10
10
10
10
10
10
10
10
10
10
10
10
10
10
10
10
10
10
10
10
10
10
10
10
10
10
10
10
10
10
10
10
10
10
10
10
10
10
10
10
10
10
10
10
10
10
10
10
10
10
10
10
10
10
10
10
10
10
10
10
10
10
10
10
10
10
10
10
10
10
10
10
10
10
10
10
10
10
10
10
10
10
10
10
10
10
10
10
10
10
10
10
10
10
10
10
10
10
10
10
10
10
10
10
10
10
10
10
10
10
10
10
10
10
10
10
10
10
10
10
10
10
10
10
10
10
10
10
10
10
10
10
10
10
10
10
10
10
10
10
10
10
10
10
10
10
10
10
10
10
10
10
10
10
10
10
10
10
10
10
10
10
10
10
10
10
10
10
10
10
10
10
10
10
10
10
10
10
10
10
10
10
10
10
10
10
10
10
10
10
10
10
10
10
10
10
10
10
10
10
10
10
10
10
10
10
10
10
10
10
10
10
10
10
10
10
10
10
10
10
10
10
10
10
10
10
10
10
10
10
10
10
10
10
10
10
10
10
10
10
10
10
10
10
10
10
10
10
10
10
10
10
10
10
10
10
10
10
10
10
10
10
10
10
10
10
10
10
10
10
10
10
10
10
10
10
10
10
10
10
10
10
10
10
10
10
10
10
10
10
10
10
10
10
10
10
10
10
10
10
10
10
10
10
10
10
10
10
10
10
10
10
10
10
10
10
10
10
10
10
10
10
10
10
10
10
10
10
10
10
10
10
10
10
10
10
10
10
10
10
10
10
10
10
10
10
10
10
10
10
10
10
10
10
10
10
10
10
10
10
10
10
10
10
10
10
10
10
10
10
10
10
10
10
10
10
10
10
10
10
10
10
10
10
10
10
10
10
10
10
10
10
10
10
10
10
10
10
10
10
10
10
10
10
10
10
10
10
10
10
10
10
10
10
10
10
10
10
10
10
10
10
10
10
10
10
10
10
10
10
10
10
10
10
10
10
10
10
10
10
10
10
10
10
10
10
10
10
10
10
10
10
10
10
10
10
10
10
10
10
10
10
10
10
10
10
10
10
10
10
10
10
10
10
10
10
10
10
10
10
10
10
10
10
10
10
10
10
10
10
10
10
10
10
10
10
10
10
10
10
10
10
10
10
10
10
10
10
10
10
10
10
10
10
10
10
10
10
10
10
10
10
10
10
10
10
10
10
10
10
10
10
10
10
10
10
10
10
10
10
10
10
10
10
10
10
10
10
10
10
10
10
10
10
10
10
10
10
10
10
10
10
10
10
10
10
10
10
10
10
10
10
10
10
10
10
10
10
10
10
10
10
10
10
10
10
10
10
10
10
10
10
10
10
10
10
10
10
10
10
10
10
10
10
10
10
10
10
10
10
10
10
10
10
10
10
10
10
10
10
10
10
10
10
10
10
10
10
10
10
10
10
10
10
10
10
10
10
10
10
10
10
10
10
10
10
10
10
10
10
10
10
10
10
10
10
10
10
10
10
10
10
10
10
10
10
10
10
10
10
10
10
10
10
10
10
10
10
10
10
10
10
10
10
10
10
10
10
10
10
10
10
10
10
10
10
10
10
10
10
10
10
10
10
10
10
10
10
10
10
10
10
10
10
10
10
10
10
10
10
10
10
10
10
10
10
10
10
10
10
10
10
10
10
10
10
10
10
10
10
10
10
10
10
10
10
10
10
10
10
10
10
10
10
10
10
10
10
10
10
10
10
10
10
10
10
10
10
10
10
10
10
10
10
10
10
10
10
10
10
10
10
10
10
10
10
10
10
10
10
10
10
10
10
10
10
10
10
10
10
10
10
10
10
10
10
10
10
10
10
10
10
10
10
10
10
10
10
10
10
10
10
10
10
10
10
10
10
10
10
10
10
10
10
10
10
10
10
10
10
10
10
10
10
10
10
10
10
10
10
10
10
10
10
10
10
10
10
10
10
10
10
10
10
10
10
10
10
10
10
10
10
10
10
10
10
10
10
10
10
10
10
10
10
10
10
10
10
10
10
10
10
10
10
10
10
10
10
10
10
10
10
10
10
10
10
10
10
10
10
10
10
10
10
10
10
10
10
10
10
10
10
10
10
10
10
10
10
10
10
10
10
10
10
10
10
10
10
10
10
10
10
10
10
10
10
10
10
10
10
10
10
10
10
10
10
10
10
10
10
10
10
10
10
10
10
10
10
10
10
10
10
10
10
10
10
10
10
10
10
10
10
10
10
10
10
10
10
10
10
10
10
10
10
10
10
10
10
10
10
10
10
10
10
10
10
10
10
10
10
10
10
10
10
10
10
10
10
10
10
10
10
10
10
10
10
10
10
10
10
10
10
10
10
10
10
10
10
10
10
10
10
10
10
10
10
10
10
10
10
10
10
10
10
10
10
10
10
10
10
10
10
10
10
10
10
10
10
10
10
10
10
10
10
10
10
10
10
10
10
10
10
10
10
10
10
10
10
10
10
              </DataArray>   
          </Cells>  
          <PointData>  
             <DataArray type="Float64" NumberOfComponents="3" Name="Strains" format="ascii">   
-8.811470777283087e-05   0.0   -5.784762011345741e-05
-8.811470777283087e-05   0.0   -5.784762011345741e-05
-8.811470777283087e-05   0.0   -5.784762011345741e-05
-8.811470777283087e-05   0.0   -5.784762011345741e-05
-5.6067336866103484e-05   9.759060494663978e-06   1.4201010278864926e-06
-5.6067336866103484e-05   9.759060494663978e-06   1.4201010278864926e-06
-5.6067336866103484e-05   9.759060494663978e-06   1.4201010278864926e-06
-5.6067336866103484e-05   9.759060494663978e-06   1.4201010278864926e-06
-5.495745030111299e-05   0.0   -5.4599083097146016e-05
-5.495745030111299e-05   0.0   -5.4599083097146016e-05
-5.495745030111299e-05   0.0   -5.4599083097146016e-05
-5.495745030111299e-05   0.0   -5.4599083097146016e-05
-9.221490587969525e-05   1.171249537274456e-05   4.691789768445872e-07
-9.221490587969525e-05   1.171249537274456e-05   4.691789768445872e-07
-9.221490587969525e-05   1.171249537274456e-05   4.691789768445872e-07
-9.221490587969525e-05   1.171249537274456e-05   4.691789768445872e-07
-7.15360790369718e-05   2.707114180259492e-06   -2.859230371220341e-05
-7.15360790369718e-05   2.707114180259492e-06   -2.859230371220341e-05
-7.15360790369718e-05   2.707114180259492e-06   -2.859230371220341e-05
-7.15360790369718e-05   2.707114180259492e-06   -2.859230371220341e-05
-9.22149058796954e-05   0.0   -6.162658032079276e-05
-9.22149058796954e-05   0.0   -6.162658032079276e-05
-9.22149058796954e-05   0.0   -6.162658032079276e-05
-9.22149058796954e-05   0.0   -6.162658032079276e-05
-5.495745030111299e-05   1.1712495372744587e-05   7.49667620049135e-06
-5.495745030111299e-05   1.1712495372744587e-05   7.49667620049135e-06
-5.495745030111299e-05   1.1712495372744587e-05   7.49667620049135e-06
-5.495745030111299e-05   1.1712495372744587e-05   7.49667620049135e-06
-5.5111298062355486e-05   0.0   -5.593516943382378e-05
-5.5111298062355486e-05   0.0   -5.593516943382378e-05
-5.5111298062355486e-05   0.0   -5.593516943382378e-05
-5.5111298062355486e-05   0.0   -5.593516943382378e-05
-9.509391057788189e-05   1.2548479668887105e-05   3.173430290721543e-06
-9.509391057788189e-05   1.2548479668887105e-05   3.173430290721543e-06
-9.509391057788189e-05   1.2548479668887105e-05   3.173430290721543e-06
-9.509391057788189e-05   1.2548479668887105e-05   3.173430290721543e-06
-7.366310197102532e-05   4.742842405807481e-06   -2.78612016961916e-05
-7.366310197102532e-05   4.742842405807481e-06   -2.78612016961916e-05
-7.366310197102532e-05   4.742842405807481e-06   -2.78612016961916e-05
-7.366310197102532e-05   4.742842405807481e-06   -2.78612016961916e-05
-9.509391057788205e-05   0.0   -6.346425723515606e-05
-9.509391057788205e-05   0.0   -6.346425723515606e-05
-9.509391057788205e-05   0.0   -6.346425723515606e-05
-9.509391057788205e-05   0.0   -6.346425723515606e-05
-5.511129806235539e-05   1.2548479668887105e-05   1.070251809205379e-05
-5.511129806235539e-05   1.2548479668887105e-05   1.070251809205379e-05
-5.511129806235539e-05   1.2548479668887105e-05   1.070251809205379e-05
-5.511129806235539e-05   1.2548479668887105e-05   1.070251809205379e-05
-5.5081043023661284e-05   0.0   -5.6278670412893445e-05
-5.5081043023661284e-05   0.0   -5.6278670412893445e-05
-5.5081043023661284e-05   0.0   -5.6278670412893445e-05
-5.5081043023661284e-05   0.0   -5.6278670412893445e-05
-0.000101297213126545   1.4296246229896214e-05   1.2170532020641965e-05
-0.000101297213126545   1.4296246229896214e-05   1.2170532020641965e-05
-0.000101297213126545   1.4296246229896214e-05   1.2170532020641965e-05
-0.000101297213126545   1.4296246229896214e-05   1.2170532020641965e-05
-7.508747680077153e-05   5.9879890185521705e-06   -2.652740752884071e-05
-7.508747680077153e-05   5.9879890185521705e-06   -2.652740752884071e-05
-7.508747680077153e-05   5.9879890185521705e-06   -2.652740752884071e-05
-7.508747680077153e-05   5.9879890185521705e-06   -2.652740752884071e-05
-5.606733686610358e-05   0.0   -5.199218381665902e-05
-5.606733686610358e-05   0.0   -5.199218381665902e-05
-5.606733686610358e-05   0.0   -5.199218381665902e-05
-5.606733686610358e-05   0.0   -5.199218381665902e-05
-2.553468900692002e-05   3.5787844187875733e-06   1.0428332665860966e-06
-2.553468900692002e-05   3.5787844187875733e-06   1.0428332665860966e-06
-2.553468900692002e-05   3.5787844187875733e-06   1.0428332665860966e-06
-2.553468900692002e-05   3.5787844187875733e-06   1.0428332665860966e-06
-2.455778962996646e-05   0.0   -5.1541568491516415e-05
-2.455778962996646e-05   0.0   -5.1541568491516415e-05
-2.455778962996646e-05   0.0   -5.1541568491516415e-05
-2.455778962996646e-05   0.0   -5.1541568491516415e-05
-5.495745030111299e-05   5.095857676049178e-06   -3.932981978568544e-06
-5.495745030111299e-05   5.095857676049178e-06   -3.932981978568544e-06
-5.495745030111299e-05   5.095857676049178e-06   -3.932981978568544e-06
-5.495745030111299e-05   5.095857676049178e-06   -3.932981978568544e-06
-4.0312563248034974e-05   3.755127709520917e-07   -2.5508920123973464e-05
-4.0312563248034974e-05   3.755127709520917e-07   -2.5508920123973464e-05
-4.0312563248034974e-05   3.755127709520917e-07   -2.5508920123973464e-05
-4.0312563248034974e-05   3.755127709520917e-07   -2.5508920123973464e-05
-5.4957450301112935e-05   0.0   -5.459908309714597e-05
-5.4957450301112935e-05   0.0   -5.459908309714597e-05
-5.4957450301112935e-05   0.0   -5.459908309714597e-05
-5.4957450301112935e-05   0.0   -5.459908309714597e-05
-2.455778962996646e-05   5.095857676049178e-06   -8.754673729390437e-07
-2.455778962996646e-05   5.095857676049178e-06   -8.754673729390437e-07
-2.455778962996646e-05   5.095857676049178e-06   -8.754673729390437e-07
-2.455778962996646e-05   5.095857676049178e-06   -8.754673729390437e-07
-2.4008666051393642e-05   0.0   -5.2188318065796244e-05
-2.4008666051393642e-05   0.0   -5.2188318065796244e-05
-2.4008666051393642e-05   0.0   -5.2188318065796244e-05
-2.4008666051393642e-05   0.0   -5.2188318065796244e-05
-5.5111298062355486e-05   6.244752280045742e-06   -4.097449415554113e-06
-5.5111298062355486e-05   6.244752280045742e-06   -4.097449415554113e-06
-5.5111298062355486e-05   6.244752280045742e-06   -4.097449415554113e-06
-5.5111298062355486e-05   6.244752280045742e-06   -4.097449415554113e-06
-3.9483058176253326e-05   2.0089708594580653e-06   -2.7603047040038382e-05
-3.9483058176253326e-05   2.0089708594580653e-06   -2.7603047040038382e-05
-3.9483058176253326e-05   2.0089708594580653e-06   -2.7603047040038382e-05
-3.9483058176253326e-05   2.0089708594580653e-06   -2.7603047040038382e-05
-5.5111298062355486e-05   0.0   -5.593516943382378e-05
-5.5111298062355486e-05   0.0   -5.593516943382378e-05
-5.5111298062355486e-05   0.0   -5.593516943382378e-05
-5.5111298062355486e-05   0.0   -5.593516943382378e-05
-2.4008666051393683e-05   6.244752280045742e-06   -3.5059804752667057e-07
-2.4008666051393683e-05   6.244752280045742e-06   -3.5059804752667057e-07
-2.4008666051393683e-05   6.244752280045742e-06   -3.5059804752667057e-07
-2.4008666051393683e-05   6.244752280045742e-06   -3.5059804752667057e-07
-2.3508457373623193e-05   0.0   -5.1918609024739805e-05
-2.3508457373623193e-05   0.0   -5.1918609024739805e-05
-2.3508457373623193e-05   0.0   -5.1918609024739805e-05
-2.3508457373623193e-05   0.0   -5.1918609024739805e-05
-5.508104302366114e-05   7.266768980255972e-06   -3.657694329496617e-06
-5.508104302366114e-05   7.266768980255972e-06   -3.657694329496617e-06
-5.508104302366114e-05   7.266768980255972e-06   -3.657694329496617e-06
-5.508104302366114e-05   7.266768980255972e-06   -3.657694329496617e-06
-3.9309877717989326e-05   3.3471336742366107e-06   -2.7591188655338212e-05
-3.9309877717989326e-05   3.3471336742366107e-06   -2.7591188655338212e-05
-3.9309877717989326e-05   3.3471336742366107e-06   -2.7591188655338212e-05
-3.9309877717989326e-05   3.3471336742366107e-06   -2.7591188655338212e-05
-2.5534689006920064e-05   0.0   -4.9844913165386466e-05
-2.5534689006920064e-05   0.0   -4.9844913165386466e-05
-2.5534689006920064e-05   0.0   -4.9844913165386466e-05
-2.5534689006920064e-05   0.0   -4.9844913165386466e-05
3.3119515204467935e-06   -4.5883749773854637e-07   -2.0424814517514496e-06
3.3119515204467935e-06   -4.5883749773854637e-07   -2.0424814517514496e-06
3.3119515204467935e-06   -4.5883749773854637e-07   -2.0424814517514496e-06
3.3119515204467935e-06   -4.5883749773854637e-07   -2.0424814517514496e-06
3.936034150391882e-06   0.0   -5.099942451446146e-05
3.936034150391882e-06   0.0   -5.099942451446146e-05
3.936034150391882e-06   0.0   -5.099942451446146e-05
3.936034150391882e-06   0.0   -5.099942451446146e-05
-2.455778962996646e-05   9.035732950914274e-07   -4.05186219091917e-06
-2.455778962996646e-05   9.035732950914274e-07   -4.05186219091917e-06
-2.455778962996646e-05   9.035732950914274e-07   -4.05186219091917e-06
-2.455778962996646e-05   9.035732950914274e-07   -4.05186219091917e-06
-1.0799327428264065e-05   -9.620927908959745e-07   -2.5863232875497355e-05
-1.0799327428264065e-05   -9.620927908959745e-07   -2.5863232875497355e-05
-1.0799327428264065e-05   -9.620927908959745e-07   -2.5863232875497355e-05
-1.0799327428264065e-05   -9.620927908959745e-07   -2.5863232875497355e-05
-2.4557789629966505e-05   0.0   -5.15415684915165e-05
-2.4557789629966505e-05   0.0   -5.15415684915165e-05
-2.4557789629966505e-05   0.0   -5.15415684915165e-05
-2.4557789629966505e-05   0.0   -5.15415684915165e-05
3.936034150391889e-06   9.035732950914274e-07   -3.5097182138643085e-06
3.936034150391889e-06   9.035732950914274e-07   -3.5097182138643085e-06
3.936034150391889e-06   9.035732950914274e-07   -3.5097182138643085e-06
3.936034150391889e-06   9.035732950914274e-07   -3.5097182138643085e-06
4.428750660909842e-06   0.0   -5.092637444947022e-05
4.428750660909842e-06   0.0   -5.092637444947022e-05
4.428750660909842e-06   0.0   -5.092637444947022e-05
4.428750660909842e-06   0.0   -5.092637444947022e-05
-2.4008666051393602e-05   2.1032393605433794e-06   -4.792623545290438e-06
-2.4008666051393602e-05   2.1032393605433794e-06   -4.792623545290438e-06
-2.4008666051393602e-05   2.1032393605433794e-06   -4.792623545290438e-06
-2.4008666051393602e-05   2.1032393605433794e-06   -4.792623545290438e-06
-1.006451948452831e-05   5.12661701705166e-07   -2.707852122809638e-05
-1.006451948452831e-05   5.12661701705166e-07   -2.707852122809638e-05
-1.006451948452831e-05   5.12661701705166e-07   -2.707852122809638e-05
-1.006451948452831e-05   5.12661701705166e-07   -2.707852122809638e-05
-2.4008666051393683e-05   0.0   -5.218831806579633e-05
-2.4008666051393683e-05   0.0   -5.218831806579633e-05
-2.4008666051393683e-05   0.0   -5.218831806579633e-05
-2.4008666051393683e-05   0.0   -5.218831806579633e-05
4.42875066090985e-06   2.1032393605433794e-06   -3.5306799289644224e-06
4.42875066090985e-06   2.1032393605433794e-06   -3.5306799289644224e-06
4.42875066090985e-06   2.1032393605433794e-06   -3.5306799289644224e-06
4.42875066090985e-06   2.1032393605433794e-06   -3.5306799289644224e-06
5.0913239947759324e-06   0.0   -4.982299471603526e-05
5.0913239947759324e-06   0.0   -4.982299471603526e-05
5.0913239947759324e-06   0.0   -4.982299471603526e-05
5.0913239947759324e-06   0.0   -4.982299471603526e-05
-2.3508457373623173e-05   3.492690514507498e-06   -4.252306744074591e-06
-2.3508457373623173e-05   3.492690514507498e-06   -4.252306744074591e-06
-2.3508457373623173e-05   3.492690514507498e-06   -4.252306744074591e-06
-2.3508457373623173e-05   3.492690514507498e-06   -4.252306744074591e-06
-9.458671028308855e-06   1.9711027914674886e-06   -2.6755664685774422e-05
-9.458671028308855e-06   1.9711027914674886e-06   -2.6755664685774422e-05
-9.458671028308855e-06   1.9711027914674886e-06   -2.6755664685774422e-05
-9.458671028308855e-06   1.9711027914674886e-06   -2.6755664685774422e-05
3.3119515204467994e-06   0.0   -5.01202156640296e-05
3.3119515204467994e-06   0.0   -5.01202156640296e-05
3.3119515204467994e-06   0.0   -5.01202156640296e-05
3.3119515204467994e-06   0.0   -5.01202156640296e-05
3.4625514903545326e-05   -4.061225247405635e-06   -3.676785073085368e-07
3.4625514903545326e-05   -4.061225247405635e-06   -3.676785073085368e-07
3.4625514903545326e-05   -4.061225247405635e-06   -3.676785073085368e-07
3.4625514903545326e-05   -4.061225247405635e-06   -3.676785073085368e-07
3.468799026798565e-05   0.0   -5.283620722424422e-05
3.468799026798565e-05   0.0   -5.283620722424422e-05
3.468799026798565e-05   0.0   -5.283620722424422e-05
3.468799026798565e-05   0.0   -5.283620722424422e-05
3.936034150391889e-06   -3.061304516304293e-06   2.538356815279414e-07
3.936034150391889e-06   -3.061304516304293e-06   2.538356815279414e-07
3.936034150391889e-06   -3.061304516304293e-06   2.538356815279414e-07
3.936034150391889e-06   -3.061304516304293e-06   2.538356815279414e-07
1.8999970894216225e-05   -2.2633263001788545e-06   -2.5331512487854514e-05
1.8999970894216225e-05   -2.2633263001788545e-06   -2.5331512487854514e-05
1.8999970894216225e-05   -2.2633263001788545e-06   -2.5331512487854514e-05
1.8999970894216225e-05   -2.2633263001788545e-06   -2.5331512487854514e-05
3.9360341503918956e-06   0.0   -5.099942451446164e-05
3.9360341503918956e-06   0.0   -5.099942451446164e-05
3.9360341503918956e-06   0.0   -5.099942451446164e-05
3.9360341503918956e-06   0.0   -5.099942451446164e-05
3.468799026798559e-05   -3.061304516304293e-06   -1.5829470282546372e-06
3.468799026798559e-05   -3.061304516304293e-06   -1.5829470282546372e-06
3.468799026798559e-05   -3.061304516304293e-06   -1.5829470282546372e-06
3.468799026798559e-05   -3.061304516304293e-06   -1.5829470282546372e-06
3.4540206869979546e-05   0.0   -5.2081732620492455e-05
3.4540206869979546e-05   0.0   -5.2081732620492455e-05
3.4540206869979546e-05   0.0   -5.2081732620492455e-05
3.4540206869979546e-05   0.0   -5.2081732620492455e-05
4.42875066090985e-06   -1.925596951703583e-06   -7.406141010208205e-07
4.42875066090985e-06   -1.925596951703583e-06   -7.406141010208205e-07
4.42875066090985e-06   -1.925596951703583e-06   -7.406141010208205e-07
4.42875066090985e-06   -1.925596951703583e-06   -7.406141010208205e-07
1.923812051018572e-05   -9.019234216923393e-07   -2.6037101301153987e-05
1.923812051018572e-05   -9.019234216923393e-07   -2.6037101301153987e-05
1.923812051018572e-05   -9.019234216923393e-07   -2.6037101301153987e-05
1.923812051018572e-05   -9.019234216923393e-07   -2.6037101301153987e-05
4.42875066090985e-06   0.0   -5.0926374449470305e-05
4.42875066090985e-06   0.0   -5.0926374449470305e-05
4.42875066090985e-06   0.0   -5.0926374449470305e-05
4.42875066090985e-06   0.0   -5.0926374449470305e-05
3.4540206869979485e-05   -1.9255969517035696e-06   -1.895972272042961e-06
3.4540206869979485e-05   -1.9255969517035696e-06   -1.895972272042961e-06
3.4540206869979485e-05   -1.9255969517035696e-06   -1.895972272042961e-06
3.4540206869979485e-05   -1.9255969517035696e-06   -1.895972272042961e-06
3.5209896445077696e-05   0.0   -5.006269898400149e-05
3.5209896445077696e-05   0.0   -5.006269898400149e-05
3.5209896445077696e-05   0.0   -5.006269898400149e-05
3.5209896445077696e-05   0.0   -5.006269898400149e-05
5.091323994775941e-06   -3.9950711327690186e-07   3.746260344675723e-07
5.091323994775941e-06   -3.9950711327690186e-07   3.746260344675723e-07
5.091323994775941e-06   -3.9950711327690186e-07   3.746260344675723e-07
5.091323994775941e-06   -3.9950711327690186e-07   3.746260344675723e-07
1.9819323552993772e-05   7.19729554557348e-07   -2.4843581896596005e-05
1.9819323552993772e-05   7.19729554557348e-07   -2.4843581896596005e-05
1.9819323552993772e-05   7.19729554557348e-07   -2.4843581896596005e-05
1.9819323552993772e-05   7.19729554557348e-07   -2.4843581896596005e-05
3.462551490354544e-05   0.0   -5.255695081247298e-05
3.462551490354544e-05   0.0   -5.255695081247298e-05
3.462551490354544e-05   0.0   -5.255695081247298e-05
3.462551490354544e-05   0.0   -5.255695081247298e-05
7.817683139686427e-05   -1.0295796335177672e-05   1.3851098875285374e-05
7.817683139686427e-05   -1.0295796335177672e-05   1.3851098875285374e-05
7.817683139686427e-05   -1.0295796335177672e-05   1.3851098875285374e-05
7.817683139686427e-05   -1.0295796335177672e-05   1.3851098875285374e-05
7.342183676005605e-05   0.0   -5.8091970913347926e-05
7.342183676005605e-05   0.0   -5.8091970913347926e-05
7.342183676005605e-05   0.0   -5.8091970913347926e-05
7.342183676005605e-05   0.0   -5.8091970913347926e-05
3.468799026798559e-05   -8.75960614850616e-06   1.1720203595873087e-05
3.468799026798559e-05   -8.75960614850616e-06   1.1720203595873087e-05
3.468799026798559e-05   -8.75960614850616e-06   1.1720203595873087e-05
3.468799026798559e-05   -8.75960614850616e-06   1.1720203595873087e-05
5.402367583180074e-05   -4.6125167507291305e-06   -2.2994192649151593e-05
5.402367583180074e-05   -4.6125167507291305e-06   -2.2994192649151593e-05
5.402367583180074e-05   -4.6125167507291305e-06   -2.2994192649151593e-05
5.402367583180074e-05   -4.6125167507291305e-06   -2.2994192649151593e-05
3.468799026798562e-05   0.0   -5.283620722424417e-05
3.468799026798562e-05   0.0   -5.283620722424417e-05
3.468799026798562e-05   0.0   -5.283620722424417e-05
3.468799026798562e-05   0.0   -5.283620722424417e-05
7.342183676005605e-05   -8.759606148506173e-06   6.464439906769375e-06
7.342183676005605e-05   -8.759606148506173e-06   6.464439906769375e-06
7.342183676005605e-05   -8.759606148506173e-06   6.464439906769375e-06
7.342183676005605e-05   -8.759606148506173e-06   6.464439906769375e-06
7.122947103041052e-05   0.0   -5.688421559955981e-05
7.122947103041052e-05   0.0   -5.688421559955981e-05
7.122947103041052e-05   0.0   -5.688421559955981e-05
7.122947103041052e-05   0.0   -5.688421559955981e-05
3.4540206869979485e-05   -8.004138298445585e-06   9.067040980225825e-06
3.4540206869979485e-05   -8.004138298445585e-06   9.067040980225825e-06
3.4540206869979485e-05   -8.004138298445585e-06   9.067040980225825e-06
3.4540206869979485e-05   -8.004138298445585e-06   9.067040980225825e-06
5.295873064919806e-05   -3.373340312762992e-06   -2.4408977443214577e-05
5.295873064919806e-05   -3.373340312762992e-06   -2.4408977443214577e-05
5.295873064919806e-05   -3.373340312762992e-06   -2.4408977443214577e-05
5.295873064919806e-05   -3.373340312762992e-06   -2.4408977443214577e-05
3.4540206869979546e-05   0.0   -5.2081732620492455e-05
3.4540206869979546e-05   0.0   -5.2081732620492455e-05
3.4540206869979546e-05   0.0   -5.2081732620492455e-05
3.4540206869979546e-05   0.0   -5.2081732620492455e-05
7.12294710304104e-05   -8.004138298445585e-06   4.264558001158475e-06
7.12294710304104e-05   -8.004138298445585e-06   4.264558001158475e-06
7.12294710304104e-05   -8.004138298445585e-06   4.264558001158475e-06
7.12294710304104e-05   -8.004138298445585e-06   4.264558001158475e-06
6.79651097890158e-05   0.0   -5.379496724956168e-05
6.79651097890158e-05   0.0   -5.379496724956168e-05
6.79651097890158e-05   0.0   -5.379496724956168e-05
6.79651097890158e-05   0.0   -5.379496724956168e-05
3.520989644507761e-05   -6.220447109266973e-06   4.529323255895376e-06
3.520989644507761e-05   -6.220447109266973e-06   4.529323255895376e-06
3.520989644507761e-05   -6.220447109266973e-06   4.529323255895376e-06
3.520989644507761e-05   -6.220447109266973e-06   4.529323255895376e-06
5.125265832949758e-05   -1.427695524224347e-06   -2.508426416916346e-05
5.125265832949758e-05   -1.427695524224347e-06   -2.508426416916346e-05
5.125265832949758e-05   -1.427695524224347e-06   -2.508426416916346e-05
5.125265832949758e-05   -1.427695524224347e-06   -2.508426416916346e-05
-7.643886827158536e-05   9.759060494663962e-06   -5.0165597483220104e-05
-7.643886827158536e-05   9.759060494663962e-06   -5.0165597483220104e-05
-7.643886827158536e-05   9.759060494663962e-06   -5.0165597483220104e-05
-7.643886827158536e-05   9.759060494663962e-06   -5.0165597483220104e-05
-4.895965501675862e-05   8.775358717541656e-06   -4.95712979144891e-06
-4.895965501675862e-05   8.775358717541656e-06   -4.95712979144891e-06
-4.895965501675862e-05   8.775358717541656e-06   -4.95712979144891e-06
-4.895965501675862e-05   8.775358717541656e-06   -4.95712979144891e-06
-5.019106276975347e-05   1.171249537274456e-05   -4.213216676480548e-05
-5.019106276975347e-05   1.171249537274456e-05   -4.213216676480548e-05
-5.019106276975347e-05   1.171249537274456e-05   -4.213216676480548e-05
-5.019106276975347e-05   1.171249537274456e-05   -4.213216676480548e-05
-7.726540999114818e-05   1.0533150461825035e-05   3.699352217404134e-06
-7.726540999114818e-05   1.0533150461825035e-05   3.699352217404134e-06
-7.726540999114818e-05   1.0533150461825035e-05   3.699352217404134e-06
-7.726540999114818e-05   1.0533150461825035e-05   3.699352217404134e-06
-6.0709923184741954e-05   1.0194074821473227e-05   -2.3689680409062097e-05
-6.0709923184741954e-05   1.0194074821473227e-05   -2.3689680409062097e-05
-6.0709923184741954e-05   1.0194074821473227e-05   -2.3689680409062097e-05
-6.0709923184741954e-05   1.0194074821473227e-05   -2.3689680409062097e-05
-7.726540999114818e-05   1.1712495372744556e-05   -4.1424559818253794e-05
-7.726540999114818e-05   1.1712495372744556e-05   -4.1424559818253794e-05
-7.726540999114818e-05   1.1712495372744556e-05   -4.1424559818253794e-05
-7.726540999114818e-05   1.1712495372744556e-05   -4.1424559818253794e-05
-5.0191062769753636e-05   1.053315046182509e-05   2.9917452708524766e-06
-5.0191062769753636e-05   1.053315046182509e-05   2.9917452708524766e-06
-5.0191062769753636e-05   1.053315046182509e-05   2.9917452708524766e-06
-5.0191062769753636e-05   1.053315046182509e-05   2.9917452708524766e-06
-5.044858051922938e-05   1.2548479668887078e-05   -3.788004981318871e-05
-5.044858051922938e-05   1.2548479668887078e-05   -3.788004981318871e-05
-5.044858051922938e-05   1.2548479668887078e-05   -3.788004981318871e-05
-5.044858051922938e-05   1.2548479668887078e-05   -3.788004981318871e-05
-7.78083854876425e-05   1.1326518162862911e-05   8.452802037780855e-06
-7.78083854876425e-05   1.1326518162862911e-05   8.452802037780855e-06
-7.78083854876425e-05   1.1326518162862911e-05   8.452802037780855e-06
-7.78083854876425e-05   1.1326518162862911e-05   8.452802037780855e-06
-6.249441678671684e-05   1.1299305668169935e-05   -1.7054151633612747e-05
-6.249441678671684e-05   1.1299305668169935e-05   -1.7054151633612747e-05
-6.249441678671684e-05   1.1299305668169935e-05   -1.7054151633612747e-05
-6.249441678671684e-05   1.1299305668169935e-05   -1.7054151633612747e-05
-7.780838548764237e-05   1.254847966888708e-05   -3.71468729095742e-05
-7.780838548764237e-05   1.254847966888708e-05   -3.71468729095742e-05
-7.780838548764237e-05   1.254847966888708e-05   -3.71468729095742e-05
-7.780838548764237e-05   1.254847966888708e-05   -3.71468729095742e-05
-5.044858051922948e-05   1.1326518162862857e-05   7.719625134166178e-06
-5.044858051922948e-05   1.1326518162862857e-05   7.719625134166178e-06
-5.044858051922948e-05   1.1326518162862857e-05   7.719625134166178e-06
-5.044858051922948e-05   1.1326518162862857e-05   7.719625134166178e-06
-5.016148937801256e-05   1.4296246229896187e-05   -2.799142202909835e-05
-5.016148937801256e-05   1.4296246229896187e-05   -2.799142202909835e-05
-5.016148937801256e-05   1.4296246229896187e-05   -2.799142202909835e-05
-5.016148937801256e-05   1.4296246229896187e-05   -2.799142202909835e-05
-7.564960996353219e-05   1.1957770415403125e-05   1.5891864435463234e-05
-7.564960996353219e-05   1.1957770415403125e-05   1.5891864435463234e-05
-7.564960996353219e-05   1.1957770415403125e-05   1.5891864435463234e-05
-7.564960996353219e-05   1.1957770415403125e-05   1.5891864435463234e-05
-6.086815863914891e-05   1.239418647845856e-05   -9.005737409675422e-06
-6.086815863914891e-05   1.239418647845856e-05   -9.005737409675422e-06
-6.086815863914891e-05   1.239418647845856e-05   -9.005737409675422e-06
-6.086815863914891e-05   1.239418647845856e-05   -9.005737409675422e-06
-4.895965501675862e-05   3.5787844187875716e-06   -5.328035696206643e-05
-4.895965501675862e-05   3.5787844187875716e-06   -5.328035696206643e-05
-4.895965501675862e-05   3.5787844187875716e-06   -5.328035696206643e-05
-4.895965501675862e-05   3.5787844187875716e-06   -5.328035696206643e-05
-2.3201972640585037e-05   4.083334583971526e-06   -1.0048156236000028e-05
-2.3201972640585037e-05   4.083334583971526e-06   -1.0048156236000028e-05
-2.3201972640585037e-05   4.083334583971526e-06   -1.0048156236000028e-05
-2.3201972640585037e-05   4.083334583971526e-06   -1.0048156236000028e-05
-2.37558456009726e-05   5.095857676049178e-06   -5.319950683435341e-05
-2.37558456009726e-05   5.095857676049178e-06   -5.319950683435341e-05
-2.37558456009726e-05   5.095857676049178e-06   -5.319950683435341e-05
-2.37558456009726e-05   5.095857676049178e-06   -5.319950683435341e-05
-5.0191062769753473e-05   5.699721191902653e-06   -9.503129662563815e-06
-5.0191062769753473e-05   5.699721191902653e-06   -9.503129662563815e-06
-5.0191062769753473e-05   5.699721191902653e-06   -9.503129662563815e-06
-5.0191062769753473e-05   5.699721191902653e-06   -9.503129662563815e-06
-3.642424390288417e-05   4.589400581675218e-06   -3.1781635407876366e-05
-3.642424390288417e-05   4.589400581675218e-06   -3.1781635407876366e-05
-3.642424390288417e-05   4.589400581675218e-06   -3.1781635407876366e-05
-3.642424390288417e-05   4.589400581675218e-06   -3.1781635407876366e-05
-5.019106276975343e-05   5.095857676049166e-06   -5.356182494386529e-05
-5.019106276975343e-05   5.095857676049166e-06   -5.356182494386529e-05
-5.019106276975343e-05   5.095857676049166e-06   -5.356182494386529e-05
-5.019106276975343e-05   5.095857676049166e-06   -5.356182494386529e-05
-2.375584560097256e-05   5.699721191902653e-06   -9.14081155305166e-06
-2.375584560097256e-05   5.699721191902653e-06   -9.14081155305166e-06
-2.375584560097256e-05   5.699721191902653e-06   -9.14081155305166e-06
-2.375584560097256e-05   5.699721191902653e-06   -9.14081155305166e-06
-2.3929811246649488e-05   6.244752280045742e-06   -5.22042264799297e-05
-2.3929811246649488e-05   6.244752280045742e-06   -5.22042264799297e-05
-2.3929811246649488e-05   6.244752280045742e-06   -5.22042264799297e-05
-2.3929811246649488e-05   6.244752280045742e-06   -5.22042264799297e-05
-5.044858051922938e-05   7.03773701482411e-06   -8.482068533163361e-06
-5.044858051922938e-05   7.03773701482411e-06   -8.482068533163361e-06
-5.044858051922938e-05   7.03773701482411e-06   -8.482068533163361e-06
-5.044858051922938e-05   7.03773701482411e-06   -8.482068533163361e-06
-3.670895133829384e-05   5.825287948250468e-06   -3.065398106144509e-05
-3.670895133829384e-05   5.825287948250468e-06   -3.065398106144509e-05
-3.670895133829384e-05   5.825287948250468e-06   -3.065398106144509e-05
-3.670895133829384e-05   5.825287948250468e-06   -3.065398106144509e-05
-5.044858051922938e-05   6.244752280045728e-06   -5.268001732079661e-05
-5.044858051922938e-05   6.244752280045728e-06   -5.268001732079661e-05
-5.044858051922938e-05   6.244752280045728e-06   -5.268001732079661e-05
-5.044858051922938e-05   6.244752280045728e-06   -5.268001732079661e-05
-2.392981124664953e-05   7.03773701482411e-06   -8.006277692296452e-06
-2.392981124664953e-05   7.03773701482411e-06   -8.006277692296452e-06
-2.392981124664953e-05   7.03773701482411e-06   -8.006277692296452e-06
-2.392981124664953e-05   7.03773701482411e-06   -8.006277692296452e-06
-2.387136587574567e-05   7.266768980255972e-06   -5.167098503315091e-05
-2.387136587574567e-05   7.266768980255972e-06   -5.167098503315091e-05
-2.387136587574567e-05   7.266768980255972e-06   -5.167098503315091e-05
-2.387136587574567e-05   7.266768980255972e-06   -5.167098503315091e-05
-5.0161489378012516e-05   8.477454120295628e-06   -8.580523613396486e-06
-5.0161489378012516e-05   8.477454120295628e-06   -8.580523613396486e-06
-5.0161489378012516e-05   8.477454120295628e-06   -8.580523613396486e-06
-5.0161489378012516e-05   8.477454120295628e-06   -8.580523613396486e-06
-3.692499637794941e-05   6.9439074822497235e-06   -2.9721217297340924e-05
-3.692499637794941e-05   6.9439074822497235e-06   -2.9721217297340924e-05
-3.692499637794941e-05   6.9439074822497235e-06   -2.9721217297340924e-05
-3.692499637794941e-05   6.9439074822497235e-06   -2.9721217297340924e-05
-2.3201972640584993e-05   -4.5883749773854817e-07   -5.5787639082650494e-05
-2.3201972640584993e-05   -4.5883749773854817e-07   -5.5787639082650494e-05
-2.3201972640584993e-05   -4.5883749773854817e-07   -5.5787639082650494e-05
-2.3201972640584993e-05   -4.5883749773854817e-07   -5.5787639082650494e-05
2.2307147609551693e-06   -1.2183230463168977e-07   -1.3197623630886124e-05
2.2307147609551693e-06   -1.2183230463168977e-07   -1.3197623630886124e-05
2.2307147609551693e-06   -1.2183230463168977e-07   -1.3197623630886124e-05
2.2307147609551693e-06   -1.2183230463168977e-07   -1.3197623630886124e-05
2.126145970193898e-06   9.035732950914409e-07   -5.609756169048384e-05
2.126145970193898e-06   9.035732950914409e-07   -5.609756169048384e-05
2.126145970193898e-06   9.035732950914409e-07   -5.609756169048384e-05
2.126145970193898e-06   9.035732950914409e-07   -5.609756169048384e-05
-2.3755845600972556e-05   1.3674732315073685e-06   -1.3239249033722639e-05
-2.3755845600972556e-05   1.3674732315073685e-06   -1.3239249033722639e-05
-2.3755845600972556e-05   1.3674732315073685e-06   -1.3239249033722639e-05
-2.3755845600972556e-05   1.3674732315073685e-06   -1.3239249033722639e-05
-1.071432170869978e-05   4.541223185492707e-07   -3.442711163973576e-05
-1.071432170869978e-05   4.541223185492707e-07   -3.442711163973576e-05
-1.071432170869978e-05   4.541223185492707e-07   -3.442711163973576e-05
-1.071432170869978e-05   4.541223185492707e-07   -3.442711163973576e-05
-2.375584560097256e-05   9.03573295091435e-07   -5.637590165233343e-05
-2.375584560097256e-05   9.03573295091435e-07   -5.637590165233343e-05
-2.375584560097256e-05   9.03573295091435e-07   -5.637590165233343e-05
-2.375584560097256e-05   9.03573295091435e-07   -5.637590165233343e-05
2.1261459701939015e-06   1.3674732315073685e-06   -1.2960909071872993e-05
2.1261459701939015e-06   1.3674732315073685e-06   -1.2960909071872993e-05
2.1261459701939015e-06   1.3674732315073685e-06   -1.2960909071872993e-05
2.1261459701939015e-06   1.3674732315073685e-06   -1.2960909071872993e-05
1.9837985705548405e-06   2.1032393605433794e-06   -5.621460283457176e-05
1.9837985705548405e-06   2.1032393605433794e-06   -5.621460283457176e-05
1.9837985705548405e-06   2.1032393605433794e-06   -5.621460283457176e-05
1.9837985705548405e-06   2.1032393605433794e-06   -5.621460283457176e-05
-2.3929811246649444e-05   2.8226545990794037e-06   -1.3456902282352851e-05
-2.3929811246649444e-05   2.8226545990794037e-06   -1.3456902282352851e-05
-2.3929811246649444e-05   2.8226545990794037e-06   -1.3456902282352851e-05
-2.3929811246649444e-05   2.8226545990794037e-06   -1.3456902282352851e-05
-1.0914227049236311e-05   1.7161651593617137e-06   -3.44856489475442e-05
-1.0914227049236311e-05   1.7161651593617137e-06   -3.44856489475442e-05
-1.0914227049236311e-05   1.7161651593617137e-06   -3.44856489475442e-05
-1.0914227049236311e-05   1.7161651593617137e-06   -3.44856489475442e-05
-2.3929811246649448e-05   2.103239360543377e-06   -5.664625197769337e-05
-2.3929811246649448e-05   2.103239360543377e-06   -5.664625197769337e-05
-2.3929811246649448e-05   2.103239360543377e-06   -5.664625197769337e-05
-2.3929811246649448e-05   2.103239360543377e-06   -5.664625197769337e-05
1.9837985705548405e-06   2.8226545990794037e-06   -1.3025253139231329e-05
1.9837985705548405e-06   2.8226545990794037e-06   -1.3025253139231329e-05
1.9837985705548405e-06   2.8226545990794037e-06   -1.3025253139231329e-05
1.9837985705548405e-06   2.8226545990794037e-06   -1.3025253139231329e-05
1.6969284311156032e-06   3.492690514507498e-06   -5.611799968164521e-05
1.6969284311156032e-06   3.492690514507498e-06   -5.611799968164521e-05
1.6969284311156032e-06   3.492690514507498e-06   -5.611799968164521e-05
1.6969284311156032e-06   3.492690514507498e-06   -5.611799968164521e-05
-2.387136587574565e-05   4.338789104902784e-06   -1.4011834991113712e-05
-2.387136587574565e-05   4.338789104902784e-06   -1.4011834991113712e-05
-2.387136587574565e-05   4.338789104902784e-06   -1.4011834991113712e-05
-2.387136587574565e-05   4.338789104902784e-06   -1.4011834991113712e-05
-1.1035259079719111e-05   3.0126687174327643e-06   -3.4609674085342524e-05
-1.1035259079719111e-05   3.0126687174327643e-06   -3.4609674085342524e-05
-1.1035259079719111e-05   3.0126687174327643e-06   -3.4609674085342524e-05
-1.1035259079719111e-05   3.0126687174327643e-06   -3.4609674085342524e-05
2.2307147609551693e-06   -4.061225247405629e-06   -5.147389787390013e-05
2.2307147609551693e-06   -4.061225247405629e-06   -5.147389787390013e-05
2.2307147609551693e-06   -4.061225247405629e-06   -5.147389787390013e-05
2.2307147609551693e-06   -4.061225247405629e-06   -5.147389787390013e-05
2.843946621550055e-05   -4.17529370843803e-06   -7.861086526277257e-06
2.843946621550055e-05   -4.17529370843803e-06   -7.861086526277257e-06
2.843946621550055e-05   -4.17529370843803e-06   -7.861086526277257e-06
2.843946621550055e-05   -4.17529370843803e-06   -7.861086526277257e-06
2.8672671253075333e-05   -3.061304516304293e-06   -5.219039144530797e-05
2.8672671253075333e-05   -3.061304516304293e-06   -5.219039144530797e-05
2.8672671253075333e-05   -3.061304516304293e-06   -5.219039144530797e-05
2.8672671253075333e-05   -3.061304516304293e-06   -5.219039144530797e-05
2.1261459701939015e-06   -2.8219439333315288e-06   -8.089798990289203e-06
2.1261459701939015e-06   -2.8219439333315288e-06   -8.089798990289203e-06
2.1261459701939015e-06   -2.8219439333315288e-06   -8.089798990289203e-06
2.1261459701939015e-06   -2.8219439333315288e-06   -8.089798990289203e-06
1.5170889374262806e-05   -3.3783327670491392e-06   -2.9497204696840166e-05
1.5170889374262806e-05   -3.3783327670491392e-06   -2.9497204696840166e-05
1.5170889374262806e-05   -3.3783327670491392e-06   -2.9497204696840166e-05
1.5170889374262806e-05   -3.3783327670491392e-06   -2.9497204696840166e-05
2.126145970193898e-06   -3.0613045163042963e-06   -5.2334007795091596e-05
2.126145970193898e-06   -3.0613045163042963e-06   -5.2334007795091596e-05
2.126145970193898e-06   -3.0613045163042963e-06   -5.2334007795091596e-05
2.126145970193898e-06   -3.0613045163042963e-06   -5.2334007795091596e-05
2.8672671253075333e-05   -2.8219439333315288e-06   -7.946182640505443e-06
2.8672671253075333e-05   -2.8219439333315288e-06   -7.946182640505443e-06
2.8672671253075333e-05   -2.8219439333315288e-06   -7.946182640505443e-06
2.8672671253075333e-05   -2.8219439333315288e-06   -7.946182640505443e-06
2.8531023930959728e-05   -1.925596951703583e-06   -5.316700459756399e-05
2.8531023930959728e-05   -1.925596951703583e-06   -5.316700459756399e-05
2.8531023930959728e-05   -1.925596951703583e-06   -5.316700459756399e-05
2.8531023930959728e-05   -1.925596951703583e-06   -5.316700459756399e-05
1.9837985705548405e-06   -1.4963762699298465e-06   -9.179161405953418e-06
1.9837985705548405e-06   -1.4963762699298465e-06   -9.179161405953418e-06
1.9837985705548405e-06   -1.4963762699298465e-06   -9.179161405953418e-06
1.9837985705548405e-06   -1.4963762699298465e-06   -9.179161405953418e-06
1.5008334996314784e-05   -2.2980315297807367e-06   -3.0405728959642758e-05
1.5008334996314784e-05   -2.2980315297807367e-06   -3.0405728959642758e-05
1.5008334996314784e-05   -2.2980315297807367e-06   -3.0405728959642758e-05
1.5008334996314784e-05   -2.2980315297807367e-06   -3.0405728959642758e-05
1.9837985705548405e-06   -1.92559695170358e-06   -5.342453700662817e-05
1.9837985705548405e-06   -1.92559695170358e-06   -5.342453700662817e-05
1.9837985705548405e-06   -1.92559695170358e-06   -5.342453700662817e-05
1.9837985705548405e-06   -1.92559695170358e-06   -5.342453700662817e-05
2.8531023930959728e-05   -1.4963762699297923e-06   -8.921628996889247e-06
2.8531023930959728e-05   -1.4963762699297923e-06   -8.921628996889247e-06
2.8531023930959728e-05   -1.4963762699297923e-06   -8.921628996889247e-06
2.8531023930959728e-05   -1.4963762699297923e-06   -8.921628996889247e-06
2.7696690549026368e-05   -3.995071132768883e-07   -5.326114319575791e-05
2.7696690549026368e-05   -3.995071132768883e-07   -5.326114319575791e-05
2.7696690549026368e-05   -3.995071132768883e-07   -5.326114319575791e-05
2.7696690549026368e-05   -3.995071132768883e-07   -5.326114319575791e-05
1.6969284311156032e-06   1.43056246805853e-07   -1.0253744348623023e-05
1.6969284311156032e-06   1.43056246805853e-07   -1.0253744348623023e-05
1.6969284311156032e-06   1.43056246805853e-07   -1.0253744348623023e-05
1.6969284311156032e-06   1.43056246805853e-07   -1.0253744348623023e-05
1.4843802680406658e-05   -1.0362741918095515e-06   -3.1457603167605496e-05
1.4843802680406658e-05   -1.0362741918095515e-06   -3.1457603167605496e-05
1.4843802680406658e-05   -1.0362741918095515e-06   -3.1457603167605496e-05
1.4843802680406658e-05   -1.0362741918095515e-06   -3.1457603167605496e-05
2.843946621550055e-05   -1.0295796335177649e-05   -3.114608376681907e-05
2.843946621550055e-05   -1.0295796335177649e-05   -3.114608376681907e-05
2.843946621550055e-05   -1.0295796335177649e-05   -3.114608376681907e-05
2.843946621550055e-05   -1.0295796335177649e-05   -3.114608376681907e-05
5.4305551188594904e-05   -7.75983956867194e-06   1.3485631914908242e-05
5.4305551188594904e-05   -7.75983956867194e-06   1.3485631914908242e-05
5.4305551188594904e-05   -7.75983956867194e-06   1.3485631914908242e-05
5.4305551188594904e-05   -7.75983956867194e-06   1.3485631914908242e-05
5.6370459871567846e-05   -8.759606148506173e-06   -3.785494375272856e-05
5.6370459871567846e-05   -8.759606148506173e-06   -3.785494375272856e-05
5.6370459871567846e-05   -8.759606148506173e-06   -3.785494375272856e-05
5.6370459871567846e-05   -8.759606148506173e-06   -3.785494375272856e-05
2.867267125307538e-05   -7.039111034419965e-06   7.2757402096405036e-06
2.867267125307538e-05   -7.039111034419965e-06   7.2757402096405036e-06
2.867267125307538e-05   -7.039111034419965e-06   7.2757402096405036e-06
2.867267125307538e-05   -7.039111034419965e-06   7.2757402096405036e-06
3.999622804290995e-05   -8.427487339476803e-06   -1.0763828657049668e-05
3.999622804290995e-05   -8.427487339476803e-06   -1.0763828657049668e-05
3.999622804290995e-05   -8.427487339476803e-06   -1.0763828657049668e-05
3.999622804290995e-05   -8.427487339476803e-06   -1.0763828657049668e-05
2.8672671253075306e-05   -8.759606148506156e-06   -3.888724082118019e-05
2.8672671253075306e-05   -8.759606148506156e-06   -3.888724082118019e-05
2.8672671253075306e-05   -8.759606148506156e-06   -3.888724082118019e-05
2.8672671253075306e-05   -8.759606148506156e-06   -3.888724082118019e-05
5.6370459871567764e-05   -7.039111034419911e-06   8.30803727809229e-06
5.6370459871567764e-05   -7.039111034419911e-06   8.30803727809229e-06
5.6370459871567764e-05   -7.039111034419911e-06   8.30803727809229e-06
5.6370459871567764e-05   -7.039111034419911e-06   8.30803727809229e-06
5.615829728093503e-05   -8.004138298445571e-06   -4.116728674894911e-05
5.615829728093503e-05   -8.004138298445571e-06   -4.116728674894911e-05
5.615829728093503e-05   -8.004138298445571e-06   -4.116728674894911e-05
5.615829728093503e-05   -8.004138298445571e-06   -4.116728674894911e-05
2.8531023930959728e-05   -6.276297304535583e-06   3.841464237997185e-06
2.8531023930959728e-05   -6.276297304535583e-06   3.841464237997185e-06
2.8531023930959728e-05   -6.276297304535583e-06   3.841464237997185e-06
2.8531023930959728e-05   -6.276297304535583e-06   3.841464237997185e-06
4.139319310118549e-05   -7.4422128137840386e-06   -1.6895935073496694e-05
4.139319310118549e-05   -7.4422128137840386e-06   -1.6895935073496694e-05
4.139319310118549e-05   -7.4422128137840386e-06   -1.6895935073496694e-05
4.139319310118549e-05   -7.4422128137840386e-06   -1.6895935073496694e-05
2.853102393095968e-05   -8.004138298445566e-06   -4.220399134529512e-05
2.853102393095968e-05   -8.004138298445566e-06   -4.220399134529512e-05
2.853102393095968e-05   -8.004138298445566e-06   -4.220399134529512e-05
2.853102393095968e-05   -8.004138298445566e-06   -4.220399134529512e-05
5.615829728093503e-05   -6.276297304535529e-06   4.8781688343430885e-06
5.615829728093503e-05   -6.276297304535529e-06   4.8781688343430885e-06
5.615829728093503e-05   -6.276297304535529e-06   4.8781688343430885e-06
5.615829728093503e-05   -6.276297304535529e-06   4.8781688343430885e-06
5.58173376084821e-05   -6.220447109266973e-06   -4.791535722083167e-05
5.58173376084821e-05   -6.220447109266973e-06   -4.791535722083167e-05
5.58173376084821e-05   -6.220447109266973e-06   -4.791535722083167e-05
5.58173376084821e-05   -6.220447109266973e-06   -4.791535722083167e-05
2.769669054902638e-05   -4.6348063000464204e-06   -1.998996607271091e-06
2.769669054902638e-05   -4.6348063000464204e-06   -1.998996607271091e-06
2.769669054902638e-05   -4.6348063000464204e-06   -1.998996607271091e-06
2.769669054902638e-05   -4.6348063000464204e-06   -1.998996607271091e-06
4.0207155361474557e-05   -6.4078047994522e-06   -2.178597219504117e-05
4.0207155361474557e-05   -6.4078047994522e-06   -2.178597219504117e-05
4.0207155361474557e-05   -6.4078047994522e-06   -2.178597219504117e-05
4.0207155361474557e-05   -6.4078047994522e-06   -2.178597219504117e-05
-6.0879654857876704e-05   8.775358717541682e-06   -4.2029442618947394e-05
-6.0879654857876704e-05   8.775358717541682e-06   -4.2029442618947394e-05
-6.0879654857876704e-05   8.775358717541682e-06   -4.2029442618947394e-05
-6.0879654857876704e-05   8.775358717541682e-06   -4.2029442618947394e-05
-3.991479164493942e-05   6.704309688606853e-06   -8.330633348079504e-06
-3.991479164493942e-05   6.704309688606853e-06   -8.330633348079504e-06
-3.991479164493942e-05   6.704309688606853e-06   -8.330633348079504e-06
-3.991479164493942e-05   6.704309688606853e-06   -8.330633348079504e-06
-4.01076659833692e-05   1.0533150461825035e-05   -3.489764034171573e-05
-4.01076659833692e-05   1.0533150461825035e-05   -3.489764034171573e-05
-4.01076659833692e-05   1.0533150461825035e-05   -3.489764034171573e-05
-4.01076659833692e-05   1.0533150461825035e-05   -3.489764034171573e-05
-5.995690694920232e-05   8.110807860672756e-06   -3.6216650463571616e-07
-5.995690694920232e-05   8.110807860672756e-06   -3.6216650463571616e-07
-5.995690694920232e-05   8.110807860672756e-06   -3.6216650463571616e-07
-5.995690694920232e-05   8.110807860672756e-06   -3.6216650463571616e-07
-4.8091051101411484e-05   8.923508378455472e-06   -2.062621322829032e-05
-4.8091051101411484e-05   8.923508378455472e-06   -2.062621322829032e-05
-4.8091051101411484e-05   8.923508378455472e-06   -2.062621322829032e-05
-4.8091051101411484e-05   8.923508378455472e-06   -2.062621322829032e-05
-5.9956906949202324e-05   1.0533150461825056e-05   -3.344423478102428e-05
-5.9956906949202324e-05   1.0533150461825056e-05   -3.344423478102428e-05
-5.9956906949202324e-05   1.0533150461825056e-05   -3.344423478102428e-05
-5.9956906949202324e-05   1.0533150461825056e-05   -3.344423478102428e-05
-4.01076659833692e-05   8.110807860672756e-06   -1.8155720653271654e-06
-4.01076659833692e-05   8.110807860672756e-06   -1.8155720653271654e-06
-4.01076659833692e-05   8.110807860672756e-06   -1.8155720653271654e-06
-4.01076659833692e-05   8.110807860672756e-06   -1.8155720653271654e-06
-4.006694052424188e-05   1.1326518162862857e-05   -2.9855715525311274e-05
-4.006694052424188e-05   1.1326518162862857e-05   -2.9855715525311274e-05
-4.006694052424188e-05   1.1326518162862857e-05   -2.9855715525311274e-05
-4.006694052424188e-05   1.1326518162862857e-05   -2.9855715525311274e-05
-5.905753241620824e-05   8.72885755204755e-06   3.3538673277885758e-06
-5.905753241620824e-05   8.72885755204755e-06   3.3538673277885758e-06
-5.905753241620824e-05   8.72885755204755e-06   3.3538673277885758e-06
-5.905753241620824e-05   8.72885755204755e-06   3.3538673277885758e-06
-4.85066163947409e-05   9.738857742157053e-06   -1.4836992822056018e-05
-4.85066163947409e-05   9.738857742157053e-06   -1.4836992822056018e-05
-4.85066163947409e-05   9.738857742157053e-06   -1.4836992822056018e-05
-4.85066163947409e-05   9.738857742157053e-06   -1.4836992822056018e-05
-5.9057532416208235e-05   1.1326518162862867e-05   -2.8297119158822014e-05
-5.9057532416208235e-05   1.1326518162862867e-05   -2.8297119158822014e-05
-5.9057532416208235e-05   1.1326518162862867e-05   -2.8297119158822014e-05
-5.9057532416208235e-05   1.1326518162862867e-05   -2.8297119158822014e-05
-4.006694052424195e-05   8.72885755204755e-06   1.7952709612996273e-06
-4.006694052424195e-05   8.72885755204755e-06   1.7952709612996273e-06
-4.006694052424195e-05   8.72885755204755e-06   1.7952709612996273e-06
-4.006694052424195e-05   8.72885755204755e-06   1.7952709612996273e-06
-4.0107705899381036e-05   1.1957770415403125e-05   -2.279611873908774e-05
-4.0107705899381036e-05   1.1957770415403125e-05   -2.279611873908774e-05
-4.0107705899381036e-05   1.1957770415403125e-05   -2.279611873908774e-05
-4.0107705899381036e-05   1.1957770415403125e-05   -2.279611873908774e-05
-5.788321662254325e-05   9.337514455769105e-06   8.401886041962947e-06
-5.788321662254325e-05   9.337514455769105e-06   8.401886041962947e-06
-5.788321662254325e-05   9.337514455769105e-06   8.401886041962947e-06
-5.788321662254325e-05   9.337514455769105e-06   8.401886041962947e-06
-4.7401682555562725e-05   1.0168154077156647e-05   -9.56572117583645e-06
-4.7401682555562725e-05   1.0168154077156647e-05   -9.56572117583645e-06
-4.7401682555562725e-05   1.0168154077156647e-05   -9.56572117583645e-06
-4.7401682555562725e-05   1.0168154077156647e-05   -9.56572117583645e-06
-3.991479164493942e-05   4.083334583971499e-06   -4.866582857996973e-05
-3.991479164493942e-05   4.083334583971499e-06   -4.866582857996973e-05
-3.991479164493942e-05   4.083334583971499e-06   -4.866582857996973e-05
-3.991479164493942e-05   4.083334583971499e-06   -4.866582857996973e-05
-2.0318039771461573e-05   3.343336677525755e-06   -1.6448574201374066e-05
-2.0318039771461573e-05   3.343336677525755e-06   -1.6448574201374066e-05
-2.0318039771461573e-05   3.343336677525755e-06   -1.6448574201374066e-05
-2.0318039771461573e-05   3.343336677525755e-06   -1.6448574201374066e-05
-2.056479469702789e-05   5.699721191902653e-06   -4.7976331860102525e-05
-2.056479469702789e-05   5.699721191902653e-06   -4.7976331860102525e-05
-2.056479469702789e-05   5.699721191902653e-06   -4.7976331860102525e-05
-2.056479469702789e-05   5.699721191902653e-06   -4.7976331860102525e-05
-4.010766598336921e-05   4.726693550284947e-06   -1.4821063131229722e-05
-4.010766598336921e-05   4.726693550284947e-06   -1.4821063131229722e-05
-4.010766598336921e-05   4.726693550284947e-06   -1.4821063131229722e-05
-4.010766598336921e-05   4.726693550284947e-06   -1.4821063131229722e-05
-2.9967519368698533e-05   4.709792370367709e-06   -3.1711166781063835e-05
-2.9967519368698533e-05   4.709792370367709e-06   -3.1711166781063835e-05
-2.9967519368698533e-05   4.709792370367709e-06   -3.1711166781063835e-05
-2.9967519368698533e-05   4.709792370367709e-06   -3.1711166781063835e-05
-4.010766598336919e-05   5.699721191902637e-06   -4.7392515275131804e-05
-4.010766598336919e-05   5.699721191902637e-06   -4.7392515275131804e-05
-4.010766598336919e-05   5.699721191902637e-06   -4.7392515275131804e-05
-4.010766598336919e-05   5.699721191902637e-06   -4.7392515275131804e-05
-2.0564794697027932e-05   4.726693550284947e-06   -1.5404879716200335e-05
-2.0564794697027932e-05   4.726693550284947e-06   -1.5404879716200335e-05
-2.0564794697027932e-05   4.726693550284947e-06   -1.5404879716200335e-05
-2.0564794697027932e-05   4.726693550284947e-06   -1.5404879716200335e-05
-2.0724802500269457e-05   7.03773701482411e-06   -4.670656430174128e-05
-2.0724802500269457e-05   7.03773701482411e-06   -4.670656430174128e-05
-2.0724802500269457e-05   7.03773701482411e-06   -4.670656430174128e-05
-2.0724802500269457e-05   7.03773701482411e-06   -4.670656430174128e-05
-4.006694052424188e-05   5.955811832990027e-06   -1.3820512486020174e-05
-4.006694052424188e-05   5.955811832990027e-06   -1.3820512486020174e-05
-4.006694052424188e-05   5.955811832990027e-06   -1.3820512486020174e-05
-4.006694052424188e-05   5.955811832990027e-06   -1.3820512486020174e-05
-3.0022972520012124e-05   5.847961242835614e-06   -3.049574880564359e-05
-3.0022972520012124e-05   5.847961242835614e-06   -3.049574880564359e-05
-3.0022972520012124e-05   5.847961242835614e-06   -3.049574880564359e-05
-3.0022972520012124e-05   5.847961242835614e-06   -3.049574880564359e-05
-4.006694052424188e-05   7.0377370148241065e-06   -4.605740919264088e-05
-4.006694052424188e-05   7.0377370148241065e-06   -4.605740919264088e-05
-4.006694052424188e-05   7.0377370148241065e-06   -4.605740919264088e-05
-4.006694052424188e-05   7.0377370148241065e-06   -4.605740919264088e-05
-2.0724802500269484e-05   5.955811832990135e-06   -1.4469667595120366e-05
-2.0724802500269484e-05   5.955811832990135e-06   -1.4469667595120366e-05
-2.0724802500269484e-05   5.955811832990135e-06   -1.4469667595120366e-05
-2.0724802500269484e-05   5.955811832990135e-06   -1.4469667595120366e-05
-2.093185917564308e-05   8.477454120295682e-06   -4.659384469483729e-05
-2.093185917564308e-05   8.477454120295682e-06   -4.659384469483729e-05
-2.093185917564308e-05   8.477454120295682e-06   -4.659384469483729e-05
-2.093185917564308e-05   8.477454120295682e-06   -4.659384469483729e-05
-4.010770589938101e-05   7.263415127652822e-06   -1.3905676759688528e-05
-4.010770589938101e-05   7.263415127652822e-06   -1.3905676759688528e-05
-4.010770589938101e-05   7.263415127652822e-06   -1.3905676759688528e-05
-4.010770589938101e-05   7.263415127652822e-06   -1.3905676759688528e-05
-3.0378745915560827e-05   6.975416164669722e-06   -2.994781068826511e-05
-3.0378745915560827e-05   6.975416164669722e-06   -2.994781068826511e-05
-3.0378745915560827e-05   6.975416164669722e-06   -2.994781068826511e-05
-3.0378745915560827e-05   6.975416164669722e-06   -2.994781068826511e-05
-2.0318039771461533e-05   -1.2183230463170237e-07   -5.246149783458737e-05
-2.0318039771461533e-05   -1.2183230463170237e-07   -5.246149783458737e-05
-2.0318039771461533e-05   -1.2183230463170237e-07   -5.246149783458737e-05
-2.0318039771461533e-05   -1.2183230463170237e-07   -5.246149783458737e-05
-9.404881290689258e-07   1.7807051703577076e-07   -1.998563673759915e-05
-9.404881290689258e-07   1.7807051703577076e-07   -1.998563673759915e-05
-9.404881290689258e-07   1.7807051703577076e-07   -1.998563673759915e-05
-9.404881290689258e-07   1.7807051703577076e-07   -1.998563673759915e-05
-1.1384732348951074e-06   1.3674732315073685e-06   -5.19713152018008e-05
-1.1384732348951074e-06   1.3674732315073685e-06   -5.19713152018008e-05
-1.1384732348951074e-06   1.3674732315073685e-06   -5.19713152018008e-05
-1.1384732348951074e-06   1.3674732315073685e-06   -5.19713152018008e-05
-2.056479469702785e-05   1.5398967964616898e-06   -1.969756690388539e-05
-2.056479469702785e-05   1.5398967964616898e-06   -1.969756690388539e-05
-2.056479469702785e-05   1.5398967964616898e-06   -1.969756690388539e-05
-2.056479469702785e-05   1.5398967964616898e-06   -1.969756690388539e-05
-1.0680012791869409e-05   8.972956815685054e-07   -3.5786642743547e-05
-1.0680012791869409e-05   8.972956815685054e-07   -3.5786642743547e-05
-1.0680012791869409e-05   8.972956815685054e-07   -3.5786642743547e-05
-1.0680012791869409e-05   8.972956815685054e-07   -3.5786642743547e-05
-2.056479469702789e-05   1.3674732315073855e-06   -5.2074769340773396e-05
-2.056479469702789e-05   1.3674732315073855e-06   -5.2074769340773396e-05
-2.056479469702789e-05   1.3674732315073855e-06   -5.2074769340773396e-05
-2.056479469702789e-05   1.3674732315073855e-06   -5.2074769340773396e-05
-1.1384732348951074e-06   1.5398967964616898e-06   -1.9594112764912834e-05
-1.1384732348951074e-06   1.5398967964616898e-06   -1.9594112764912834e-05
-1.1384732348951074e-06   1.5398967964616898e-06   -1.9594112764912834e-05
-1.1384732348951074e-06   1.5398967964616898e-06   -1.9594112764912834e-05
-1.2815264222937797e-06   2.8226545990794037e-06   -5.211217598983286e-05
-1.2815264222937797e-06   2.8226545990794037e-06   -5.211217598983286e-05
-1.2815264222937797e-06   2.8226545990794037e-06   -5.211217598983286e-05
-1.2815264222937797e-06   2.8226545990794037e-06   -5.211217598983286e-05
-2.0724802500269453e-05   2.8976761023543013e-06   -1.9751728761838386e-05
-2.0724802500269453e-05   2.8976761023543013e-06   -1.9751728761838386e-05
-2.0724802500269453e-05   2.8976761023543013e-06   -1.9751728761838386e-05
-2.0724802500269453e-05   2.8976761023543013e-06   -1.9751728761838386e-05
-1.093555497066935e-05   2.0983206272119203e-06   -3.558752802608645e-05
-1.093555497066935e-05   2.0983206272119203e-06   -3.558752802608645e-05
-1.093555497066935e-05   2.0983206272119203e-06   -3.558752802608645e-05
-1.093555497066935e-05   2.0983206272119203e-06   -3.558752802608645e-05
-2.0724802500269457e-05   2.8226545990794024e-06   -5.2157188891797815e-05
-2.0724802500269457e-05   2.8226545990794024e-06   -5.2157188891797815e-05
-2.0724802500269457e-05   2.8226545990794024e-06   -5.2157188891797815e-05
-2.0724802500269457e-05   2.8226545990794024e-06   -5.2157188891797815e-05
-1.2815264222937797e-06   2.8976761023543013e-06   -1.9706715859873255e-05
-1.2815264222937797e-06   2.8976761023543013e-06   -1.9706715859873255e-05
-1.2815264222937797e-06   2.8976761023543013e-06   -1.9706715859873255e-05
-1.2815264222937797e-06   2.8976761023543013e-06   -1.9706715859873255e-05
-1.5063047002959364e-06   4.338789104902784e-06   -5.2782636533329894e-05
-1.5063047002959364e-06   4.338789104902784e-06   -5.2782636533329894e-05
-1.5063047002959364e-06   4.338789104902784e-06   -5.2782636533329894e-05
-1.5063047002959364e-06   4.338789104902784e-06   -5.2782636533329894e-05
-2.0931859175643096e-05   4.2870068103168044e-06   -2.0375643030999874e-05
-2.0931859175643096e-05   4.2870068103168044e-06   -2.0375643030999874e-05
-2.0931859175643096e-05   4.2870068103168044e-06   -2.0375643030999874e-05
-2.0931859175643096e-05   4.2870068103168044e-06   -2.0375643030999874e-05
-1.1207029027406402e-05   3.3136138927250254e-06   -3.5999657527505525e-05
-1.1207029027406402e-05   3.3136138927250254e-06   -3.5999657527505525e-05
-1.1207029027406402e-05   3.3136138927250254e-06   -3.5999657527505525e-05
-1.1207029027406402e-05   3.3136138927250254e-06   -3.5999657527505525e-05
-9.404881290689275e-07   -4.175293708438033e-06   -4.68765779603585e-05
-9.404881290689275e-07   -4.175293708438033e-06   -4.68765779603585e-05
-9.404881290689275e-07   -4.175293708438033e-06   -4.68765779603585e-05
-9.404881290689275e-07   -4.175293708438033e-06   -4.68765779603585e-05
1.833878868125717e-05   -2.798991869409017e-06   -1.391866883973102e-05
1.833878868125717e-05   -2.798991869409017e-06   -1.391866883973102e-05
1.833878868125717e-05   -2.798991869409017e-06   -1.391866883973102e-05
1.833878868125717e-05   -2.798991869409017e-06   -1.391866883973102e-05
1.8324739728591027e-05   -2.8219439333315288e-06   -4.633735986608805e-05
1.8324739728591027e-05   -2.8219439333315288e-06   -4.633735986608805e-05
1.8324739728591027e-05   -2.8219439333315288e-06   -4.633735986608805e-05
1.8324739728591027e-05   -2.8219439333315288e-06   -4.633735986608805e-05
-1.1384732348951077e-06   -1.5505351764500417e-06   -1.4661516847740081e-05
-1.1384732348951077e-06   -1.5505351764500417e-06   -1.4661516847740081e-05
-1.1384732348951077e-06   -1.5505351764500417e-06   -1.4661516847740081e-05
-1.1384732348951077e-06   -1.5505351764500417e-06   -1.4661516847740081e-05
8.580209081176633e-06   -2.738390635147127e-06   -3.014660743264141e-05
8.580209081176633e-06   -2.738390635147127e-06   -3.014660743264141e-05
8.580209081176633e-06   -2.738390635147127e-06   -3.014660743264141e-05
8.580209081176633e-06   -2.738390635147127e-06   -3.014660743264141e-05
-1.1384732348951074e-06   -2.821943933331554e-06   -4.710020512021699e-05
-1.1384732348951074e-06   -2.821943933331554e-06   -4.710020512021699e-05
-1.1384732348951074e-06   -2.821943933331554e-06   -4.710020512021699e-05
-1.1384732348951074e-06   -2.821943933331554e-06   -4.710020512021699e-05
1.8324739728591054e-05   -1.5505351764500417e-06   -1.3898671593611217e-05
1.8324739728591054e-05   -1.5505351764500417e-06   -1.3898671593611217e-05
1.8324739728591054e-05   -1.5505351764500417e-06   -1.3898671593611217e-05
1.8324739728591054e-05   -1.5505351764500417e-06   -1.3898671593611217e-05
1.8411479470069425e-05   -1.4963762699297923e-06   -4.7562606701708284e-05
1.8411479470069425e-05   -1.4963762699297923e-06   -4.7562606701708284e-05
1.8411479470069425e-05   -1.4963762699297923e-06   -4.7562606701708284e-05
1.8411479470069425e-05   -1.4963762699297923e-06   -4.7562606701708284e-05
-1.281526422293782e-06   -3.2391367851846743e-07   -1.5444407769283095e-05
-1.281526422293782e-06   -3.2391367851846743e-07   -1.5444407769283095e-05
-1.281526422293782e-06   -3.2391367851846743e-07   -1.5444407769283095e-05
-1.281526422293782e-06   -3.2391367851846743e-07   -1.5444407769283095e-05
8.31660320208685e-06   -1.6558838764836516e-06   -3.064210835780504e-05
8.31660320208685e-06   -1.6558838764836516e-06   -3.064210835780504e-05
8.31660320208685e-06   -1.6558838764836516e-06   -3.064210835780504e-05
8.31660320208685e-06   -1.6558838764836516e-06   -3.064210835780504e-05
-1.2815264222937797e-06   -1.4963762699298181e-06   -4.826608425655506e-05
-1.2815264222937797e-06   -1.4963762699298181e-06   -4.826608425655506e-05
-1.2815264222937797e-06   -1.4963762699298181e-06   -4.826608425655506e-05
-1.2815264222937797e-06   -1.4963762699298181e-06   -4.826608425655506e-05
1.8411479470069466e-05   -3.2391367851857585e-07   -1.4740930214436035e-05
1.8411479470069466e-05   -3.2391367851857585e-07   -1.4740930214436035e-05
1.8411479470069466e-05   -3.2391367851857585e-07   -1.4740930214436035e-05
1.8411479470069466e-05   -3.2391367851857585e-07   -1.4740930214436035e-05
1.827015677085102e-05   1.430562468057988e-07   -4.8951960338527165e-05
1.827015677085102e-05   1.430562468057988e-07   -4.8951960338527165e-05
1.827015677085102e-05   1.430562468057988e-07   -4.8951960338527165e-05
1.827015677085102e-05   1.430562468057988e-07   -4.8951960338527165e-05
-1.5063047002959393e-06   1.1101307577214038e-06   -1.6571435926498378e-05
-1.5063047002959393e-06   1.1101307577214038e-06   -1.6571435926498378e-05
-1.5063047002959393e-06   1.1101307577214038e-06   -1.6571435926498378e-05
-1.5063047002959393e-06   1.1101307577214038e-06   -1.6571435926498378e-05
8.224141673647612e-06   -4.977414670077657e-07   -3.1824123214899843e-05
8.224141673647612e-06   -4.977414670077657e-07   -3.1824123214899843e-05
8.224141673647612e-06   -4.977414670077657e-07   -3.1824123214899843e-05
8.224141673647612e-06   -4.977414670077657e-07   -3.1824123214899843e-05
1.8338788681257143e-05   -7.75983956867194e-06   -2.6225652475658952e-05
1.8338788681257143e-05   -7.75983956867194e-06   -2.6225652475658952e-05
1.8338788681257143e-05   -7.75983956867194e-06   -2.6225652475658952e-05
1.8338788681257143e-05   -7.75983956867194e-06   -2.6225652475658952e-05
3.6389080315691957e-05   -5.075316537518637e-06   5.468880733757798e-06
3.6389080315691957e-05   -5.075316537518637e-06   5.468880733757798e-06
3.6389080315691957e-05   -5.075316537518637e-06   5.468880733757798e-06
3.6389080315691957e-05   -5.075316537518637e-06   5.468880733757798e-06
3.761678795614288e-05   -7.039111034419911e-06   -2.950533259080892e-05
3.761678795614288e-05   -7.039111034419911e-06   -2.950533259080892e-05
3.761678795614288e-05   -7.039111034419911e-06   -2.950533259080892e-05
3.761678795614288e-05   -7.039111034419911e-06   -2.950533259080892e-05
1.832473972859102e-05   -4.355603659198198e-06   1.0379766966445787e-06
1.832473972859102e-05   -4.355603659198198e-06   1.0379766966445787e-06
1.832473972859102e-05   -4.355603659198198e-06   1.0379766966445787e-06
1.832473972859102e-05   -4.355603659198198e-06   1.0379766966445787e-06
2.6484905140774814e-05   -5.9856443477119235e-06   -1.1584274577220176e-05
2.6484905140774814e-05   -5.9856443477119235e-06   -1.1584274577220176e-05
2.6484905140774814e-05   -5.9856443477119235e-06   -1.1584274577220176e-05
2.6484905140774814e-05   -5.9856443477119235e-06   -1.1584274577220176e-05
1.8324739728591e-05   -7.039111034419937e-06   -3.1115437015941924e-05
1.8324739728591e-05   -7.039111034419937e-06   -3.1115437015941924e-05
1.8324739728591e-05   -7.039111034419937e-06   -3.1115437015941924e-05
1.8324739728591e-05   -7.039111034419937e-06   -3.1115437015941924e-05
3.761678795614288e-05   -4.35560365919809e-06   2.6480811217775954e-06
3.761678795614288e-05   -4.35560365919809e-06   2.6480811217775954e-06
3.761678795614288e-05   -4.35560365919809e-06   2.6480811217775954e-06
3.761678795614288e-05   -4.35560365919809e-06   2.6480811217775954e-06
3.856061775605346e-05   -6.276297304535583e-06   -3.327694241968697e-05
3.856061775605346e-05   -6.276297304535583e-06   -3.327694241968697e-05
3.856061775605346e-05   -6.276297304535583e-06   -3.327694241968697e-05
3.856061775605346e-05   -6.276297304535583e-06   -3.327694241968697e-05
1.84114794700694e-05   -3.738678892643908e-06   -1.2176163235152527e-06
1.84114794700694e-05   -3.738678892643908e-06   -1.2176163235152527e-06
1.84114794700694e-05   -3.738678892643908e-06   -1.2176163235152527e-06
1.84114794700694e-05   -3.738678892643908e-06   -1.2176163235152527e-06
2.738512994224393e-05   -5.521323116825698e-06   -1.5104113909297057e-05
2.738512994224393e-05   -5.521323116825698e-06   -1.5104113909297057e-05
2.738512994224393e-05   -5.521323116825698e-06   -1.5104113909297057e-05
2.738512994224393e-05   -5.521323116825698e-06   -1.5104113909297057e-05
1.8411479470069425e-05   -6.276297304535581e-06   -3.4799513466821975e-05
1.8411479470069425e-05   -6.276297304535581e-06   -3.4799513466821975e-05
1.8411479470069425e-05   -6.276297304535581e-06   -3.4799513466821975e-05
1.8411479470069425e-05   -6.276297304535581e-06   -3.4799513466821975e-05
3.856061775605341e-05   -3.738678892643908e-06   3.0495472362000167e-07
3.856061775605341e-05   -3.738678892643908e-06   3.0495472362000167e-07
3.856061775605341e-05   -3.738678892643908e-06   3.0495472362000167e-07
3.856061775605341e-05   -3.738678892643908e-06   3.0495472362000167e-07
3.9566565982199686e-05   -4.6348063000464204e-06   -3.9694530459058064e-05
3.9566565982199686e-05   -4.6348063000464204e-06   -3.9694530459058064e-05
3.9566565982199686e-05   -4.6348063000464204e-06   -3.9694530459058064e-05
3.9566565982199686e-05   -4.6348063000464204e-06   -3.9694530459058064e-05
1.8270156770850956e-05   -2.4211060431018807e-06   -5.5287352609769455e-06
1.8270156770850956e-05   -2.4211060431018807e-06   -5.5287352609769455e-06
1.8270156770850956e-05   -2.4211060431018807e-06   -5.5287352609769455e-06
1.8270156770850956e-05   -2.4211060431018807e-06   -5.5287352609769455e-06
2.7268684172628403e-05   -4.756014424970082e-06   -1.9125335901484976e-05
2.7268684172628403e-05   -4.756014424970082e-06   -1.9125335901484976e-05
2.7268684172628403e-05   -4.756014424970082e-06   -1.9125335901484976e-05
2.7268684172628403e-05   -4.756014424970082e-06   -1.9125335901484976e-05
-4.373847449607444e-05   6.7043096886068e-06   -3.328292188876675e-05
-4.373847449607444e-05   6.7043096886068e-06   -3.328292188876675e-05
-4.373847449607444e-05   6.7043096886068e-06   -3.328292188876675e-05
-4.373847449607444e-05   6.7043096886068e-06   -3.328292188876675e-05
-2.9785753936591543e-05   4.26384117090269e-06   -1.1492668733584402e-05
-2.9785753936591543e-05   4.26384117090269e-06   -1.1492668733584402e-05
-2.9785753936591543e-05   4.26384117090269e-06   -1.1492668733584402e-05
-2.9785753936591543e-05   4.26384117090269e-06   -1.1492668733584402e-05
-2.9677246473340063e-05   8.110807860672756e-06   -2.827542135865036e-05
-2.9677246473340063e-05   8.110807860672756e-06   -2.827542135865036e-05
-2.9677246473340063e-05   8.110807860672756e-06   -2.827542135865036e-05
-2.9677246473340063e-05   8.110807860672756e-06   -2.827542135865036e-05
-4.2429225243926e-05   5.42781663143122e-06   -5.412328670128977e-06
-4.2429225243926e-05   5.42781663143122e-06   -5.412328670128977e-06
-4.2429225243926e-05   5.42781663143122e-06   -5.412328670128977e-06
-4.2429225243926e-05   5.42781663143122e-06   -5.412328670128977e-06
-3.486306228904777e-05   6.456036450682595e-06   -1.8639532153143527e-05
-3.486306228904777e-05   6.456036450682595e-06   -1.8639532153143527e-05
-3.486306228904777e-05   6.456036450682595e-06   -1.8639532153143527e-05
-3.486306228904777e-05   6.456036450682595e-06   -1.8639532153143527e-05
-4.242922524392599e-05   8.110807860672712e-06   -2.6665626621105525e-05
-4.242922524392599e-05   8.110807860672712e-06   -2.6665626621105525e-05
-4.242922524392599e-05   8.110807860672712e-06   -2.6665626621105525e-05
-4.242922524392599e-05   8.110807860672712e-06   -2.6665626621105525e-05
-2.967724647334009e-05   5.42781663143122e-06   -7.022123407673869e-06
-2.967724647334009e-05   5.42781663143122e-06   -7.022123407673869e-06
-2.967724647334009e-05   5.42781663143122e-06   -7.022123407673869e-06
-2.967724647334009e-05   5.42781663143122e-06   -7.022123407673869e-06
-2.9452123199737374e-05   8.72885755204755e-06   -2.465613513965377e-05
-2.9452123199737374e-05   8.72885755204755e-06   -2.465613513965377e-05
-2.9452123199737374e-05   8.72885755204755e-06   -2.465613513965377e-05
-2.9452123199737374e-05   8.72885755204755e-06   -2.465613513965377e-05
-4.145071722916067e-05   5.970317785703567e-06   -3.0033545641419473e-06
-4.145071722916067e-05   5.970317785703567e-06   -3.0033545641419473e-06
-4.145071722916067e-05   5.970317785703567e-06   -3.0033545641419473e-06
-4.145071722916067e-05   5.970317785703567e-06   -3.0033545641419473e-06
-3.486469141678392e-05   7.105567815770403e-06   -1.4661214269476688e-05
-3.486469141678392e-05   7.105567815770403e-06   -1.4661214269476688e-05
-3.486469141678392e-05   7.105567815770403e-06   -1.4661214269476688e-05
-3.486469141678392e-05   7.105567815770403e-06   -1.4661214269476688e-05
-4.145071722916064e-05   8.728857552047499e-06   -2.3001011279847423e-05
-4.145071722916064e-05   8.728857552047499e-06   -2.3001011279847423e-05
-4.145071722916064e-05   8.728857552047499e-06   -2.3001011279847423e-05
-4.145071722916064e-05   8.728857552047499e-06   -2.3001011279847423e-05
-2.9452123199737428e-05   5.970317785703567e-06   -4.658478423948211e-06
-2.9452123199737428e-05   5.970317785703567e-06   -4.658478423948211e-06
-2.9452123199737428e-05   5.970317785703567e-06   -4.658478423948211e-06
-2.9452123199737428e-05   5.970317785703567e-06   -4.658478423948211e-06
-2.936213038690991e-05   9.337514455768996e-06   -1.964675642881597e-05
-2.936213038690991e-05   9.337514455768996e-06   -1.964675642881597e-05
-2.936213038690991e-05   9.337514455768996e-06   -1.964675642881597e-05
-2.936213038690991e-05   9.337514455768996e-06   -1.964675642881597e-05
-4.01706427527926e-05   6.652772561666878e-06   -2.172401588349318e-08
-4.01706427527926e-05   6.652772561666878e-06   -2.172401588349318e-08
-4.01706427527926e-05   6.652772561666878e-06   -2.172401588349318e-08
-4.01706427527926e-05   6.652772561666878e-06   -2.172401588349318e-08
-3.383302779020544e-05   7.457853885796048e-06   -1.1067464414672918e-05
-3.383302779020544e-05   7.457853885796048e-06   -1.1067464414672918e-05
-3.383302779020544e-05   7.457853885796048e-06   -1.1067464414672918e-05
-3.383302779020544e-05   7.457853885796048e-06   -1.1067464414672918e-05
-2.9785753936591516e-05   3.3433366775256566e-06   -4.2421145108816353e-05
-2.9785753936591516e-05   3.3433366775256566e-06   -4.2421145108816353e-05
-2.9785753936591516e-05   3.3433366775256566e-06   -4.2421145108816353e-05
-2.9785753936591516e-05   3.3433366775256566e-06   -4.2421145108816353e-05
-1.7137542387340237e-05   2.205156420690118e-06   -2.2023700680832287e-05
-1.7137542387340237e-05   2.205156420690118e-06   -2.2023700680832287e-05
-1.7137542387340237e-05   2.205156420690118e-06   -2.2023700680832287e-05
-1.7137542387340237e-05   2.205156420690118e-06   -2.2023700680832287e-05
-1.714590932695919e-05   4.726693550284947e-06   -4.205645746113728e-05
-1.714590932695919e-05   4.726693550284947e-06   -4.205645746113728e-05
-1.714590932695919e-05   4.726693550284947e-06   -4.205645746113728e-05
-1.714590932695919e-05   4.726693550284947e-06   -4.205645746113728e-05
-2.967724647334007e-05   3.4341184893113205e-06   -2.0395350513918167e-05
-2.967724647334007e-05   3.4341184893113205e-06   -2.0395350513918167e-05
-2.967724647334007e-05   3.4341184893113205e-06   -2.0395350513918167e-05
-2.967724647334007e-05   3.4341184893113205e-06   -2.0395350513918167e-05
-2.3220498123058526e-05   3.6574395183134635e-06   -3.129059038178879e-05
-2.3220498123058526e-05   3.6574395183134635e-06   -3.129059038178879e-05
-2.3220498123058526e-05   3.6574395183134635e-06   -3.129059038178879e-05
-2.3220498123058526e-05   3.6574395183134635e-06   -3.129059038178879e-05
-2.9677246473340036e-05   4.726693550284958e-06   -4.1280912424552835e-05
-2.9677246473340036e-05   4.726693550284958e-06   -4.1280912424552835e-05
-2.9677246473340036e-05   4.726693550284958e-06   -4.1280912424552835e-05
-2.9677246473340036e-05   4.726693550284958e-06   -4.1280912424552835e-05
-1.7145909326959135e-05   3.434118489311429e-06   -2.1170895550502315e-05
-1.7145909326959135e-05   3.434118489311429e-06   -2.1170895550502315e-05
-1.7145909326959135e-05   3.434118489311429e-06   -2.1170895550502315e-05
-1.7145909326959135e-05   3.434118489311429e-06   -2.1170895550502315e-05
-1.7133277285757276e-05   5.955811832990027e-06   -4.111386586900232e-05
-1.7133277285757276e-05   5.955811832990027e-06   -4.111386586900232e-05
-1.7133277285757276e-05   5.955811832990027e-06   -4.111386586900232e-05
-1.7133277285757276e-05   5.955811832990027e-06   -4.111386586900232e-05
-2.9452123199737367e-05   4.552566362941795e-06   -1.974050873033989e-05
-2.9452123199737367e-05   4.552566362941795e-06   -1.974050873033989e-05
-2.9452123199737367e-05   4.552566362941795e-06   -1.974050873033989e-05
-2.9452123199737367e-05   4.552566362941795e-06   -1.974050873033989e-05
-2.311236678892591e-05   4.666860680644443e-06   -3.037534600564698e-05
-2.311236678892591e-05   4.666860680644443e-06   -3.037534600564698e-05
-2.311236678892591e-05   4.666860680644443e-06   -3.037534600564698e-05
-2.311236678892591e-05   4.666860680644443e-06   -3.037534600564698e-05
-2.9452123199737374e-05   5.955811832990039e-06   -4.0271918586973394e-05
-2.9452123199737374e-05   5.955811832990039e-06   -4.0271918586973394e-05
-2.9452123199737374e-05   5.955811832990039e-06   -4.0271918586973394e-05
-2.9452123199737374e-05   5.955811832990039e-06   -4.0271918586973394e-05
-1.7133277285757276e-05   4.552566362941795e-06   -2.0582456012368735e-05
-1.7133277285757276e-05   4.552566362941795e-06   -2.0582456012368735e-05
-1.7133277285757276e-05   4.552566362941795e-06   -2.0582456012368735e-05
-1.7133277285757276e-05   4.552566362941795e-06   -2.0582456012368735e-05
-1.714705078379201e-05   7.263415127652822e-06   -4.12796434699496e-05
-1.714705078379201e-05   7.263415127652822e-06   -4.12796434699496e-05
-1.714705078379201e-05   7.263415127652822e-06   -4.12796434699496e-05
-1.714705078379201e-05   7.263415127652822e-06   -4.12796434699496e-05
-2.9362130386909868e-05   5.767618768881674e-06   -2.0023699649490342e-05
-2.9362130386909868e-05   5.767618768881674e-06   -2.0023699649490342e-05
-2.9362130386909868e-05   5.767618768881674e-06   -2.0023699649490342e-05
-2.9362130386909868e-05   5.767618768881674e-06   -2.0023699649490342e-05
-2.3262078707500277e-05   5.665653065995671e-06   -3.012927302677485e-05
-2.3262078707500277e-05   5.665653065995671e-06   -3.012927302677485e-05
-2.3262078707500277e-05   5.665653065995671e-06   -3.012927302677485e-05
-2.3262078707500277e-05   5.665653065995671e-06   -3.012927302677485e-05
-1.7137542387340264e-05   1.780705170358388e-07   -4.682105749214332e-05
-1.7137542387340264e-05   1.780705170358388e-07   -4.682105749214332e-05
-1.7137542387340264e-05   1.780705170358388e-07   -4.682105749214332e-05
-1.7137542387340264e-05   1.780705170358388e-07   -4.682105749214332e-05
-4.66439930455157e-06   3.8011002082482745e-07   -2.5911261985222134e-05
-4.66439930455157e-06   3.8011002082482745e-07   -2.5911261985222134e-05
-4.66439930455157e-06   3.8011002082482745e-07   -2.5911261985222134e-05
-4.66439930455157e-06   3.8011002082482745e-07   -2.5911261985222134e-05
-4.6733261134307366e-06   1.5398967964616898e-06   -4.6303528764177334e-05
-4.6733261134307366e-06   1.5398967964616898e-06   -4.6303528764177334e-05
-4.6733261134307366e-06   1.5398967964616898e-06   -4.6303528764177334e-05
-4.6733261134307366e-06   1.5398967964616898e-06   -4.6303528764177334e-05
-1.7145909326959135e-05   1.615923270869863e-06   -2.556150595960815e-05
-1.7145909326959135e-05   1.615923270869863e-06   -2.556150595960815e-05
-1.7145909326959135e-05   1.615923270869863e-06   -2.556150595960815e-05
-1.7145909326959135e-05   1.615923270869863e-06   -2.556150595960815e-05
-1.0832805629206498e-05   1.088511426778748e-06   -3.5766898349407954e-05
-1.0832805629206498e-05   1.088511426778748e-06   -3.5766898349407954e-05
-1.0832805629206498e-05   1.088511426778748e-06   -3.5766898349407954e-05
-1.0832805629206498e-05   1.088511426778748e-06   -3.5766898349407954e-05
-1.7145909326959162e-05   1.5398967964616932e-06   -4.634914464882227e-05
-1.7145909326959162e-05   1.5398967964616932e-06   -4.634914464882227e-05
-1.7145909326959162e-05   1.5398967964616932e-06   -4.634914464882227e-05
-1.7145909326959162e-05   1.5398967964616932e-06   -4.634914464882227e-05
-4.6733261134307366e-06   1.615923270869863e-06   -2.5515890074963266e-05
-4.6733261134307366e-06   1.615923270869863e-06   -2.5515890074963266e-05
-4.6733261134307366e-06   1.615923270869863e-06   -2.5515890074963266e-05
-4.6733261134307366e-06   1.615923270869863e-06   -2.5515890074963266e-05
-4.656937528940109e-06   2.8976761023543013e-06   -4.6421118623832594e-05
-4.656937528940109e-06   2.8976761023543013e-06   -4.6421118623832594e-05
-4.656937528940109e-06   2.8976761023543013e-06   -4.6421118623832594e-05
-4.656937528940109e-06   2.8976761023543013e-06   -4.6421118623832594e-05
-1.713327728575728e-05   2.8556901221668367e-06   -2.5602027441024825e-05
-1.713327728575728e-05   2.8556901221668367e-06   -2.5602027441024825e-05
-1.713327728575728e-05   2.8556901221668367e-06   -2.5602027441024825e-05
-1.713327728575728e-05   2.8556901221668367e-06   -2.5602027441024825e-05
-1.0905340531036708e-05   2.169688978807924e-06   -3.55703213462104e-05
-1.0905340531036708e-05   2.169688978807924e-06   -3.55703213462104e-05
-1.0905340531036708e-05   2.169688978807924e-06   -3.55703213462104e-05
-1.0905340531036708e-05   2.169688978807924e-06   -3.55703213462104e-05
-1.7133277285757276e-05   2.8976761023542903e-06   -4.6395927035720126e-05
-1.7133277285757276e-05   2.8976761023542903e-06   -4.6395927035720126e-05
-1.7133277285757276e-05   2.8976761023542903e-06   -4.6395927035720126e-05
-1.7133277285757276e-05   2.8976761023542903e-06   -4.6395927035720126e-05
-4.656937528940109e-06   2.8556901221668367e-06   -2.5627219029137184e-05
-4.656937528940109e-06   2.8556901221668367e-06   -2.5627219029137184e-05
-4.656937528940109e-06   2.8556901221668367e-06   -2.5627219029137184e-05
-4.656937528940109e-06   2.8556901221668367e-06   -2.5627219029137184e-05
-4.664266691237139e-06   4.287006810316913e-06   -4.7123110655774355e-05
-4.664266691237139e-06   4.287006810316913e-06   -4.7123110655774355e-05
-4.664266691237139e-06   4.287006810316913e-06   -4.7123110655774355e-05
-4.664266691237139e-06   4.287006810316913e-06   -4.7123110655774355e-05
-1.7147050783792024e-05   4.117132960151882e-06   -2.6216546191417067e-05
-1.7147050783792024e-05   4.117132960151882e-06   -2.6216546191417067e-05
-1.7147050783792024e-05   4.117132960151882e-06   -2.6216546191417067e-05
-1.7147050783792024e-05   4.117132960151882e-06   -2.6216546191417067e-05
-1.0999108216935176e-05   3.265066851951509e-06   -3.595187747125824e-05
-1.0999108216935176e-05   3.265066851951509e-06   -3.595187747125824e-05
-1.0999108216935176e-05   3.265066851951509e-06   -3.595187747125824e-05
-1.0999108216935176e-05   3.265066851951509e-06   -3.595187747125824e-05
-4.664399304551562e-06   -2.7989918694090198e-06   -4.1458646995419176e-05
-4.664399304551562e-06   -2.7989918694090198e-06   -4.1458646995419176e-05
-4.664399304551562e-06   -2.7989918694090198e-06   -4.1458646995419176e-05
-4.664399304551562e-06   -2.7989918694090198e-06   -4.1458646995419176e-05
7.626121186836158e-06   -1.2888480460190475e-06   -2.0068359882405762e-05
7.626121186836158e-06   -1.2888480460190475e-06   -2.0068359882405762e-05
7.626121186836158e-06   -1.2888480460190475e-06   -2.0068359882405762e-05
7.626121186836158e-06   -1.2888480460190475e-06   -2.0068359882405762e-05
7.726433138270571e-06   -1.5505351764500417e-06   -4.0515403320286756e-05
7.726433138270571e-06   -1.5505351764500417e-06   -4.0515403320286756e-05
7.726433138270571e-06   -1.5505351764500417e-06   -4.0515403320286756e-05
7.726433138270571e-06   -1.5505351764500417e-06   -4.0515403320286756e-05
-4.673326113430728e-06   -1.2465263192051185e-07   -2.070466742750237e-05
-4.673326113430728e-06   -1.2465263192051185e-07   -2.070466742750237e-05
-4.673326113430728e-06   -1.2465263192051185e-07   -2.070466742750237e-05
-4.673326113430728e-06   -1.2465263192051185e-07   -2.070466742750237e-05
1.5110682748551184e-06   -1.3333142325292749e-06   -3.0286794447613537e-05
1.5110682748551184e-06   -1.3333142325292749e-06   -3.0286794447613537e-05
1.5110682748551184e-06   -1.3333142325292749e-06   -3.0286794447613537e-05
1.5110682748551184e-06   -1.3333142325292749e-06   -3.0286794447613537e-05
-4.6733261134307366e-06   -1.5505351764500736e-06   -4.137093284700455e-05
-4.6733261134307366e-06   -1.5505351764500736e-06   -4.137093284700455e-05
-4.6733261134307366e-06   -1.5505351764500736e-06   -4.137093284700455e-05
-4.6733261134307366e-06   -1.5505351764500736e-06   -4.137093284700455e-05
7.726433138270571e-06   -1.2465263192040343e-07   -1.98491379007846e-05
7.726433138270571e-06   -1.2465263192040343e-07   -1.98491379007846e-05
7.726433138270571e-06   -1.2465263192040343e-07   -1.98491379007846e-05
7.726433138270571e-06   -1.2465263192040343e-07   -1.98491379007846e-05
7.96313583591194e-06   -3.2391367851857585e-07   -4.13673572198062e-05
7.96313583591194e-06   -3.2391367851857585e-07   -4.13673572198062e-05
7.96313583591194e-06   -3.2391367851857585e-07   -4.13673572198062e-05
7.96313583591194e-06   -3.2391367851857585e-07   -4.13673572198062e-05
-4.656937528940101e-06   9.951751772079714e-07   -2.1125354925155372e-05
-4.656937528940101e-06   9.951751772079714e-07   -2.1125354925155372e-05
-4.656937528940101e-06   9.951751772079714e-07   -2.1125354925155372e-05
-4.656937528940101e-06   9.951751772079714e-07   -2.1125354925155372e-05
1.4399014101788148e-06   -3.6479070742530175e-07   -3.047077362624037e-05
1.4399014101788148e-06   -3.6479070742530175e-07   -3.047077362624037e-05
1.4399014101788148e-06   -3.6479070742530175e-07   -3.047077362624037e-05
1.4399014101788148e-06   -3.6479070742530175e-07   -3.047077362624037e-05
-4.656937528940109e-06   -3.239136785185505e-07   -4.2158810533242125e-05
-4.656937528940109e-06   -3.239136785185505e-07   -4.2158810533242125e-05
-4.656937528940109e-06   -3.239136785185505e-07   -4.2158810533242125e-05
-4.656937528940109e-06   -3.239136785185505e-07   -4.2158810533242125e-05
7.963135835911954e-06   9.951751772079714e-07   -2.0333901611719403e-05
7.963135835911954e-06   9.951751772079714e-07   -2.0333901611719403e-05
7.963135835911954e-06   9.951751772079714e-07   -2.0333901611719403e-05
7.963135835911954e-06   9.951751772079714e-07   -2.0333901611719403e-05
8.079054603410675e-06   1.1101307577214038e-06   -4.258683331043368e-05
8.079054603410675e-06   1.1101307577214038e-06   -4.258683331043368e-05
8.079054603410675e-06   1.1101307577214038e-06   -4.258683331043368e-05
8.079054603410675e-06   1.1101307577214038e-06   -4.258683331043368e-05
-4.664266691237139e-06   2.2784655312005917e-06   -2.2048965350108044e-05
-4.664266691237139e-06   2.2784655312005917e-06   -2.2048965350108044e-05
-4.664266691237139e-06   2.2784655312005917e-06   -2.2048965350108044e-05
-4.664266691237139e-06   2.2784655312005917e-06   -2.2048965350108044e-05
1.482612825996136e-06   6.709943120504795e-07   -3.132928181400689e-05
1.482612825996136e-06   6.709943120504795e-07   -3.132928181400689e-05
1.482612825996136e-06   6.709943120504795e-07   -3.132928181400689e-05
1.482612825996136e-06   6.709943120504795e-07   -3.132928181400689e-05
7.6261211868361445e-06   -5.07531653751858e-06   -2.2775724946588435e-05
7.6261211868361445e-06   -5.07531653751858e-06   -2.2775724946588435e-05
7.6261211868361445e-06   -5.07531653751858e-06   -2.2775724946588435e-05
7.6261211868361445e-06   -5.07531653751858e-06   -2.2775724946588435e-05
1.8537594582120276e-05   -2.3672996721934994e-06   -2.9651258352531972e-06
1.8537594582120276e-05   -2.3672996721934994e-06   -2.9651258352531972e-06
1.8537594582120276e-05   -2.3672996721934994e-06   -2.9651258352531972e-06
1.8537594582120276e-05   -2.3672996721934994e-06   -2.9651258352531972e-06
1.9835127834448948e-05   -4.355603659198198e-06   -2.391251031681719e-05
1.9835127834448948e-05   -4.355603659198198e-06   -2.391251031681719e-05
1.9835127834448948e-05   -4.355603659198198e-06   -2.391251031681719e-05
1.9835127834448948e-05   -4.355603659198198e-06   -2.391251031681719e-05
7.726433138270571e-06   -1.578529137175066e-06   -5.397597203067058e-06
7.726433138270571e-06   -1.578529137175066e-06   -5.397597203067058e-06
7.726433138270571e-06   -1.578529137175066e-06   -5.397597203067058e-06
7.726433138270571e-06   -1.578529137175066e-06   -5.397597203067058e-06
1.2858619629275826e-05   -3.2405454586415276e-06   -1.2954031561862605e-05
1.2858619629275826e-05   -3.2405454586415276e-06   -1.2954031561862605e-05
1.2858619629275826e-05   -3.2405454586415276e-06   -1.2954031561862605e-05
1.2858619629275826e-05   -3.2405454586415276e-06   -1.2954031561862605e-05
7.726433138270571e-06   -4.3556036591981635e-06   -2.5578755030030906e-05
7.726433138270571e-06   -4.3556036591981635e-06   -2.5578755030030906e-05
7.726433138270571e-06   -4.3556036591981635e-06   -2.5578755030030906e-05
7.726433138270571e-06   -4.3556036591981635e-06   -2.5578755030030906e-05
1.983512783444892e-05   -1.5785291371749575e-06   -3.7313524898533682e-06
1.983512783444892e-05   -1.5785291371749575e-06   -3.7313524898533682e-06
1.983512783444892e-05   -1.5785291371749575e-06   -3.7313524898533682e-06
1.983512783444892e-05   -1.5785291371749575e-06   -3.7313524898533682e-06
2.083406483748988e-05   -3.738678892643908e-06   -2.6221354332715043e-05
2.083406483748988e-05   -3.738678892643908e-06   -2.6221354332715043e-05
2.083406483748988e-05   -3.738678892643908e-06   -2.6221354332715043e-05
2.083406483748988e-05   -3.738678892643908e-06   -2.6221354332715043e-05
7.963135835911953e-06   -1.0341972323602358e-06   -6.392494992922006e-06
7.963135835911953e-06   -1.0341972323602358e-06   -6.392494992922006e-06
7.963135835911953e-06   -1.0341972323602358e-06   -6.392494992922006e-06
7.963135835911953e-06   -1.0341972323602358e-06   -6.392494992922006e-06
1.3651245217017951e-05   -2.8354079979848665e-06   -1.479195083539054e-05
1.3651245217017951e-05   -2.8354079979848665e-06   -1.479195083539054e-05
1.3651245217017951e-05   -2.8354079979848665e-06   -1.479195083539054e-05
1.3651245217017951e-05   -2.8354079979848665e-06   -1.479195083539054e-05
7.96313583591194e-06   -3.7386788926438738e-06   -2.7844043328885198e-05
7.96313583591194e-06   -3.7386788926438738e-06   -2.7844043328885198e-05
7.96313583591194e-06   -3.7386788926438738e-06   -2.7844043328885198e-05
7.96313583591194e-06   -3.7386788926438738e-06   -2.7844043328885198e-05
2.0834064837489826e-05   -1.0341972323603442e-06   -4.769805996751716e-06
2.0834064837489826e-05   -1.0341972323603442e-06   -4.769805996751716e-06
2.0834064837489826e-05   -1.0341972323603442e-06   -4.769805996751716e-06
2.0834064837489826e-05   -1.0341972323603442e-06   -4.769805996751716e-06
2.2161889108524035e-05   -2.4211060431018807e-06   -3.065042576321734e-05
2.2161889108524035e-05   -2.4211060431018807e-06   -3.065042576321734e-05
2.2161889108524035e-05   -2.4211060431018807e-06   -3.065042576321734e-05
2.2161889108524035e-05   -2.4211060431018807e-06   -3.065042576321734e-05
8.079054603410689e-06   3.5479937305726676e-08   -8.652986509606072e-06
8.079054603410689e-06   3.5479937305726676e-08   -8.652986509606072e-06
8.079054603410689e-06   3.5479937305726676e-08   -8.652986509606072e-06
8.079054603410689e-06   3.5479937305726676e-08   -8.652986509606072e-06
1.391580938139419e-05   -2.2332581330831904e-06   -1.701966829734534e-05
1.391580938139419e-05   -2.2332581330831904e-06   -1.701966829734534e-05
1.391580938139419e-05   -2.2332581330831904e-06   -1.701966829734534e-05
1.391580938139419e-05   -2.2332581330831904e-06   -1.701966829734534e-05
-2.6465283413253245e-05   4.263841170902648e-06   -2.4809639588201072e-05
-2.6465283413253245e-05   4.263841170902648e-06   -2.4809639588201072e-05
-2.6465283413253245e-05   4.263841170902648e-06   -2.4809639588201072e-05
-2.6465283413253245e-05   4.263841170902648e-06   -2.4809639588201072e-05
-1.954903028926277e-05   1.7359566004103173e-06   -1.4799281790512384e-05
-1.954903028926277e-05   1.7359566004103173e-06   -1.4799281790512384e-05
-1.954903028926277e-05   1.7359566004103173e-06   -1.4799281790512384e-05
-1.954903028926277e-05   1.7359566004103173e-06   -1.4799281790512384e-05
-1.926192726820996e-05   5.42781663143122e-06   -2.1886635409526685e-05
-1.926192726820996e-05   5.42781663143122e-06   -2.1886635409526685e-05
-1.926192726820996e-05   5.42781663143122e-06   -2.1886635409526685e-05
-1.926192726820996e-05   5.42781663143122e-06   -2.1886635409526685e-05
-2.5026295995661365e-05   2.704231948351442e-06   -1.0645203387259607e-05
-2.5026295995661365e-05   2.704231948351442e-06   -1.0645203387259607e-05
-2.5026295995661365e-05   2.704231948351442e-06   -1.0645203387259607e-05
-2.5026295995661365e-05   2.704231948351442e-06   -1.0645203387259607e-05
-2.161917803952065e-05   3.824923213364409e-06   -1.6996148073169582e-05
-2.161917803952065e-05   3.824923213364409e-06   -1.6996148073169582e-05
-2.161917803952065e-05   3.824923213364409e-06   -1.6996148073169582e-05
-2.161917803952065e-05   3.824923213364409e-06   -1.6996148073169582e-05
-2.5026295995661345e-05   5.427816631431239e-06   -2.0252484599678807e-05
-2.5026295995661345e-05   5.427816631431239e-06   -2.0252484599678807e-05
-2.5026295995661345e-05   5.427816631431239e-06   -2.0252484599678807e-05
-2.5026295995661345e-05   5.427816631431239e-06   -2.0252484599678807e-05
-1.9261927268209988e-05   2.704231948351442e-06   -1.2279354197107566e-05
-1.9261927268209988e-05   2.704231948351442e-06   -1.2279354197107566e-05
-1.9261927268209988e-05   2.704231948351442e-06   -1.2279354197107566e-05
-1.9261927268209988e-05   2.704231948351442e-06   -1.2279354197107566e-05
-1.8852033720760615e-05   5.970317785703675e-06   -1.9543400157285467e-05
-1.8852033720760615e-05   5.970317785703675e-06   -1.9543400157285467e-05
-1.8852033720760615e-05   5.970317785703675e-06   -1.9543400157285467e-05
-1.8852033720760615e-05   5.970317785703675e-06   -1.9543400157285467e-05
-2.3878849024081882e-05   3.1937010434605548e-06   -9.499404606404206e-06
-2.3878849024081882e-05   3.1937010434605548e-06   -9.499404606404206e-06
-2.3878849024081882e-05   3.1937010434605548e-06   -9.499404606404206e-06
-2.3878849024081882e-05   3.1937010434605548e-06   -9.499404606404206e-06
-2.123987442374451e-05   4.347497481488219e-06   -1.4589973469783101e-05
-2.123987442374451e-05   4.347497481488219e-06   -1.4589973469783101e-05
-2.123987442374451e-05   4.347497481488219e-06   -1.4589973469783101e-05
-2.123987442374451e-05   4.347497481488219e-06   -1.4589973469783101e-05
-2.3878849024081797e-05   5.9703177857036225e-06   -1.787743011193979e-05
-2.3878849024081797e-05   5.9703177857036225e-06   -1.787743011193979e-05
-2.3878849024081797e-05   5.9703177857036225e-06   -1.787743011193979e-05
-2.3878849024081797e-05   5.9703177857036225e-06   -1.787743011193979e-05
-1.8852033720760615e-05   3.1937010434605548e-06   -1.1165374651749883e-05
-1.8852033720760615e-05   3.1937010434605548e-06   -1.1165374651749883e-05
-1.8852033720760615e-05   3.1937010434605548e-06   -1.1165374651749883e-05
-1.8852033720760615e-05   3.1937010434605548e-06   -1.1165374651749883e-05
-1.8573121863487996e-05   6.652772561666878e-06   -1.653787933980069e-05
-1.8573121863487996e-05   6.652772561666878e-06   -1.653787933980069e-05
-1.8573121863487996e-05   6.652772561666878e-06   -1.653787933980069e-05
-1.8573121863487996e-05   6.652772561666878e-06   -1.653787933980069e-05
-2.2417833146741757e-05   3.969164190458906e-06   -8.519862178319642e-06
-2.2417833146741757e-05   3.969164190458906e-06   -8.519862178319642e-06
-2.2417833146741757e-05   3.969164190458906e-06   -8.519862178319642e-06
-2.2417833146741757e-05   3.969164190458906e-06   -8.519862178319642e-06
-2.024763025772545e-05   4.71018418919146e-06   -1.2581478992586324e-05
-2.024763025772545e-05   4.71018418919146e-06   -1.2581478992586324e-05
-2.024763025772545e-05   4.71018418919146e-06   -1.2581478992586324e-05
-2.024763025772545e-05   4.71018418919146e-06   -1.2581478992586324e-05
-1.954903028926277e-05   2.205156420690155e-06   -3.6174494123643027e-05
-1.954903028926277e-05   2.205156420690155e-06   -3.6174494123643027e-05
-1.954903028926277e-05   2.205156420690155e-06   -3.6174494123643027e-05
-1.954903028926277e-05   2.205156420690155e-06   -3.6174494123643027e-05
-1.3928524818952693e-05   9.979788442430505e-07   -2.7531291552327925e-05
-1.3928524818952693e-05   9.979788442430505e-07   -2.7531291552327925e-05
-1.3928524818952693e-05   9.979788442430505e-07   -2.7531291552327925e-05
-1.3928524818952693e-05   9.979788442430505e-07   -2.7531291552327925e-05
-1.374083634561627e-05   3.434118489311429e-06   -3.605529813386645e-05
-1.374083634561627e-05   3.434118489311429e-06   -3.605529813386645e-05
-1.374083634561627e-05   3.434118489311429e-06   -3.605529813386645e-05
-1.374083634561627e-05   3.434118489311429e-06   -3.605529813386645e-05
-1.9261927268210035e-05   2.1083924591522134e-06   -2.6058044311447876e-05
-1.9261927268210035e-05   2.1083924591522134e-06   -2.6058044311447876e-05
-1.9261927268210035e-05   2.1083924591522134e-06   -2.6058044311447876e-05
-1.9261927268210035e-05   2.1083924591522134e-06   -2.6058044311447876e-05
-1.6458037010157875e-05   2.3998110373648057e-06   -3.090604588846309e-05
-1.6458037010157875e-05   2.3998110373648057e-06   -3.090604588846309e-05
-1.6458037010157875e-05   2.3998110373648057e-06   -3.090604588846309e-05
-1.6458037010157875e-05   2.3998110373648057e-06   -3.090604588846309e-05
-1.926192726820996e-05   3.434118489311386e-06   -3.525986251577077e-05
-1.926192726820996e-05   3.434118489311386e-06   -3.525986251577077e-05
-1.926192726820996e-05   3.434118489311386e-06   -3.525986251577077e-05
-1.926192726820996e-05   3.434118489311386e-06   -3.525986251577077e-05
-1.3740836345616298e-05   2.1083924591522134e-06   -2.6853479929543557e-05
-1.3740836345616298e-05   2.1083924591522134e-06   -2.6853479929543557e-05
-1.3740836345616298e-05   2.1083924591522134e-06   -2.6853479929543557e-05
-1.3740836345616298e-05   2.1083924591522134e-06   -2.6853479929543557e-05
-1.3533511075168047e-05   4.552566362941795e-06   -3.547230388622265e-05
-1.3533511075168047e-05   4.552566362941795e-06   -3.547230388622265e-05
-1.3533511075168047e-05   4.552566362941795e-06   -3.547230388622265e-05
-1.3533511075168047e-05   4.552566362941795e-06   -3.547230388622265e-05
-1.8852033720760652e-05   3.1411106586991255e-06   -2.576122605435602e-05
-1.8852033720760652e-05   3.1411106586991255e-06   -2.576122605435602e-05
-1.8852033720760652e-05   3.1411106586991255e-06   -2.576122605435602e-05
-1.8852033720760652e-05   3.1411106586991255e-06   -2.576122605435602e-05
-1.6211069697266663e-05   3.297837188465883e-06   -3.025686867803913e-05
-1.6211069697266663e-05   3.297837188465883e-06   -3.025686867803913e-05
-1.6211069697266663e-05   3.297837188465883e-06   -3.025686867803913e-05
-1.6211069697266663e-05   3.297837188465883e-06   -3.025686867803913e-05
-1.8852033720760615e-05   4.552566362941691e-06   -3.462543046367701e-05
-1.8852033720760615e-05   4.552566362941691e-06   -3.462543046367701e-05
-1.8852033720760615e-05   4.552566362941691e-06   -3.462543046367701e-05
-1.8852033720760615e-05   4.552566362941691e-06   -3.462543046367701e-05
-1.353351107516802e-05   3.1411106586991255e-06   -2.6608099476901502e-05
-1.353351107516802e-05   3.1411106586991255e-06   -2.6608099476901502e-05
-1.353351107516802e-05   3.1411106586991255e-06   -2.6608099476901502e-05
-1.353351107516802e-05   3.1411106586991255e-06   -2.6608099476901502e-05
-1.334924856747087e-05   5.767618768881674e-06   -3.581627610885945e-05
-1.334924856747087e-05   5.767618768881674e-06   -3.581627610885945e-05
-1.334924856747087e-05   5.767618768881674e-06   -3.581627610885945e-05
-1.334924856747087e-05   5.767618768881674e-06   -3.581627610885945e-05
-1.8573121863488044e-05   4.288841649026376e-06   -2.6222554343584173e-05
-1.8573121863488044e-05   4.288841649026376e-06   -2.6222554343584173e-05
-1.8573121863488044e-05   4.288841649026376e-06   -2.6222554343584173e-05
-1.8573121863488044e-05   4.288841649026376e-06   -2.6222554343584173e-05
-1.6115016015282437e-05   4.207651392611612e-06   -3.027068327007807e-05
-1.6115016015282437e-05   4.207651392611612e-06   -3.027068327007807e-05
-1.6115016015282437e-05   4.207651392611612e-06   -3.027068327007807e-05
-1.6115016015282437e-05   4.207651392611612e-06   -3.027068327007807e-05
-1.3928524818952639e-05   3.801100208248347e-07   -4.0907585676174516e-05
-1.3928524818952639e-05   3.801100208248347e-07   -4.0907585676174516e-05
-1.3928524818952639e-05   3.801100208248347e-07   -4.0907585676174516e-05
-1.3928524818952639e-05   3.801100208248347e-07   -4.0907585676174516e-05
-8.450791347187425e-06   5.728485532356057e-07   -3.1662386770452806e-05
-8.450791347187425e-06   5.728485532356057e-07   -3.1662386770452806e-05
-8.450791347187425e-06   5.728485532356057e-07   -3.1662386770452806e-05
-8.450791347187425e-06   5.728485532356057e-07   -3.1662386770452806e-05
-8.267946767043682e-06   1.615923270869863e-06   -4.039302741344359e-05
-8.267946767043682e-06   1.615923270869863e-06   -4.039302741344359e-05
-8.267946767043682e-06   1.615923270869863e-06   -4.039302741344359e-05
-8.267946767043682e-06   1.615923270869863e-06   -4.039302741344359e-05
-1.3740836345616269e-05   1.704058486751191e-06   -3.132442591201781e-05
-1.3740836345616269e-05   1.704058486751191e-06   -3.132442591201781e-05
-1.3740836345616269e-05   1.704058486751191e-06   -3.132442591201781e-05
-1.3740836345616269e-05   1.704058486751191e-06   -3.132442591201781e-05
-1.102588710644932e-05   1.2258466243756294e-06   -3.556241419320481e-05
-1.102588710644932e-05   1.2258466243756294e-06   -3.556241419320481e-05
-1.102588710644932e-05   1.2258466243756294e-06   -3.556241419320481e-05
-1.102588710644932e-05   1.2258466243756294e-06   -3.556241419320481e-05
-1.3740836345616243e-05   1.615923270869844e-06   -4.044590854297231e-05
-1.3740836345616243e-05   1.615923270869844e-06   -4.044590854297231e-05
-1.3740836345616243e-05   1.615923270869844e-06   -4.044590854297231e-05
-1.3740836345616243e-05   1.615923270869844e-06   -4.044590854297231e-05
-8.267946767043669e-06   1.7040584867514079e-06   -3.1271544782489065e-05
-8.267946767043669e-06   1.7040584867514079e-06   -3.1271544782489065e-05
-8.267946767043669e-06   1.7040584867514079e-06   -3.1271544782489065e-05
-8.267946767043669e-06   1.7040584867514079e-06   -3.1271544782489065e-05
-8.062097860193715e-06   2.855690122166945e-06   -4.04981887902685e-05
-8.062097860193715e-06   2.855690122166945e-06   -4.04981887902685e-05
-8.062097860193715e-06   2.855690122166945e-06   -4.04981887902685e-05
-8.062097860193715e-06   2.855690122166945e-06   -4.04981887902685e-05
-1.353351107516802e-05   2.8451676631839184e-06   -3.1372853289921276e-05
-1.353351107516802e-05   2.8451676631839184e-06   -3.1372853289921276e-05
-1.353351107516802e-05   2.8451676631839184e-06   -3.1372853289921276e-05
-1.353351107516802e-05   2.8451676631839184e-06   -3.1372853289921276e-05
-1.0903505934347685e-05   2.197903244445824e-06   -3.536783654004583e-05
-1.0903505934347685e-05   2.197903244445824e-06   -3.536783654004583e-05
-1.0903505934347685e-05   2.197903244445824e-06   -3.536783654004583e-05
-1.0903505934347685e-05   2.197903244445824e-06   -3.536783654004583e-05
-1.3533511075167993e-05   2.8556901221669197e-06   -4.0491875314878605e-05
-1.3533511075167993e-05   2.8556901221669197e-06   -4.0491875314878605e-05
-1.3533511075167993e-05   2.8556901221669197e-06   -4.0491875314878605e-05
-1.3533511075167993e-05   2.8556901221669197e-06   -4.0491875314878605e-05
-8.062097860193687e-06   2.8451676631837015e-06   -3.137916676531114e-05
-8.062097860193687e-06   2.8451676631837015e-06   -3.137916676531114e-05
-8.062097860193687e-06   2.8451676631837015e-06   -3.137916676531114e-05
-8.062097860193687e-06   2.8451676631837015e-06   -3.137916676531114e-05
-7.87719723475135e-06   4.117132960151882e-06   -4.117981838344523e-05
-7.87719723475135e-06   4.117132960151882e-06   -4.117981838344523e-05
-7.87719723475135e-06   4.117132960151882e-06   -4.117981838344523e-05
-7.87719723475135e-06   4.117132960151882e-06   -4.117981838344523e-05
-1.3349248567470914e-05   4.003510380282344e-06   -3.199155928099081e-05
-1.3349248567470914e-05   4.003510380282344e-06   -3.199155928099081e-05
-1.3349248567470914e-05   4.003510380282344e-06   -3.199155928099081e-05
-1.3349248567470914e-05   4.003510380282344e-06   -3.199155928099081e-05
-1.0802468215528793e-05   3.182886930045911e-06   -3.574381913075243e-05
-1.0802468215528793e-05   3.182886930045911e-06   -3.574381913075243e-05
-1.0802468215528793e-05   3.182886930045911e-06   -3.574381913075243e-05
-1.0802468215528793e-05   3.182886930045911e-06   -3.574381913075243e-05
-8.450791347187395e-06   -1.2888480460190289e-06   -3.5855126747945637e-05
-8.450791347187395e-06   -1.2888480460190289e-06   -3.5855126747945637e-05
-8.450791347187395e-06   -1.2888480460190289e-06   -3.5855126747945637e-05
-8.450791347187395e-06   -1.2888480460190289e-06   -3.5855126747945637e-05
-3.140094989290617e-06   2.464618334696578e-07   -2.608278022375797e-05
-3.140094989290617e-06   2.464618334696578e-07   -2.608278022375797e-05
-3.140094989290617e-06   2.464618334696578e-07   -2.608278022375797e-05
-3.140094989290617e-06   2.464618334696578e-07   -2.608278022375797e-05
-2.866574545262138e-06   -1.2465263192051185e-07   -3.470157080476998e-05
-2.866574545262138e-06   -1.2465263192051185e-07   -3.470157080476998e-05
-2.866574545262138e-06   -1.2465263192051185e-07   -3.470157080476998e-05
-2.866574545262138e-06   -1.2465263192051185e-07   -3.470157080476998e-05
-8.267946767043667e-06   1.34240397010074e-06   -2.6579517729679716e-05
-8.267946767043667e-06   1.34240397010074e-06   -2.6579517729679716e-05
-8.267946767043667e-06   1.34240397010074e-06   -2.6579517729679716e-05
-8.267946767043667e-06   1.34240397010074e-06   -2.6579517729679716e-05
-5.624012208072359e-06   1.582386743637955e-07   -3.0275576150523745e-05
-5.624012208072359e-06   1.582386743637955e-07   -3.0275576150523745e-05
-5.624012208072359e-06   1.582386743637955e-07   -3.0275576150523745e-05
-5.624012208072359e-06   1.582386743637955e-07   -3.0275576150523745e-05
-8.267946767043652e-06   -1.2465263192047267e-07   -3.55818047659825e-05
-8.267946767043652e-06   -1.2465263192047267e-07   -3.55818047659825e-05
-8.267946767043652e-06   -1.2465263192047267e-07   -3.55818047659825e-05
-8.267946767043652e-06   -1.2465263192047267e-07   -3.55818047659825e-05
-2.866574545262138e-06   1.3424039701005232e-06   -2.569928376846718e-05
-2.866574545262138e-06   1.3424039701005232e-06   -2.569928376846718e-05
-2.866574545262138e-06   1.3424039701005232e-06   -2.569928376846718e-05
-2.866574545262138e-06   1.3424039701005232e-06   -2.569928376846718e-05
-2.459945809735962e-06   9.951751772079714e-07   -3.516843721256788e-05
-2.459945809735962e-06   9.951751772079714e-07   -3.516843721256788e-05
-2.459945809735962e-06   9.951751772079714e-07   -3.516843721256788e-05
-2.459945809735962e-06   9.951751772079714e-07   -3.516843721256788e-05
-8.0620978601937e-06   2.374987633405913e-06   -2.665940460219033e-05
-8.0620978601937e-06   2.374987633405913e-06   -2.665940460219033e-05
-8.0620978601937e-06   2.374987633405913e-06   -2.665940460219033e-05
-8.0620978601937e-06   2.374987633405913e-06   -2.665940460219033e-05
-5.458792682876234e-06   1.0431964407294023e-06   -3.0199171848780188e-05
-5.458792682876234e-06   1.0431964407294023e-06   -3.0199171848780188e-05
-5.458792682876234e-06   1.0431964407294023e-06   -3.0199171848780188e-05
-5.458792682876234e-06   1.0431964407294023e-06   -3.0199171848780188e-05
-8.062097860193687e-06   9.951751772079429e-07   -3.5996324686286536e-05
-8.062097860193687e-06   9.951751772079429e-07   -3.5996324686286536e-05
-8.062097860193687e-06   9.951751772079429e-07   -3.5996324686286536e-05
-8.062097860193687e-06   9.951751772079429e-07   -3.5996324686286536e-05
-2.4599458097359755e-06   2.37498763340613e-06   -2.5831517128471477e-05
-2.4599458097359755e-06   2.37498763340613e-06   -2.5831517128471477e-05
-2.4599458097359755e-06   2.37498763340613e-06   -2.5831517128471477e-05
-2.4599458097359755e-06   2.37498763340613e-06   -2.5831517128471477e-05
-2.176128033511162e-06   2.2784655312004833e-06   -3.615198894372216e-05
-2.176128033511162e-06   2.2784655312004833e-06   -3.615198894372216e-05
-2.176128033511162e-06   2.2784655312004833e-06   -3.615198894372216e-05
-2.176128033511162e-06   2.2784655312004833e-06   -3.615198894372216e-05
-7.877197234751351e-06   3.542339345058822e-06   -2.7408531229970067e-05
-7.877197234751351e-06   3.542339345058822e-06   -2.7408531229970067e-05
-7.877197234751351e-06   3.542339345058822e-06   -2.7408531229970067e-05
-7.877197234751351e-06   3.542339345058822e-06   -2.7408531229970067e-05
-5.285934693193696e-06   1.970493879511516e-06   -3.078419485323778e-05
-5.285934693193696e-06   1.970493879511516e-06   -3.078419485323778e-05
-5.285934693193696e-06   1.970493879511516e-06   -3.078419485323778e-05
-5.285934693193696e-06   1.970493879511516e-06   -3.078419485323778e-05
-3.1400949892906036e-06   -2.3672996721935096e-06   -1.9455516892295007e-05
-3.1400949892906036e-06   -2.3672996721935096e-06   -1.9455516892295007e-05
-3.1400949892906036e-06   -2.3672996721935096e-06   -1.9455516892295007e-05
-3.1400949892906036e-06   -2.3672996721935096e-06   -1.9455516892295007e-05
7.813101601307514e-07   3.435540610054969e-07   -1.1293329403339893e-05
7.813101601307514e-07   3.435540610054969e-07   -1.1293329403339893e-05
7.813101601307514e-07   3.435540610054969e-07   -1.1293329403339893e-05
7.813101601307514e-07   3.435540610054969e-07   -1.1293329403339893e-05
2.2279728629832787e-06   -1.5785291371749575e-06   -1.8576914775319424e-05
2.2279728629832787e-06   -1.5785291371749575e-06   -1.8576914775319424e-05
2.2279728629832787e-06   -1.5785291371749575e-06   -1.8576914775319424e-05
2.2279728629832787e-06   -1.5785291371749575e-06   -1.8576914775319424e-05
-2.8665745452621437e-06   1.2099964157132395e-06   -1.175911775997646e-05
-2.8665745452621437e-06   1.2099964157132395e-06   -1.175911775997646e-05
-2.8665745452621437e-06   1.2099964157132395e-06   -1.175911775997646e-05
-2.8665745452621437e-06   1.2099964157132395e-06   -1.175911775997646e-05
-7.294552940732804e-07   -4.813175546508532e-07   -1.4306194796406417e-05
-7.294552940732804e-07   -4.813175546508532e-07   -1.4306194796406417e-05
-7.294552940732804e-07   -4.813175546508532e-07   -1.4306194796406417e-05
-7.294552940732804e-07   -4.813175546508532e-07   -1.4306194796406417e-05
-2.866574545262138e-06   -1.5785291371750001e-06   -2.025003010705219e-05
-2.866574545262138e-06   -1.5785291371750001e-06   -2.025003010705219e-05
-2.866574545262138e-06   -1.5785291371750001e-06   -2.025003010705219e-05
-2.866574545262138e-06   -1.5785291371750001e-06   -2.025003010705219e-05
2.2279728629832787e-06   1.2099964157132395e-06   -1.008600242824345e-05
2.2279728629832787e-06   1.2099964157132395e-06   -1.008600242824345e-05
2.2279728629832787e-06   1.2099964157132395e-06   -1.008600242824345e-05
2.2279728629832787e-06   1.2099964157132395e-06   -1.008600242824345e-05
3.37033219078927e-06   -1.0341972323603442e-06   -1.9588209028142305e-05
3.37033219078927e-06   -1.0341972323603442e-06   -1.9588209028142305e-05
3.37033219078927e-06   -1.0341972323603442e-06   -1.9588209028142305e-05
3.37033219078927e-06   -1.0341972323603442e-06   -1.9588209028142305e-05
-2.4599458097359607e-06   1.6971720436865286e-06   -1.1509900592894816e-05
-2.4599458097359607e-06   1.6971720436865286e-06   -1.1509900592894816e-05
-2.4599458097359607e-06   1.6971720436865286e-06   -1.1509900592894816e-05
-2.4599458097359607e-06   1.6971720436865286e-06   -1.1509900592894816e-05
3.992204601069587e-09   -6.627167966916786e-08   -1.4558397716109766e-05
3.992204601069587e-09   -6.627167966916786e-08   -1.4558397716109766e-05
3.992204601069587e-09   -6.627167966916786e-08   -1.4558397716109766e-05
3.992204601069587e-09   -6.627167966916786e-08   -1.4558397716109766e-05
-2.459945809735962e-06   -1.034197232360319e-06   -2.122703059377032e-05
-2.459945809735962e-06   -1.034197232360319e-06   -2.122703059377032e-05
-2.459945809735962e-06   -1.034197232360319e-06   -2.122703059377032e-05
-2.459945809735962e-06   -1.034197232360319e-06   -2.122703059377032e-05
3.37033219078927e-06   1.6971720436865286e-06   -9.871079027266665e-06
3.37033219078927e-06   1.6971720436865286e-06   -9.871079027266665e-06
3.37033219078927e-06   1.6971720436865286e-06   -9.871079027266665e-06
3.37033219078927e-06   1.6971720436865286e-06   -9.871079027266665e-06
4.812240152440205e-06   3.5479937305726676e-08   -2.1941936833619563e-05
4.812240152440205e-06   3.5479937305726676e-08   -2.1941936833619563e-05
4.812240152440205e-06   3.5479937305726676e-08   -2.1941936833619563e-05
4.812240152440205e-06   3.5479937305726676e-08   -2.1941936833619563e-05
-2.176128033511176e-06   2.560603493452669e-06   -1.1809730657388456e-05
-2.176128033511176e-06   2.560603493452669e-06   -1.1809730657388456e-05
-2.176128033511176e-06   2.560603493452669e-06   -1.1809730657388456e-05
-2.176128033511176e-06   2.560603493452669e-06   -1.1809730657388456e-05
6.353968322960133e-07   4.0697042775442605e-07   -1.5203425594315117e-05
6.353968322960133e-07   4.0697042775442605e-07   -1.5203425594315117e-05
6.353968322960133e-07   4.0697042775442605e-07   -1.5203425594315117e-05
6.353968322960133e-07   4.0697042775442605e-07   -1.5203425594315117e-05
-9.206871504831727e-06   1.735956600410339e-06   -1.652698184270013e-05
-9.206871504831727e-06   1.735956600410339e-06   -1.652698184270013e-05
-9.206871504831727e-06   1.735956600410339e-06   -1.652698184270013e-05
-9.206871504831727e-06   1.735956600410339e-06   -1.652698184270013e-05
-9.343248863503273e-06   -8.093037878981017e-07   -1.828143367347114e-05
-9.343248863503273e-06   -8.093037878981017e-07   -1.828143367347114e-05
-9.343248863503273e-06   -8.093037878981017e-07   -1.828143367347114e-05
-9.343248863503273e-06   -8.093037878981017e-07   -1.828143367347114e-05
-8.87599587819508e-06   2.7042319483512253e-06   -1.5528613584406053e-05
-8.87599587819508e-06   2.7042319483512253e-06   -1.5528613584406053e-05
-8.87599587819508e-06   2.7042319483512253e-06   -1.5528613584406053e-05
-8.87599587819508e-06   2.7042319483512253e-06   -1.5528613584406053e-05
-7.596239862614751e-06   -2.6255234647845627e-08   -1.6023247967240483e-05
-7.596239862614751e-06   -2.6255234647845627e-08   -1.6023247967240483e-05
-7.596239862614751e-06   -2.6255234647845627e-08   -1.6023247967240483e-05
-7.596239862614751e-06   -2.6255234647845627e-08   -1.6023247967240483e-05
-8.372948588571967e-06   1.1951647592323578e-06   -1.5461585420307208e-05
-8.372948588571967e-06   1.1951647592323578e-06   -1.5461585420307208e-05
-8.372948588571967e-06   1.1951647592323578e-06   -1.5461585420307208e-05
-8.372948588571967e-06   1.1951647592323578e-06   -1.5461585420307208e-05
-7.5962398626147555e-06   2.704231948351314e-06   -1.3890321274606654e-05
-7.5962398626147555e-06   2.704231948351314e-06   -1.3890321274606654e-05
-7.5962398626147555e-06   2.704231948351314e-06   -1.3890321274606654e-05
-7.5962398626147555e-06   2.704231948351314e-06   -1.3890321274606654e-05
-8.875995878195107e-06   -2.6255234647845627e-08   -1.76615402770401e-05
-8.875995878195107e-06   -2.6255234647845627e-08   -1.76615402770401e-05
-8.875995878195107e-06   -2.6255234647845627e-08   -1.76615402770401e-05
-8.875995878195107e-06   -2.6255234647845627e-08   -1.76615402770401e-05
-8.286430339610499e-06   3.1937010434607716e-06   -1.4410551968801685e-05
-8.286430339610499e-06   3.1937010434607716e-06   -1.4410551968801685e-05
-8.286430339610499e-06   3.1937010434607716e-06   -1.4410551968801685e-05
-8.286430339610499e-06   3.1937010434607716e-06   -1.4410551968801685e-05
-6.26475994391863e-06   4.169901840170732e-07   -1.6113976112621937e-05
-6.26475994391863e-06   4.169901840170732e-07   -1.6113976112621937e-05
-6.26475994391863e-06   4.169901840170732e-07   -1.6113976112621937e-05
-6.26475994391863e-06   4.169901840170732e-07   -1.6113976112621937e-05
-7.6108213787112064e-06   1.5973472440721382e-06   -1.457875462400137e-05
-7.6108213787112064e-06   1.5973472440721382e-06   -1.457875462400137e-05
-7.6108213787112064e-06   1.5973472440721382e-06   -1.457875462400137e-05
-7.6108213787112064e-06   1.5973472440721382e-06   -1.457875462400137e-05
-6.264759943918632e-06   3.1937010434607958e-06   -1.274452545313551e-05
-6.264759943918632e-06   3.1937010434607958e-06   -1.274452545313551e-05
-6.264759943918632e-06   3.1937010434607958e-06   -1.274452545313551e-05
-6.264759943918632e-06   3.1937010434607958e-06   -1.274452545313551e-05
-8.286430339610553e-06   4.169901840170732e-07   -1.7780002628288167e-05
-8.286430339610553e-06   4.169901840170732e-07   -1.7780002628288167e-05
-8.286430339610553e-06   4.169901840170732e-07   -1.7780002628288167e-05
-8.286430339610553e-06   4.169901840170732e-07   -1.7780002628288167e-05
-7.8269459671311e-06   3.9691641904586895e-06   -1.3371480065961679e-05
-7.8269459671311e-06   3.9691641904586895e-06   -1.3371480065961679e-05
-7.8269459671311e-06   3.9691641904586895e-06   -1.3371480065961679e-05
-7.8269459671311e-06   3.9691641904586895e-06   -1.3371480065961679e-05
-4.6208093017001494e-06   1.3009151450858823e-06   -1.7114091747789527e-05
-4.6208093017001494e-06   1.3009151450858823e-06   -1.7114091747789527e-05
-4.6208093017001494e-06   1.3009151450858823e-06   -1.7114091747789527e-05
-4.6208093017001494e-06   1.3009151450858823e-06   -1.7114091747789527e-05
-6.658549779499103e-06   1.9831282839781646e-06   -1.41271855014592e-05
-6.658549779499103e-06   1.9831282839781646e-06   -1.41271855014592e-05
-6.658549779499103e-06   1.9831282839781646e-06   -1.41271855014592e-05
-6.658549779499103e-06   1.9831282839781646e-06   -1.41271855014592e-05
-9.343248863503246e-06   9.979788442429823e-07   -3.0061841291632342e-05
-9.343248863503246e-06   9.979788442429823e-07   -3.0061841291632342e-05
-9.343248863503246e-06   9.979788442429823e-07   -3.0061841291632342e-05
-9.343248863503246e-06   9.979788442429823e-07   -3.0061841291632342e-05
-1.0775105646534941e-05   -1.7438384493622533e-07   -3.3151686876859245e-05
-1.0775105646534941e-05   -1.7438384493622533e-07   -3.3151686876859245e-05
-1.0775105646534941e-05   -1.7438384493622533e-07   -3.3151686876859245e-05
-1.0775105646534941e-05   -1.7438384493622533e-07   -3.3151686876859245e-05
-1.0397867448545424e-05   2.1083924591522134e-06   -3.0084052905106936e-05
-1.0397867448545424e-05   2.1083924591522134e-06   -3.0084052905106936e-05
-1.0397867448545424e-05   2.1083924591522134e-06   -3.0084052905106936e-05
-1.0397867448545424e-05   2.1083924591522134e-06   -3.0084052905106936e-05
-8.875995878195116e-06   8.138104485517009e-07   -3.184375631599701e-05
-8.875995878195116e-06   8.138104485517009e-07   -3.184375631599701e-05
-8.875995878195116e-06   8.138104485517009e-07   -3.184375631599701e-05
-8.875995878195116e-06   8.138104485517009e-07   -3.184375631599701e-05
-9.733369122600895e-06   1.153595325402955e-06   -3.061867183476544e-05
-9.733369122600895e-06   1.153595325402955e-06   -3.061867183476544e-05
-9.733369122600895e-06   1.153595325402955e-06   -3.061867183476544e-05
-9.733369122600895e-06   1.153595325402955e-06   -3.061867183476544e-05
-8.87599587819508e-06   2.1083924591522663e-06   -2.930730369874639e-05
-8.87599587819508e-06   2.1083924591522663e-06   -2.930730369874639e-05
-8.87599587819508e-06   2.1083924591522663e-06   -2.930730369874639e-05
-8.87599587819508e-06   2.1083924591522663e-06   -2.930730369874639e-05
-1.039786744854541e-05   8.13810448551484e-07   -3.2620505522357505e-05
-1.039786744854541e-05   8.13810448551484e-07   -3.2620505522357505e-05
-1.039786744854541e-05   8.13810448551484e-07   -3.2620505522357505e-05
-1.039786744854541e-05   8.13810448551484e-07   -3.2620505522357505e-05
-1.0005496807918368e-05   3.1411106586991255e-06   -2.983182437379635e-05
-1.0005496807918368e-05   3.1411106586991255e-06   -2.983182437379635e-05
-1.0005496807918368e-05   3.1411106586991255e-06   -2.983182437379635e-05
-1.0005496807918368e-05   3.1411106586991255e-06   -2.983182437379635e-05
-8.286430339610553e-06   1.7654089880512515e-06   -3.187151415192063e-05
-8.286430339610553e-06   1.7654089880512515e-06   -3.187151415192063e-05
-8.286430339610553e-06   1.7654089880512515e-06   -3.187151415192063e-05
-8.286430339610553e-06   1.7654089880512515e-06   -3.187151415192063e-05
-9.355381007134941e-06   1.950525063267516e-06   -3.020099935117644e-05
-9.355381007134941e-06   1.950525063267516e-06   -3.020099935117644e-05
-9.355381007134941e-06   1.950525063267516e-06   -3.020099935117644e-05
-9.355381007134941e-06   1.950525063267516e-06   -3.020099935117644e-05
-8.286430339610499e-06   3.14111065869914e-06   -2.9006403371407605e-05
-8.286430339610499e-06   3.14111065869914e-06   -2.9006403371407605e-05
-8.286430339610499e-06   3.14111065869914e-06   -2.9006403371407605e-05
-8.286430339610499e-06   3.14111065869914e-06   -2.9006403371407605e-05
-1.0005496807918341e-05   1.7654089880512515e-06   -3.2696935154309106e-05
-1.0005496807918341e-05   1.7654089880512515e-06   -3.2696935154309106e-05
-1.0005496807918341e-05   1.7654089880512515e-06   -3.2696935154309106e-05
-1.0005496807918341e-05   1.7654089880512515e-06   -3.2696935154309106e-05
-9.636056978890628e-06   4.288841649026376e-06   -3.0325977140765754e-05
-9.636056978890628e-06   4.288841649026376e-06   -3.0325977140765754e-05
-9.636056978890628e-06   4.288841649026376e-06   -3.0325977140765754e-05
-9.636056978890628e-06   4.288841649026376e-06   -3.0325977140765754e-05
-7.826945967131097e-06   2.8522250952523528e-06   -3.2479192228100434e-05
-7.826945967131097e-06   2.8522250952523528e-06   -3.2479192228100434e-05
-7.826945967131097e-06   2.8522250952523528e-06   -3.2479192228100434e-05
-7.826945967131097e-06   2.8522250952523528e-06   -3.2479192228100434e-05
-9.022943205205001e-06   2.786718973716131e-06   -3.0446559825055074e-05
-9.022943205205001e-06   2.786718973716131e-06   -3.0446559825055074e-05
-9.022943205205001e-06   2.786718973716131e-06   -3.0446559825055074e-05
-9.022943205205001e-06   2.786718973716131e-06   -3.0446559825055074e-05
-1.07751056465349e-05   5.728485532355502e-07   -3.50119972427112e-05
-1.07751056465349e-05   5.728485532355502e-07   -3.50119972427112e-05
-1.07751056465349e-05   5.728485532355502e-07   -3.50119972427112e-05
-1.07751056465349e-05   5.728485532355502e-07   -3.50119972427112e-05
-1.2281524763799065e-05   8.207857206882826e-07   -3.737393347101321e-05
-1.2281524763799065e-05   8.207857206882826e-07   -3.737393347101321e-05
-1.2281524763799065e-05   8.207857206882826e-07   -3.737393347101321e-05
-1.2281524763799065e-05   8.207857206882826e-07   -3.737393347101321e-05
-1.1910859071598415e-05   1.7040584867514079e-06   -3.447198870253781e-05
-1.1910859071598415e-05   1.7040584867514079e-06   -3.447198870253781e-05
-1.1910859071598415e-05   1.7040584867514079e-06   -3.447198870253781e-05
-1.1910859071598415e-05   1.7040584867514079e-06   -3.447198870253781e-05
-1.0397867448545412e-05   1.8424087951573933e-06   -3.707665159266956e-05
-1.0397867448545412e-05   1.8424087951573933e-06   -3.707665159266956e-05
-1.0397867448545412e-05   1.8424087951573933e-06   -3.707665159266956e-05
-1.0397867448545412e-05   1.8424087951573933e-06   -3.707665159266956e-05
-1.127305561911413e-05   1.3942196924914604e-06   -3.534909118012273e-05
-1.127305561911413e-05   1.3942196924914604e-06   -3.534909118012273e-05
-1.127305561911413e-05   1.3942196924914604e-06   -3.534909118012273e-05
-1.127305561911413e-05   1.3942196924914604e-06   -3.534909118012273e-05
-1.0397867448545397e-05   1.7040584867514265e-06   -3.455499888758127e-05
-1.0397867448545397e-05   1.7040584867514265e-06   -3.455499888758127e-05
-1.0397867448545397e-05   1.7040584867514265e-06   -3.455499888758127e-05
-1.0397867448545397e-05   1.7040584867514265e-06   -3.455499888758127e-05
-1.1910859071598415e-05   1.8424087951571765e-06   -3.699364140762615e-05
-1.1910859071598415e-05   1.8424087951571765e-06   -3.699364140762615e-05
-1.1910859071598415e-05   1.8424087951571765e-06   -3.699364140762615e-05
-1.1910859071598415e-05   1.8424087951571765e-06   -3.699364140762615e-05
-1.1520895721064989e-05   2.8451676631837015e-06   -3.457180763372569e-05
-1.1520895721064989e-05   2.8451676631837015e-06   -3.457180763372569e-05
-1.1520895721064989e-05   2.8451676631837015e-06   -3.457180763372569e-05
-1.1520895721064989e-05   2.8451676631837015e-06   -3.457180763372569e-05
-1.0005496807918357e-05   2.8864519183346895e-06   -3.712224304206019e-05
-1.0005496807918357e-05   2.8864519183346895e-06   -3.712224304206019e-05
-1.0005496807918357e-05   2.8864519183346895e-06   -3.712224304206019e-05
-1.0005496807918357e-05   2.8864519183346895e-06   -3.712224304206019e-05
-1.096215859804705e-05   2.268319712185477e-06   -3.515692740149013e-05
-1.096215859804705e-05   2.268319712185477e-06   -3.515692740149013e-05
-1.096215859804705e-05   2.268319712185477e-06   -3.515692740149013e-05
-1.096215859804705e-05   2.268319712185477e-06   -3.515692740149013e-05
-1.0005496807918341e-05   2.845167663183736e-06   -3.4596578186816044e-05
-1.0005496807918341e-05   2.845167663183736e-06   -3.4596578186816044e-05
-1.0005496807918341e-05   2.845167663183736e-06   -3.4596578186816044e-05
-1.0005496807918341e-05   2.845167663183736e-06   -3.4596578186816044e-05
-1.152089572106497e-05   2.8864519183346895e-06   -3.709747248896976e-05
-1.152089572106497e-05   2.8864519183346895e-06   -3.709747248896976e-05
-1.152089572106497e-05   2.8864519183346895e-06   -3.709747248896976e-05
-1.152089572106497e-05   2.8864519183346895e-06   -3.709747248896976e-05
-1.1153135250925002e-05   4.003510380282344e-06   -3.524284438229835e-05
-1.1153135250925002e-05   4.003510380282344e-06   -3.524284438229835e-05
-1.1153135250925002e-05   4.003510380282344e-06   -3.524284438229835e-05
-1.1153135250925002e-05   4.003510380282344e-06   -3.524284438229835e-05
-9.636056978890634e-06   3.944962753550359e-06   -3.7736179592983164e-05
-9.636056978890634e-06   3.944962753550359e-06   -3.7736179592983164e-05
-9.636056978890634e-06   3.944962753550359e-06   -3.7736179592983164e-05
-9.636056978890634e-06   3.944962753550359e-06   -3.7736179592983164e-05
-1.0676111031118164e-05   3.154658863544239e-06   -3.552857383859963e-05
-1.0676111031118164e-05   3.154658863544239e-06   -3.552857383859963e-05
-1.0676111031118164e-05   3.154658863544239e-06   -3.552857383859963e-05
-1.0676111031118164e-05   3.154658863544239e-06   -3.552857383859963e-05
-1.2281524763799043e-05   2.464618334696015e-07   -3.0204814323237785e-05
-1.2281524763799043e-05   2.464618334696015e-07   -3.0204814323237785e-05
-1.2281524763799043e-05   2.464618334696015e-07   -3.0204814323237785e-05
-1.2281524763799043e-05   2.464618334696015e-07   -3.0204814323237785e-05
-1.3873173764281685e-05   1.8237779873221064e-06   -3.191117296506417e-05
-1.3873173764281685e-05   1.8237779873221064e-06   -3.191117296506417e-05
-1.3873173764281685e-05   1.8237779873221064e-06   -3.191117296506417e-05
-1.3873173764281685e-05   1.8237779873221064e-06   -3.191117296506417e-05
-1.342446514896321e-05   1.34240397010074e-06   -2.887601707743674e-05
-1.342446514896321e-05   1.34240397010074e-06   -2.887601707743674e-05
-1.342446514896321e-05   1.34240397010074e-06   -2.887601707743674e-05
-1.342446514896321e-05   1.34240397010074e-06   -2.887601707743674e-05
-1.1910859071598415e-05   2.848978257254022e-06   -3.230263844533646e-05
-1.1910859071598415e-05   2.848978257254022e-06   -3.230263844533646e-05
-1.1910859071598415e-05   2.848978257254022e-06   -3.230263844533646e-05
-1.1910859071598415e-05   2.848978257254022e-06   -3.230263844533646e-05
-1.2772986286286365e-05   1.6795176341335635e-06   -3.016408338031809e-05
-1.2772986286286365e-05   1.6795176341335635e-06   -3.016408338031809e-05
-1.2772986286286365e-05   1.6795176341335635e-06   -3.016408338031809e-05
-1.2772986286286365e-05   1.6795176341335635e-06   -3.016408338031809e-05
-1.1910859071598397e-05   1.342403970100682e-06   -2.9779961649728666e-05
-1.1910859071598397e-05   1.342403970100682e-06   -2.9779961649728666e-05
-1.1910859071598397e-05   1.342403970100682e-06   -2.9779961649728666e-05
-1.1910859071598397e-05   1.342403970100682e-06   -2.9779961649728666e-05
-1.342446514896321e-05   2.848978257254022e-06   -3.1398693873044715e-05
-1.342446514896321e-05   2.848978257254022e-06   -3.1398693873044715e-05
-1.342446514896321e-05   2.848978257254022e-06   -3.1398693873044715e-05
-1.342446514896321e-05   2.848978257254022e-06   -3.1398693873044715e-05
-1.2844108917840378e-05   2.374987633405913e-06   -2.900028550435654e-05
-1.2844108917840378e-05   2.374987633405913e-06   -2.900028550435654e-05
-1.2844108917840378e-05   2.374987633405913e-06   -2.900028550435654e-05
-1.2844108917840378e-05   2.374987633405913e-06   -2.900028550435654e-05
-1.1520895721064968e-05   3.794587577152838e-06   -3.205740079856352e-05
-1.1520895721064968e-05   3.794587577152838e-06   -3.205740079856352e-05
-1.1520895721064968e-05   3.794587577152838e-06   -3.205740079856352e-05
-1.1520895721064968e-05   3.794587577152838e-06   -3.205740079856352e-05
-1.237194047486771e-05   2.4930272566417184e-06   -2.9858056683252518e-05
-1.237194047486771e-05   2.4930272566417184e-06   -2.9858056683252518e-05
-1.237194047486771e-05   2.4930272566417184e-06   -2.9858056683252518e-05
-1.237194047486771e-05   2.4930272566417184e-06   -2.9858056683252518e-05
-1.152089572106495e-05   2.3749876334059978e-06   -2.985204547060452e-05
-1.152089572106495e-05   2.3749876334059978e-06   -2.985204547060452e-05
-1.152089572106495e-05   2.3749876334059978e-06   -2.985204547060452e-05
-1.152089572106495e-05   2.3749876334059978e-06   -2.985204547060452e-05
-1.2844108917840405e-05   3.794587577152838e-06   -3.120564083231535e-05
-1.2844108917840405e-05   3.794587577152838e-06   -3.120564083231535e-05
-1.2844108917840405e-05   3.794587577152838e-06   -3.120564083231535e-05
-1.2844108917840405e-05   3.794587577152838e-06   -3.120564083231535e-05
-1.238830838642461e-05   3.542339345058822e-06   -2.980459650511562e-05
-1.238830838642461e-05   3.542339345058822e-06   -2.980459650511562e-05
-1.238830838642461e-05   3.542339345058822e-06   -2.980459650511562e-05
-1.238830838642461e-05   3.542339345058822e-06   -2.980459650511562e-05
-1.1153135250925002e-05   4.854083142126096e-06   -3.265026467585535e-05
-1.1153135250925002e-05   4.854083142126096e-06   -3.265026467585535e-05
-1.1153135250925002e-05   4.854083142126096e-06   -3.265026467585535e-05
-1.1153135250925002e-05   4.854083142126096e-06   -3.265026467585535e-05
-1.2071965224694829e-05   3.3242131020018353e-06   -3.0200959362163972e-05
-1.2071965224694829e-05   3.3242131020018353e-06   -3.0200959362163972e-05
-1.2071965224694829e-05   3.3242131020018353e-06   -3.0200959362163972e-05
-1.2071965224694829e-05   3.3242131020018353e-06   -3.0200959362163972e-05
-1.3873173764281644e-05   3.4355406100545404e-07   -1.609548605042792e-05
-1.3873173764281644e-05   3.4355406100545404e-07   -1.609548605042792e-05
-1.3873173764281644e-05   3.4355406100545404e-07   -1.609548605042792e-05
-1.3873173764281644e-05   3.4355406100545404e-07   -1.609548605042792e-05
-1.6810944515940256e-05   3.0656866090411194e-06   -1.935849110770412e-05
-1.6810944515940256e-05   3.0656866090411194e-06   -1.935849110770412e-05
-1.6810944515940256e-05   3.0656866090411194e-06   -1.935849110770412e-05
-1.6810944515940256e-05   3.0656866090411194e-06   -1.935849110770412e-05
-1.5214116000060516e-05   1.2099964157132395e-06   -1.32646440225365e-05
-1.5214116000060516e-05   1.2099964157132395e-06   -1.32646440225365e-05
-1.5214116000060516e-05   1.2099964157132395e-06   -1.32646440225365e-05
-1.5214116000060516e-05   1.2099964157132395e-06   -1.32646440225365e-05
-1.342446514896319e-05   3.9953414930624705e-06   -1.79186024874413e-05
-1.342446514896319e-05   3.9953414930624705e-06   -1.79186024874413e-05
-1.342446514896319e-05   3.9953414930624705e-06   -1.79186024874413e-05
-1.342446514896319e-05   3.9953414930624705e-06   -1.79186024874413e-05
-1.4230467983678645e-05   2.265874432456341e-06   -1.5537584193218686e-05
-1.4230467983678645e-05   2.265874432456341e-06   -1.5537584193218686e-05
-1.4230467983678645e-05   2.265874432456341e-06   -1.5537584193218686e-05
-1.4230467983678645e-05   2.265874432456341e-06   -1.5537584193218686e-05
-1.3424465148963155e-05   1.2099964157132357e-06   -1.4935851068945778e-05
-1.3424465148963155e-05   1.2099964157132357e-06   -1.4935851068945778e-05
-1.3424465148963155e-05   1.2099964157132357e-06   -1.4935851068945778e-05
-1.3424465148963155e-05   1.2099964157132357e-06   -1.4935851068945778e-05
-1.5214116000060516e-05   3.9953414930624705e-06   -1.6247395441031966e-05
-1.5214116000060516e-05   3.9953414930624705e-06   -1.6247395441031966e-05
-1.5214116000060516e-05   3.9953414930624705e-06   -1.6247395441031966e-05
-1.5214116000060516e-05   3.9953414930624705e-06   -1.6247395441031966e-05
-1.3915319738854701e-05   1.6971720436865286e-06   -1.304438175732522e-05
-1.3915319738854701e-05   1.6971720436865286e-06   -1.304438175732522e-05
-1.3915319738854701e-05   1.6971720436865286e-06   -1.304438175732522e-05
-1.3915319738854701e-05   1.6971720436865286e-06   -1.304438175732522e-05
-1.2844108917840382e-05   4.420984062777434e-06   -1.6464020337136865e-05
-1.2844108917840382e-05   4.420984062777434e-06   -1.6464020337136865e-05
-1.2844108917840382e-05   4.420984062777434e-06   -1.6464020337136865e-05
-1.2844108917840382e-05   4.420984062777434e-06   -1.6464020337136865e-05
-1.3549913765931538e-05   2.696534550556979e-06   -1.4253009216319426e-05
-1.3549913765931538e-05   2.696534550556979e-06   -1.4253009216319426e-05
-1.3549913765931538e-05   2.696534550556979e-06   -1.4253009216319426e-05
-1.3549913765931538e-05   2.696534550556979e-06   -1.4253009216319426e-05
-1.2844108917840365e-05   1.6971720436865936e-06   -1.4678668968779959e-05
-1.2844108917840365e-05   1.6971720436865936e-06   -1.4678668968779959e-05
-1.2844108917840365e-05   1.6971720436865936e-06   -1.4678668968779959e-05
-1.2844108917840365e-05   1.6971720436865936e-06   -1.4678668968779959e-05
-1.3915319738854728e-05   4.420984062777434e-06   -1.482973312568229e-05
-1.3915319738854728e-05   4.420984062777434e-06   -1.482973312568229e-05
-1.3915319738854728e-05   4.420984062777434e-06   -1.482973312568229e-05
-1.3915319738854728e-05   4.420984062777434e-06   -1.482973312568229e-05
-1.2326290346681678e-05   2.560603493452669e-06   -1.345252172357315e-05
-1.2326290346681678e-05   2.560603493452669e-06   -1.345252172357315e-05
-1.2326290346681678e-05   2.560603493452669e-06   -1.345252172357315e-05
-1.2326290346681678e-05   2.560603493452669e-06   -1.345252172357315e-05
-1.2388308386424594e-05   5.079934322246155e-06   -1.486075682127739e-05
-1.2388308386424594e-05   5.079934322246155e-06   -1.486075682127739e-05
-1.2388308386424594e-05   5.079934322246155e-06   -1.486075682127739e-05
-1.2388308386424594e-05   5.079934322246155e-06   -1.486075682127739e-05
-1.2546904878604048e-05   3.04430282386213e-06   -1.3375050435281344e-05
-1.2546904878604048e-05   3.04430282386213e-06   -1.3375050435281344e-05
-1.2546904878604048e-05   3.04430282386213e-06   -1.3375050435281344e-05
-1.2546904878604048e-05   3.04430282386213e-06   -1.3375050435281344e-05
8.183374358114047e-06   -8.093037878980781e-07   -8.356214619775456e-06
8.183374358114047e-06   -8.093037878980781e-07   -8.356214619775456e-06
8.183374358114047e-06   -8.093037878980781e-07   -8.356214619775456e-06
8.183374358114047e-06   -8.093037878980781e-07   -8.356214619775456e-06
8.419758801341763e-07   -3.3987595462992796e-06   -2.214555220478266e-05
8.419758801341763e-07   -3.3987595462992796e-06   -2.214555220478266e-05
8.419758801341763e-07   -3.3987595462992796e-06   -2.214555220478266e-05
8.419758801341763e-07   -3.3987595462992796e-06   -2.214555220478266e-05
1.482391727246178e-06   -2.6255234647845627e-08   -9.234630774197523e-06
1.482391727246178e-06   -2.6255234647845627e-08   -9.234630774197523e-06
1.482391727246178e-06   -2.6255234647845627e-08   -9.234630774197523e-06
1.482391727246178e-06   -2.6255234647845627e-08   -9.234630774197523e-06
9.97484316379419e-06   -2.7933599569419237e-06   -2.1728453668401287e-05
9.97484316379419e-06   -2.7933599569419237e-06   -2.1728453668401287e-05
9.97484316379419e-06   -2.7933599569419237e-06   -2.1728453668401287e-05
9.97484316379419e-06   -2.7933599569419237e-06   -2.1728453668401287e-05
4.929678817167133e-06   -1.4186701246445693e-06   -1.4144660323401378e-05
4.929678817167133e-06   -1.4186701246445693e-06   -1.4144660323401378e-05
4.929678817167133e-06   -1.4186701246445693e-06   -1.4144660323401378e-05
4.929678817167133e-06   -1.4186701246445693e-06   -1.4144660323401378e-05
9.974843163794206e-06   -2.625523464775263e-08   -7.574367940821249e-06
9.974843163794206e-06   -2.625523464775263e-08   -7.574367940821249e-06
9.974843163794206e-06   -2.625523464775263e-08   -7.574367940821249e-06
9.974843163794206e-06   -2.625523464775263e-08   -7.574367940821249e-06
1.4823917272461509e-06   -2.7933599569419237e-06   -2.3388716501777885e-05
1.4823917272461509e-06   -2.7933599569419237e-06   -2.3388716501777885e-05
1.4823917272461509e-06   -2.7933599569419237e-06   -2.3388716501777885e-05
1.4823917272461509e-06   -2.7933599569419237e-06   -2.3388716501777885e-05
2.2374736493797128e-06   4.169901840170732e-07   -9.306320319579179e-06
2.2374736493797128e-06   4.169901840170732e-07   -9.306320319579179e-06
2.2374736493797128e-06   4.169901840170732e-07   -9.306320319579179e-06
2.2374736493797128e-06   4.169901840170732e-07   -9.306320319579179e-06
1.1488637628677117e-05   -2.3894273144537802e-06   -2.3041076452658994e-05
1.1488637628677117e-05   -2.3894273144537802e-06   -2.3041076452658994e-05
1.1488637628677117e-05   -2.3894273144537802e-06   -2.3041076452658994e-05
1.1488637628677117e-05   -2.3894273144537802e-06   -2.3041076452658994e-05
6.065714938932587e-06   -1.1355832085742975e-06   -1.4755178433279738e-05
6.065714938932587e-06   -1.1355832085742975e-06   -1.4755178433279738e-05
6.065714938932587e-06   -1.1355832085742975e-06   -1.4755178433279738e-05
6.065714938932587e-06   -1.1355832085742975e-06   -1.4755178433279738e-05
1.1488637628677162e-05   4.169901840170329e-07   -7.6224698204966235e-06
1.1488637628677162e-05   4.169901840170329e-07   -7.6224698204966235e-06
1.1488637628677162e-05   4.169901840170329e-07   -7.6224698204966235e-06
1.1488637628677162e-05   4.169901840170329e-07   -7.6224698204966235e-06
2.2374736493797128e-06   -2.389427314453997e-06   -2.472492695174144e-05
2.2374736493797128e-06   -2.389427314453997e-06   -2.472492695174144e-05
2.2374736493797128e-06   -2.389427314453997e-06   -2.472492695174144e-05
2.2374736493797128e-06   -2.389427314453997e-06   -2.472492695174144e-05
2.8586963267151523e-06   1.3009151450858823e-06   -1.019982326708733e-05
2.8586963267151523e-06   1.3009151450858823e-06   -1.019982326708733e-05
2.8586963267151523e-06   1.3009151450858823e-06   -1.019982326708733e-05
2.8586963267151523e-06   1.3009151450858823e-06   -1.019982326708733e-05
1.3307125254822673e-05   -1.371933594399282e-06   -2.601016223690867e-05
1.3307125254822673e-05   -1.371933594399282e-06   -2.601016223690867e-05
1.3307125254822673e-05   -1.371933594399282e-06   -2.601016223690867e-05
1.3307125254822673e-05   -1.371933594399282e-06   -2.601016223690867e-05
6.968737018852371e-06   -7.195919885967517e-07   -1.583758680710626e-05
6.968737018852371e-06   -7.195919885967517e-07   -1.583758680710626e-05
6.968737018852371e-06   -7.195919885967517e-07   -1.583758680710626e-05
6.968737018852371e-06   -7.195919885967517e-07   -1.583758680710626e-05
8.419758801341763e-07   -1.7438384493614415e-07   -2.4076723664696897e-05
8.419758801341763e-07   -1.7438384493614415e-07   -2.4076723664696897e-05
8.419758801341763e-07   -1.7438384493614415e-07   -2.4076723664696897e-05
8.419758801341763e-07   -1.7438384493614415e-07   -2.4076723664696897e-05
-7.719458115546432e-06   -1.343048634736433e-06   -3.9046979198044634e-05
-7.719458115546432e-06   -1.343048634736433e-06   -3.9046979198044634e-05
-7.719458115546432e-06   -1.343048634736433e-06   -3.9046979198044634e-05
-7.719458115546432e-06   -1.343048634736433e-06   -3.9046979198044634e-05
-7.1579744360622755e-06   8.13810448551484e-07   -2.421273980357389e-05
-7.1579744360622755e-06   8.13810448551484e-07   -2.421273980357389e-05
-7.1579744360622755e-06   8.13810448551484e-07   -2.421273980357389e-05
-7.1579744360622755e-06   8.13810448551484e-07   -2.421273980357389e-05
1.4823917272461636e-06   -5.126778688136369e-07   -3.781745708533545e-05
1.4823917272461636e-06   -5.126778688136369e-07   -3.781745708533545e-05
1.4823917272461636e-06   -5.126778688136369e-07   -3.781745708533545e-05
1.4823917272461636e-06   -5.126778688136369e-07   -3.781745708533545e-05
-3.065817638199931e-06   -4.9693591045721006e-08   -3.051489870958601e-05
-3.065817638199931e-06   -4.9693591045721006e-08   -3.051489870958601e-05
-3.065817638199931e-06   -4.9693591045721006e-08   -3.051489870958601e-05
-3.065817638199931e-06   -4.9693591045721006e-08   -3.051489870958601e-05
1.482391727246178e-06   8.138104485516214e-07   -2.34168468131546e-05
1.482391727246178e-06   8.138104485516214e-07   -2.34168468131546e-05
1.482391727246178e-06   8.138104485516214e-07   -2.34168468131546e-05
1.482391727246178e-06   8.138104485516214e-07   -2.34168468131546e-05
-7.157974436062289e-06   -5.126778688134201e-07   -3.8613350075754577e-05
-7.157974436062289e-06   -5.126778688134201e-07   -3.8613350075754577e-05
-7.157974436062289e-06   -5.126778688134201e-07   -3.8613350075754577e-05
-7.157974436062289e-06   -5.126778688134201e-07   -3.8613350075754577e-05
-6.593276852766321e-06   1.7654089880512515e-06   -2.424944268415545e-05
-6.593276852766321e-06   1.7654089880512515e-06   -2.424944268415545e-05
-6.593276852766321e-06   1.7654089880512515e-06   -2.424944268415545e-05
-6.593276852766321e-06   1.7654089880512515e-06   -2.424944268415545e-05
2.237473649379723e-06   3.4605758647836445e-07   -3.811574934678842e-05
2.237473649379723e-06   3.4605758647836445e-07   -3.811574934678842e-05
2.237473649379723e-06   3.4605758647836445e-07   -3.811574934678842e-05
2.237473649379723e-06   3.4605758647836445e-07   -3.811574934678842e-05
-2.5686746758170173e-06   6.325356954029436e-07   -3.0277389003481928e-05
-2.5686746758170173e-06   6.325356954029436e-07   -3.0277389003481928e-05
-2.5686746758170173e-06   6.325356954029436e-07   -3.0277389003481928e-05
-2.5686746758170173e-06   6.325356954029436e-07   -3.0277389003481928e-05
2.2374736493797128e-06   1.765408988051358e-06   -2.3397831843211697e-05
2.2374736493797128e-06   1.765408988051358e-06   -2.3397831843211697e-05
2.2374736493797128e-06   1.765408988051358e-06   -2.3397831843211697e-05
2.2374736493797128e-06   1.765408988051358e-06   -2.3397831843211697e-05
-6.593276852766321e-06   3.4605758647836445e-07   -3.8967360187732174e-05
-6.593276852766321e-06   3.4605758647836445e-07   -3.8967360187732174e-05
-6.593276852766321e-06   3.4605758647836445e-07   -3.8967360187732174e-05
-6.593276852766321e-06   3.4605758647836445e-07   -3.8967360187732174e-05
-6.0538187122846984e-06   2.8522250952523528e-06   -2.4857393288518596e-05
-6.0538187122846984e-06   2.8522250952523528e-06   -2.4857393288518596e-05
-6.0538187122846984e-06   2.8522250952523528e-06   -2.4857393288518596e-05
-6.0538187122846984e-06   2.8522250952523528e-06   -2.4857393288518596e-05
2.858696326715174e-06   1.3631934813458473e-06   -3.881816605184115e-05
2.858696326715174e-06   1.3631934813458473e-06   -3.881816605184115e-05
2.858696326715174e-06   1.3631934813458473e-06   -3.881816605184115e-05
2.858696326715174e-06   1.3631934813458473e-06   -3.881816605184115e-05
-2.0148943491327666e-06   1.3889653307857467e-06   -3.071097803509178e-05
-2.0148943491327666e-06   1.3889653307857467e-06   -3.071097803509178e-05
-2.0148943491327666e-06   1.3889653307857467e-06   -3.071097803509178e-05
-2.0148943491327666e-06   1.3889653307857467e-06   -3.071097803509178e-05
-7.719458115546446e-06   8.207857206883503e-07   -2.91489314332027e-05
-7.719458115546446e-06   8.207857206883503e-07   -2.91489314332027e-05
-7.719458115546446e-06   8.207857206883503e-07   -2.91489314332027e-05
-7.719458115546446e-06   8.207857206883503e-07   -2.91489314332027e-05
-1.62060454378778e-05   1.0345803215050606e-06   -4.316496687659815e-05
-1.62060454378778e-05   1.0345803215050606e-06   -4.316496687659815e-05
-1.62060454378778e-05   1.0345803215050606e-06   -4.316496687659815e-05
-1.62060454378778e-05   1.0345803215050606e-06   -4.316496687659815e-05
-1.564063475149147e-05   1.8424087951571765e-06   -2.8626316508767458e-05
-1.564063475149147e-05   1.8424087951571765e-06   -2.8626316508767458e-05
-1.564063475149147e-05   1.8424087951571765e-06   -2.8626316508767458e-05
-1.564063475149147e-05   1.8424087951571765e-06   -2.8626316508767458e-05
-7.157974436062302e-06   1.9133577370217345e-06   -4.2806653066268025e-05
-7.157974436062302e-06   1.9133577370217345e-06   -4.2806653066268025e-05
-7.157974436062302e-06   1.9133577370217345e-06   -4.2806653066268025e-05
-7.157974436062302e-06   1.9133577370217345e-06   -4.2806653066268025e-05
-1.1613405946460854e-05   1.5819972309016536e-06   -3.5182117578598485e-05
-1.1613405946460854e-05   1.5819972309016536e-06   -3.5182117578598485e-05
-1.1613405946460854e-05   1.5819972309016536e-06   -3.5182117578598485e-05
-1.1613405946460854e-05   1.5819972309016536e-06   -3.5182117578598485e-05
-7.157974436062303e-06   1.842408795157186e-06   -2.8668885873885997e-05
-7.157974436062303e-06   1.842408795157186e-06   -2.8668885873885997e-05
-7.157974436062303e-06   1.842408795157186e-06   -2.8668885873885997e-05
-7.157974436062303e-06   1.842408795157186e-06   -2.8668885873885997e-05
-1.5640634751491443e-05   1.9133577370215177e-06   -4.276408370114946e-05
-1.5640634751491443e-05   1.9133577370215177e-06   -4.276408370114946e-05
-1.5640634751491443e-05   1.9133577370215177e-06   -4.276408370114946e-05
-1.5640634751491443e-05   1.9133577370215177e-06   -4.276408370114946e-05
-1.5066049747189347e-05   2.8864519183346895e-06   -2.870043971605501e-05
-1.5066049747189347e-05   2.8864519183346895e-06   -2.870043971605501e-05
-1.5066049747189347e-05   2.8864519183346895e-06   -2.870043971605501e-05
-1.5066049747189347e-05   2.8864519183346895e-06   -2.870043971605501e-05
-6.593276852766328e-06   2.843636678086757e-06   -4.279603872927833e-05
-6.593276852766328e-06   2.843636678086757e-06   -4.279603872927833e-05
-6.593276852766328e-06   2.843636678086757e-06   -4.279603872927833e-05
-6.593276852766328e-06   2.843636678086757e-06   -4.279603872927833e-05
-1.1115992749914468e-05   2.3491928724059946e-06   -3.4961512617290094e-05
-1.1115992749914468e-05   2.3491928724059946e-06   -3.4961512617290094e-05
-1.1115992749914468e-05   2.3491928724059946e-06   -3.4961512617290094e-05
-1.1115992749914468e-05   2.3491928724059946e-06   -3.4961512617290094e-05
-6.593276852766335e-06   2.8864519183346696e-06   -2.867475057190662e-05
-6.593276852766335e-06   2.8864519183346696e-06   -2.867475057190662e-05
-6.593276852766335e-06   2.8864519183346696e-06   -2.867475057190662e-05
-6.593276852766335e-06   2.8864519183346696e-06   -2.867475057190662e-05
-1.5066049747189323e-05   2.843636678086757e-06   -4.282172787342675e-05
-1.5066049747189323e-05   2.843636678086757e-06   -4.282172787342675e-05
-1.5066049747189323e-05   2.843636678086757e-06   -4.282172787342675e-05
-1.5066049747189323e-05   2.843636678086757e-06   -4.282172787342675e-05
-1.4518165826844981e-05   3.944962753550576e-06   -2.9345384336794877e-05
-1.4518165826844981e-05   3.944962753550576e-06   -2.9345384336794877e-05
-1.4518165826844981e-05   3.944962753550576e-06   -2.9345384336794877e-05
-1.4518165826844981e-05   3.944962753550576e-06   -2.9345384336794877e-05
-6.053818712284718e-06   3.79000672745349e-06   -4.3359655912070564e-05
-6.053818712284718e-06   3.79000672745349e-06   -4.3359655912070564e-05
-6.053818712284718e-06   3.79000672745349e-06   -4.3359655912070564e-05
-6.053818712284718e-06   3.79000672745349e-06   -4.3359655912070564e-05
-1.0653356020946025e-05   3.128053312814478e-06   -3.529658834885158e-05
-1.0653356020946025e-05   3.128053312814478e-06   -3.529658834885158e-05
-1.0653356020946025e-05   3.128053312814478e-06   -3.529658834885158e-05
-1.0653356020946025e-05   3.128053312814478e-06   -3.529658834885158e-05
-1.6206045437877833e-05   1.8237779873221909e-06   -2.450428385907498e-05
-1.6206045437877833e-05   1.8237779873221909e-06   -2.450428385907498e-05
-1.6206045437877833e-05   1.8237779873221909e-06   -2.450428385907498e-05
-1.6206045437877833e-05   1.8237779873221909e-06   -2.450428385907498e-05
-2.4593633120535212e-05   3.3428622255764553e-06   -3.7572146120551245e-05
-2.4593633120535212e-05   3.3428622255764553e-06   -3.7572146120551245e-05
-2.4593633120535212e-05   3.3428622255764553e-06   -3.7572146120551245e-05
-2.4593633120535212e-05   3.3428622255764553e-06   -3.7572146120551245e-05
-2.394743652486009e-05   2.848978257254022e-06   -2.3076166490778758e-05
-2.394743652486009e-05   2.848978257254022e-06   -2.3076166490778758e-05
-2.394743652486009e-05   2.848978257254022e-06   -2.3076166490778758e-05
-2.394743652486009e-05   2.848978257254022e-06   -2.3076166490778758e-05
-1.5640634751491443e-05   4.2808900167527406e-06   -3.777998316875897e-05
-1.5640634751491443e-05   4.2808900167527406e-06   -3.777998316875897e-05
-1.5640634751491443e-05   4.2808900167527406e-06   -3.777998316875897e-05
-1.5640634751491443e-05   4.2808900167527406e-06   -3.777998316875897e-05
-1.9957710849715258e-05   3.1958366746081754e-06   -2.9933824333099193e-05
-1.9957710849715258e-05   3.1958366746081754e-06   -2.9933824333099193e-05
-1.9957710849715258e-05   3.1958366746081754e-06   -2.9933824333099193e-05
-1.9957710849715258e-05   3.1958366746081754e-06   -2.9933824333099193e-05
-1.564063475149147e-05   2.848978257254122e-06   -2.3935313546477946e-05
-1.564063475149147e-05   2.848978257254122e-06   -2.3935313546477946e-05
-1.564063475149147e-05   2.848978257254122e-06   -2.3935313546477946e-05
-1.564063475149147e-05   2.848978257254122e-06   -2.3935313546477946e-05
-2.3947436524860136e-05   4.2808900167527406e-06   -3.6920836113060046e-05
-2.3947436524860136e-05   4.2808900167527406e-06   -3.6920836113060046e-05
-2.3947436524860136e-05   4.2808900167527406e-06   -3.6920836113060046e-05
-2.3947436524860136e-05   4.2808900167527406e-06   -3.6920836113060046e-05
-2.317329549675869e-05   3.794587577152838e-06   -2.286170022913834e-05
-2.317329549675869e-05   3.794587577152838e-06   -2.286170022913834e-05
-2.317329549675869e-05   3.794587577152838e-06   -2.286170022913834e-05
-2.317329549675869e-05   3.794587577152838e-06   -2.286170022913834e-05
-1.5066049747189349e-05   5.125700571337408e-06   -3.717244427493125e-05
-1.5066049747189349e-05   5.125700571337408e-06   -3.717244427493125e-05
-1.5066049747189349e-05   5.125700571337408e-06   -3.717244427493125e-05
-1.5066049747189349e-05   5.125700571337408e-06   -3.717244427493125e-05
-1.9306225163978718e-05   3.936627459023715e-06   -2.9392041379561245e-05
-1.9306225163978718e-05   3.936627459023715e-06   -2.9392041379561245e-05
-1.9306225163978718e-05   3.936627459023715e-06   -2.9392041379561245e-05
-1.9306225163978718e-05   3.936627459023715e-06   -2.9392041379561245e-05
-1.5066049747189347e-05   3.794587577152909e-06   -2.366036802564902e-05
-1.5066049747189347e-05   3.794587577152909e-06   -2.366036802564902e-05
-1.5066049747189347e-05   3.794587577152909e-06   -2.366036802564902e-05
-1.5066049747189347e-05   3.794587577152909e-06   -2.366036802564902e-05
-2.317329549675869e-05   5.125700571337408e-06   -3.637377647842054e-05
-2.317329549675869e-05   5.125700571337408e-06   -3.637377647842054e-05
-2.317329549675869e-05   5.125700571337408e-06   -3.637377647842054e-05
-2.317329549675869e-05   5.125700571337408e-06   -3.637377647842054e-05
-2.252845274100997e-05   4.854083142126096e-06   -2.3494403757553964e-05
-2.252845274100997e-05   4.854083142126096e-06   -2.3494403757553964e-05
-2.252845274100997e-05   4.854083142126096e-06   -2.3494403757553964e-05
-2.252845274100997e-05   4.854083142126096e-06   -2.3494403757553964e-05
-1.4518165826844981e-05   6.070644952249323e-06   -3.7574819033903026e-05
-1.4518165826844981e-05   6.070644952249323e-06   -3.7574819033903026e-05
-1.4518165826844981e-05   6.070644952249323e-06   -3.7574819033903026e-05
-1.4518165826844981e-05   6.070644952249323e-06   -3.7574819033903026e-05
-1.887059438441179e-05   4.6663698616967834e-06   -2.9478206383626722e-05
-1.887059438441179e-05   4.6663698616967834e-06   -2.9478206383626722e-05
-1.887059438441179e-05   4.6663698616967834e-06   -2.9478206383626722e-05
-1.887059438441179e-05   4.6663698616967834e-06   -2.9478206383626722e-05
-2.4593633120535212e-05   3.065686609041251e-06   -1.2673430987583775e-05
-2.4593633120535212e-05   3.065686609041251e-06   -1.2673430987583775e-05
-2.4593633120535212e-05   3.065686609041251e-06   -1.2673430987583775e-05
-2.4593633120535212e-05   3.065686609041251e-06   -1.2673430987583775e-05
-3.415512998960853e-05   5.74757975840964e-06   -2.700012321308503e-05
-3.415512998960853e-05   5.74757975840964e-06   -2.700012321308503e-05
-3.415512998960853e-05   5.74757975840964e-06   -2.700012321308503e-05
-3.415512998960853e-05   5.74757975840964e-06   -2.700012321308503e-05
-3.237649890496303e-05   3.9953414930624705e-06   -7.960276428777436e-06
-3.237649890496303e-05   3.9953414930624705e-06   -7.960276428777436e-06
-3.237649890496303e-05   3.9953414930624705e-06   -7.960276428777436e-06
-3.237649890496303e-05   3.9953414930624705e-06   -7.960276428777436e-06
-2.3947436524860085e-05   6.721672620392657e-06   -2.364451240534708e-05
-2.3947436524860085e-05   6.721672620392657e-06   -2.364451240534708e-05
-2.3947436524860085e-05   6.721672620392657e-06   -2.364451240534708e-05
-2.3947436524860085e-05   6.721672620392657e-06   -2.364451240534708e-05
-2.7597829163976056e-05   4.993596047909825e-06   -1.652367872999734e-05
-2.7597829163976056e-05   4.993596047909825e-06   -1.652367872999734e-05
-2.7597829163976056e-05   4.993596047909825e-06   -1.652367872999734e-05
-2.7597829163976056e-05   4.993596047909825e-06   -1.652367872999734e-05
-2.394743652486011e-05   3.995341493062561e-06   -9.596075105175505e-06
-2.394743652486011e-05   3.995341493062561e-06   -9.596075105175505e-06
-2.394743652486011e-05   3.995341493062561e-06   -9.596075105175505e-06
-2.394743652486011e-05   3.995341493062561e-06   -9.596075105175505e-06
-3.237649890496292e-05   6.721672620392657e-06   -2.2008713728949e-05
-3.237649890496292e-05   6.721672620392657e-06   -2.2008713728949e-05
-3.237649890496292e-05   6.721672620392657e-06   -2.2008713728949e-05
-3.237649890496292e-05   6.721672620392657e-06   -2.2008713728949e-05
-3.0906463408452486e-05   4.420984062777434e-06   -6.530205930673589e-06
-3.0906463408452486e-05   4.420984062777434e-06   -6.530205930673589e-06
-3.0906463408452486e-05   4.420984062777434e-06   -6.530205930673589e-06
-3.0906463408452486e-05   4.420984062777434e-06   -6.530205930673589e-06
-2.317329549675866e-05   7.070773734921265e-06   -2.10086929201161e-05
-2.317329549675866e-05   7.070773734921265e-06   -2.10086929201161e-05
-2.317329549675866e-05   7.070773734921265e-06   -2.10086929201161e-05
-2.317329549675866e-05   7.070773734921265e-06   -2.10086929201161e-05
-2.694775127363734e-05   5.431946276062902e-06   -1.3734636816669873e-05
-2.694775127363734e-05   5.431946276062902e-06   -1.3734636816669873e-05
-2.694775127363734e-05   5.431946276062902e-06   -1.3734636816669873e-05
-2.694775127363734e-05   5.431946276062902e-06   -1.3734636816669873e-05
-2.317329549675869e-05   4.420984062777525e-06   -8.120079733959693e-06
-2.317329549675869e-05   4.420984062777525e-06   -8.120079733959693e-06
-2.317329549675869e-05   4.420984062777525e-06   -8.120079733959693e-06
-2.317329549675869e-05   4.420984062777525e-06   -8.120079733959693e-06
-3.090646340845238e-05   7.070773734921048e-06   -1.94188191168297e-05
-3.090646340845238e-05   7.070773734921048e-06   -1.94188191168297e-05
-3.090646340845238e-05   7.070773734921048e-06   -1.94188191168297e-05
-3.090646340845238e-05   7.070773734921048e-06   -1.94188191168297e-05
-2.916742135930636e-05   5.079934322246155e-06   -5.032185550530536e-06
-2.916742135930636e-05   5.079934322246155e-06   -5.032185550530536e-06
-2.916742135930636e-05   5.079934322246155e-06   -5.032185550530536e-06
-2.916742135930636e-05   5.079934322246155e-06   -5.032185550530536e-06
-2.252845274100995e-05   7.512862040056408e-06   -1.755688987837721e-05
-2.252845274100995e-05   7.512862040056408e-06   -1.755688987837721e-05
-2.252845274100995e-05   7.512862040056408e-06   -1.755688987837721e-05
-2.252845274100995e-05   7.512862040056408e-06   -1.755688987837721e-05
-2.5565449243996912e-05   5.643401056382169e-06   -1.1373552449861236e-05
-2.5565449243996912e-05   5.643401056382169e-06   -1.1373552449861236e-05
-2.5565449243996912e-05   5.643401056382169e-06   -1.1373552449861236e-05
-2.5565449243996912e-05   5.643401056382169e-06   -1.1373552449861236e-05
2.5916266639111033e-05   -3.3987595462992334e-06   -1.7680057958564983e-07
2.5916266639111033e-05   -3.3987595462992334e-06   -1.7680057958564983e-07
2.5916266639111033e-05   -3.3987595462992334e-06   -1.7680057958564983e-07
2.5916266639111033e-05   -3.3987595462992334e-06   -1.7680057958564983e-07
1.1041770778853549e-05   -6.128420260146988e-06   -2.6605423441656705e-05
1.1041770778853549e-05   -6.128420260146988e-06   -2.6605423441656705e-05
1.1041770778853549e-05   -6.128420260146988e-06   -2.6605423441656705e-05
1.1041770778853549e-05   -6.128420260146988e-06   -2.6605423441656705e-05
1.1822753827944466e-05   -2.7933599569419237e-06   -2.9050428434192286e-06
1.1822753827944466e-05   -2.7933599569419237e-06   -2.9050428434192286e-06
1.1822753827944466e-05   -2.7933599569419237e-06   -2.9050428434192286e-06
1.1822753827944466e-05   -2.7933599569419237e-06   -2.9050428434192286e-06
2.7874234852457307e-05   -5.699742989507227e-06   -2.7913681398068194e-05
2.7874234852457307e-05   -5.699742989507227e-06   -2.7913681398068194e-05
2.7874234852457307e-05   -5.699742989507227e-06   -2.7913681398068194e-05
2.7874234852457307e-05   -5.699742989507227e-06   -2.7913681398068194e-05
1.8390779528730687e-05   -4.039787458156793e-06   -1.3103895844000584e-05
1.8390779528730687e-05   -4.039787458156793e-06   -1.3103895844000584e-05
1.8390779528730687e-05   -4.039787458156793e-06   -1.3103895844000584e-05
1.8390779528730687e-05   -4.039787458156793e-06   -1.3103895844000584e-05
2.7874234852457412e-05   -2.7933599569418797e-06   -1.1612130238797432e-06
2.7874234852457412e-05   -2.7933599569418797e-06   -1.1612130238797432e-06
2.7874234852457412e-05   -2.7933599569418797e-06   -1.1612130238797432e-06
2.7874234852457412e-05   -2.7933599569418797e-06   -1.1612130238797432e-06
1.182275382794444e-05   -5.699742989507227e-06   -2.96575112176073e-05
1.182275382794444e-05   -5.699742989507227e-06   -2.96575112176073e-05
1.182275382794444e-05   -5.699742989507227e-06   -2.96575112176073e-05
1.182275382794444e-05   -5.699742989507227e-06   -2.96575112176073e-05
1.2687990675932506e-05   -2.3894273144537802e-06   -4.101632543332227e-06
1.2687990675932506e-05   -2.3894273144537802e-06   -4.101632543332227e-06
1.2687990675932506e-05   -2.3894273144537802e-06   -4.101632543332227e-06
1.2687990675932506e-05   -2.3894273144537802e-06   -4.101632543332227e-06
2.9518734097553068e-05   -5.3310047102932655e-06   -3.0387925141862795e-05
2.9518734097553068e-05   -5.3310047102932655e-06   -3.0387925141862795e-05
2.9518734097553068e-05   -5.3310047102932655e-06   -3.0387925141862795e-05
2.9518734097553068e-05   -5.3310047102932655e-06   -3.0387925141862795e-05
1.9861313025165848e-05   -3.875632849049612e-06   -1.5165446471297034e-05
1.9861313025165848e-05   -3.875632849049612e-06   -1.5165446471297034e-05
1.9861313025165848e-05   -3.875632849049612e-06   -1.5165446471297034e-05
1.9861313025165848e-05   -3.875632849049612e-06   -1.5165446471297034e-05
2.9518734097553115e-05   -2.3894273144538404e-06   -2.336686105828536e-06
2.9518734097553115e-05   -2.3894273144538404e-06   -2.336686105828536e-06
2.9518734097553115e-05   -2.3894273144538404e-06   -2.336686105828536e-06
2.9518734097553115e-05   -2.3894273144538404e-06   -2.336686105828536e-06
1.2687990675932479e-05   -5.3310047102932655e-06   -3.215287157936665e-05
1.2687990675932479e-05   -5.3310047102932655e-06   -3.215287157936665e-05
1.2687990675932479e-05   -5.3310047102932655e-06   -3.215287157936665e-05
1.2687990675932479e-05   -5.3310047102932655e-06   -3.215287157936665e-05
1.3402959996378349e-05   -1.371933594399282e-06   -6.862260816195955e-06
1.3402959996378349e-05   -1.371933594399282e-06   -6.862260816195955e-06
1.3402959996378349e-05   -1.371933594399282e-06   -6.862260816195955e-06
1.3402959996378349e-05   -1.371933594399282e-06   -6.862260816195955e-06
3.142822483666284e-05   -4.165272161028074e-06   -3.5228365743359585e-05
3.142822483666284e-05   -4.165272161028074e-06   -3.5228365743359585e-05
3.142822483666284e-05   -4.165272161028074e-06   -3.5228365743359585e-05
3.142822483666284e-05   -4.165272161028074e-06   -3.5228365743359585e-05
2.065728461371686e-05   -3.419874842931119e-06   -1.772403709597505e-05
2.065728461371686e-05   -3.419874842931119e-06   -1.772403709597505e-05
2.065728461371686e-05   -3.419874842931119e-06   -1.772403709597505e-05
2.065728461371686e-05   -3.419874842931119e-06   -1.772403709597505e-05
1.1041770778853549e-05   -1.3430486347364173e-06   -1.8014825127276408e-05
1.1041770778853549e-05   -1.3430486347364173e-06   -1.8014825127276408e-05
1.1041770778853549e-05   -1.3430486347364173e-06   -1.8014825127276408e-05
1.1041770778853549e-05   -1.3430486347364173e-06   -1.8014825127276408e-05
-4.700143308475363e-06   -2.868281022359951e-06   -4.5166488038731736e-05
-4.700143308475363e-06   -2.868281022359951e-06   -4.5166488038731736e-05
-4.700143308475363e-06   -2.868281022359951e-06   -4.5166488038731736e-05
-4.700143308475363e-06   -2.868281022359951e-06   -4.5166488038731736e-05
-3.973670748891133e-06   -5.126778688136369e-07   -1.838956948761435e-05
-3.973670748891133e-06   -5.126778688136369e-07   -1.838956948761435e-05
-3.973670748891133e-06   -5.126778688136369e-07   -1.838956948761435e-05
-3.973670748891133e-06   -5.126778688136369e-07   -1.838956948761435e-05
1.182275382794446e-05   -2.2723213032095103e-06   -4.36611577217029e-05
1.182275382794446e-05   -2.2723213032095103e-06   -4.36611577217029e-05
1.182275382794446e-05   -2.2723213032095103e-06   -4.36611577217029e-05
1.182275382794446e-05   -2.2723213032095103e-06   -4.36611577217029e-05
3.5867655709314215e-06   -1.3865823185852007e-06   -3.046595401745561e-05
3.5867655709314215e-06   -1.3865823185852007e-06   -3.046595401745561e-05
3.5867655709314215e-06   -1.3865823185852007e-06   -3.046595401745561e-05
3.5867655709314215e-06   -1.3865823185852007e-06   -3.046595401745561e-05
1.1822753827944466e-05   -5.126778688135501e-07   -1.733378342697674e-05
1.1822753827944466e-05   -5.126778688135501e-07   -1.733378342697674e-05
1.1822753827944466e-05   -5.126778688135501e-07   -1.733378342697674e-05
1.1822753827944466e-05   -5.126778688135501e-07   -1.733378342697674e-05
-3.973670748891133e-06   -2.2723213032090767e-06   -4.471694378234024e-05
-3.973670748891133e-06   -2.2723213032090767e-06   -4.471694378234024e-05
-3.973670748891133e-06   -2.2723213032090767e-06   -4.471694378234024e-05
-3.973670748891133e-06   -2.2723213032090767e-06   -4.471694378234024e-05
-3.280045606983382e-06   3.4605758647836445e-07   -1.8626425339361707e-05
-3.280045606983382e-06   3.4605758647836445e-07   -1.8626425339361707e-05
-3.280045606983382e-06   3.4605758647836445e-07   -1.8626425339361707e-05
-3.280045606983382e-06   3.4605758647836445e-07   -1.8626425339361707e-05
1.268799067593248e-05   -1.5438930818260574e-06   -4.41058487432389e-05
1.268799067593248e-05   -1.5438930818260574e-06   -4.41058487432389e-05
1.268799067593248e-05   -1.5438930818260574e-06   -4.41058487432389e-05
1.268799067593248e-05   -1.5438930818260574e-06   -4.41058487432389e-05
4.162929828004803e-06   -8.593331723889559e-07   -3.0308149942354426e-05
4.162929828004803e-06   -8.593331723889559e-07   -3.0308149942354426e-05
4.162929828004803e-06   -8.593331723889559e-07   -3.0308149942354426e-05
4.162929828004803e-06   -8.593331723889559e-07   -3.0308149942354426e-05
1.2687990675932506e-05   3.460575864782613e-07   -1.7492454938379315e-05
1.2687990675932506e-05   3.460575864782613e-07   -1.7492454938379315e-05
1.2687990675932506e-05   3.460575864782613e-07   -1.7492454938379315e-05
1.2687990675932506e-05   3.460575864782613e-07   -1.7492454938379315e-05
-3.280045606983382e-06   -1.543893081826491e-06   -4.5239819144221724e-05
-3.280045606983382e-06   -1.543893081826491e-06   -4.5239819144221724e-05
-3.280045606983382e-06   -1.543893081826491e-06   -4.5239819144221724e-05
-3.280045606983382e-06   -1.543893081826491e-06   -4.5239819144221724e-05
-2.628583990841514e-06   1.3631934813458473e-06   -1.9260818890081072e-05
-2.628583990841514e-06   1.3631934813458473e-06   -1.9260818890081072e-05
-2.628583990841514e-06   1.3631934813458473e-06   -1.9260818890081072e-05
-2.628583990841514e-06   1.3631934813458473e-06   -1.9260818890081072e-05
1.3402959996378323e-05   -6.272456897272495e-07   -4.4785795366136924e-05
1.3402959996378323e-05   -6.272456897272495e-07   -4.4785795366136924e-05
1.3402959996378323e-05   -6.272456897272495e-07   -4.4785795366136924e-05
1.3402959996378323e-05   -6.272456897272495e-07   -4.4785795366136924e-05
4.882099256438295e-06   -2.0899974220939602e-07   -3.083530836808164e-05
4.882099256438295e-06   -2.0899974220939602e-07   -3.083530836808164e-05
4.882099256438295e-06   -2.0899974220939602e-07   -3.083530836808164e-05
4.882099256438295e-06   -2.0899974220939602e-07   -3.083530836808164e-05
-4.700143308475376e-06   1.0345803215049764e-06   -2.31762289988936e-05
-4.700143308475376e-06   1.0345803215049764e-06   -2.31762289988936e-05
-4.700143308475376e-06   1.0345803215049764e-06   -2.31762289988936e-05
-4.700143308475376e-06   1.0345803215049764e-06   -2.31762289988936e-05
-2.0164769280732823e-05   5.254300980894397e-07   -4.9256095753372154e-05
-2.0164769280732823e-05   5.254300980894397e-07   -4.9256095753372154e-05
-2.0164769280732823e-05   5.254300980894397e-07   -4.9256095753372154e-05
-2.0164769280732823e-05   5.254300980894397e-07   -4.9256095753372154e-05
-1.9382853299467182e-05   1.9133577370217345e-06   -2.3013930741271277e-05
-1.9382853299467182e-05   1.9133577370217345e-06   -2.3013930741271277e-05
-1.9382853299467182e-05   1.9133577370217345e-06   -2.3013930741271277e-05
-1.9382853299467182e-05   1.9133577370217345e-06   -2.3013930741271277e-05
-3.973670748891129e-06   1.1949272984488994e-06   -4.826484339575448e-05
-3.973670748891129e-06   1.1949272984488994e-06   -4.826484339575448e-05
-3.973670748891129e-06   1.1949272984488994e-06   -4.826484339575448e-05
-3.973670748891129e-06   1.1949272984488994e-06   -4.826484339575448e-05
-1.1972894313462061e-05   1.4186509369785733e-06   -3.5067038304587334e-05
-1.1972894313462061e-05   1.4186509369785733e-06   -3.5067038304587334e-05
-1.1972894313462061e-05   1.4186509369785733e-06   -3.5067038304587334e-05
-1.1972894313462061e-05   1.4186509369785733e-06   -3.5067038304587334e-05
-3.973670748891133e-06   1.9133577370217227e-06   -2.2582872478127663e-05
-3.973670748891133e-06   1.9133577370217227e-06   -2.2582872478127663e-05
-3.973670748891133e-06   1.9133577370217227e-06   -2.2582872478127663e-05
-3.973670748891133e-06   1.9133577370217227e-06   -2.2582872478127663e-05
-1.9382853299467182e-05   1.1949272984488994e-06   -4.86959016588979e-05
-1.9382853299467182e-05   1.1949272984488994e-06   -4.86959016588979e-05
-1.9382853299467182e-05   1.1949272984488994e-06   -4.86959016588979e-05
-1.9382853299467182e-05   1.1949272984488994e-06   -4.86959016588979e-05
-1.862863438682113e-05   2.843636678086757e-06   -2.2979281290552494e-05
-1.862863438682113e-05   2.843636678086757e-06   -2.2979281290552494e-05
-1.862863438682113e-05   2.843636678086757e-06   -2.2979281290552494e-05
-1.862863438682113e-05   2.843636678086757e-06   -2.2979281290552494e-05
-3.2800456069833807e-06   1.9700076620125274e-06   -4.80360851806375e-05
-3.2800456069833807e-06   1.9700076620125274e-06   -4.80360851806375e-05
-3.2800456069833807e-06   1.9700076620125274e-06   -4.80360851806375e-05
-3.2800456069833807e-06   1.9700076620125274e-06   -4.80360851806375e-05
-1.13001895156417e-05   2.0454813854930975e-06   -3.471446290029551e-05
-1.13001895156417e-05   2.0454813854930975e-06   -3.471446290029551e-05
-1.13001895156417e-05   2.0454813854930975e-06   -3.471446290029551e-05
-1.13001895156417e-05   2.0454813854930975e-06   -3.471446290029551e-05
-3.280045606983382e-06   2.8436366780868307e-06   -2.2455103880907783e-05
-3.280045606983382e-06   2.8436366780868307e-06   -2.2455103880907783e-05
-3.280045606983382e-06   2.8436366780868307e-06   -2.2455103880907783e-05
-3.280045606983382e-06   2.8436366780868307e-06   -2.2455103880907783e-05
-1.862863438682113e-05   1.9700076620125274e-06   -4.856026259028232e-05
-1.862863438682113e-05   1.9700076620125274e-06   -4.856026259028232e-05
-1.862863438682113e-05   1.9700076620125274e-06   -4.856026259028232e-05
-1.862863438682113e-05   1.9700076620125274e-06   -4.856026259028232e-05
-1.7931703537979524e-05   3.79000672745349e-06   -2.3520301252635432e-05
-1.7931703537979524e-05   3.79000672745349e-06   -2.3520301252635432e-05
-1.7931703537979524e-05   3.79000672745349e-06   -2.3520301252635432e-05
-1.7931703537979524e-05   3.79000672745349e-06   -2.3520301252635432e-05
-2.628583990841503e-06   2.7709876096720237e-06   -4.841408902719641e-05
-2.628583990841503e-06   2.7709876096720237e-06   -4.841408902719641e-05
-2.628583990841503e-06   2.7709876096720237e-06   -4.841408902719641e-05
-2.628583990841503e-06   2.7709876096720237e-06   -4.841408902719641e-05
-1.0699296363690445e-05   2.6886622019103162e-06   -3.4913506494458444e-05
-1.0699296363690445e-05   2.6886622019103162e-06   -3.4913506494458444e-05
-1.0699296363690445e-05   2.6886622019103162e-06   -3.4913506494458444e-05
-1.0699296363690445e-05   2.6886622019103162e-06   -3.4913506494458444e-05
-2.0164769280732857e-05   3.342862225576433e-06   -1.8800348919848766e-05
-2.0164769280732857e-05   3.342862225576433e-06   -1.8800348919848766e-05
-2.0164769280732857e-05   3.342862225576433e-06   -1.8800348919848766e-05
-2.0164769280732857e-05   3.342862225576433e-06   -1.8800348919848766e-05
-3.534493363109861e-05   4.040641275960578e-06   -4.3681955406894716e-05
-3.534493363109861e-05   4.040641275960578e-06   -4.3681955406894716e-05
-3.534493363109861e-05   4.040641275960578e-06   -4.3681955406894716e-05
-3.534493363109861e-05   4.040641275960578e-06   -4.3681955406894716e-05
-3.440235258520607e-05   4.2808900167527406e-06   -1.766402571498583e-05
-3.440235258520607e-05   4.2808900167527406e-06   -1.766402571498583e-05
-3.440235258520607e-05   4.2808900167527406e-06   -1.766402571498583e-05
-3.440235258520607e-05   4.2808900167527406e-06   -1.766402571498583e-05
-1.9382853299467213e-05   4.890564173244596e-06   -4.306232901844559e-05
-1.9382853299467213e-05   4.890564173244596e-06   -4.306232901844559e-05
-1.9382853299467213e-05   4.890564173244596e-06   -4.306232901844559e-05
-1.9382853299467213e-05   4.890564173244596e-06   -4.306232901844559e-05
-2.712413784667141e-05   4.31597021883362e-06   -2.981543173379221e-05
-2.712413784667141e-05   4.31597021883362e-06   -2.981543173379221e-05
-2.712413784667141e-05   4.31597021883362e-06   -2.981543173379221e-05
-2.712413784667141e-05   4.31597021883362e-06   -2.981543173379221e-05
-1.9382853299467216e-05   4.280890016752676e-06   -1.8029830208880944e-05
-1.9382853299467216e-05   4.280890016752676e-06   -1.8029830208880944e-05
-1.9382853299467216e-05   4.280890016752676e-06   -1.8029830208880944e-05
-1.9382853299467216e-05   4.280890016752676e-06   -1.8029830208880944e-05
-3.440235258520607e-05   4.890564173244596e-06   -4.269652452455058e-05
-3.440235258520607e-05   4.890564173244596e-06   -4.269652452455058e-05
-3.440235258520607e-05   4.890564173244596e-06   -4.269652452455058e-05
-3.440235258520607e-05   4.890564173244596e-06   -4.269652452455058e-05
-3.335906101750946e-05   5.125700571337408e-06   -1.7031931981225518e-05
-3.335906101750946e-05   5.125700571337408e-06   -1.7031931981225518e-05
-3.335906101750946e-05   5.125700571337408e-06   -1.7031931981225518e-05
-3.335906101750946e-05   5.125700571337408e-06   -1.7031931981225518e-05
-1.8628634386821166e-05   5.622476756056774e-06   -4.188070874320399e-05
-1.8628634386821166e-05   5.622476756056774e-06   -4.188070874320399e-05
-1.8628634386821166e-05   5.622476756056774e-06   -4.188070874320399e-05
-1.8628634386821166e-05   5.622476756056774e-06   -4.188070874320399e-05
-2.617043918644231e-05   4.9778827836302435e-06   -2.8924277693712907e-05
-2.617043918644231e-05   4.9778827836302435e-06   -2.8924277693712907e-05
-2.617043918644231e-05   4.9778827836302435e-06   -2.8924277693712907e-05
-2.617043918644231e-05   4.9778827836302435e-06   -2.8924277693712907e-05
-1.862863438682117e-05   5.1257005713374016e-06   -1.7329997692056964e-05
-1.862863438682117e-05   5.1257005713374016e-06   -1.7329997692056964e-05
-1.862863438682117e-05   5.1257005713374016e-06   -1.7329997692056964e-05
-1.862863438682117e-05   5.1257005713374016e-06   -1.7329997692056964e-05
-3.335906101750946e-05   5.62247675605634e-06   -4.158264303237265e-05
-3.335906101750946e-05   5.62247675605634e-06   -4.158264303237265e-05
-3.335906101750946e-05   5.62247675605634e-06   -4.158264303237265e-05
-3.335906101750946e-05   5.62247675605634e-06   -4.158264303237265e-05
-3.247755556031396e-05   6.070644952249323e-06   -1.7425696455522976e-05
-3.247755556031396e-05   6.070644952249323e-06   -1.7425696455522976e-05
-3.247755556031396e-05   6.070644952249323e-06   -1.7425696455522976e-05
-3.247755556031396e-05   6.070644952249323e-06   -1.7425696455522976e-05
-1.7931703537979554e-05   6.4319687910602795e-06   -4.188557746270036e-05
-1.7931703537979554e-05   6.4319687910602795e-06   -4.188557746270036e-05
-1.7931703537979554e-05   6.4319687910602795e-06   -4.188557746270036e-05
-1.7931703537979554e-05   6.4319687910602795e-06   -4.188557746270036e-05
-2.5577958696177548e-05   5.58748968837626e-06   -2.8635131404093847e-05
-2.5577958696177548e-05   5.58748968837626e-06   -2.8635131404093847e-05
-2.5577958696177548e-05   5.58748968837626e-06   -2.8635131404093847e-05
-2.5577958696177548e-05   5.58748968837626e-06   -2.8635131404093847e-05
-3.534493363109861e-05   5.747579758409711e-06   -9.418794471773278e-06
-3.534493363109861e-05   5.747579758409711e-06   -9.418794471773278e-06
-3.534493363109861e-05   5.747579758409711e-06   -9.418794471773278e-06
-3.534493363109861e-05   5.747579758409711e-06   -9.418794471773278e-06
-5.13372133028406e-05   7.93864582708699e-06   -3.475795428347045e-05
-5.13372133028406e-05   7.93864582708699e-06   -3.475795428347045e-05
-5.13372133028406e-05   7.93864582708699e-06   -3.475795428347045e-05
-5.13372133028406e-05   7.93864582708699e-06   -3.475795428347045e-05
-4.9170237552186084e-05   6.721672620392657e-06   -2.97992999489724e-06
-4.9170237552186084e-05   6.721672620392657e-06   -2.97992999489724e-06
-4.9170237552186084e-05   6.721672620392657e-06   -2.97992999489724e-06
-4.9170237552186084e-05   6.721672620392657e-06   -2.97992999489724e-06
-3.440235258520601e-05   9.067959307685778e-06   -2.9000843618906456e-05
-3.440235258520601e-05   9.067959307685778e-06   -2.9000843618906456e-05
-3.440235258520601e-05   9.067959307685778e-06   -2.9000843618906456e-05
-3.440235258520601e-05   9.067959307685778e-06   -2.9000843618906456e-05
-4.080413149838398e-05   7.562974105524778e-06   -1.7428220975646672e-05
-4.080413149838398e-05   7.562974105524778e-06   -1.7428220975646672e-05
-4.080413149838398e-05   7.562974105524778e-06   -1.7428220975646672e-05
-4.080413149838398e-05   7.562974105524778e-06   -1.7428220975646672e-05
-3.440235258520604e-05   6.721672620392702e-06   -4.387702007272853e-06
-3.440235258520604e-05   6.721672620392702e-06   -4.387702007272853e-06
-3.440235258520604e-05   6.721672620392702e-06   -4.387702007272853e-06
-3.440235258520604e-05   6.721672620392702e-06   -4.387702007272853e-06
-4.9170237552186e-05   9.067959307685561e-06   -2.759307160653062e-05
-4.9170237552186e-05   9.067959307685561e-06   -2.759307160653062e-05
-4.9170237552186e-05   9.067959307685561e-06   -2.759307160653062e-05
-4.9170237552186e-05   9.067959307685561e-06   -2.759307160653062e-05
-4.7387091908846174e-05   7.070773734921265e-06   -2.9023699297972376e-07
-4.7387091908846174e-05   7.070773734921265e-06   -2.9023699297972376e-07
-4.7387091908846174e-05   7.070773734921265e-06   -2.9023699297972376e-07
-4.7387091908846174e-05   7.070773734921265e-06   -2.9023699297972376e-07
-3.3359061017509456e-05   9.365126118156394e-06   -2.5046899908482013e-05
-3.3359061017509456e-05   9.365126118156394e-06   -2.5046899908482013e-05
-3.3359061017509456e-05   9.365126118156394e-06   -2.5046899908482013e-05
-3.3359061017509456e-05   9.365126118156394e-06   -2.5046899908482013e-05
-4.006757631980264e-05   8.013149780613767e-06   -1.3054855268800715e-05
-4.006757631980264e-05   8.013149780613767e-06   -1.3054855268800715e-05
-4.006757631980264e-05   8.013149780613767e-06   -1.3054855268800715e-05
-4.006757631980264e-05   8.013149780613767e-06   -1.3054855268800715e-05
-3.335906101750946e-05   7.070773734921268e-06   -1.6668484229208878e-06
-3.335906101750946e-05   7.070773734921268e-06   -1.6668484229208878e-06
-3.335906101750946e-05   7.070773734921268e-06   -1.6668484229208878e-06
-3.335906101750946e-05   7.070773734921268e-06   -1.6668484229208878e-06
-4.738709190884604e-05   9.365126118156611e-06   -2.3670288478541126e-05
-4.738709190884604e-05   9.365126118156611e-06   -2.3670288478541126e-05
-4.738709190884604e-05   9.365126118156611e-06   -2.3670288478541126e-05
-4.738709190884604e-05   9.365126118156611e-06   -2.3670288478541126e-05
-4.546286701325464e-05   7.512862040056408e-06   3.12685161480157e-06
-4.546286701325464e-05   7.512862040056408e-06   3.12685161480157e-06
-4.546286701325464e-05   7.512862040056408e-06   3.12685161480157e-06
-4.546286701325464e-05   7.512862040056408e-06   3.12685161480157e-06
-3.247755556031393e-05   9.620455374844284e-06   -1.977989014097221e-05
-3.247755556031393e-05   9.620455374844284e-06   -1.977989014097221e-05
-3.247755556031393e-05   9.620455374844284e-06   -1.977989014097221e-05
-3.247755556031393e-05   9.620455374844284e-06   -1.977989014097221e-05
-3.8258955184647746e-05   8.086543389106094e-06   -9.223876908973864e-06
-3.8258955184647746e-05   8.086543389106094e-06   -9.223876908973864e-06
-3.8258955184647746e-05   8.086543389106094e-06   -9.223876908973864e-06
-3.8258955184647746e-05   8.086543389106094e-06   -9.223876908973864e-06
4.395689336862709e-05   -6.128420260147299e-06   8.731986660731302e-06
4.395689336862709e-05   -6.128420260147299e-06   8.731986660731302e-06
4.395689336862709e-05   -6.128420260147299e-06   8.731986660731302e-06
4.395689336862709e-05   -6.128420260147299e-06   8.731986660731302e-06
2.1179628490442925e-05   -9.071795085090466e-06   -3.0996146364541404e-05
2.1179628490442925e-05   -9.071795085090466e-06   -3.0996146364541404e-05
2.1179628490442925e-05   -9.071795085090466e-06   -3.0996146364541404e-05
2.1179628490442925e-05   -9.071795085090466e-06   -3.0996146364541404e-05
2.204505123405069e-05   -5.699742989506793e-06   4.219998207976097e-06
2.204505123405069e-05   -5.699742989506793e-06   4.219998207976097e-06
2.204505123405069e-05   -5.699742989506793e-06   4.219998207976097e-06
2.204505123405069e-05   -5.699742989506793e-06   4.219998207976097e-06
4.59675319512652e-05   -8.860241586341935e-06   -3.3754503829280856e-05
4.59675319512652e-05   -8.860241586341935e-06   -3.3754503829280856e-05
4.59675319512652e-05   -8.860241586341935e-06   -3.3754503829280856e-05
4.59675319512652e-05   -8.860241586341935e-06   -3.3754503829280856e-05
3.19337490144141e-05   -6.709562871776674e-06   -1.165527282993476e-05
3.19337490144141e-05   -6.709562871776674e-06   -1.165527282993476e-05
3.19337490144141e-05   -6.709562871776674e-06   -1.165527282993476e-05
3.19337490144141e-05   -6.709562871776674e-06   -1.165527282993476e-05
4.596753195126529e-05   -5.699742989507003e-06   6.116297366076879e-06
4.596753195126529e-05   -5.699742989507003e-06   6.116297366076879e-06
4.596753195126529e-05   -5.699742989507003e-06   6.116297366076879e-06
4.596753195126529e-05   -5.699742989507003e-06   6.116297366076879e-06
2.2045051234050663e-05   -8.860241586341935e-06   -3.565080298738169e-05
2.2045051234050663e-05   -8.860241586341935e-06   -3.565080298738169e-05
2.2045051234050663e-05   -8.860241586341935e-06   -3.565080298738169e-05
2.2045051234050663e-05   -8.860241586341935e-06   -3.565080298738169e-05
2.2906000180778895e-05   -5.3310047102932655e-06   2.011838753708745e-06
2.2906000180778895e-05   -5.3310047102932655e-06   2.011838753708745e-06
2.2906000180778895e-05   -5.3310047102932655e-06   2.011838753708745e-06
2.2906000180778895e-05   -5.3310047102932655e-06   2.011838753708745e-06
4.751062187337759e-05   -8.552536445149365e-06   -3.7062945026375166e-05
4.751062187337759e-05   -8.552536445149365e-06   -3.7062945026375166e-05
4.751062187337759e-05   -8.552536445149365e-06   -3.7062945026375166e-05
4.751062187337759e-05   -8.552536445149365e-06   -3.7062945026375166e-05
3.362733512843912e-05   -6.687336755810316e-06   -1.5043253598414957e-05
3.362733512843912e-05   -6.687336755810316e-06   -1.5043253598414957e-05
3.362733512843912e-05   -6.687336755810316e-06   -1.5043253598414957e-05
3.362733512843912e-05   -6.687336755810316e-06   -1.5043253598414957e-05
4.751062187337759e-05   -5.331004710293159e-06   3.944757794622708e-06
4.751062187337759e-05   -5.331004710293159e-06   3.944757794622708e-06
4.751062187337759e-05   -5.331004710293159e-06   3.944757794622708e-06
4.751062187337759e-05   -5.331004710293159e-06   3.944757794622708e-06
2.2906000180778895e-05   -8.552536445149365e-06   -3.899586406728897e-05
2.2906000180778895e-05   -8.552536445149365e-06   -3.899586406728897e-05
2.2906000180778895e-05   -8.552536445149365e-06   -3.899586406728897e-05
2.2906000180778895e-05   -8.552536445149365e-06   -3.899586406728897e-05
2.3490502381867098e-05   -4.165272161028074e-06   -2.434674926358668e-06
2.3490502381867098e-05   -4.165272161028074e-06   -2.434674926358668e-06
2.3490502381867098e-05   -4.165272161028074e-06   -2.434674926358668e-06
2.3490502381867098e-05   -4.165272161028074e-06   -2.434674926358668e-06
4.914242341335082e-05   -7.352714047566267e-06   -4.327541151357534e-05
4.914242341335082e-05   -7.352714047566267e-06   -4.327541151357534e-05
4.914242341335082e-05   -7.352714047566267e-06   -4.327541151357534e-05
4.914242341335082e-05   -7.352714047566267e-06   -4.327541151357534e-05
3.409973898504159e-05   -6.173156973754684e-06   -1.8912005044013978e-05
3.409973898504159e-05   -6.173156973754684e-06   -1.8912005044013978e-05
3.409973898504159e-05   -6.173156973754684e-06   -1.8912005044013978e-05
3.409973898504159e-05   -6.173156973754684e-06   -1.8912005044013978e-05
2.1179628490442952e-05   -2.86828102235996e-06   -1.0679963398735554e-05
2.1179628490442952e-05   -2.86828102235996e-06   -1.0679963398735554e-05
2.1179628490442952e-05   -2.86828102235996e-06   -1.0679963398735554e-05
2.1179628490442952e-05   -2.86828102235996e-06   -1.0679963398735554e-05
-1.288287817330521e-06   -5.8752058256076635e-06   -4.993064546030663e-05
-1.288287817330521e-06   -5.8752058256076635e-06   -4.993064546030663e-05
-1.288287817330521e-06   -5.8752058256076635e-06   -4.993064546030663e-05
-1.288287817330521e-06   -5.8752058256076635e-06   -4.993064546030663e-05
-4.0007645123593596e-07   -2.2723213032095103e-06   -1.177630923387572e-05
-4.0007645123593596e-07   -2.2723213032095103e-06   -1.177630923387572e-05
-4.0007645123593596e-07   -2.2723213032095103e-06   -1.177630923387572e-05
-4.0007645123593596e-07   -2.2723213032095103e-06   -1.177630923387572e-05
2.204505123405069e-05   -5.593422866136122e-06   -4.7192194438263875e-05
2.204505123405069e-05   -5.593422866136122e-06   -4.7192194438263875e-05
2.204505123405069e-05   -5.593422866136122e-06   -4.7192194438263875e-05
2.204505123405069e-05   -5.593422866136122e-06   -4.7192194438263875e-05
1.041523633080039e-05   -3.5546457787262974e-06   -2.903243585195944e-05
1.041523633080039e-05   -3.5546457787262974e-06   -2.903243585195944e-05
1.041523633080039e-05   -3.5546457787262974e-06   -2.903243585195944e-05
1.041523633080039e-05   -3.5546457787262974e-06   -2.903243585195944e-05
2.2045051234050663e-05   -2.2723213032094036e-06   -9.783648296119449e-06
2.2045051234050663e-05   -2.2723213032094036e-06   -9.783648296119449e-06
2.2045051234050663e-05   -2.2723213032094036e-06   -9.783648296119449e-06
2.2045051234050663e-05   -2.2723213032094036e-06   -9.783648296119449e-06
-4.0007645123593596e-07   -5.593422866136122e-06   -4.918485537602009e-05
-4.0007645123593596e-07   -5.593422866136122e-06   -4.918485537602009e-05
-4.0007645123593596e-07   -5.593422866136122e-06   -4.918485537602009e-05
-4.0007645123593596e-07   -5.593422866136122e-06   -4.918485537602009e-05
3.8246678667979534e-07   -1.543893081826491e-06   -1.2056311063967425e-05
3.8246678667979534e-07   -1.543893081826491e-06   -1.2056311063967425e-05
3.8246678667979534e-07   -1.543893081826491e-06   -1.2056311063967425e-05
3.8246678667979534e-07   -1.543893081826491e-06   -1.2056311063967425e-05
2.2906000180778895e-05   -5.069180838166397e-06   -4.748036073366183e-05
2.2906000180778895e-05   -5.069180838166397e-06   -4.748036073366183e-05
2.2906000180778895e-05   -5.069180838166397e-06   -4.748036073366183e-05
2.2906000180778895e-05   -5.069180838166397e-06   -4.748036073366183e-05
1.1019528874849352e-05   -3.2624646781804524e-06   -2.875360491977043e-05
1.1019528874849352e-05   -3.2624646781804524e-06   -2.875360491977043e-05
1.1019528874849352e-05   -3.2624646781804524e-06   -2.875360491977043e-05
1.1019528874849352e-05   -3.2624646781804524e-06   -2.875360491977043e-05
2.2906000180778895e-05   -1.5438930818261247e-06   -9.941138410163395e-06
2.2906000180778895e-05   -1.5438930818261247e-06   -9.941138410163395e-06
2.2906000180778895e-05   -1.5438930818261247e-06   -9.941138410163395e-06
2.2906000180778895e-05   -1.5438930818261247e-06   -9.941138410163395e-06
3.824667866798089e-07   -5.069180838166397e-06   -4.9595533387466074e-05
3.824667866798089e-07   -5.069180838166397e-06   -4.9595533387466074e-05
3.824667866798089e-07   -5.069180838166397e-06   -4.9595533387466074e-05
3.824667866798089e-07   -5.069180838166397e-06   -4.9595533387466074e-05
9.395193244963286e-07   -6.272456897268158e-07   -1.2533718309041923e-05
9.395193244963286e-07   -6.272456897268158e-07   -1.2533718309041923e-05
9.395193244963286e-07   -6.272456897268158e-07   -1.2533718309041923e-05
9.395193244963286e-07   -6.272456897268158e-07   -1.2533718309041923e-05
2.3490502381867173e-05   -4.32327385619909e-06   -4.790107317144388e-05
2.3490502381867173e-05   -4.32327385619909e-06   -4.790107317144388e-05
2.3490502381867173e-05   -4.32327385619909e-06   -4.790107317144388e-05
2.3490502381867173e-05   -4.32327385619909e-06   -4.790107317144388e-05
1.1743401814378402e-05   -2.7478361396787547e-06   -2.9267834855541933e-05
1.1743401814378402e-05   -2.7478361396787547e-06   -2.9267834855541933e-05
1.1743401814378402e-05   -2.7478361396787547e-06   -2.9267834855541933e-05
1.1743401814378402e-05   -2.7478361396787547e-06   -2.9267834855541933e-05
-1.288287817330521e-06   5.254300980893733e-07   -1.6268235861275227e-05
-1.288287817330521e-06   5.254300980893733e-07   -1.6268235861275227e-05
-1.288287817330521e-06   5.254300980893733e-07   -1.6268235861275227e-05
-1.288287817330521e-06   5.254300980893733e-07   -1.6268235861275227e-05
-2.3424319225727888e-05   -3.079414973699516e-06   -5.532452858501087e-05
-2.3424319225727888e-05   -3.079414973699516e-06   -5.532452858501087e-05
-2.3424319225727888e-05   -3.079414973699516e-06   -5.532452858501087e-05
-2.3424319225727888e-05   -3.079414973699516e-06   -5.532452858501087e-05
-2.2358581655337175e-05   1.194927298449333e-06   -1.768951178442147e-05
-2.2358581655337175e-05   1.194927298449333e-06   -1.768951178442147e-05
-2.2358581655337175e-05   1.194927298449333e-06   -1.768951178442147e-05
-2.2358581655337175e-05   1.194927298449333e-06   -1.768951178442147e-05
-4.0007645123592934e-07   -2.7472442634371604e-06   -5.192171752079223e-05
-4.0007645123592934e-07   -2.7472442634371604e-06   -5.192171752079223e-05
-4.0007645123592934e-07   -2.7472442634371604e-06   -5.192171752079223e-05
-4.0007645123592934e-07   -2.7472442634371604e-06   -5.192171752079223e-05
-1.1727109034983934e-05   -5.917892969913539e-07   -3.433660286107941e-05
-1.1727109034983934e-05   -5.917892969913539e-07   -3.433660286107941e-05
-1.1727109034983934e-05   -5.917892969913539e-07   -3.433660286107941e-05
-1.1727109034983934e-05   -5.917892969913539e-07   -3.433660286107941e-05
-4.0007645123593596e-07   1.194927298449209e-06   -1.5324208847290093e-05
-4.0007645123593596e-07   1.194927298449209e-06   -1.5324208847290093e-05
-4.0007645123593596e-07   1.194927298449209e-06   -1.5324208847290093e-05
-4.0007645123593596e-07   1.194927298449209e-06   -1.5324208847290093e-05
-2.2358581655337175e-05   -2.7472442634371604e-06   -5.4287020457923635e-05
-2.2358581655337175e-05   -2.7472442634371604e-06   -5.4287020457923635e-05
-2.2358581655337175e-05   -2.7472442634371604e-06   -5.4287020457923635e-05
-2.2358581655337175e-05   -2.7472442634371604e-06   -5.4287020457923635e-05
-2.1380828041229634e-05   1.9700076620125274e-06   -1.7372986250929106e-05
-2.1380828041229634e-05   1.9700076620125274e-06   -1.7372986250929106e-05
-2.1380828041229634e-05   1.9700076620125274e-06   -1.7372986250929106e-05
-2.1380828041229634e-05   1.9700076620125274e-06   -1.7372986250929106e-05
3.8246678667980376e-07   -2.2306742555643425e-06   -5.1124735146899e-05
3.8246678667980376e-07   -2.2306742555643425e-06   -5.1124735146899e-05
3.8246678667980376e-07   -2.2306742555643425e-06   -5.1124735146899e-05
3.8246678667980376e-07   -2.2306742555643425e-06   -5.1124735146899e-05
-1.0859192308649203e-05   -2.116801827564338e-07   -3.360003309836867e-05
-1.0859192308649203e-05   -2.116801827564338e-07   -3.360003309836867e-05
-1.0859192308649203e-05   -2.116801827564338e-07   -3.360003309836867e-05
-1.0859192308649203e-05   -2.116801827564338e-07   -3.360003309836867e-05
3.824667866798089e-07   1.970007662012374e-06   -1.4852577100383417e-05
3.824667866798089e-07   1.970007662012374e-06   -1.4852577100383417e-05
3.824667866798089e-07   1.970007662012374e-06   -1.4852577100383417e-05
3.824667866798089e-07   1.970007662012374e-06   -1.4852577100383417e-05
-2.1380828041229634e-05   -2.2306742555643425e-06   -5.364514429744504e-05
-2.1380828041229634e-05   -2.2306742555643425e-06   -5.364514429744504e-05
-2.1380828041229634e-05   -2.2306742555643425e-06   -5.364514429744504e-05
-2.1380828041229634e-05   -2.2306742555643425e-06   -5.364514429744504e-05
-2.072161872963457e-05   2.7709876096720237e-06   -1.7674784594744284e-05
-2.072161872963457e-05   2.7709876096720237e-06   -1.7674784594744284e-05
-2.072161872963457e-05   2.7709876096720237e-06   -1.7674784594744284e-05
-2.072161872963457e-05   2.7709876096720237e-06   -1.7674784594744284e-05
9.395193244963313e-07   -1.7407392691386019e-06   -5.1069645224342645e-05
9.395193244963313e-07   -1.7407392691386019e-06   -5.1069645224342645e-05
9.395193244963313e-07   -1.7407392691386019e-06   -5.1069645224342645e-05
9.395193244963313e-07   -1.7407392691386019e-06   -5.1069645224342645e-05
-1.0240263146336515e-05   2.1501132070481446e-07   -3.361012479352791e-05
-1.0240263146336515e-05   2.1501132070481446e-07   -3.361012479352791e-05
-1.0240263146336515e-05   2.1501132070481446e-07   -3.361012479352791e-05
-1.0240263146336515e-05   2.1501132070481446e-07   -3.361012479352791e-05
-2.3424319225727888e-05   4.04064127596034e-06   -1.3275669988101332e-05
-2.3424319225727888e-05   4.04064127596034e-06   -1.3275669988101332e-05
-2.3424319225727888e-05   4.04064127596034e-06   -1.3275669988101332e-05
-2.3424319225727888e-05   4.04064127596034e-06   -1.3275669988101332e-05
-4.586974048719183e-05   7.93704323512074e-07   -5.2632867595343814e-05
-4.586974048719183e-05   7.93704323512074e-07   -5.2632867595343814e-05
-4.586974048719183e-05   7.93704323512074e-07   -5.2632867595343814e-05
-4.586974048719183e-05   7.93704323512074e-07   -5.2632867595343814e-05
-4.4352482963295026e-05   4.890564173244162e-06   -1.414596593119692e-05
-4.4352482963295026e-05   4.890564173244162e-06   -1.414596593119692e-05
-4.4352482963295026e-05   4.890564173244162e-06   -1.414596593119692e-05
-4.4352482963295026e-05   4.890564173244162e-06   -1.414596593119692e-05
-2.235858165533718e-05   1.4071861945317253e-06   -4.871244132389902e-05
-2.235858165533718e-05   1.4071861945317253e-06   -4.871244132389902e-05
-2.235858165533718e-05   1.4071861945317253e-06   -4.871244132389902e-05
-2.235858165533718e-05   1.4071861945317253e-06   -4.871244132389902e-05
-3.364864547589995e-05   3.0743682758798893e-06   -3.089597753843667e-05
-3.364864547589995e-05   3.0743682758798893e-06   -3.089597753843667e-05
-3.364864547589995e-05   3.0743682758798893e-06   -3.089597753843667e-05
-3.364864547589995e-05   3.0743682758798893e-06   -3.089597753843667e-05
-2.2358581655337175e-05   4.890564173244329e-06   -1.2055939143969154e-05
-2.2358581655337175e-05   4.890564173244329e-06   -1.2055939143969154e-05
-2.2358581655337175e-05   4.890564173244329e-06   -1.2055939143969154e-05
-2.2358581655337175e-05   4.890564173244329e-06   -1.2055939143969154e-05
-4.43524829632951e-05   1.4071861945317253e-06   -5.0802468111126866e-05
-4.43524829632951e-05   1.4071861945317253e-06   -5.0802468111126866e-05
-4.43524829632951e-05   1.4071861945317253e-06   -5.0802468111126866e-05
-4.43524829632951e-05   1.4071861945317253e-06   -5.0802468111126866e-05
-4.2885505941286025e-05   5.62247675605634e-06   -1.288380300105735e-05
-4.2885505941286025e-05   5.62247675605634e-06   -1.288380300105735e-05
-4.2885505941286025e-05   5.62247675605634e-06   -1.288380300105735e-05
-4.2885505941286025e-05   5.62247675605634e-06   -1.288380300105735e-05
-2.1380828041229668e-05   1.971859094045819e-06   -4.6534562237278556e-05
-2.1380828041229668e-05   1.971859094045819e-06   -4.6534562237278556e-05
-2.1380828041229668e-05   1.971859094045819e-06   -4.6534562237278556e-05
-2.1380828041229668e-05   1.971859094045819e-06   -4.6534562237278556e-05
-3.22769894987403e-05   3.6081497516008733e-06   -2.9356067535960475e-05
-3.22769894987403e-05   3.6081497516008733e-06   -2.9356067535960475e-05
-3.22769894987403e-05   3.6081497516008733e-06   -2.9356067535960475e-05
-3.22769894987403e-05   3.6081497516008733e-06   -2.9356067535960475e-05
-2.1380828041229634e-05   5.622476756056507e-06   -1.069343240385121e-05
-2.1380828041229634e-05   5.622476756056507e-06   -1.069343240385121e-05
-2.1380828041229634e-05   5.622476756056507e-06   -1.069343240385121e-05
-2.1380828041229634e-05   5.622476756056507e-06   -1.069343240385121e-05
-4.28855059412861e-05   1.971859094045819e-06   -4.8724932834484994e-05
-4.28855059412861e-05   1.971859094045819e-06   -4.8724932834484994e-05
-4.28855059412861e-05   1.971859094045819e-06   -4.8724932834484994e-05
-4.28855059412861e-05   1.971859094045819e-06   -4.8724932834484994e-05
-4.177306902496426e-05   6.431968791060713e-06   -1.292443267183769e-05
-4.177306902496426e-05   6.431968791060713e-06   -1.292443267183769e-05
-4.177306902496426e-05   6.431968791060713e-06   -1.292443267183769e-05
-4.177306902496426e-05   6.431968791060713e-06   -1.292443267183769e-05
-2.0721618729634605e-05   2.4493502706296293e-06   -4.562061205179541e-05
-2.0721618729634605e-05   2.4493502706296293e-06   -4.562061205179541e-05
-2.0721618729634605e-05   2.4493502706296293e-06   -4.562061205179541e-05
-2.0721618729634605e-05   2.4493502706296293e-06   -4.562061205179541e-05
-3.1509524951529985e-05   3.980768156993959e-06   -2.8559619080455603e-05
-3.1509524951529985e-05   3.980768156993959e-06   -2.8559619080455603e-05
-3.1509524951529985e-05   3.980768156993959e-06   -2.8559619080455603e-05
-3.1509524951529985e-05   3.980768156993959e-06   -2.8559619080455603e-05
-4.586974048719183e-05   7.938645827087095e-06   -7.614470677352967e-06
-4.586974048719183e-05   7.938645827087095e-06   -7.614470677352967e-06
-4.586974048719183e-05   7.938645827087095e-06   -7.614470677352967e-06
-4.586974048719183e-05   7.938645827087095e-06   -7.614470677352967e-06
-6.932262488099201e-05   7.497060934614965e-06   -4.696756226917e-05
-6.932262488099201e-05   7.497060934614965e-06   -4.696756226917e-05
-6.932262488099201e-05   7.497060934614965e-06   -4.696756226917e-05
-6.932262488099201e-05   7.497060934614965e-06   -4.696756226917e-05
-6.632741570339874e-05   9.067959307685778e-06   -1.9859764108297144e-07
-6.632741570339874e-05   9.067959307685778e-06   -1.9859764108297144e-07
-6.632741570339874e-05   9.067959307685778e-06   -1.9859764108297144e-07
-6.632741570339874e-05   9.067959307685778e-06   -1.9859764108297144e-07
-4.4352482963294945e-05   9.487438281802207e-06   -3.70751729257257e-05
-4.4352482963294945e-05   9.487438281802207e-06   -3.70751729257257e-05
-4.4352482963294945e-05   9.487438281802207e-06   -3.70751729257257e-05
-4.4352482963294945e-05   9.487438281802207e-06   -3.70751729257257e-05
-5.403292664965587e-05   8.945276081946153e-06   -2.0615802795210962e-05
-5.403292664965587e-05   8.945276081946153e-06   -2.0615802795210962e-05
-5.403292664965587e-05   8.945276081946153e-06   -2.0615802795210962e-05
-5.403292664965587e-05   8.945276081946153e-06   -2.0615802795210962e-05
-4.435248296329506e-05   9.06795930768567e-06   -4.502850255527855e-07
-4.435248296329506e-05   9.06795930768567e-06   -4.502850255527855e-07
-4.435248296329506e-05   9.06795930768567e-06   -4.502850255527855e-07
-4.435248296329506e-05   9.06795930768567e-06   -4.502850255527855e-07
-6.632741570339861e-05   9.487438281802207e-06   -3.682348554125592e-05
-6.632741570339861e-05   9.487438281802207e-06   -3.682348554125592e-05
-6.632741570339861e-05   9.487438281802207e-06   -3.682348554125592e-05
-6.632741570339861e-05   9.487438281802207e-06   -3.682348554125592e-05
-6.384351773445883e-05   9.365126118156611e-06   3.993807506043681e-06
-6.384351773445883e-05   9.365126118156611e-06   3.993807506043681e-06
-6.384351773445883e-05   9.365126118156611e-06   3.993807506043681e-06
-6.384351773445883e-05   9.365126118156611e-06   3.993807506043681e-06
-4.2885505941286025e-05   9.93490509017432e-06   -3.1278079532455153e-05
-4.2885505941286025e-05   9.93490509017432e-06   -3.1278079532455153e-05
-4.2885505941286025e-05   9.93490509017432e-06   -3.1278079532455153e-05
-4.2885505941286025e-05   9.93490509017432e-06   -3.1278079532455153e-05
-5.290092738383173e-05   9.594750475237432e-06   -1.4381617692582721e-05
-5.290092738383173e-05   9.594750475237432e-06   -1.4381617692582721e-05
-5.290092738383173e-05   9.594750475237432e-06   -1.4381617692582721e-05
-5.290092738383173e-05   9.594750475237432e-06   -1.4381617692582721e-05
-4.28855059412861e-05   9.36512611815646e-06   3.6519401228327954e-06
-4.28855059412861e-05   9.36512611815646e-06   3.6519401228327954e-06
-4.28855059412861e-05   9.36512611815646e-06   3.6519401228327954e-06
-4.28855059412861e-05   9.36512611815646e-06   3.6519401228327954e-06
-6.384351773445893e-05   9.934905090174754e-06   -3.0936212149244424e-05
-6.384351773445893e-05   9.934905090174754e-06   -3.0936212149244424e-05
-6.384351773445893e-05   9.934905090174754e-06   -3.0936212149244424e-05
-6.384351773445893e-05   9.934905090174754e-06   -3.0936212149244424e-05
-6.124538847557658e-05   9.620455374844067e-06   9.613632315524706e-06
-6.124538847557658e-05   9.620455374844067e-06   9.613632315524706e-06
-6.124538847557658e-05   9.620455374844067e-06   9.613632315524706e-06
-6.124538847557658e-05   9.620455374844067e-06   9.613632315524706e-06
-4.1773069024964294e-05   1.0702408656379156e-05   -2.3489405404417093e-05
-4.1773069024964294e-05   1.0702408656379156e-05   -2.3489405404417093e-05
-4.1773069024964294e-05   1.0702408656379156e-05   -2.3489405404417093e-05
-4.1773069024964294e-05   1.0702408656379156e-05   -2.3489405404417093e-05
-5.0392078658499054e-05   9.81262160170901e-06   -8.590517115724174e-06
-5.0392078658499054e-05   9.81262160170901e-06   -8.590517115724174e-06
-5.0392078658499054e-05   9.81262160170901e-06   -8.590517115724174e-06
-5.0392078658499054e-05   9.81262160170901e-06   -8.590517115724174e-06
6.041174937770441e-05   -9.071795085090402e-06   2.0622971353749476e-05
6.041174937770441e-05   -9.071795085090402e-06   2.0622971353749476e-05
6.041174937770441e-05   -9.071795085090402e-06   2.0622971353749476e-05
6.041174937770441e-05   -9.071795085090402e-06   2.0622971353749476e-05
3.0362563615772168e-05   -1.1470736483215095e-05   -3.089836975501254e-05
3.0362563615772168e-05   -1.1470736483215095e-05   -3.089836975501254e-05
3.0362563615772168e-05   -1.1470736483215095e-05   -3.089836975501254e-05
3.0362563615772168e-05   -1.1470736483215095e-05   -3.089836975501254e-05
3.110308520889638e-05   -8.860241586341935e-06   1.47962360321492e-05
3.110308520889638e-05   -8.860241586341935e-06   1.47962360321492e-05
3.110308520889638e-05   -8.860241586341935e-06   1.47962360321492e-05
3.110308520889638e-05   -8.860241586341935e-06   1.47962360321492e-05
6.191541990937247e-05   -1.1757702848427722e-05   -3.481917837805924e-05
6.191541990937247e-05   -1.1757702848427722e-05   -3.481917837805924e-05
6.191541990937247e-05   -1.1757702848427722e-05   -3.481917837805924e-05
6.191541990937247e-05   -1.1757702848427722e-05   -3.481917837805924e-05
4.411758608686042e-05   -9.266544419160323e-06   -6.65081706476624e-06
4.411758608686042e-05   -9.266544419160323e-06   -6.65081706476624e-06
4.411758608686042e-05   -9.266544419160323e-06   -6.65081706476624e-06
4.411758608686042e-05   -9.266544419160323e-06   -6.65081706476624e-06
6.191541990937247e-05   -8.860241586341985e-06   1.6534712789400977e-05
6.191541990937247e-05   -8.860241586341985e-06   1.6534712789400977e-05
6.191541990937247e-05   -8.860241586341985e-06   1.6534712789400977e-05
6.191541990937247e-05   -8.860241586341985e-06   1.6534712789400977e-05
3.110308520889638e-05   -1.1757702848427722e-05   -3.655765513531058e-05
3.110308520889638e-05   -1.1757702848427722e-05   -3.655765513531058e-05
3.110308520889638e-05   -1.1757702848427722e-05   -3.655765513531058e-05
3.110308520889638e-05   -1.1757702848427722e-05   -3.655765513531058e-05
3.1728977474175404e-05   -8.552536445149365e-06   1.1676674150825402e-05
3.1728977474175404e-05   -8.552536445149365e-06   1.1676674150825402e-05
3.1728977474175404e-05   -8.552536445149365e-06   1.1676674150825402e-05
3.1728977474175404e-05   -8.552536445149365e-06   1.1676674150825402e-05
6.285238762731252e-05   -1.1650926263788528e-05   -3.833664221321954e-05
6.285238762731252e-05   -1.1650926263788528e-05   -3.833664221321954e-05
6.285238762731252e-05   -1.1650926263788528e-05   -3.833664221321954e-05
6.285238762731252e-05   -1.1650926263788528e-05   -3.833664221321954e-05
4.567169726649898e-05   -9.558917255461478e-06   -1.0957363683526515e-05
4.567169726649898e-05   -9.558917255461478e-06   -1.0957363683526515e-05
4.567169726649898e-05   -9.558917255461478e-06   -1.0957363683526515e-05
4.567169726649898e-05   -9.558917255461478e-06   -1.0957363683526515e-05
6.28523876273125e-05   -8.552536445149473e-06   1.3535708042008987e-05
6.28523876273125e-05   -8.552536445149473e-06   1.3535708042008987e-05
6.28523876273125e-05   -8.552536445149473e-06   1.3535708042008987e-05
6.28523876273125e-05   -8.552536445149473e-06   1.3535708042008987e-05
3.1728977474175404e-05   -1.1650926263788528e-05   -4.019567610440296e-05
3.1728977474175404e-05   -1.1650926263788528e-05   -4.019567610440296e-05
3.1728977474175404e-05   -1.1650926263788528e-05   -4.019567610440296e-05
3.1728977474175404e-05   -1.1650926263788528e-05   -4.019567610440296e-05
3.238269607859002e-05   -7.352714047566267e-06   5.625140610699504e-06
3.238269607859002e-05   -7.352714047566267e-06   5.625140610699504e-06
3.238269607859002e-05   -7.352714047566267e-06   5.625140610699504e-06
3.238269607859002e-05   -7.352714047566267e-06   5.625140610699504e-06
6.377499424308098e-05   -1.1002023218457512e-05   -4.450577082758383e-05
6.377499424308098e-05   -1.1002023218457512e-05   -4.450577082758383e-05
6.377499424308098e-05   -1.1002023218457512e-05   -4.450577082758383e-05
6.377499424308098e-05   -1.1002023218457512e-05   -4.450577082758383e-05
4.569306904092796e-05   -9.199006961273237e-06   -1.5451038578306224e-05
4.569306904092796e-05   -9.199006961273237e-06   -1.5451038578306224e-05
4.569306904092796e-05   -9.199006961273237e-06   -1.5451038578306224e-05
4.569306904092796e-05   -9.199006961273237e-06   -1.5451038578306224e-05
3.0362563615772168e-05   -5.875205825607509e-06   2.0532623010579513e-06
3.0362563615772168e-05   -5.875205825607509e-06   2.0532623010579513e-06
3.0362563615772168e-05   -5.875205825607509e-06   2.0532623010579513e-06
3.0362563615772168e-05   -5.875205825607509e-06   2.0532623010579513e-06
3.5920525310320574e-06   -1.1499465032084339e-05   -4.5938811697395204e-05
3.5920525310320574e-06   -1.1499465032084339e-05   -4.5938811697395204e-05
3.5920525310320574e-06   -1.1499465032084339e-05   -4.5938811697395204e-05
3.5920525310320574e-06   -1.1499465032084339e-05   -4.5938811697395204e-05
4.455002809995465e-06   -5.593422866136122e-06   -2.5300931769459134e-07
4.455002809995465e-06   -5.593422866136122e-06   -2.5300931769459134e-07
4.455002809995465e-06   -5.593422866136122e-06   -2.5300931769459134e-07
4.455002809995465e-06   -5.593422866136122e-06   -2.5300931769459134e-07
3.110308520889645e-05   -1.143984603107183e-05   -4.115862608356795e-05
3.110308520889645e-05   -1.143984603107183e-05   -4.115862608356795e-05
3.110308520889645e-05   -1.143984603107183e-05   -4.115862608356795e-05
3.110308520889645e-05   -1.143984603107183e-05   -4.115862608356795e-05
1.744563783532412e-05   -7.758581312721988e-06   -2.0604972625290767e-05
1.744563783532412e-05   -7.758581312721988e-06   -2.0604972625290767e-05
1.744563783532412e-05   -7.758581312721988e-06   -2.0604972625290767e-05
1.744563783532412e-05   -7.758581312721988e-06   -2.0604972625290767e-05
3.110308520889638e-05   -5.593422866136171e-06   3.254844581267397e-06
3.110308520889638e-05   -5.593422866136171e-06   3.254844581267397e-06
3.110308520889638e-05   -5.593422866136171e-06   3.254844581267397e-06
3.110308520889638e-05   -5.593422866136171e-06   3.254844581267397e-06
4.455002809995465e-06   -1.1439846031072263e-05   -4.466647998252926e-05
4.455002809995465e-06   -1.1439846031072263e-05   -4.466647998252926e-05
4.455002809995465e-06   -1.1439846031072263e-05   -4.466647998252926e-05
4.455002809995465e-06   -1.1439846031072263e-05   -4.466647998252926e-05
5.233942023865755e-06   -5.069180838165963e-06   -5.375801409601179e-07
5.233942023865755e-06   -5.069180838165963e-06   -5.375801409601179e-07
5.233942023865755e-06   -5.069180838165963e-06   -5.375801409601179e-07
5.233942023865755e-06   -5.069180838165963e-06   -5.375801409601179e-07
3.172897747417539e-05   -1.1285443547187895e-05   -4.096621493272995e-05
3.172897747417539e-05   -1.1285443547187895e-05   -4.096621493272995e-05
3.172897747417539e-05   -1.1285443547187895e-05   -4.096621493272995e-05
3.172897747417539e-05   -1.1285443547187895e-05   -4.096621493272995e-05
1.793508062645899e-05   -7.843230815334726e-06   -2.004171449231394e-05
1.793508062645899e-05   -7.843230815334726e-06   -2.004171449231394e-05
1.793508062645899e-05   -7.843230815334726e-06   -2.004171449231394e-05
1.793508062645899e-05   -7.843230815334726e-06   -2.004171449231394e-05
3.1728977474175404e-05   -5.069180838166445e-06   3.1921774844526508e-06
3.1728977474175404e-05   -5.069180838166445e-06   3.1921774844526508e-06
3.1728977474175404e-05   -5.069180838166445e-06   3.1921774844526508e-06
3.1728977474175404e-05   -5.069180838166445e-06   3.1921774844526508e-06
5.233942023865742e-06   -1.1285443547187895e-05   -4.469597255814294e-05
5.233942023865742e-06   -1.1285443547187895e-05   -4.469597255814294e-05
5.233942023865742e-06   -1.1285443547187895e-05   -4.469597255814294e-05
5.233942023865742e-06   -1.1285443547187895e-05   -4.469597255814294e-05
6.396594457846512e-06   -4.323273856198656e-06   -1.0806028769526615e-06
6.396594457846512e-06   -4.323273856198656e-06   -1.0806028769526615e-06
6.396594457846512e-06   -4.323273856198656e-06   -1.0806028769526615e-06
6.396594457846512e-06   -4.323273856198656e-06   -1.0806028769526615e-06
3.2382696078590055e-05   -1.0977518792376802e-05   -4.0398225283152026e-05
3.2382696078590055e-05   -1.0977518792376802e-05   -4.0398225283152026e-05
3.2382696078590055e-05   -1.0977518792376802e-05   -4.0398225283152026e-05
3.2382696078590055e-05   -1.0977518792376802e-05   -4.0398225283152026e-05
1.886970319611589e-05   -7.720536620867656e-06   -1.983075978193396e-05
1.886970319611589e-05   -7.720536620867656e-06   -1.983075978193396e-05
1.886970319611589e-05   -7.720536620867656e-06   -1.983075978193396e-05
1.886970319611589e-05   -7.720536620867656e-06   -1.983075978193396e-05
3.5920525310320574e-06   -3.0794149736995053e-06   -4.552269304459273e-06
3.5920525310320574e-06   -3.0794149736995053e-06   -4.552269304459273e-06
3.5920525310320574e-06   -3.0794149736995053e-06   -4.552269304459273e-06
3.5920525310320574e-06   -3.0794149736995053e-06   -4.552269304459273e-06
-2.2901218108045164e-05   -1.3863734447369918e-05   -5.517831205378984e-05
-2.2901218108045164e-05   -1.3863734447369918e-05   -5.517831205378984e-05
-2.2901218108045164e-05   -1.3863734447369918e-05   -5.517831205378984e-05
-2.2901218108045164e-05   -1.3863734447369918e-05   -5.517831205378984e-05
-2.1556892988573435e-05   -2.7472442634371604e-06   -9.843189624529451e-06
-2.1556892988573435e-05   -2.7472442634371604e-06   -9.843189624529451e-06
-2.1556892988573435e-05   -2.7472442634371604e-06   -9.843189624529451e-06
-2.1556892988573435e-05   -2.7472442634371604e-06   -9.843189624529451e-06
4.455002809995468e-06   -1.4169441200208386e-05   -4.634303112674792e-05
4.455002809995468e-06   -1.4169441200208386e-05   -4.634303112674792e-05
4.455002809995468e-06   -1.4169441200208386e-05   -4.634303112674792e-05
4.455002809995468e-06   -1.4169441200208386e-05   -4.634303112674792e-05
-8.797331425272711e-06   -7.836565450565491e-06   -2.8055532851086688e-05
-8.797331425272711e-06   -7.836565450565491e-06   -2.8055532851086688e-05
-8.797331425272711e-06   -7.836565450565491e-06   -2.8055532851086688e-05
-8.797331425272711e-06   -7.836565450565491e-06   -2.8055532851086688e-05
4.455002809995465e-06   -2.7472442634370053e-06   -2.9898714624663255e-06
4.455002809995465e-06   -2.7472442634370053e-06   -2.9898714624663255e-06
4.455002809995465e-06   -2.7472442634370053e-06   -2.9898714624663255e-06
4.455002809995465e-06   -2.7472442634370053e-06   -2.9898714624663255e-06
-2.1556892988573476e-05   -1.416944120020882e-05   -5.319634928881113e-05
-2.1556892988573476e-05   -1.416944120020882e-05   -5.319634928881113e-05
-2.1556892988573476e-05   -1.416944120020882e-05   -5.319634928881113e-05
-2.1556892988573476e-05   -1.416944120020882e-05   -5.319634928881113e-05
-2.0398326027260057e-05   -2.2306742555639088e-06   -9.18962264184254e-06
-2.0398326027260057e-05   -2.2306742555639088e-06   -9.18962264184254e-06
-2.0398326027260057e-05   -2.2306742555639088e-06   -9.18962264184254e-06
-2.0398326027260057e-05   -2.2306742555639088e-06   -9.18962264184254e-06
5.233942023865738e-06   -1.4102075491312632e-05   -4.478722865226966e-05
5.233942023865738e-06   -1.4102075491312632e-05   -4.478722865226966e-05
5.233942023865738e-06   -1.4102075491312632e-05   -4.478722865226966e-05
5.233942023865738e-06   -1.4102075491312632e-05   -4.478722865226966e-05
-7.842796482952826e-06   -8.013377258090076e-06   -2.6645883414172218e-05
-7.842796482952826e-06   -8.013377258090076e-06   -2.6645883414172218e-05
-7.842796482952826e-06   -8.013377258090076e-06   -2.6645883414172218e-05
-7.842796482952826e-06   -8.013377258090076e-06   -2.6645883414172218e-05
5.233942023865742e-06   -2.2306742555642162e-06   -2.066781900393177e-06
5.233942023865742e-06   -2.2306742555642162e-06   -2.066781900393177e-06
5.233942023865742e-06   -2.2306742555642162e-06   -2.066781900393177e-06
5.233942023865742e-06   -2.2306742555642162e-06   -2.066781900393177e-06
-2.0398326027260124e-05   -1.4102075491313065e-05   -5.1910069393718917e-05
-2.0398326027260124e-05   -1.4102075491313065e-05   -5.1910069393718917e-05
-2.0398326027260124e-05   -1.4102075491313065e-05   -5.1910069393718917e-05
-2.0398326027260124e-05   -1.4102075491313065e-05   -5.1910069393718917e-05
-1.8399290258644185e-05   -1.7407392691386019e-06   -9.15090580568597e-06
-1.8399290258644185e-05   -1.7407392691386019e-06   -9.15090580568597e-06
-1.8399290258644185e-05   -1.7407392691386019e-06   -9.15090580568597e-06
-1.8399290258644185e-05   -1.7407392691386019e-06   -9.15090580568597e-06
6.396594457846542e-06   -1.3606318895334393e-05   -4.3358032557453275e-05
6.396594457846542e-06   -1.3606318895334393e-05   -4.3358032557453275e-05
6.396594457846542e-06   -1.3606318895334393e-05   -4.3358032557453275e-05
6.396594457846542e-06   -1.3606318895334393e-05   -4.3358032557453275e-05
-6.602282905359103e-06   -7.834674494623748e-06   -2.515622359253701e-05
-6.602282905359103e-06   -7.834674494623748e-06   -2.515622359253701e-05
-6.602282905359103e-06   -7.834674494623748e-06   -2.515622359253701e-05
-6.602282905359103e-06   -7.834674494623748e-06   -2.515622359253701e-05
-2.290121810804511e-05   7.937043235118819e-07   -6.383037827524963e-06
-2.290121810804511e-05   7.937043235118819e-07   -6.383037827524963e-06
-2.290121810804511e-05   7.937043235118819e-07   -6.383037827524963e-06
-2.290121810804511e-05   7.937043235118819e-07   -6.383037827524963e-06
-5.2455619604139255e-05   -1.727753450580464e-05   -6.648311695193836e-05
-5.2455619604139255e-05   -1.727753450580464e-05   -6.648311695193836e-05
-5.2455619604139255e-05   -1.727753450580464e-05   -6.648311695193836e-05
-5.2455619604139255e-05   -1.727753450580464e-05   -6.648311695193836e-05
-5.0849474021826186e-05   1.4071861945317253e-06   -1.669025016505011e-05
-5.0849474021826186e-05   1.4071861945317253e-06   -1.669025016505011e-05
-5.0849474021826186e-05   1.4071861945317253e-06   -1.669025016505011e-05
-5.0849474021826186e-05   1.4071861945317253e-06   -1.669025016505011e-05
-2.155689298857344e-05   -1.9295546596377437e-05   -5.308957887925942e-05
-2.155689298857344e-05   -1.9295546596377437e-05   -5.308957887925942e-05
-2.155689298857344e-05   -1.9295546596377437e-05   -5.308957887925942e-05
-2.155689298857344e-05   -1.9295546596377437e-05   -5.308957887925942e-05
-3.6409830469571146e-05   -8.78199723159485e-06   -3.464281269646573e-05
-3.6409830469571146e-05   -8.78199723159485e-06   -3.464281269646573e-05
-3.6409830469571146e-05   -8.78199723159485e-06   -3.464281269646573e-05
-3.6409830469571146e-05   -8.78199723159485e-06   -3.464281269646573e-05
-2.1556892988573435e-05   1.407186194531735e-06   -4.2686104905047e-06
-2.1556892988573435e-05   1.407186194531735e-06   -4.2686104905047e-06
-2.1556892988573435e-05   1.407186194531735e-06   -4.2686104905047e-06
-2.1556892988573435e-05   1.407186194531735e-06   -4.2686104905047e-06
-5.084947402182628e-05   -1.9295546596377437e-05   -6.55112185538047e-05
-5.084947402182628e-05   -1.9295546596377437e-05   -6.55112185538047e-05
-5.084947402182628e-05   -1.9295546596377437e-05   -6.55112185538047e-05
-5.084947402182628e-05   -1.9295546596377437e-05   -6.55112185538047e-05
-4.9309912894024146e-05   1.971859094046253e-06   -1.4903425506139142e-05
-4.9309912894024146e-05   1.971859094046253e-06   -1.4903425506139142e-05
-4.9309912894024146e-05   1.971859094046253e-06   -1.4903425506139142e-05
-4.9309912894024146e-05   1.971859094046253e-06   -1.4903425506139142e-05
-2.039832602726008e-05   -1.9402115780059546e-05   -5.026501869294947e-05
-2.039832602726008e-05   -1.9402115780059546e-05   -5.026501869294947e-05
-2.039832602726008e-05   -1.9402115780059546e-05   -5.026501869294947e-05
-2.039832602726008e-05   -1.9402115780059546e-05   -5.026501869294947e-05
-3.484373693777676e-05   -8.810784322967405e-06   -3.2544132716343305e-05
-3.484373693777676e-05   -8.810784322967405e-06   -3.2544132716343305e-05
-3.484373693777676e-05   -8.810784322967405e-06   -3.2544132716343305e-05
-3.484373693777676e-05   -8.810784322967405e-06   -3.2544132716343305e-05
-2.0398326027260084e-05   1.9718590940461758e-06   -2.0790405816759235e-06
-2.0398326027260084e-05   1.9718590940461758e-06   -2.0790405816759235e-06
-2.0398326027260084e-05   1.9718590940461758e-06   -2.0790405816759235e-06
-2.0398326027260084e-05   1.9718590940461758e-06   -2.0790405816759235e-06
-4.930991289402422e-05   -1.9402115780059546e-05   -6.308940361741283e-05
-4.930991289402422e-05   -1.9402115780059546e-05   -6.308940361741283e-05
-4.930991289402422e-05   -1.9402115780059546e-05   -6.308940361741283e-05
-4.930991289402422e-05   -1.9402115780059546e-05   -6.308940361741283e-05
-4.678588927339333e-05   2.4493502706291956e-06   -1.3084503431483796e-05
-4.678588927339333e-05   2.4493502706291956e-06   -1.3084503431483796e-05
-4.678588927339333e-05   2.4493502706291956e-06   -1.3084503431483796e-05
-4.678588927339333e-05   2.4493502706291956e-06   -1.3084503431483796e-05
-1.839929025864426e-05   -1.770009460542359e-05   -4.83058348637674e-05
-1.839929025864426e-05   -1.770009460542359e-05   -4.83058348637674e-05
-1.839929025864426e-05   -1.770009460542359e-05   -4.83058348637674e-05
-1.839929025864426e-05   -1.770009460542359e-05   -4.83058348637674e-05
-3.329807026639639e-05   -7.7773848700868e-06   -2.942816069204919e-05
-3.329807026639639e-05   -7.7773848700868e-06   -2.942816069204919e-05
-3.329807026639639e-05   -7.7773848700868e-06   -2.942816069204919e-05
-3.329807026639639e-05   -7.7773848700868e-06   -2.942816069204919e-05
-5.2455619604139255e-05   7.497060934615151e-06   -1.1295524863457959e-05
-5.2455619604139255e-05   7.497060934615151e-06   -1.1295524863457959e-05
-5.2455619604139255e-05   7.497060934615151e-06   -1.1295524863457959e-05
-5.2455619604139255e-05   7.497060934615151e-06   -1.1295524863457959e-05
-9.029298712846833e-05   0.0   -7.88560406314422e-05
-9.029298712846833e-05   0.0   -7.88560406314422e-05
-9.029298712846833e-05   0.0   -7.88560406314422e-05
-9.029298712846833e-05   0.0   -7.88560406314422e-05
-8.794359616897142e-05   9.487438281802207e-06   -8.655417948730303e-06
-8.794359616897142e-05   9.487438281802207e-06   -8.655417948730303e-06
-8.794359616897142e-05   9.487438281802207e-06   -8.655417948730303e-06
-8.794359616897142e-05   9.487438281802207e-06   -8.655417948730303e-06
-5.084947402182619e-05   0.0   -6.47864918915579e-05
-5.084947402182619e-05   0.0   -6.47864918915579e-05
-5.084947402182619e-05   0.0   -6.47864918915579e-05
-5.084947402182619e-05   0.0   -6.47864918915579e-05
-6.739498061406758e-05   2.9017073913486548e-06   -3.895167200596499e-05
-6.739498061406758e-05   2.9017073913486548e-06   -3.895167200596499e-05
-6.739498061406758e-05   2.9017073913486548e-06   -3.895167200596499e-05
-6.739498061406758e-05   2.9017073913486548e-06   -3.895167200596499e-05
-5.084947402182623e-05   9.48743828180208e-06   -2.9629549796491954e-06
-5.084947402182623e-05   9.48743828180208e-06   -2.9629549796491954e-06
-5.084947402182623e-05   9.48743828180208e-06   -2.9629549796491954e-06
-5.084947402182623e-05   9.48743828180208e-06   -2.9629549796491954e-06
-8.794359616897125e-05   0.0   -7.047895486063903e-05
-8.794359616897125e-05   0.0   -7.047895486063903e-05
-8.794359616897125e-05   0.0   -7.047895486063903e-05
-8.794359616897125e-05   0.0   -7.047895486063903e-05
-8.595566646248025e-05   9.93490509017432e-06   -3.4175152582140503e-06
-8.595566646248025e-05   9.93490509017432e-06   -3.4175152582140503e-06
-8.595566646248025e-05   9.93490509017432e-06   -3.4175152582140503e-06
-8.595566646248025e-05   9.93490509017432e-06   -3.4175152582140503e-06
-4.930991289402423e-05   0.0   -5.85328281515365e-05
-4.930991289402423e-05   0.0   -5.85328281515365e-05
-4.930991289402423e-05   0.0   -5.85328281515365e-05
-4.930991289402423e-05   0.0   -5.85328281515365e-05
-6.669703680364255e-05   4.594778569099074e-06   -3.231115544363104e-05
-6.669703680364255e-05   4.594778569099074e-06   -3.231115544363104e-05
-6.669703680364255e-05   4.594778569099074e-06   -3.231115544363104e-05
-6.669703680364255e-05   4.594778569099074e-06   -3.231115544363104e-05
-4.930991289402422e-05   9.934905090174656e-06   2.543427795890542e-06
-4.930991289402422e-05   9.934905090174656e-06   2.543427795890542e-06
-4.930991289402422e-05   9.934905090174656e-06   2.543427795890542e-06
-4.930991289402422e-05   9.934905090174656e-06   2.543427795890542e-06
-8.59556664624801e-05   0.0   -6.449377120564068e-05
-8.59556664624801e-05   0.0   -6.449377120564068e-05
-8.59556664624801e-05   0.0   -6.449377120564068e-05
-8.59556664624801e-05   0.0   -6.449377120564068e-05
-8.198887033697189e-05   1.070240865637959e-05   5.014829134325233e-06
-8.198887033697189e-05   1.070240865637959e-05   5.014829134325233e-06
-8.198887033697189e-05   1.070240865637959e-05   5.014829134325233e-06
-8.198887033697189e-05   1.070240865637959e-05   5.014829134325233e-06
-4.678588927339336e-05   0.0   -4.723536077781137e-05
-4.678588927339336e-05   0.0   -4.723536077781137e-05
-4.678588927339336e-05   0.0   -4.723536077781137e-05
-4.678588927339336e-05   0.0   -4.723536077781137e-05
-6.323317689428557e-05   5.6664504297157525e-06   -2.322308500082102e-05
-6.323317689428557e-05   5.6664504297157525e-06   -2.322308500082102e-05
-6.323317689428557e-05   5.6664504297157525e-06   -2.322308500082102e-05
-6.323317689428557e-05   5.6664504297157525e-06   -2.322308500082102e-05
6.683553834738001e-05   -1.1470736483214948e-05   3.9884788254860486e-05
6.683553834738001e-05   -1.1470736483214948e-05   3.9884788254860486e-05
6.683553834738001e-05   -1.1470736483214948e-05   3.9884788254860486e-05
6.683553834738001e-05   -1.1470736483214948e-05   3.9884788254860486e-05
3.4670002129313536e-05   -8.844241742989381e-06   -1.2148541931114804e-05
3.4670002129313536e-05   -8.844241742989381e-06   -1.2148541931114804e-05
3.4670002129313536e-05   -8.844241742989381e-06   -1.2148541931114804e-05
3.4670002129313536e-05   -8.844241742989381e-06   -1.2148541931114804e-05
3.3799126903304535e-05   -1.1757702848427722e-05   3.5219678927078365e-05
3.3799126903304535e-05   -1.1757702848427722e-05   3.5219678927078365e-05
3.3799126903304535e-05   -1.1757702848427722e-05   3.5219678927078365e-05
3.3799126903304535e-05   -1.1757702848427722e-05   3.5219678927078365e-05
6.612256385945498e-05   -9.722959052934927e-06   -1.987356227713466e-05
6.612256385945498e-05   -9.722959052934927e-06   -1.987356227713466e-05
6.612256385945498e-05   -9.722959052934927e-06   -1.987356227713466e-05
6.612256385945498e-05   -9.722959052934927e-06   -1.987356227713466e-05
4.829592694963037e-05   -9.88679500643977e-06   9.935800811342727e-06
4.829592694963037e-05   -9.88679500643977e-06   9.935800811342727e-06
4.829592694963037e-05   -9.88679500643977e-06   9.935800811342727e-06
4.829592694963037e-05   -9.88679500643977e-06   9.935800811342727e-06
6.612256385945498e-05   -1.1757702848427634e-05   3.399883264978282e-05
6.612256385945498e-05   -1.1757702848427634e-05   3.399883264978282e-05
6.612256385945498e-05   -1.1757702848427634e-05   3.399883264978282e-05
6.612256385945498e-05   -1.1757702848427634e-05   3.399883264978282e-05
3.3799126903304535e-05   -9.722959052934927e-06   -1.865271599983914e-05
3.3799126903304535e-05   -9.722959052934927e-06   -1.865271599983914e-05
3.3799126903304535e-05   -9.722959052934927e-06   -1.865271599983914e-05
3.3799126903304535e-05   -9.722959052934927e-06   -1.865271599983914e-05
3.301118499720248e-05   -1.1650926263788528e-05   3.1618301234453364e-05
3.301118499720248e-05   -1.1650926263788528e-05   3.1618301234453364e-05
3.301118499720248e-05   -1.1650926263788528e-05   3.1618301234453364e-05
3.301118499720248e-05   -1.1650926263788528e-05   3.1618301234453364e-05
6.529749956868606e-05   -9.803408744588158e-06   -2.3300733562872905e-05
6.529749956868606e-05   -9.803408744588158e-06   -2.3300733562872905e-05
6.529749956868606e-05   -9.803408744588158e-06   -2.3300733562872905e-05
6.529749956868606e-05   -9.803408744588158e-06   -2.3300733562872905e-05
4.826083527672326e-05   -1.0060204203311916e-05   5.247784198966071e-06
4.826083527672326e-05   -1.0060204203311916e-05   5.247784198966071e-06
4.826083527672326e-05   -1.0060204203311916e-05   5.247784198966071e-06
4.826083527672326e-05   -1.0060204203311916e-05   5.247784198966071e-06
6.529749956868615e-05   -1.1650926263788493e-05   3.0509790722933272e-05
6.529749956868615e-05   -1.1650926263788493e-05   3.0509790722933272e-05
6.529749956868615e-05   -1.1650926263788493e-05   3.0509790722933272e-05
6.529749956868615e-05   -1.1650926263788493e-05   3.0509790722933272e-05
3.301118499720248e-05   -9.803408744588158e-06   -2.219222305135265e-05
3.301118499720248e-05   -9.803408744588158e-06   -2.219222305135265e-05
3.301118499720248e-05   -9.803408744588158e-06   -2.219222305135265e-05
3.301118499720248e-05   -9.803408744588158e-06   -2.219222305135265e-05
3.2049805964386245e-05   -1.1002023218457512e-05   2.5759165371888474e-05
3.2049805964386245e-05   -1.1002023218457512e-05   2.5759165371888474e-05
3.2049805964386245e-05   -1.1002023218457512e-05   2.5759165371888474e-05
3.2049805964386245e-05   -1.1002023218457512e-05   2.5759165371888474e-05
6.400472459622257e-05   -9.597468120368068e-06   -2.8341765406692622e-05
6.400472459622257e-05   -9.597468120368068e-06   -2.8341765406692622e-05
6.400472459622257e-05   -9.597468120368068e-06   -2.8341765406692622e-05
6.400472459622257e-05   -9.597468120368068e-06   -2.8341765406692622e-05
4.6614735948835976e-05   -9.566115817826598e-06   6.2273762409346e-07
4.6614735948835976e-05   -9.566115817826598e-06   6.2273762409346e-07
4.6614735948835976e-05   -9.566115817826598e-06   6.2273762409346e-07
4.6614735948835976e-05   -9.566115817826598e-06   6.2273762409346e-07
3.4670002129313536e-05   -1.1499465032084447e-05   2.979479868049943e-05
3.4670002129313536e-05   -1.1499465032084447e-05   2.979479868049943e-05
3.4670002129313536e-05   -1.1499465032084447e-05   2.979479868049943e-05
3.4670002129313536e-05   -1.1499465032084447e-05   2.979479868049943e-05
7.366240015468977e-06   -5.462694486063624e-06   -1.2089409181628534e-05
7.366240015468977e-06   -5.462694486063624e-06   -1.2089409181628534e-05
7.366240015468977e-06   -5.462694486063624e-06   -1.2089409181628534e-05
7.366240015468977e-06   -5.462694486063624e-06   -1.2089409181628534e-05
5.9879915597743335e-06   -1.1439846031072263e-05   3.4006490551967156e-05
5.9879915597743335e-06   -1.1439846031072263e-05   3.4006490551967156e-05
5.9879915597743335e-06   -1.1439846031072263e-05   3.4006490551967156e-05
5.9879915597743335e-06   -1.1439846031072263e-05   3.4006490551967156e-05
3.379912690330454e-05   -5.793541742495512e-06   -1.5733184260395766e-05
3.379912690330454e-05   -5.793541742495512e-06   -1.5733184260395766e-05
3.379912690330454e-05   -5.793541742495512e-06   -1.5733184260395766e-05
3.379912690330454e-05   -5.793541742495512e-06   -1.5733184260395766e-05
2.042706580990383e-05   -8.232326098021794e-06   8.016854841921248e-06
2.042706580990383e-05   -8.232326098021794e-06   8.016854841921248e-06
2.042706580990383e-05   -8.232326098021794e-06   8.016854841921248e-06
2.042706580990383e-05   -8.232326098021794e-06   8.016854841921248e-06
3.3799126903304494e-05   -1.1439846031072083e-05   3.0618707978821236e-05
3.3799126903304494e-05   -1.1439846031072083e-05   3.0618707978821236e-05
3.3799126903304494e-05   -1.1439846031072083e-05   3.0618707978821236e-05
3.3799126903304494e-05   -1.1439846031072083e-05   3.0618707978821236e-05
5.9879915597743335e-06   -5.793541742495512e-06   -1.2345401687249846e-05
5.9879915597743335e-06   -5.793541742495512e-06   -1.2345401687249846e-05
5.9879915597743335e-06   -5.793541742495512e-06   -1.2345401687249846e-05
5.9879915597743335e-06   -5.793541742495512e-06   -1.2345401687249846e-05
5.004940107590877e-06   -1.1285443547187895e-05   3.4054968457034995e-05
5.004940107590877e-06   -1.1285443547187895e-05   3.4054968457034995e-05
5.004940107590877e-06   -1.1285443547187895e-05   3.4054968457034995e-05
5.004940107590877e-06   -1.1285443547187895e-05   3.4054968457034995e-05
3.301118499720248e-05   -5.9401001290060665e-06   -1.582931240989323e-05
3.301118499720248e-05   -5.9401001290060665e-06   -1.582931240989323e-05
3.301118499720248e-05   -5.9401001290060665e-06   -1.582931240989323e-05
3.301118499720248e-05   -5.9401001290060665e-06   -1.582931240989323e-05
1.924512398982123e-05   -8.063234624989136e-06   8.388003299999286e-06
1.924512398982123e-05   -8.063234624989136e-06   8.388003299999286e-06
1.924512398982123e-05   -8.063234624989136e-06   8.388003299999286e-06
1.924512398982123e-05   -8.063234624989136e-06   8.388003299999286e-06
3.301118499720255e-05   -1.1285443547187614e-05   3.084776240612616e-05
3.301118499720255e-05   -1.1285443547187614e-05   3.084776240612616e-05
3.301118499720255e-05   -1.1285443547187614e-05   3.084776240612616e-05
3.301118499720255e-05   -1.1285443547187614e-05   3.084776240612616e-05
5.004940107590877e-06   -5.9401001290060665e-06   -1.2622106358984447e-05
5.004940107590877e-06   -5.9401001290060665e-06   -1.2622106358984447e-05
5.004940107590877e-06   -5.9401001290060665e-06   -1.2622106358984447e-05
5.004940107590877e-06   -5.9401001290060665e-06   -1.2622106358984447e-05
3.911475538172896e-06   -1.0977518792377235e-05   3.5159708804639e-05
3.911475538172896e-06   -1.0977518792377235e-05   3.5159708804639e-05
3.911475538172896e-06   -1.0977518792377235e-05   3.5159708804639e-05
3.911475538172896e-06   -1.0977518792377235e-05   3.5159708804639e-05
3.2049805964386265e-05   -5.8051648160703e-06   -1.4840920958167136e-05
3.2049805964386265e-05   -5.8051648160703e-06   -1.4840920958167136e-05
3.2049805964386265e-05   -5.8051648160703e-06   -1.4840920958167136e-05
3.2049805964386265e-05   -5.8051648160703e-06   -1.4840920958167136e-05
1.8522714412575725e-05   -7.708704017932427e-06   8.846355149301179e-06
1.8522714412575725e-05   -7.708704017932427e-06   8.846355149301179e-06
1.8522714412575725e-05   -7.708704017932427e-06   8.846355149301179e-06
1.8522714412575725e-05   -7.708704017932427e-06   8.846355149301179e-06
7.36624001546899e-06   -1.3863734447369715e-05   3.0647952335919725e-05
7.36624001546899e-06   -1.3863734447369715e-05   3.0647952335919725e-05
7.36624001546899e-06   -1.3863734447369715e-05   3.0647952335919725e-05
7.36624001546899e-06   -1.3863734447369715e-05   3.0647952335919725e-05
-1.886380373573274e-05   -2.287965940010392e-06   -6.1233261450012195e-06
-1.886380373573274e-05   -2.287965940010392e-06   -6.1233261450012195e-06
-1.886380373573274e-05   -2.287965940010392e-06   -6.1233261450012195e-06
-1.886380373573274e-05   -2.287965940010392e-06   -6.1233261450012195e-06
-2.1007674111602433e-05   -1.416944120020882e-05   3.938219746158194e-05
-2.1007674111602433e-05   -1.416944120020882e-05   3.938219746158194e-05
-2.1007674111602433e-05   -1.416944120020882e-05   3.938219746158194e-05
-2.1007674111602433e-05   -1.416944120020882e-05   3.938219746158194e-05
5.98799155977434e-06   -2.4156777771533813e-06   -1.2662836711212558e-05
5.98799155977434e-06   -2.4156777771533813e-06   -1.2662836711212558e-05
5.98799155977434e-06   -2.4156777771533813e-06   -1.2662836711212558e-05
5.98799155977434e-06   -2.4156777771533813e-06   -1.2662836711212558e-05
-6.394940824314597e-06   -7.9207619517155e-06   1.1278434433672964e-05
-6.394940824314597e-06   -7.9207619517155e-06   1.1278434433672964e-05
-6.394940824314597e-06   -7.9207619517155e-06   1.1278434433672964e-05
-6.394940824314597e-06   -7.9207619517155e-06   1.1278434433672964e-05
5.9879915597743335e-06   -1.4169441200208576e-05   3.2329939407748634e-05
5.9879915597743335e-06   -1.4169441200208576e-05   3.2329939407748634e-05
5.9879915597743335e-06   -1.4169441200208576e-05   3.2329939407748634e-05
5.9879915597743335e-06   -1.4169441200208576e-05   3.2329939407748634e-05
-2.1007674111602406e-05   -2.415677777153815e-06   -5.610578657379468e-06
-2.1007674111602406e-05   -2.415677777153815e-06   -5.610578657379468e-06
-2.1007674111602406e-05   -2.415677777153815e-06   -5.610578657379468e-06
-2.1007674111602406e-05   -2.415677777153815e-06   -5.610578657379468e-06
-2.2318369574939417e-05   -1.4102075491313065e-05   4.088160654958464e-05
-2.2318369574939417e-05   -1.4102075491313065e-05   4.088160654958464e-05
-2.2318369574939417e-05   -1.4102075491313065e-05   4.088160654958464e-05
-2.2318369574939417e-05   -1.4102075491313065e-05   4.088160654958464e-05
5.004940107590881e-06   -2.572251846852565e-06   -1.1575137107975442e-05
5.004940107590881e-06   -2.572251846852565e-06   -1.1575137107975442e-05
5.004940107590881e-06   -2.572251846852565e-06   -1.1575137107975442e-05
5.004940107590881e-06   -2.572251846852565e-06   -1.1575137107975442e-05
-7.846510008181512e-06   -7.894588503678125e-06   1.3037348412407246e-05
-7.846510008181512e-06   -7.894588503678125e-06   1.3037348412407246e-05
-7.846510008181512e-06   -7.894588503678125e-06   1.3037348412407246e-05
-7.846510008181512e-06   -7.894588503678125e-06   1.3037348412407246e-05
5.004940107590877e-06   -1.4102075491312621e-05   3.396371236290838e-05
5.004940107590877e-06   -1.4102075491312621e-05   3.396371236290838e-05
5.004940107590877e-06   -1.4102075491312621e-05   3.396371236290838e-05
5.004940107590877e-06   -1.4102075491312621e-05   3.396371236290838e-05
-2.231836957493939e-05   -2.572251846852565e-06   -4.657242921299104e-06
-2.231836957493939e-05   -2.572251846852565e-06   -4.657242921299104e-06
-2.231836957493939e-05   -2.572251846852565e-06   -4.657242921299104e-06
-2.231836957493939e-05   -2.572251846852565e-06   -4.657242921299104e-06
-2.3859516857606332e-05   -1.3606318895334393e-05   4.282246878397982e-05
-2.3859516857606332e-05   -1.3606318895334393e-05   4.282246878397982e-05
-2.3859516857606332e-05   -1.3606318895334393e-05   4.282246878397982e-05
-2.3859516857606332e-05   -1.3606318895334393e-05   4.282246878397982e-05
3.911475538172911e-06   -2.5562850754423314e-06   -1.009253883425411e-05
3.911475538172911e-06   -2.5562850754423314e-06   -1.009253883425411e-05
3.911475538172911e-06   -2.5562850754423314e-06   -1.009253883425411e-05
3.911475538172911e-06   -2.5562850754423314e-06   -1.009253883425411e-05
-9.028705495660029e-06   -7.579074840618257e-06   1.4488103414573238e-05
-9.028705495660029e-06   -7.579074840618257e-06   1.4488103414573238e-05
-9.028705495660029e-06   -7.579074840618257e-06   1.4488103414573238e-05
-9.028705495660029e-06   -7.579074840618257e-06   1.4488103414573238e-05
-1.8863803735732766e-05   -1.7277534505804513e-05   3.713135183977664e-05
-1.8863803735732766e-05   -1.7277534505804513e-05   3.713135183977664e-05
-1.8863803735732766e-05   -1.7277534505804513e-05   3.713135183977664e-05
-1.8863803735732766e-05   -1.7277534505804513e-05   3.713135183977664e-05
-4.87225037650047e-05   2.486446213333972e-06   -7.747597775267442e-07
-4.87225037650047e-05   2.486446213333972e-06   -7.747597775267442e-07
-4.87225037650047e-05   2.486446213333972e-06   -7.747597775267442e-07
-4.87225037650047e-05   2.486446213333972e-06   -7.747597775267442e-07
-5.1300067845437805e-05   -1.9295546596377437e-05   5.24705101456243e-05
-5.1300067845437805e-05   -1.9295546596377437e-05   5.24705101456243e-05
-5.1300067845437805e-05   -1.9295546596377437e-05   5.24705101456243e-05
-5.1300067845437805e-05   -1.9295546596377437e-05   5.24705101456243e-05
-2.1007674111602406e-05   2.340357194441107e-06   -1.0998355018591882e-05
-2.1007674111602406e-05   2.340357194441107e-06   -1.0998355018591882e-05
-2.1007674111602406e-05   2.340357194441107e-06   -1.0998355018591882e-05
-2.1007674111602406e-05   2.340357194441107e-06   -1.0998355018591882e-05
-3.448550996380012e-05   -7.160647037287877e-06   1.7165307274107853e-05
-3.448550996380012e-05   -7.160647037287877e-06   1.7165307274107853e-05
-3.448550996380012e-05   -7.160647037287877e-06   1.7165307274107853e-05
-3.448550996380012e-05   -7.160647037287877e-06   1.7165307274107853e-05
-2.1007674111602406e-05   -1.929554659637733e-05   3.9488967871133566e-05
-2.1007674111602406e-05   -1.929554659637733e-05   3.9488967871133566e-05
-2.1007674111602406e-05   -1.929554659637733e-05   3.9488967871133566e-05
-2.1007674111602406e-05   -1.929554659637733e-05   3.9488967871133566e-05
-5.130006784543771e-05   2.340357194441107e-06   1.9831872558988273e-06
-5.130006784543771e-05   2.340357194441107e-06   1.9831872558988273e-06
-5.130006784543771e-05   2.340357194441107e-06   1.9831872558988273e-06
-5.130006784543771e-05   2.340357194441107e-06   1.9831872558988273e-06
-5.287086127879572e-05   -1.9402115780059546e-05   5.5409581020397346e-05
-5.287086127879572e-05   -1.9402115780059546e-05   5.5409581020397346e-05
-5.287086127879572e-05   -1.9402115780059546e-05   5.5409581020397346e-05
-5.287086127879572e-05   -1.9402115780059546e-05   5.5409581020397346e-05
-2.2318369574939383e-05   2.069423836679237e-06   -8.394162256073026e-06
-2.2318369574939383e-05   2.069423836679237e-06   -8.394162256073026e-06
-2.2318369574939383e-05   2.069423836679237e-06   -8.394162256073026e-06
-2.2318369574939383e-05   2.069423836679237e-06   -8.394162256073026e-06
-3.615910460843264e-05   -8.248773249293784e-06   2.086464771799951e-05
-3.615910460843264e-05   -8.248773249293784e-06   2.086464771799951e-05
-3.615910460843264e-05   -8.248773249293784e-06   2.086464771799951e-05
-3.615910460843264e-05   -8.248773249293784e-06   2.086464771799951e-05
-2.231836957493939e-05   -1.9402115780059437e-05   4.2526657250353947e-05
-2.231836957493939e-05   -1.9402115780059437e-05   4.2526657250353947e-05
-2.231836957493939e-05   -1.9402115780059437e-05   4.2526657250353947e-05
-2.231836957493939e-05   -1.9402115780059437e-05   4.2526657250353947e-05
-5.2870861278795625e-05   2.069423836679237e-06   4.4887615139701294e-06
-5.2870861278795625e-05   2.069423836679237e-06   4.4887615139701294e-06
-5.2870861278795625e-05   2.069423836679237e-06   4.4887615139701294e-06
-5.2870861278795625e-05   2.069423836679237e-06   4.4887615139701294e-06
-5.456362051118517e-05   -1.770009460542359e-05   5.667154355958677e-05
-5.456362051118517e-05   -1.770009460542359e-05   5.667154355958677e-05
-5.456362051118517e-05   -1.770009460542359e-05   5.667154355958677e-05
-5.456362051118517e-05   -1.770009460542359e-05   5.667154355958677e-05
-2.3859516857606335e-05   1.7624542382492156e-06   -6.179491835915185e-06
-2.3859516857606335e-05   1.7624542382492156e-06   -6.179491835915185e-06
-2.3859516857606335e-05   1.7624542382492156e-06   -6.179491835915185e-06
-2.3859516857606335e-05   1.7624542382492156e-06   -6.179491835915185e-06
-3.788446373312443e-05   -8.309620240430377e-06   2.323866431048967e-05
-3.788446373312443e-05   -8.309620240430377e-06   2.323866431048967e-05
-3.788446373312443e-05   -8.309620240430377e-06   2.323866431048967e-05
-3.788446373312443e-05   -8.309620240430377e-06   2.323866431048967e-05
-4.8722503765004537e-05   1.422473250300987e-19   4.111505315252447e-05
-4.8722503765004537e-05   1.422473250300987e-19   4.111505315252447e-05
-4.8722503765004537e-05   1.422473250300987e-19   4.111505315252447e-05
-4.8722503765004537e-05   1.422473250300987e-19   4.111505315252447e-05
-8.578031096220287e-05   1.1251042025115475e-05   -1.3897333627736893e-05
-8.578031096220287e-05   1.1251042025115475e-05   -1.3897333627736893e-05
-8.578031096220287e-05   1.1251042025115475e-05   -1.3897333627736893e-05
-8.578031096220287e-05   1.1251042025115475e-05   -1.3897333627736893e-05
-8.933258425708567e-05   0.0   5.971245865296908e-05
-8.933258425708567e-05   0.0   5.971245865296908e-05
-8.933258425708567e-05   0.0   5.971245865296908e-05
-8.933258425708567e-05   0.0   5.971245865296908e-05
-5.1300067845437717e-05   1.0862036408496815e-05   -1.0192290544875607e-05
-5.1300067845437717e-05   1.0862036408496815e-05   -1.0192290544875607e-05
-5.1300067845437717e-05   1.0862036408496815e-05   -1.0192290544875607e-05
-5.1300067845437717e-05   1.0862036408496815e-05   -1.0192290544875607e-05
-6.585129404996547e-05   6.67492135848248e-06   1.6572022159345962e-05
-6.585129404996547e-05   6.67492135848248e-06   1.6572022159345962e-05
-6.585129404996547e-05   6.67492135848248e-06   1.6572022159345962e-05
-6.585129404996547e-05   6.67492135848248e-06   1.6572022159345962e-05
-5.130006784543767e-05   1.0755285551056214e-19   5.319523680787108e-05
-5.130006784543767e-05   1.0755285551056214e-19   5.319523680787108e-05
-5.130006784543767e-05   1.0755285551056214e-19   5.319523680787108e-05
-5.130006784543767e-05   1.0755285551056214e-19   5.319523680787108e-05
-8.933258425708583e-05   1.0862036408496815e-05   -3.6750686997777133e-06
-8.933258425708583e-05   1.0862036408496815e-05   -3.6750686997777133e-06
-8.933258425708583e-05   1.0862036408496815e-05   -3.6750686997777133e-06
-8.933258425708583e-05   1.0862036408496815e-05   -3.6750686997777133e-06
-9.112132064625794e-05   0.0   6.631690893105051e-05
-9.112132064625794e-05   0.0   6.631690893105051e-05
-9.112132064625794e-05   0.0   6.631690893105051e-05
-9.112132064625794e-05   0.0   6.631690893105051e-05
-5.287086127879562e-05   1.058458740796223e-05   -3.784609126164008e-06
-5.287086127879562e-05   1.058458740796223e-05   -3.784609126164008e-06
-5.287086127879562e-05   1.058458740796223e-05   -3.784609126164008e-06
-5.287086127879562e-05   1.058458740796223e-05   -3.784609126164008e-06
-6.928097651799264e-05   5.574399747496333e-06   2.6571695535444452e-05
-6.928097651799264e-05   5.574399747496333e-06   2.6571695535444452e-05
-6.928097651799264e-05   5.574399747496333e-06   2.6571695535444452e-05
-6.928097651799264e-05   5.574399747496333e-06   2.6571695535444452e-05
-5.2870861278795625e-05   1.0755285551056214e-19   5.996615648627365e-05
-5.2870861278795625e-05   1.0755285551056214e-19   5.996615648627365e-05
-5.2870861278795625e-05   1.0755285551056214e-19   5.996615648627365e-05
-5.2870861278795625e-05   1.0755285551056214e-19   5.996615648627365e-05
-9.11213206462581e-05   1.058458740796223e-05   2.5661433186133405e-06
-9.11213206462581e-05   1.058458740796223e-05   2.5661433186133405e-06
-9.11213206462581e-05   1.058458740796223e-05   2.5661433186133405e-06
-9.11213206462581e-05   1.058458740796223e-05   2.5661433186133405e-06
-9.311203285561348e-05   0.0   7.512322361059626e-05
-9.311203285561348e-05   0.0   7.512322361059626e-05
-9.311203285561348e-05   0.0   7.512322361059626e-05
-9.311203285561348e-05   0.0   7.512322361059626e-05
-5.456362051118512e-05   8.81923173237046e-06   5.584330663793485e-06
-5.456362051118512e-05   8.81923173237046e-06   5.584330663793485e-06
-5.456362051118512e-05   8.81923173237046e-06   5.584330663793485e-06
-5.456362051118512e-05   8.81923173237046e-06   5.584330663793485e-06
-6.985384609355342e-05   3.915331010126595e-06   3.4010380401086154e-05
-6.985384609355342e-05   3.915331010126595e-06   3.4010380401086154e-05
-6.985384609355342e-05   3.915331010126595e-06   3.4010380401086154e-05
-6.985384609355342e-05   3.915331010126595e-06   3.4010380401086154e-05
5.8807776095735984e-05   -8.844241742988917e-06   4.1731411849676254e-05
5.8807776095735984e-05   -8.844241742988917e-06   4.1731411849676254e-05
5.8807776095735984e-05   -8.844241742988917e-06   4.1731411849676254e-05
5.8807776095735984e-05   -8.844241742988917e-06   4.1731411849676254e-05
2.973789710156338e-05   -6.674564033698569e-06   -5.416579848370549e-06
2.973789710156338e-05   -6.674564033698569e-06   -5.416579848370549e-06
2.973789710156338e-05   -6.674564033698569e-06   -5.416579848370549e-06
2.973789710156338e-05   -6.674564033698569e-06   -5.416579848370549e-06
2.8954423656159776e-05   -9.72295905293536e-06   3.642186465912709e-05
2.8954423656159776e-05   -9.72295905293536e-06   3.642186465912709e-05
2.8954423656159776e-05   -9.72295905293536e-06   3.642186465912709e-05
2.8954423656159776e-05   -9.72295905293536e-06   3.642186465912709e-05
5.740956444411412e-05   -7.563718908477814e-06   -1.2298914074138107e-05
5.740956444411412e-05   -7.563718908477814e-06   -1.2298914074138107e-05
5.740956444411412e-05   -7.563718908477814e-06   -1.2298914074138107e-05
5.740956444411412e-05   -7.563718908477814e-06   -1.2298914074138107e-05
4.178074383119403e-05   -7.873900710214567e-06   1.3935229361770971e-05
4.178074383119403e-05   -7.873900710214567e-06   1.3935229361770971e-05
4.178074383119403e-05   -7.873900710214567e-06   1.3935229361770971e-05
4.178074383119403e-05   -7.873900710214567e-06   1.3935229361770971e-05
5.740956444411403e-05   -9.722959052935315e-06   3.512632057245239e-05
5.740956444411403e-05   -9.722959052935315e-06   3.512632057245239e-05
5.740956444411403e-05   -9.722959052935315e-06   3.512632057245239e-05
5.740956444411403e-05   -9.722959052935315e-06   3.512632057245239e-05
2.895442365615983e-05   -7.563718908477814e-06   -1.100336998746329e-05
2.895442365615983e-05   -7.563718908477814e-06   -1.100336998746329e-05
2.895442365615983e-05   -7.563718908477814e-06   -1.100336998746329e-05
2.895442365615983e-05   -7.563718908477814e-06   -1.100336998746329e-05
2.7944896044015355e-05   -9.803408744587724e-06   3.268959667267809e-05
2.7944896044015355e-05   -9.803408744587724e-06   3.268959667267809e-05
2.7944896044015355e-05   -9.803408744587724e-06   3.268959667267809e-05
2.7944896044015355e-05   -9.803408744587724e-06   3.268959667267809e-05
5.599519254975155e-05   -7.695619018310406e-06   -1.532557133931547e-05
5.599519254975155e-05   -7.695619018310406e-06   -1.532557133931547e-05
5.599519254975155e-05   -7.695619018310406e-06   -1.532557133931547e-05
5.599519254975155e-05   -7.695619018310406e-06   -1.532557133931547e-05
4.138975228479264e-05   -8.217459483928803e-06   9.329933381653792e-06
4.138975228479264e-05   -8.217459483928803e-06   9.329933381653792e-06
4.138975228479264e-05   -8.217459483928803e-06   9.329933381653792e-06
4.138975228479264e-05   -8.217459483928803e-06   9.329933381653792e-06
5.599519254975155e-05   -9.803408744588128e-06   3.142492283691144e-05
5.599519254975155e-05   -9.803408744588128e-06   3.142492283691144e-05
5.599519254975155e-05   -9.803408744588128e-06   3.142492283691144e-05
5.599519254975155e-05   -9.803408744588128e-06   3.142492283691144e-05
2.7944896044015355e-05   -7.695619018310406e-06   -1.4060897503548895e-05
2.7944896044015355e-05   -7.695619018310406e-06   -1.4060897503548895e-05
2.7944896044015355e-05   -7.695619018310406e-06   -1.4060897503548895e-05
2.7944896044015355e-05   -7.695619018310406e-06   -1.4060897503548895e-05
2.6885623594939844e-05   -9.597468120367634e-06   2.715237387952989e-05
2.6885623594939844e-05   -9.597468120367634e-06   2.715237387952989e-05
2.6885623594939844e-05   -9.597468120367634e-06   2.715237387952989e-05
2.6885623594939844e-05   -9.597468120367634e-06   2.715237387952989e-05
5.422461945309529e-05   -7.64576955853899e-06   -1.958363835449322e-05
5.422461945309529e-05   -7.64576955853899e-06   -1.958363835449322e-05
5.422461945309529e-05   -7.64576955853899e-06   -1.958363835449322e-05
5.422461945309529e-05   -7.64576955853899e-06   -1.958363835449322e-05
3.954718922446916e-05   -8.001954652860337e-06   5.092456416476944e-06
3.954718922446916e-05   -8.001954652860337e-06   5.092456416476944e-06
3.954718922446916e-05   -8.001954652860337e-06   5.092456416476944e-06
3.954718922446916e-05   -8.001954652860337e-06   5.092456416476944e-06
2.973789710156338e-05   -5.462694486063595e-06   3.9470288897124105e-05
2.973789710156338e-05   -5.462694486063595e-06   3.9470288897124105e-05
2.973789710156338e-05   -5.462694486063595e-06   3.9470288897124105e-05
2.973789710156338e-05   -5.462694486063595e-06   3.9470288897124105e-05
3.249047935793419e-06   -2.3535985435450997e-06   -2.8123354803145754e-06
3.249047935793419e-06   -2.3535985435450997e-06   -2.8123354803145754e-06
3.249047935793419e-06   -2.3535985435450997e-06   -2.8123354803145754e-06
3.249047935793419e-06   -2.3535985435450997e-06   -2.8123354803145754e-06
2.4706242471133466e-06   -5.793541742495512e-06   4.111883852383992e-05
2.4706242471133466e-06   -5.793541742495512e-06   4.111883852383992e-05
2.4706242471133466e-06   -5.793541742495512e-06   4.111883852383992e-05
2.4706242471133466e-06   -5.793541742495512e-06   4.111883852383992e-05
2.895442365615983e-05   -2.8311382003799734e-06   -4.798269283173563e-06
2.895442365615983e-05   -2.8311382003799734e-06   -4.798269283173563e-06
2.895442365615983e-05   -2.8311382003799734e-06   -4.798269283173563e-06
2.895442365615983e-05   -2.8311382003799734e-06   -4.798269283173563e-06
1.5948643024855402e-05   -3.822055510119184e-06   1.7472582154843928e-05
1.5948643024855402e-05   -3.822055510119184e-06   1.7472582154843928e-05
1.5948643024855402e-05   -3.822055510119184e-06   1.7472582154843928e-05
1.5948643024855402e-05   -3.822055510119184e-06   1.7472582154843928e-05
2.8954423656159803e-05   -5.793541742495454e-06   3.9341396398570464e-05
2.8954423656159803e-05   -5.793541742495454e-06   3.9341396398570464e-05
2.8954423656159803e-05   -5.793541742495454e-06   3.9341396398570464e-05
2.8954423656159803e-05   -5.793541742495454e-06   3.9341396398570464e-05
2.4706242471133466e-06   -2.8311382003799734e-06   -3.020827157904516e-06
2.4706242471133466e-06   -2.8311382003799734e-06   -3.020827157904516e-06
2.4706242471133466e-06   -2.8311382003799734e-06   -3.020827157904516e-06
2.4706242471133466e-06   -2.8311382003799734e-06   -3.020827157904516e-06
1.4770846001194713e-06   -5.9401001290060665e-06   4.073022171494707e-05
1.4770846001194713e-06   -5.9401001290060665e-06   4.073022171494707e-05
1.4770846001194713e-06   -5.9401001290060665e-06   4.073022171494707e-05
1.4770846001194713e-06   -5.9401001290060665e-06   4.073022171494707e-05
2.7944896044015362e-05   -3.1439094609901803e-06   -5.060511759022335e-06
2.7944896044015362e-05   -3.1439094609901803e-06   -5.060511759022335e-06
2.7944896044015362e-05   -3.1439094609901803e-06   -5.060511759022335e-06
2.7944896044015362e-05   -3.1439094609901803e-06   -5.060511759022335e-06
1.4961289839472474e-05   -4.002621259139097e-06   1.7094058994105956e-05
1.4961289839472474e-05   -4.002621259139097e-06   1.7094058994105956e-05
1.4961289839472474e-05   -4.002621259139097e-06   1.7094058994105956e-05
1.4961289839472474e-05   -4.002621259139097e-06   1.7094058994105956e-05
2.7944896044015315e-05   -5.940100129006126e-06   3.9052507314137454e-05
2.7944896044015315e-05   -5.940100129006126e-06   3.9052507314137454e-05
2.7944896044015315e-05   -5.940100129006126e-06   3.9052507314137454e-05
2.7944896044015315e-05   -5.940100129006126e-06   3.9052507314137454e-05
1.4770846001194713e-06   -3.1439094609901803e-06   -3.382797358212784e-06
1.4770846001194713e-06   -3.1439094609901803e-06   -3.382797358212784e-06
1.4770846001194713e-06   -3.1439094609901803e-06   -3.382797358212784e-06
1.4770846001194713e-06   -3.1439094609901803e-06   -3.382797358212784e-06
3.79550587716618e-07   -5.805164816070733e-06   4.132716596581538e-05
3.79550587716618e-07   -5.805164816070733e-06   4.132716596581538e-05
3.79550587716618e-07   -5.805164816070733e-06   4.132716596581538e-05
3.79550587716618e-07   -5.805164816070733e-06   4.132716596581538e-05
2.688562359493982e-05   -3.277363655047362e-06   -4.3663030761706515e-06
2.688562359493982e-05   -3.277363655047362e-06   -4.3663030761706515e-06
2.688562359493982e-05   -3.277363655047362e-06   -4.3663030761706515e-06
2.688562359493982e-05   -3.277363655047362e-06   -4.3663030761706515e-06
1.4157564692453115e-05   -3.964142975548032e-06   1.72591960202749e-05
1.4157564692453115e-05   -3.964142975548032e-06   1.72591960202749e-05
1.4157564692453115e-05   -3.964142975548032e-06   1.72591960202749e-05
1.4157564692453115e-05   -3.964142975548032e-06   1.72591960202749e-05
3.2490479357934324e-06   -2.2879659400106418e-06   4.035636839484747e-05
3.2490479357934324e-06   -2.2879659400106418e-06   4.035636839484747e-05
3.2490479357934324e-06   -2.2879659400106418e-06   4.035636839484747e-05
3.2490479357934324e-06   -2.2879659400106418e-06   4.035636839484747e-05
-2.241394496084635e-05   2.0949943215892684e-06   2.1448972407456073e-07
-2.241394496084635e-05   2.0949943215892684e-06   2.1448972407456073e-07
-2.241394496084635e-05   2.0949943215892684e-06   2.1448972407456073e-07
-2.241394496084635e-05   2.0949943215892684e-06   2.1448972407456073e-07
-2.329106310814995e-05   -2.4156777771533813e-06   4.328882756706636e-05
-2.329106310814995e-05   -2.4156777771533813e-06   4.328882756706636e-05
-2.329106310814995e-05   -2.4156777771533813e-06   4.328882756706636e-05
-2.329106310814995e-05   -2.4156777771533813e-06   4.328882756706636e-05
2.4706242471133437e-06   1.73002900149535e-06   -2.134742092228342e-06
2.4706242471133437e-06   1.73002900149535e-06   -2.134742092228342e-06
2.4706242471133437e-06   1.73002900149535e-06   -2.134742092228342e-06
2.4706242471133437e-06   1.73002900149535e-06   -2.134742092228342e-06
-9.978042322513666e-06   -2.7453836357049788e-08   1.9667525226527973e-05
-9.978042322513666e-06   -2.7453836357049788e-08   1.9667525226527973e-05
-9.978042322513666e-06   -2.7453836357049788e-08   1.9667525226527973e-05
-9.978042322513666e-06   -2.7453836357049788e-08   1.9667525226527973e-05
2.4706242471133466e-06   -2.4156777771533818e-06   4.0801403499877206e-05
2.4706242471133466e-06   -2.4156777771533818e-06   4.0801403499877206e-05
2.4706242471133466e-06   -2.4156777771533818e-06   4.0801403499877206e-05
2.4706242471133466e-06   -2.4156777771533818e-06   4.0801403499877206e-05
-2.329106310814995e-05   1.73002900149535e-06   3.5268197496078277e-07
-2.329106310814995e-05   1.73002900149535e-06   3.5268197496078277e-07
-2.329106310814995e-05   1.73002900149535e-06   3.5268197496078277e-07
-2.329106310814995e-05   1.73002900149535e-06   3.5268197496078277e-07
-2.4466636793350722e-05   -2.572251846852565e-06   4.415471753067249e-05
-2.4466636793350722e-05   -2.572251846852565e-06   4.415471753067249e-05
-2.4466636793350722e-05   -2.572251846852565e-06   4.415471753067249e-05
-2.4466636793350722e-05   -2.572251846852565e-06   4.415471753067249e-05
1.4770846001194721e-06   1.390292427674942e-06   -1.4623446898277945e-06
1.4770846001194721e-06   1.390292427674942e-06   -1.4623446898277945e-06
1.4770846001194721e-06   1.390292427674942e-06   -1.4623446898277945e-06
1.4770846001194721e-06   1.390292427674942e-06   -1.4623446898277945e-06
-1.0843149279294437e-05   -1.2969476918551354e-07   1.9983370760644898e-05
-1.0843149279294437e-05   -1.2969476918551354e-07   1.9983370760644898e-05
-1.0843149279294437e-05   -1.2969476918551354e-07   1.9983370760644898e-05
-1.0843149279294437e-05   -1.2969476918551354e-07   1.9983370760644898e-05
1.4770846001194713e-06   -2.5722518468524145e-06   4.177719096595594e-05
1.4770846001194713e-06   -2.5722518468524145e-06   4.177719096595594e-05
1.4770846001194713e-06   -2.5722518468524145e-06   4.177719096595594e-05
1.4770846001194713e-06   -2.5722518468524145e-06   4.177719096595594e-05
-2.4466636793350722e-05   1.390292427674942e-06   9.151818748886174e-07
-2.4466636793350722e-05   1.390292427674942e-06   9.151818748886174e-07
-2.4466636793350722e-05   1.390292427674942e-06   9.151818748886174e-07
-2.4466636793350722e-05   1.390292427674942e-06   9.151818748886174e-07
-2.5719117247862747e-05   -2.5562850754423314e-06   4.519333590573423e-05
-2.5719117247862747e-05   -2.5562850754423314e-06   4.519333590573423e-05
-2.5719117247862747e-05   -2.5562850754423314e-06   4.519333590573423e-05
-2.5719117247862747e-05   -2.5562850754423314e-06   4.519333590573423e-05
3.7955058771662396e-07   1.145715260873672e-06   -5.256440220210415e-07
3.7955058771662396e-07   1.145715260873672e-06   -5.256440220210415e-07
3.7955058771662396e-07   1.145715260873672e-06   -5.256440220210415e-07
3.7955058771662396e-07   1.145715260873672e-06   -5.256440220210415e-07
-1.1946274801148403e-05   -2.0287413000702123e-07   2.082655192728295e-05
-1.1946274801148403e-05   -2.0287413000702123e-07   2.082655192728295e-05
-1.1946274801148403e-05   -2.0287413000702123e-07   2.082655192728295e-05
-1.1946274801148403e-05   -2.0287413000702123e-07   2.082655192728295e-05
-2.2413944960846297e-05   2.4864462133341167e-06   3.647632248779875e-05
-2.2413944960846297e-05   2.4864462133341167e-06   3.647632248779875e-05
-2.2413944960846297e-05   2.4864462133341167e-06   3.647632248779875e-05
-2.2413944960846297e-05   2.4864462133341167e-06   3.647632248779875e-05
-4.755913611044282e-05   6.820569676458613e-06   -2.831855350320968e-06
-4.755913611044282e-05   6.820569676458613e-06   -2.831855350320968e-06
-4.755913611044282e-05   6.820569676458613e-06   -2.831855350320968e-06
-4.755913611044282e-05   6.820569676458613e-06   -2.831855350320968e-06
-4.8835873678477684e-05   2.340357194441107e-06   4.0369827415875784e-05
-4.8835873678477684e-05   2.340357194441107e-06   4.0369827415875784e-05
-4.8835873678477684e-05   2.340357194441107e-06   4.0369827415875784e-05
-4.8835873678477684e-05   2.340357194441107e-06   4.0369827415875784e-05
-2.3291063108149912e-05   6.454984211143929e-06   -4.673633078025781e-06
-2.3291063108149912e-05   6.454984211143929e-06   -4.673633078025781e-06
-2.3291063108149912e-05   6.454984211143929e-06   -4.673633078025781e-06
-2.3291063108149912e-05   6.454984211143929e-06   -4.673633078025781e-06
-3.5245330345158514e-05   4.603603103664391e-06   1.6360974314809943e-05
-3.5245330345158514e-05   4.603603103664391e-06   1.6360974314809943e-05
-3.5245330345158514e-05   4.603603103664391e-06   1.6360974314809943e-05
-3.5245330345158514e-05   4.603603103664391e-06   1.6360974314809943e-05
-2.329106310814995e-05   2.3403571944409052e-06   3.79010512058537e-05
-2.329106310814995e-05   2.3403571944409052e-06   3.79010512058537e-05
-2.329106310814995e-05   2.3403571944409052e-06   3.79010512058537e-05
-2.329106310814995e-05   2.3403571944409052e-06   3.79010512058537e-05
-4.88358736784776e-05   6.454984211144363e-06   -2.2048568680038596e-06
-4.88358736784776e-05   6.454984211144363e-06   -2.2048568680038596e-06
-4.88358736784776e-05   6.454984211144363e-06   -2.2048568680038596e-06
-4.88358736784776e-05   6.454984211144363e-06   -2.2048568680038596e-06
-5.040077074374154e-05   2.069423836679237e-06   4.284610385340941e-05
-5.040077074374154e-05   2.069423836679237e-06   4.284610385340941e-05
-5.040077074374154e-05   2.069423836679237e-06   4.284610385340941e-05
-5.040077074374154e-05   2.069423836679237e-06   4.284610385340941e-05
-2.4466636793350712e-05   6.116599932530758e-06   -2.8057583880860388e-06
-2.4466636793350712e-05   6.116599932530758e-06   -2.8057583880860388e-06
-2.4466636793350712e-05   6.116599932530758e-06   -2.8057583880860388e-06
-2.4466636793350712e-05   6.116599932530758e-06   -2.8057583880860388e-06
-3.619580282418985e-05   4.519895216978809e-06   1.7700874492643443e-05
-3.619580282418985e-05   4.519895216978809e-06   1.7700874492643443e-05
-3.619580282418985e-05   4.519895216978809e-06   1.7700874492643443e-05
-3.619580282418985e-05   4.519895216978809e-06   1.7700874492643443e-05
-2.4466636793350722e-05   2.069423836679242e-06   4.041779819589854e-05
-2.4466636793350722e-05   2.069423836679242e-06   4.041779819589854e-05
-2.4466636793350722e-05   2.069423836679242e-06   4.041779819589854e-05
-2.4466636793350722e-05   2.069423836679242e-06   4.041779819589854e-05
-5.040077074374143e-05   6.116599932530758e-06   -3.774527305752239e-07
-5.040077074374143e-05   6.116599932530758e-06   -3.774527305752239e-07
-5.040077074374143e-05   6.116599932530758e-06   -3.774527305752239e-07
-5.040077074374143e-05   6.116599932530758e-06   -3.774527305752239e-07
-5.205628228214317e-05   1.7624542382492156e-06   4.481572740832186e-05
-5.205628228214317e-05   1.7624542382492156e-06   4.481572740832186e-05
-5.205628228214317e-05   1.7624542382492156e-06   4.481572740832186e-05
-5.205628228214317e-05   1.7624542382492156e-06   4.481572740832186e-05
-2.5719117247862653e-05   5.661395565222625e-06   -1.418912444996098e-06
-2.5719117247862653e-05   5.661395565222625e-06   -1.418912444996098e-06
-2.5719117247862653e-05   5.661395565222625e-06   -1.418912444996098e-06
-2.5719117247862653e-05   5.661395565222625e-06   -1.418912444996098e-06
-3.778073420267038e-05   4.245531894827605e-06   1.953330068192111e-05
-3.778073420267038e-05   4.245531894827605e-06   1.953330068192111e-05
-3.778073420267038e-05   4.245531894827605e-06   1.953330068192111e-05
-3.778073420267038e-05   4.245531894827605e-06   1.953330068192111e-05
-4.755913611044282e-05   1.1251042025115544e-05   1.9203597500393752e-05
-4.755913611044282e-05   1.1251042025115544e-05   1.9203597500393752e-05
-4.755913611044282e-05   1.1251042025115544e-05   1.9203597500393752e-05
-4.755913611044282e-05   1.1251042025115544e-05   1.9203597500393752e-05
-7.164571026554146e-05   1.1092470126816256e-05   -2.1035835897083516e-05
-7.164571026554146e-05   1.1092470126816256e-05   -2.1035835897083516e-05
-7.164571026554146e-05   1.1092470126816256e-05   -2.1035835897083516e-05
-7.164571026554146e-05   1.1092470126816256e-05   -2.1035835897083516e-05
-7.393801664948903e-05   1.0862036408497248e-05   2.8461111112021518e-05
-7.393801664948903e-05   1.0862036408497248e-05   2.8461111112021518e-05
-7.393801664948903e-05   1.0862036408497248e-05   2.8461111112021518e-05
-7.393801664948903e-05   1.0862036408497248e-05   2.8461111112021518e-05
-4.88358736784776e-05   1.1306638903364231e-05   -1.3642555336584677e-05
-4.88358736784776e-05   1.1306638903364231e-05   -1.3642555336584677e-05
-4.88358736784776e-05   1.1306638903364231e-05   -1.3642555336584677e-05
-4.88358736784776e-05   1.1306638903364231e-05   -1.3642555336584677e-05
-5.805968102611112e-05   1.1301980132454384e-05   1.7332521720170107e-06
-5.805968102611112e-05   1.1301980132454384e-05   1.7332521720170107e-06
-5.805968102611112e-05   1.1301980132454384e-05   1.7332521720170107e-06
-5.805968102611112e-05   1.1301980132454384e-05   1.7332521720170107e-06
-4.883587367847755e-05   1.0862036408496762e-05   2.8194349615101024e-05
-4.883587367847755e-05   1.0862036408496762e-05   2.8194349615101024e-05
-4.883587367847755e-05   1.0862036408496762e-05   2.8194349615101024e-05
-4.883587367847755e-05   1.0862036408496762e-05   2.8194349615101024e-05
-7.393801664948903e-05   1.1306638903364231e-05   -1.3375793839664292e-05
-7.393801664948903e-05   1.1306638903364231e-05   -1.3375793839664292e-05
-7.393801664948903e-05   1.1306638903364231e-05   -1.3375793839664292e-05
-7.393801664948903e-05   1.1306638903364231e-05   -1.3375793839664292e-05
-7.618593732108781e-05   1.0584587407961796e-05   3.495736211399001e-05
-7.618593732108781e-05   1.0584587407961796e-05   3.495736211399001e-05
-7.618593732108781e-05   1.0584587407961796e-05   3.495736211399001e-05
-7.618593732108781e-05   1.0584587407961796e-05   3.495736211399001e-05
-5.040077074374144e-05   1.1225635575819962e-05   -8.402544415635747e-06
-5.040077074374144e-05   1.1225635575819962e-05   -8.402544415635747e-06
-5.040077074374144e-05   1.1225635575819962e-05   -8.402544415635747e-06
-5.040077074374144e-05   1.1225635575819962e-05   -8.402544415635747e-06
-6.069015924983464e-05   1.1301527185225615e-05   8.700901462210429e-06
-6.069015924983464e-05   1.1301527185225615e-05   8.700901462210429e-06
-6.069015924983464e-05   1.1301527185225615e-05   8.700901462210429e-06
-6.069015924983464e-05   1.1301527185225615e-05   8.700901462210429e-06
-5.040077074374143e-05   1.0584587407962143e-05   3.457273321327511e-05
-5.040077074374143e-05   1.0584587407962143e-05   3.457273321327511e-05
-5.040077074374143e-05   1.0584587407962143e-05   3.457273321327511e-05
-5.040077074374143e-05   1.0584587407962143e-05   3.457273321327511e-05
-7.618593732108795e-05   1.1225635575819962e-05   -8.017915514920738e-06
-7.618593732108795e-05   1.1225635575819962e-05   -8.017915514920738e-06
-7.618593732108795e-05   1.1225635575819962e-05   -8.017915514920738e-06
-7.618593732108795e-05   1.1225635575819962e-05   -8.017915514920738e-06
-7.88372606930694e-05   8.819231732370026e-06   4.581168603294398e-05
-7.88372606930694e-05   8.819231732370026e-06   4.581168603294398e-05
-7.88372606930694e-05   8.819231732370026e-06   4.581168603294398e-05
-7.88372606930694e-05   8.819231732370026e-06   4.581168603294398e-05
-5.205628228214313e-05   1.0335340784232202e-05   2.670565836156982e-07
-5.205628228214313e-05   1.0335340784232202e-05   2.670565836156982e-07
-5.205628228214313e-05   1.0335340784232202e-05   2.670565836156982e-07
-5.205628228214313e-05   1.0335340784232202e-05   2.670565836156982e-07
-6.16303912332374e-05   1.076596890553505e-05   1.5965527962658185e-05
-6.16303912332374e-05   1.076596890553505e-05   1.5965527962658185e-05
-6.16303912332374e-05   1.076596890553505e-05   1.5965527962658185e-05
-6.16303912332374e-05   1.076596890553505e-05   1.5965527962658185e-05
4.77188713480032e-05   -6.674564033698576e-06   3.680241260413733e-05
4.77188713480032e-05   -6.674564033698576e-06   3.680241260413733e-05
4.77188713480032e-05   -6.674564033698576e-06   3.680241260413733e-05
4.77188713480032e-05   -6.674564033698576e-06   3.680241260413733e-05
2.362154976535355e-05   -4.8968307271852855e-06   -2.2931500497042154e-06
2.362154976535355e-05   -4.8968307271852855e-06   -2.2931500497042154e-06
2.362154976535355e-05   -4.8968307271852855e-06   -2.2931500497042154e-06
2.362154976535355e-05   -4.8968307271852855e-06   -2.2931500497042154e-06
2.2718983719379245e-05   -7.563718908477381e-06   3.200028659346046e-05
2.2718983719379245e-05   -7.563718908477381e-06   3.200028659346046e-05
2.2718983719379245e-05   -7.563718908477381e-06   3.200028659346046e-05
2.2718983719379245e-05   -7.563718908477381e-06   3.200028659346046e-05
4.60591288712803e-05   -5.680695510079745e-06   -8.029769365413211e-06
4.60591288712803e-05   -5.680695510079745e-06   -8.029769365413211e-06
4.60591288712803e-05   -5.680695510079745e-06   -8.029769365413211e-06
4.60591288712803e-05   -5.680695510079745e-06   -8.029769365413211e-06
3.342594059204648e-05   -6.140393864305718e-06   1.3301363445845333e-05
3.342594059204648e-05   -6.140393864305718e-06   1.3301363445845333e-05
3.342594059204648e-05   -6.140393864305718e-06   1.3301363445845333e-05
3.342594059204648e-05   -6.140393864305718e-06   1.3301363445845333e-05
4.605912887128022e-05   -7.563718908477532e-06   3.0870472554421925e-05
4.605912887128022e-05   -7.563718908477532e-06   3.0870472554421925e-05
4.605912887128022e-05   -7.563718908477532e-06   3.0870472554421925e-05
4.605912887128022e-05   -7.563718908477532e-06   3.0870472554421925e-05
2.2718983719379326e-05   -5.680695510079745e-06   -6.899955326374312e-06
2.2718983719379326e-05   -5.680695510079745e-06   -6.899955326374312e-06
2.2718983719379326e-05   -5.680695510079745e-06   -6.899955326374312e-06
2.2718983719379326e-05   -5.680695510079745e-06   -6.899955326374312e-06
2.1715956420700638e-05   -7.695619018310406e-06   2.8676115500540604e-05
2.1715956420700638e-05   -7.695619018310406e-06   2.8676115500540604e-05
2.1715956420700638e-05   -7.695619018310406e-06   2.8676115500540604e-05
2.1715956420700638e-05   -7.695619018310406e-06   2.8676115500540604e-05
4.455596232095718e-05   -5.837999662428647e-06   -1.0505132613416015e-05
4.455596232095718e-05   -5.837999662428647e-06   -1.0505132613416015e-05
4.455596232095718e-05   -5.837999662428647e-06   -1.0505132613416015e-05
4.455596232095718e-05   -5.837999662428647e-06   -1.0505132613416015e-05
3.280248682782744e-05   -6.444255902286755e-06   9.447746952381518e-06
3.280248682782744e-05   -6.444255902286755e-06   9.447746952381518e-06
3.280248682782744e-05   -6.444255902286755e-06   9.447746952381518e-06
3.280248682782744e-05   -6.444255902286755e-06   9.447746952381518e-06
4.4555962320957034e-05   -7.695619018310213e-06   2.756154388701155e-05
4.4555962320957034e-05   -7.695619018310213e-06   2.756154388701155e-05
4.4555962320957034e-05   -7.695619018310213e-06   2.756154388701155e-05
4.4555962320957034e-05   -7.695619018310213e-06   2.756154388701155e-05
2.171595642070067e-05   -5.837999662428647e-06   -9.390560999886916e-06
2.171595642070067e-05   -5.837999662428647e-06   -9.390560999886916e-06
2.171595642070067e-05   -5.837999662428647e-06   -9.390560999886916e-06
2.171595642070067e-05   -5.837999662428647e-06   -9.390560999886916e-06
2.0751147357415283e-05   -7.64576955853899e-06   2.4039154894481577e-05
2.0751147357415283e-05   -7.64576955853899e-06   2.4039154894481577e-05
2.0751147357415283e-05   -7.64576955853899e-06   2.4039154894481577e-05
2.0751147357415283e-05   -7.64576955853899e-06   2.4039154894481577e-05
4.2853296151081385e-05   -5.9007139138833944e-06   -1.3844793148422084e-05
4.2853296151081385e-05   -5.9007139138833944e-06   -1.3844793148422084e-05
4.2853296151081385e-05   -5.9007139138833944e-06   -1.3844793148422084e-05
4.2853296151081385e-05   -5.9007139138833944e-06   -1.3844793148422084e-05
3.111598631509999e-05   -6.334994770847927e-06   5.9779584257265735e-06
3.111598631509999e-05   -6.334994770847927e-06   5.9779584257265735e-06
3.111598631509999e-05   -6.334994770847927e-06   5.9779584257265735e-06
3.111598631509999e-05   -6.334994770847927e-06   5.9779584257265735e-06
2.362154976535355e-05   -2.3535985435451382e-06   3.860783939058977e-05
2.362154976535355e-05   -2.3535985435451382e-06   3.860783939058977e-05
2.362154976535355e-05   -2.3535985435451382e-06   3.860783939058977e-05
2.362154976535355e-05   -2.3535985435451382e-06   3.860783939058977e-05
1.0023862111732462e-06   -9.369554096281402e-07   1.7592193473062092e-06
1.0023862111732462e-06   -9.369554096281402e-07   1.7592193473062092e-06
1.0023862111732462e-06   -9.369554096281402e-07   1.7592193473062092e-06
1.0023862111732462e-06   -9.369554096281402e-07   1.7592193473062092e-06
1.3583894744654515e-07   -2.831138200380407e-06   3.900853036685448e-05
1.3583894744654515e-07   -2.831138200380407e-06   3.900853036685448e-05
1.3583894744654515e-07   -2.831138200380407e-06   3.900853036685448e-05
1.3583894744654515e-07   -2.831138200380407e-06   3.900853036685448e-05
2.2718983719379323e-05   -1.4925664185397487e-06   5.668126778621605e-07
2.2718983719379323e-05   -1.4925664185397487e-06   5.668126778621605e-07
2.2718983719379323e-05   -1.4925664185397487e-06   5.668126778621605e-07
2.2718983719379323e-05   -1.4925664185397487e-06   5.668126778621605e-07
1.172560158527884e-05   -1.8332015275165925e-06   1.9093497300082382e-05
1.172560158527884e-05   -1.8332015275165925e-06   1.9093497300082382e-05
1.172560158527884e-05   -1.8332015275165925e-06   1.9093497300082382e-05
1.172560158527884e-05   -1.8332015275165925e-06   1.9093497300082382e-05
2.2718983719379313e-05   -2.8311382003801238e-06   3.820538729775022e-05
2.2718983719379313e-05   -2.8311382003801238e-06   3.820538729775022e-05
2.2718983719379313e-05   -2.8311382003801238e-06   3.820538729775022e-05
2.2718983719379313e-05   -2.8311382003801238e-06   3.820538729775022e-05
1.3583894744654515e-07   -1.4925664185397487e-06   1.3699557469663576e-06
1.3583894744654515e-07   -1.4925664185397487e-06   1.3699557469663576e-06
1.3583894744654515e-07   -1.4925664185397487e-06   1.3699557469663576e-06
1.3583894744654515e-07   -1.4925664185397487e-06   1.3699557469663576e-06
-7.648899507983932e-07   -3.1439094609901803e-06   3.841983336542402e-05
-7.648899507983932e-07   -3.1439094609901803e-06   3.841983336542402e-05
-7.648899507983932e-07   -3.1439094609901803e-06   3.841983336542402e-05
-7.648899507983932e-07   -3.1439094609901803e-06   3.841983336542402e-05
2.1715956420700675e-05   -1.9050225937284997e-06   2.0842395923530805e-07
2.1715956420700675e-05   -1.9050225937284997e-06   2.0842395923530805e-07
2.1715956420700675e-05   -1.9050225937284997e-06   2.0842395923530805e-07
2.1715956420700675e-05   -1.9050225937284997e-06   2.0842395923530805e-07
1.0730576578198572e-05   -2.124179035146133e-06   1.8648884228256602e-05
1.0730576578198572e-05   -2.124179035146133e-06   1.8648884228256602e-05
1.0730576578198572e-05   -2.124179035146133e-06   1.8648884228256602e-05
1.0730576578198572e-05   -2.124179035146133e-06   1.8648884228256602e-05
2.171595642070067e-05   -3.143909460990406e-06   3.7676501245067096e-05
2.171595642070067e-05   -3.143909460990406e-06   3.7676501245067096e-05
2.171595642070067e-05   -3.143909460990406e-06   3.7676501245067096e-05
2.171595642070067e-05   -3.143909460990406e-06   3.7676501245067096e-05
-7.648899507983932e-07   -1.9050225937284997e-06   9.517560795922839e-07
-7.648899507983932e-07   -1.9050225937284997e-06   9.517560795922839e-07
-7.648899507983932e-07   -1.9050225937284997e-06   9.517560795922839e-07
-7.648899507983932e-07   -1.9050225937284997e-06   9.517560795922839e-07
-1.702614914473444e-06   -3.277363655047362e-06   3.8713856369879205e-05
-1.702614914473444e-06   -3.277363655047362e-06   3.8713856369879205e-05
-1.702614914473444e-06   -3.277363655047362e-06   3.8713856369879205e-05
-1.702614914473444e-06   -3.277363655047362e-06   3.8713856369879205e-05
2.0751147357415348e-05   -2.2300547647602018e-06   6.625339158924156e-07
2.0751147357415348e-05   -2.2300547647602018e-06   6.625339158924156e-07
2.0751147357415348e-05   -2.2300547647602018e-06   6.625339158924156e-07
2.0751147357415348e-05   -2.2300547647602018e-06   6.625339158924156e-07
9.982881348037024e-06   -2.2800922732393e-06   1.863966643661112e-05
9.982881348037024e-06   -2.2800922732393e-06   1.863966643661112e-05
9.982881348037024e-06   -2.2800922732393e-06   1.863966643661112e-05
9.982881348037024e-06   -2.2800922732393e-06   1.863966643661112e-05
1.0023862111732462e-06   2.0949943215895518e-06   3.985487431836898e-05
1.0023862111732462e-06   2.0949943215895518e-06   3.985487431836898e-05
1.0023862111732462e-06   2.0949943215895518e-06   3.985487431836898e-05
1.0023862111732462e-06   2.0949943215895518e-06   3.985487431836898e-05
-2.0956877707484337e-05   3.0386831262694397e-06   3.822314403414224e-06
-2.0956877707484337e-05   3.0386831262694397e-06   3.822314403414224e-06
-2.0956877707484337e-05   3.0386831262694397e-06   3.822314403414224e-06
-2.0956877707484337e-05   3.0386831262694397e-06   3.822314403414224e-06
-2.1862350127085136e-05   1.73002900149535e-06   4.040259897660696e-05
-2.1862350127085136e-05   1.73002900149535e-06   4.040259897660696e-05
-2.1862350127085136e-05   1.73002900149535e-06   4.040259897660696e-05
-2.1862350127085136e-05   1.73002900149535e-06   4.040259897660696e-05
1.3583894744654227e-07   2.576668241623288e-06   3.2309669749775013e-06
1.3583894744654227e-07   2.576668241623288e-06   3.2309669749775013e-06
1.3583894744654227e-07   2.576668241623288e-06   3.2309669749775013e-06
1.3583894744654227e-07   2.576668241623288e-06   3.2309669749775013e-06
-1.0436363923603117e-05   2.3866765590939594e-06   2.096530010291104e-05
-1.0436363923603117e-05   2.3866765590939594e-06   2.096530010291104e-05
-1.0436363923603117e-05   2.3866765590939594e-06   2.096530010291104e-05
-1.0436363923603117e-05   2.3866765590939594e-06   2.096530010291104e-05
1.3583894744654515e-07   1.7300290014954882e-06   3.9894615432530195e-05
1.3583894744654515e-07   1.7300290014954882e-06   3.9894615432530195e-05
1.3583894744654515e-07   1.7300290014954882e-06   3.9894615432530195e-05
1.3583894744654515e-07   1.7300290014954882e-06   3.9894615432530195e-05
-2.1862350127085136e-05   2.5766682416237217e-06   3.738950519054183e-06
-2.1862350127085136e-05   2.5766682416237217e-06   3.738950519054183e-06
-2.1862350127085136e-05   2.5766682416237217e-06   3.738950519054183e-06
-2.1862350127085136e-05   2.5766682416237217e-06   3.738950519054183e-06
-2.281841804959529e-05   1.3902924276745082e-06   4.078295064010272e-05
-2.281841804959529e-05   1.3902924276745082e-06   4.078295064010272e-05
-2.281841804959529e-05   1.3902924276745082e-06   4.078295064010272e-05
-2.281841804959529e-05   1.3902924276745082e-06   4.078295064010272e-05
-7.648899507983891e-07   2.128066771497298e-06   3.5844058691475336e-06
-7.648899507983891e-07   2.128066771497298e-06   3.5844058691475336e-06
-7.648899507983891e-07   2.128066771497298e-06   3.5844058691475336e-06
-7.648899507983891e-07   2.128066771497298e-06   3.5844058691475336e-06
-1.1277449576353568e-05   2.1231067911155893e-06   2.1108314566635423e-05
-1.1277449576353568e-05   2.1231067911155893e-06   2.1108314566635423e-05
-1.1277449576353568e-05   2.1231067911155893e-06   2.1108314566635423e-05
-1.1277449576353568e-05   2.1231067911155893e-06   2.1108314566635423e-05
-7.648899507983932e-07   1.3902924276748271e-06   4.034028603380909e-05
-7.648899507983932e-07   1.3902924276748271e-06   4.034028603380909e-05
-7.648899507983932e-07   1.3902924276748271e-06   4.034028603380909e-05
-7.648899507983932e-07   1.3902924276748271e-06   4.034028603380909e-05
-2.281841804959529e-05   2.128066771497298e-06   4.0270704754410015e-06
-2.281841804959529e-05   2.128066771497298e-06   4.0270704754410015e-06
-2.281841804959529e-05   2.128066771497298e-06   4.0270704754410015e-06
-2.281841804959529e-05   2.128066771497298e-06   4.0270704754410015e-06
-2.3804949962367143e-05   1.145715260873672e-06   4.1387672482392406e-05
-2.3804949962367143e-05   1.145715260873672e-06   4.1387672482392406e-05
-2.3804949962367143e-05   1.145715260873672e-06   4.1387672482392406e-05
-2.3804949962367143e-05   1.145715260873672e-06   4.1387672482392406e-05
-1.7026149144734394e-06   1.7287781858359684e-06   4.200609647592331e-06
-1.7026149144734394e-06   1.7287781858359684e-06   4.200609647592331e-06
-1.7026149144734394e-06   1.7287781858359684e-06   4.200609647592331e-06
-1.7026149144734394e-06   1.7287781858359684e-06   4.200609647592331e-06
-1.2187651654914133e-05   1.870636157903869e-06   2.159055609841985e-05
-1.2187651654914133e-05   1.870636157903869e-06   2.159055609841985e-05
-1.2187651654914133e-05   1.870636157903869e-06   2.159055609841985e-05
-1.2187651654914133e-05   1.870636157903869e-06   2.159055609841985e-05
-2.0956877707484445e-05   6.820569676458152e-06   3.477426844890699e-05
-2.0956877707484445e-05   6.820569676458152e-06   3.477426844890699e-05
-2.0956877707484445e-05   6.820569676458152e-06   3.477426844890699e-05
-2.0956877707484445e-05   6.820569676458152e-06   3.477426844890699e-05
-4.222781103274334e-05   6.906973106303969e-06   -6.254450352840982e-07
-4.222781103274334e-05   6.906973106303969e-06   -6.254450352840982e-07
-4.222781103274334e-05   6.906973106303969e-06   -6.254450352840982e-07
-4.222781103274334e-05   6.906973106303969e-06   -6.254450352840982e-07
-4.327896139125163e-05   6.454984211144363e-06   3.53829318082493e-05
-4.327896139125163e-05   6.454984211144363e-06   3.53829318082493e-05
-4.327896139125163e-05   6.454984211144363e-06   3.53829318082493e-05
-4.327896139125163e-05   6.454984211144363e-06   3.53829318082493e-05
-2.1862350127085187e-05   6.466064018858901e-06   -3.1806818332353595e-07
-2.1862350127085187e-05   6.466064018858901e-06   -3.1806818332353595e-07
-2.1862350127085187e-05   6.466064018858901e-06   -3.1806818332353595e-07
-2.1862350127085187e-05   6.466064018858901e-06   -3.1806818332353595e-07
-3.193815028523006e-05   6.645637342870322e-06   1.6367188085844467e-05
-3.193815028523006e-05   6.645637342870322e-06   1.6367188085844467e-05
-3.193815028523006e-05   6.645637342870322e-06   1.6367188085844467e-05
-3.193815028523006e-05   6.645637342870322e-06   1.6367188085844467e-05
-2.186235012708519e-05   6.454984211144193e-06   3.537628392362045e-05
-2.186235012708519e-05   6.454984211144193e-06   3.537628392362045e-05
-2.186235012708519e-05   6.454984211144193e-06   3.537628392362045e-05
-2.186235012708519e-05   6.454984211144193e-06   3.537628392362045e-05
-4.327896139125155e-05   6.466064018858901e-06   -3.114202986948455e-07
-4.327896139125155e-05   6.466064018858901e-06   -3.114202986948455e-07
-4.327896139125155e-05   6.466064018858901e-06   -3.114202986948455e-07
-4.327896139125155e-05   6.466064018858901e-06   -3.114202986948455e-07
-4.4443807320668915e-05   6.116599932530324e-06   3.702766308109114e-05
-4.4443807320668915e-05   6.116599932530324e-06   3.702766308109114e-05
-4.4443807320668915e-05   6.116599932530324e-06   3.702766308109114e-05
-4.4443807320668915e-05   6.116599932530324e-06   3.702766308109114e-05
-2.281841804959533e-05   6.059354439136126e-06   1.01969492533868e-06
-2.281841804959533e-05   6.059354439136126e-06   1.01969492533868e-06
-2.281841804959533e-05   6.059354439136126e-06   1.01969492533868e-06
-2.281841804959533e-05   6.059354439136126e-06   1.01969492533868e-06
-3.2697626312152676e-05   6.396795781606502e-06   1.728257722411852e-05
-3.2697626312152676e-05   6.396795781606502e-06   1.728257722411852e-05
-3.2697626312152676e-05   6.396795781606502e-06   1.728257722411852e-05
-3.2697626312152676e-05   6.396795781606502e-06   1.728257722411852e-05
-2.2818418049595345e-05   6.116599932530621e-06   3.706201037712801e-05
-2.2818418049595345e-05   6.116599932530621e-06   3.706201037712801e-05
-2.2818418049595345e-05   6.116599932530621e-06   3.706201037712801e-05
-2.2818418049595345e-05   6.116599932530621e-06   3.706201037712801e-05
-4.4443807320668915e-05   6.059354439136126e-06   9.853476293018686e-07
-4.4443807320668915e-05   6.059354439136126e-06   9.853476293018686e-07
-4.4443807320668915e-05   6.059354439136126e-06   9.853476293018686e-07
-4.4443807320668915e-05   6.059354439136126e-06   9.853476293018686e-07
-4.555386009562343e-05   5.661395565222625e-06   3.82138358072711e-05
-4.555386009562343e-05   5.661395565222625e-06   3.82138358072711e-05
-4.555386009562343e-05   5.661395565222625e-06   3.82138358072711e-05
-4.555386009562343e-05   5.661395565222625e-06   3.82138358072711e-05
-2.380494996236718e-05   5.562448814628012e-06   2.02502030220063e-06
-2.380494996236718e-05   5.562448814628012e-06   2.02502030220063e-06
-2.380494996236718e-05   5.562448814628012e-06   2.02502030220063e-06
-2.380494996236718e-05   5.562448814628012e-06   2.02502030220063e-06
-3.390692927947769e-05   6.073269515297769e-06   1.8555160076983964e-05
-3.390692927947769e-05   6.073269515297769e-06   1.8555160076983964e-05
-3.390692927947769e-05   6.073269515297769e-06   1.8555160076983964e-05
-3.390692927947769e-05   6.073269515297769e-06   1.8555160076983964e-05
-4.222781103274326e-05   1.1092470126816388e-05   1.6717273099031097e-05
-4.222781103274326e-05   1.1092470126816388e-05   1.6717273099031097e-05
-4.222781103274326e-05   1.1092470126816388e-05   1.6717273099031097e-05
-4.222781103274326e-05   1.1092470126816388e-05   1.6717273099031097e-05
-6.244526426349821e-05   9.947025241875164e-06   -1.7665749216525233e-05
-6.244526426349821e-05   9.947025241875164e-06   -1.7665749216525233e-05
-6.244526426349821e-05   9.947025241875164e-06   -1.7665749216525233e-05
-6.244526426349821e-05   9.947025241875164e-06   -1.7665749216525233e-05
-6.410065552705602e-05   1.1306638903364231e-05   2.3193268748756234e-05
-6.410065552705602e-05   1.1306638903364231e-05   2.3193268748756234e-05
-6.410065552705602e-05   1.1306638903364231e-05   2.3193268748756234e-05
-6.410065552705602e-05   1.1306638903364231e-05   2.3193268748756234e-05
-4.327896139125162e-05   1.0053364585177905e-05   -1.0757590220006026e-05
-4.327896139125162e-05   1.0053364585177905e-05   -1.0757590220006026e-05
-4.327896139125162e-05   1.0053364585177905e-05   -1.0757590220006026e-05
-4.327896139125162e-05   1.0053364585177905e-05   -1.0757590220006026e-05
-5.0983122334001236e-05   1.0537576040143236e-05   1.7921511449306904e-06
-5.0983122334001236e-05   1.0537576040143236e-05   1.7921511449306904e-06
-5.0983122334001236e-05   1.0537576040143236e-05   1.7921511449306904e-06
-5.0983122334001236e-05   1.0537576040143236e-05   1.7921511449306904e-06
-4.327896139125152e-05   1.1306638903364304e-05   2.394523333966816e-05
-4.327896139125152e-05   1.1306638903364304e-05   2.394523333966816e-05
-4.327896139125152e-05   1.1306638903364304e-05   2.394523333966816e-05
-4.327896139125152e-05   1.1306638903364304e-05   2.394523333966816e-05
-6.410065552705613e-05   1.0053364585177471e-05   -1.1509554810918061e-05
-6.410065552705613e-05   1.0053364585177471e-05   -1.1509554810918061e-05
-6.410065552705613e-05   1.0053364585177471e-05   -1.1509554810918061e-05
-6.410065552705613e-05   1.0053364585177471e-05   -1.1509554810918061e-05
-6.571682006935526e-05   1.1225635575820396e-05   2.8232959639696697e-05
-6.571682006935526e-05   1.1225635575820396e-05   2.8232959639696697e-05
-6.571682006935526e-05   1.1225635575820396e-05   2.8232959639696697e-05
-6.571682006935526e-05   1.1225635575820396e-05   2.8232959639696697e-05
-4.444380732066893e-05   9.942949315263749e-06   -6.45244985178012e-06
-4.444380732066893e-05   9.942949315263749e-06   -6.45244985178012e-06
-4.444380732066893e-05   9.942949315263749e-06   -6.45244985178012e-06
-4.444380732066893e-05   9.942949315263749e-06   -6.45244985178012e-06
-5.301865628352268e-05   1.0730257915225663e-05   7.3665799263333246e-06
-5.301865628352268e-05   1.0730257915225663e-05   7.3665799263333246e-06
-5.301865628352268e-05   1.0730257915225663e-05   7.3665799263333246e-06
-5.301865628352268e-05   1.0730257915225663e-05   7.3665799263333246e-06
-4.4443807320668915e-05   1.122563557581997e-05   2.900257139603073e-05
-4.4443807320668915e-05   1.122563557581997e-05   2.900257139603073e-05
-4.4443807320668915e-05   1.122563557581997e-05   2.900257139603073e-05
-4.4443807320668915e-05   1.122563557581997e-05   2.900257139603073e-05
-6.571682006935547e-05   9.942949315263749e-06   -7.222061608113989e-06
-6.571682006935547e-05   9.942949315263749e-06   -7.222061608113989e-06
-6.571682006935547e-05   9.942949315263749e-06   -7.222061608113989e-06
-6.571682006935547e-05   9.942949315263749e-06   -7.222061608113989e-06
-6.760406430906808e-05   1.0335340784232202e-05   3.686535366491817e-05
-6.760406430906808e-05   1.0335340784232202e-05   3.686535366491817e-05
-6.760406430906808e-05   1.0335340784232202e-05   3.686535366491817e-05
-6.760406430906808e-05   1.0335340784232202e-05   3.686535366491817e-05
-4.5553860095623374e-05   9.176863492931734e-06   8.100996839575003e-07
-4.5553860095623374e-05   9.176863492931734e-06   8.100996839575003e-07
-4.5553860095623374e-05   9.176863492931734e-06   8.100996839575003e-07
-4.5553860095623374e-05   9.176863492931734e-06   8.100996839575003e-07
-5.353321724649033e-05   1.0414144047493808e-05   1.3366659935998488e-05
-5.353321724649033e-05   1.0414144047493808e-05   1.3366659935998488e-05
-5.353321724649033e-05   1.0414144047493808e-05   1.3366659935998488e-05
-5.353321724649033e-05   1.0414144047493808e-05   1.3366659935998488e-05
3.624635950288291e-05   -4.896830727185354e-06   3.0742190478390274e-05
3.624635950288291e-05   -4.896830727185354e-06   3.0742190478390274e-05
3.624635950288291e-05   -4.896830727185354e-06   3.0742190478390274e-05
3.624635950288291e-05   -4.896830727185354e-06   3.0742190478390274e-05
1.7062038702387358e-05   -3.2387739747458642e-06   -2.3684347097191645e-07
1.7062038702387358e-05   -3.2387739747458642e-06   -2.3684347097191645e-07
1.7062038702387358e-05   -3.2387739747458642e-06   -2.3684347097191645e-07
1.7062038702387358e-05   -3.2387739747458642e-06   -2.3684347097191645e-07
1.6255755377314043e-05   -5.680695510079745e-06   2.700977915275852e-05
1.6255755377314043e-05   -5.680695510079745e-06   2.700977915275852e-05
1.6255755377314043e-05   -5.680695510079745e-06   2.700977915275852e-05
1.6255755377314043e-05   -5.680695510079745e-06   2.700977915275852e-05
3.46862375931465e-05   -3.9300890971017376e-06   -4.758055054749101e-06
3.46862375931465e-05   -3.9300890971017376e-06   -4.758055054749101e-06
3.46862375931465e-05   -3.9300890971017376e-06   -4.758055054749101e-06
3.46862375931465e-05   -3.9300890971017376e-06   -4.758055054749101e-06
2.483665871382811e-05   -4.470220539241508e-06   1.1981988609398696e-05
2.483665871382811e-05   -4.470220539241508e-06   1.1981988609398696e-05
2.483665871382811e-05   -4.470220539241508e-06   1.1981988609398696e-05
2.483665871382811e-05   -4.470220539241508e-06   1.1981988609398696e-05
3.468623759314644e-05   -5.6806955100797775e-06   2.5959415304971497e-05
3.468623759314644e-05   -5.6806955100797775e-06   2.5959415304971497e-05
3.468623759314644e-05   -5.6806955100797775e-06   2.5959415304971497e-05
3.468623759314644e-05   -5.6806955100797775e-06   2.5959415304971497e-05
1.625575537731407e-05   -3.9300890971017376e-06   -3.7076912069622554e-06
1.625575537731407e-05   -3.9300890971017376e-06   -3.7076912069622554e-06
1.625575537731407e-05   -3.9300890971017376e-06   -3.7076912069622554e-06
1.625575537731407e-05   -3.9300890971017376e-06   -3.7076912069622554e-06
1.5365696357974748e-05   -5.837999662428647e-06   2.438641140557968e-05
1.5365696357974748e-05   -5.837999662428647e-06   2.438641140557968e-05
1.5365696357974748e-05   -5.837999662428647e-06   2.438641140557968e-05
1.5365696357974748e-05   -5.837999662428647e-06   2.438641140557968e-05
3.331880493355641e-05   -4.1146400978234274e-06   -6.569451959152853e-06
3.331880493355641e-05   -4.1146400978234274e-06   -6.569451959152853e-06
3.331880493355641e-05   -4.1146400978234274e-06   -6.569451959152853e-06
3.331880493355641e-05   -4.1146400978234274e-06   -6.569451959152853e-06
2.419098078321984e-05   -4.750778079244244e-06   9.025271080261122e-06
2.419098078321984e-05   -4.750778079244244e-06   9.025271080261122e-06
2.419098078321984e-05   -4.750778079244244e-06   9.025271080261122e-06
2.419098078321984e-05   -4.750778079244244e-06   9.025271080261122e-06
3.3318804933556354e-05   -5.837999662428724e-06   2.335239566681629e-05
3.3318804933556354e-05   -5.837999662428724e-06   2.335239566681629e-05
3.3318804933556354e-05   -5.837999662428724e-06   2.335239566681629e-05
3.3318804933556354e-05   -5.837999662428724e-06   2.335239566681629e-05
1.5365696357974775e-05   -4.1146400978234274e-06   -5.53543622038976e-06
1.5365696357974775e-05   -4.1146400978234274e-06   -5.53543622038976e-06
1.5365696357974775e-05   -4.1146400978234274e-06   -5.53543622038976e-06
1.5365696357974775e-05   -4.1146400978234274e-06   -5.53543622038976e-06
1.4543779693691026e-05   -5.900713913882961e-06   2.0832220081830723e-05
1.4543779693691026e-05   -5.900713913882961e-06   2.0832220081830723e-05
1.4543779693691026e-05   -5.900713913882961e-06   2.0832220081830723e-05
1.4543779693691026e-05   -5.900713913882961e-06   2.0832220081830723e-05
3.179075873467249e-05   -4.286496130044646e-06   -8.881275656774627e-06
3.179075873467249e-05   -4.286496130044646e-06   -8.881275656774627e-06
3.179075873467249e-05   -4.286496130044646e-06   -8.881275656774627e-06
3.179075873467249e-05   -4.286496130044646e-06   -8.881275656774627e-06
2.276265234283271e-05   -4.723280967891194e-06   6.427639232332833e-06
2.276265234283271e-05   -4.723280967891194e-06   6.427639232332833e-06
2.276265234283271e-05   -4.723280967891194e-06   6.427639232332833e-06
2.276265234283271e-05   -4.723280967891194e-06   6.427639232332833e-06
1.7062038702387304e-05   -9.369554096284565e-07   3.4939408046514e-05
1.7062038702387304e-05   -9.369554096284565e-07   3.4939408046514e-05
1.7062038702387304e-05   -9.369554096284565e-07   3.4939408046514e-05
1.7062038702387304e-05   -9.369554096284565e-07   3.4939408046514e-05
-1.095231975806093e-06   -1.7934603014062994e-08   5.2287027334937085e-06
-1.095231975806093e-06   -1.7934603014062994e-08   5.2287027334937085e-06
-1.095231975806093e-06   -1.7934603014062994e-08   5.2287027334937085e-06
-1.095231975806093e-06   -1.7934603014062994e-08   5.2287027334937085e-06
-1.8533170525692003e-06   -1.4925664185401824e-06   3.500066934752932e-05
-1.8533170525692003e-06   -1.4925664185401824e-06   3.500066934752932e-05
-1.8533170525692003e-06   -1.4925664185401824e-06   3.500066934752932e-05
-1.8533170525692003e-06   -1.4925664185401824e-06   3.500066934752932e-05
1.6255755377314074e-05   -6.190294343164093e-07   4.294759773856341e-06
1.6255755377314074e-05   -6.190294343164093e-07   4.294759773856341e-06
1.6255755377314074e-05   -6.190294343164093e-07   4.294759773856341e-06
1.6255755377314074e-05   -6.190294343164093e-07   4.294759773856341e-06
7.469277444911632e-06   -7.884782188007609e-07   1.9040558931884304e-05
7.469277444911632e-06   -7.884782188007609e-07   1.9040558931884304e-05
7.469277444911632e-06   -7.884782188007609e-07   1.9040558931884304e-05
7.469277444911632e-06   -7.884782188007609e-07   1.9040558931884304e-05
1.625575537731401e-05   -1.4925664185401064e-06   3.447654715699514e-05
1.625575537731401e-05   -1.4925664185401064e-06   3.447654715699514e-05
1.625575537731401e-05   -1.4925664185401064e-06   3.447654715699514e-05
1.625575537731401e-05   -1.4925664185401064e-06   3.447654715699514e-05
-1.8533170525692003e-06   -6.190294343164093e-07   4.818881964390592e-06
-1.8533170525692003e-06   -6.190294343164093e-07   4.818881964390592e-06
-1.8533170525692003e-06   -6.190294343164093e-07   4.818881964390592e-06
-1.8533170525692003e-06   -6.190294343164093e-07   4.818881964390592e-06
-2.627558298700565e-06   -1.9050225937284997e-06   3.447282856357107e-05
-2.627558298700565e-06   -1.9050225937284997e-06   3.447282856357107e-05
-2.627558298700565e-06   -1.9050225937284997e-06   3.447282856357107e-05
-2.627558298700565e-06   -1.9050225937284997e-06   3.447282856357107e-05
1.5365696357974775e-05   -1.09263559561288e-06   3.996638603576399e-06
1.5365696357974775e-05   -1.09263559561288e-06   3.996638603576399e-06
1.5365696357974775e-05   -1.09263559561288e-06   3.996638603576399e-06
1.5365696357974775e-05   -1.09263559561288e-06   3.996638603576399e-06
6.618777433431735e-06   -1.1593347065557997e-06   1.8614856277715042e-05
6.618777433431735e-06   -1.1593347065557997e-06   1.8614856277715042e-05
6.618777433431735e-06   -1.1593347065557997e-06   1.8614856277715042e-05
6.618777433431735e-06   -1.1593347065557997e-06   1.8614856277715042e-05
1.5365696357974748e-05   -1.9050225937285469e-06   3.398539636470196e-05
1.5365696357974748e-05   -1.9050225937285469e-06   3.398539636470196e-05
1.5365696357974748e-05   -1.9050225937285469e-06   3.398539636470196e-05
1.5365696357974748e-05   -1.9050225937285469e-06   3.398539636470196e-05
-2.627558298700565e-06   -1.09263559561288e-06   4.484070802445632e-06
-2.627558298700565e-06   -1.09263559561288e-06   4.484070802445632e-06
-2.627558298700565e-06   -1.09263559561288e-06   4.484070802445632e-06
-2.627558298700565e-06   -1.09263559561288e-06   4.484070802445632e-06
-3.4060164822661686e-06   -2.2300547647602018e-06   3.4711941919799956e-05
-3.4060164822661686e-06   -2.2300547647602018e-06   3.4711941919799956e-05
-3.4060164822661686e-06   -2.2300547647602018e-06   3.4711941919799956e-05
-3.4060164822661686e-06   -2.2300547647602018e-06   3.4711941919799956e-05
1.4543779693691043e-05   -1.5310078306793925e-06   4.37618679942261e-06
1.4543779693691043e-05   -1.5310078306793925e-06   4.37618679942261e-06
1.4543779693691043e-05   -1.5310078306793925e-06   4.37618679942261e-06
1.4543779693691043e-05   -1.5310078306793925e-06   4.37618679942261e-06
5.969592582582842e-06   -1.433619174241946e-06   1.8608065457407312e-05
5.969592582582842e-06   -1.433619174241946e-06   1.8608065457407312e-05
5.969592582582842e-06   -1.433619174241946e-06   1.8608065457407312e-05
5.969592582582842e-06   -1.433619174241946e-06   1.8608065457407312e-05
-1.095231975806093e-06   3.038683126269142e-06   3.698770230378288e-05
-1.095231975806093e-06   3.038683126269142e-06   3.698770230378288e-05
-1.095231975806093e-06   3.038683126269142e-06   3.698770230378288e-05
-1.095231975806093e-06   3.038683126269142e-06   3.698770230378288e-05
-1.8871529407836582e-05   3.1281785165386024e-06   7.4142371512269e-06
-1.8871529407836582e-05   3.1281785165386024e-06   7.4142371512269e-06
-1.8871529407836582e-05   3.1281785165386024e-06   7.4142371512269e-06
-1.8871529407836582e-05   3.1281785165386024e-06   7.4142371512269e-06
-1.9633763403385042e-05   2.5766682416237217e-06   3.68758211026336e-05
-1.9633763403385042e-05   2.5766682416237217e-06   3.68758211026336e-05
-1.9633763403385042e-05   2.5766682416237217e-06   3.68758211026336e-05
-1.9633763403385042e-05   2.5766682416237217e-06   3.68758211026336e-05
-1.8533170525691978e-06   2.600235786778945e-06   7.227603324180359e-06
-1.8533170525691978e-06   2.600235786778945e-06   7.227603324180359e-06
-1.8533170525691978e-06   2.600235786778945e-06   7.227603324180359e-06
-1.8533170525691978e-06   2.600235786778945e-06   7.227603324180359e-06
-1.0390342233179765e-05   2.7862317485004458e-06   2.1344381048165315e-05
-1.0390342233179765e-05   2.7862317485004458e-06   2.1344381048165315e-05
-1.0390342233179765e-05   2.7862317485004458e-06   2.1344381048165315e-05
-1.0390342233179765e-05   2.7862317485004458e-06   2.1344381048165315e-05
-1.8533170525692003e-06   2.5766682416235566e-06   3.686168057554016e-05
-1.8533170525692003e-06   2.5766682416235566e-06   3.686168057554016e-05
-1.8533170525692003e-06   2.5766682416235566e-06   3.686168057554016e-05
-1.8533170525692003e-06   2.5766682416235566e-06   3.686168057554016e-05
-1.9633763403385042e-05   2.600235786778945e-06   7.241743851273716e-06
-1.9633763403385042e-05   2.600235786778945e-06   7.241743851273716e-06
-1.9633763403385042e-05   2.600235786778945e-06   7.241743851273716e-06
-1.9633763403385042e-05   2.600235786778945e-06   7.241743851273716e-06
-2.041499486067462e-05   2.128066771497298e-06   3.707704800152002e-05
-2.041499486067462e-05   2.128066771497298e-06   3.707704800152002e-05
-2.041499486067462e-05   2.128066771497298e-06   3.707704800152002e-05
-2.041499486067462e-05   2.128066771497298e-06   3.707704800152002e-05
-2.6275582987005625e-06   2.0806828521533014e-06   7.459750749836265e-06
-2.6275582987005625e-06   2.0806828521533014e-06   7.459750749836265e-06
-2.6275582987005625e-06   2.0806828521533014e-06   7.459750749836265e-06
-2.6275582987005625e-06   2.0806828521533014e-06   7.459750749836265e-06
-1.1097985494033722e-05   2.431366854355058e-06   2.1366719007404706e-05
-1.1097985494033722e-05   2.431366854355058e-06   2.1366719007404706e-05
-1.1097985494033722e-05   2.431366854355058e-06   2.1366719007404706e-05
-1.1097985494033722e-05   2.431366854355058e-06   2.1366719007404706e-05
-2.627558298700565e-06   2.1280667714974687e-06   3.7105478353126374e-05
-2.627558298700565e-06   2.1280667714974687e-06   3.7105478353126374e-05
-2.627558298700565e-06   2.1280667714974687e-06   3.7105478353126374e-05
-2.627558298700565e-06   2.1280667714974687e-06   3.7105478353126374e-05
-2.0414994860674674e-05   2.0806828521533014e-06   7.431320398229883e-06
-2.0414994860674674e-05   2.0806828521533014e-06   7.431320398229883e-06
-2.0414994860674674e-05   2.0806828521533014e-06   7.431320398229883e-06
-2.0414994860674674e-05   2.0806828521533014e-06   7.431320398229883e-06
-2.1195881594809147e-05   1.7287781858359684e-06   3.753697831755101e-05
-2.1195881594809147e-05   1.7287781858359684e-06   3.753697831755101e-05
-2.1195881594809147e-05   1.7287781858359684e-06   3.753697831755101e-05
-2.1195881594809147e-05   1.7287781858359684e-06   3.753697831755101e-05
-3.4060164822661762e-06   1.5876881862082661e-06   7.97185712975596e-06
-3.4060164822661762e-06   1.5876881862082661e-06   7.97185712975596e-06
-3.4060164822661762e-06   1.5876881862082661e-06   7.97185712975596e-06
-3.4060164822661762e-06   1.5876881862082661e-06   7.97185712975596e-06
-1.1838855119634623e-05   2.0856034847974853e-06   2.1727839012883153e-05
-1.1838855119634623e-05   2.0856034847974853e-06   2.1727839012883153e-05
-1.1838855119634623e-05   2.0856034847974853e-06   2.1727839012883153e-05
-1.1838855119634623e-05   2.0856034847974853e-06   2.1727839012883153e-05
-1.8871529407836555e-05   6.906973106303747e-06   3.2541798041338605e-05
-1.8871529407836555e-05   6.906973106303747e-06   3.2541798041338605e-05
-1.8871529407836555e-05   6.906973106303747e-06   3.2541798041338605e-05
-1.8871529407836555e-05   6.906973106303747e-06   3.2541798041338605e-05
-3.6257112026448273e-05   6.156104723002839e-06   3.115305980338763e-06
-3.6257112026448273e-05   6.156104723002839e-06   3.115305980338763e-06
-3.6257112026448273e-05   6.156104723002839e-06   3.115305980338763e-06
-3.6257112026448273e-05   6.156104723002839e-06   3.115305980338763e-06
-3.707734887347538e-05   6.466064018858901e-06   3.2329575910600454e-05
-3.707734887347538e-05   6.466064018858901e-06   3.2329575910600454e-05
-3.707734887347538e-05   6.466064018858901e-06   3.2329575910600454e-05
-3.707734887347538e-05   6.466064018858901e-06   3.2329575910600454e-05
-1.963376340338506e-05   5.650686536099944e-06   3.746159950105191e-06
-1.963376340338506e-05   5.650686536099944e-06   3.746159950105191e-06
-1.963376340338506e-05   5.650686536099944e-06   3.746159950105191e-06
-1.963376340338506e-05   5.650686536099944e-06   3.746159950105191e-06
-2.786750884597178e-05   6.212638190621024e-06   1.713189802837056e-05
-2.786750884597178e-05   6.212638190621024e-06   1.713189802837056e-05
-2.786750884597178e-05   6.212638190621024e-06   1.713189802837056e-05
-2.786750884597178e-05   6.212638190621024e-06   1.713189802837056e-05
-1.9633763403385042e-05   6.466064018859262e-06   3.2818802400256045e-05
-1.9633763403385042e-05   6.466064018859262e-06   3.2818802400256045e-05
-1.9633763403385042e-05   6.466064018859262e-06   3.2818802400256045e-05
-1.9633763403385042e-05   6.466064018859262e-06   3.2818802400256045e-05
-3.70773488734753e-05   5.650686536099944e-06   3.256933460449871e-06
-3.70773488734753e-05   5.650686536099944e-06   3.256933460449871e-06
-3.70773488734753e-05   5.650686536099944e-06   3.256933460449871e-06
-3.70773488734753e-05   5.650686536099944e-06   3.256933460449871e-06
-3.798021549539845e-05   6.059354439136126e-06   3.35418122318935e-05
-3.798021549539845e-05   6.059354439136126e-06   3.35418122318935e-05
-3.798021549539845e-05   6.059354439136126e-06   3.35418122318935e-05
-3.798021549539845e-05   6.059354439136126e-06   3.35418122318935e-05
-2.0414994860674678e-05   5.179587406595708e-06   4.794304726878193e-06
-2.0414994860674678e-05   5.179587406595708e-06   4.794304726878193e-06
-2.0414994860674678e-05   5.179587406595708e-06   4.794304726878193e-06
-2.0414994860674678e-05   5.179587406595708e-06   4.794304726878193e-06
-2.8455926041120933e-05   5.890041287944349e-06   1.7769584365479995e-05
-2.8455926041120933e-05   5.890041287944349e-06   1.7769584365479995e-05
-2.8455926041120933e-05   5.890041287944349e-06   1.7769584365479995e-05
-2.8455926041120933e-05   5.890041287944349e-06   1.7769584365479995e-05
-2.0414994860674674e-05   6.059354439136015e-06   3.406967245141775e-05
-2.0414994860674674e-05   6.059354439136015e-06   3.406967245141775e-05
-2.0414994860674674e-05   6.059354439136015e-06   3.406967245141775e-05
-2.0414994860674674e-05   6.059354439136015e-06   3.406967245141775e-05
-3.798021549539845e-05   5.179587406595708e-06   4.266444507353942e-06
-3.798021549539845e-05   5.179587406595708e-06   4.266444507353942e-06
-3.798021549539845e-05   5.179587406595708e-06   4.266444507353942e-06
-3.798021549539845e-05   5.179587406595708e-06   4.266444507353942e-06
-3.8805654633766674e-05   5.562448814628012e-06   3.4452578996026825e-05
-3.8805654633766674e-05   5.562448814628012e-06   3.4452578996026825e-05
-3.8805654633766674e-05   5.562448814628012e-06   3.4452578996026825e-05
-3.8805654633766674e-05   5.562448814628012e-06   3.4452578996026825e-05
-2.119588159480921e-05   4.630828446035556e-06   5.661929485586547e-06
-2.119588159480921e-05   4.630828446035556e-06   5.661929485586547e-06
-2.119588159480921e-05   4.630828446035556e-06   5.661929485586547e-06
-2.119588159480921e-05   4.630828446035556e-06   5.661929485586547e-06
-2.939287538518027e-05   5.525964408388366e-06   1.8786504225459908e-05
-2.939287538518027e-05   5.525964408388366e-06   1.8786504225459908e-05
-2.939287538518027e-05   5.525964408388366e-06   1.8786504225459908e-05
-2.939287538518027e-05   5.525964408388366e-06   1.8786504225459908e-05
-3.6257112026448273e-05   9.947025241875198e-06   1.5738239761082032e-05
-3.6257112026448273e-05   9.947025241875198e-06   1.5738239761082032e-05
-3.6257112026448273e-05   9.947025241875198e-06   1.5738239761082032e-05
-3.6257112026448273e-05   9.947025241875198e-06   1.5738239761082032e-05
-5.2770784681510576e-05   8.4863251518122e-06   -1.2660968051393011e-05
-5.2770784681510576e-05   8.4863251518122e-06   -1.2660968051393011e-05
-5.2770784681510576e-05   8.4863251518122e-06   -1.2660968051393011e-05
-5.2770784681510576e-05   8.4863251518122e-06   -1.2660968051393011e-05
-5.4245099518900356e-05   1.0053364585177471e-05   2.091810856273105e-05
-5.4245099518900356e-05   1.0053364585177471e-05   2.091810856273105e-05
-5.4245099518900356e-05   1.0053364585177471e-05   2.091810856273105e-05
-5.4245099518900356e-05   1.0053364585177471e-05   2.091810856273105e-05
-3.7077348873475374e-05   8.444535540914812e-06   -6.7295117530861656e-06
-3.7077348873475374e-05   8.444535540914812e-06   -6.7295117530861656e-06
-3.7077348873475374e-05   8.444535540914812e-06   -6.7295117530861656e-06
-3.7077348873475374e-05   8.444535540914812e-06   -6.7295117530861656e-06
-4.337211527930069e-05   9.097334211085033e-06   3.3700863878538914e-06
-4.337211527930069e-05   9.097334211085033e-06   3.3700863878538914e-06
-4.337211527930069e-05   9.097334211085033e-06   3.3700863878538914e-06
-4.337211527930069e-05   9.097334211085033e-06   3.3700863878538914e-06
-3.707734887347538e-05   1.0053364585177713e-05   2.1883405989288948e-05
-3.707734887347538e-05   1.0053364585177713e-05   2.1883405989288948e-05
-3.707734887347538e-05   1.0053364585177713e-05   2.1883405989288948e-05
-3.707734887347538e-05   1.0053364585177713e-05   2.1883405989288948e-05
-5.424509951890041e-05   8.444535540914596e-06   -7.69480917964401e-06
-5.424509951890041e-05   8.444535540914596e-06   -7.69480917964401e-06
-5.424509951890041e-05   8.444535540914596e-06   -7.69480917964401e-06
-5.424509951890041e-05   8.444535540914596e-06   -7.69480917964401e-06
-5.556494572918688e-05   9.942949315263749e-06   2.5101844632338926e-05
-5.556494572918688e-05   9.942949315263749e-06   2.5101844632338926e-05
-5.556494572918688e-05   9.942949315263749e-06   2.5101844632338926e-05
-5.556494572918688e-05   9.942949315263749e-06   2.5101844632338926e-05
-3.7980215495398495e-05   8.272665784476085e-06   -3.2038689721694655e-06
-3.7980215495398495e-05   8.272665784476085e-06   -3.2038689721694655e-06
-3.7980215495398495e-05   8.272665784476085e-06   -3.2038689721694655e-06
-3.7980215495398495e-05   8.272665784476085e-06   -3.2038689721694655e-06
-4.506757216099139e-05   9.1980359851532e-06   8.053170016747533e-06
-4.506757216099139e-05   9.1980359851532e-06   8.053170016747533e-06
-4.506757216099139e-05   9.1980359851532e-06   8.053170016747533e-06
-4.506757216099139e-05   9.1980359851532e-06   8.053170016747533e-06
-3.798021549539845e-05   9.94294931526352e-06   2.6104014750811567e-05
-3.798021549539845e-05   9.94294931526352e-06   2.6104014750811567e-05
-3.798021549539845e-05   9.94294931526352e-06   2.6104014750811567e-05
-3.798021549539845e-05   9.94294931526352e-06   2.6104014750811567e-05
-5.556494572918699e-05   8.272665784476085e-06   -4.206039090642053e-06
-5.556494572918699e-05   8.272665784476085e-06   -4.206039090642053e-06
-5.556494572918699e-05   8.272665784476085e-06   -4.206039090642053e-06
-5.556494572918699e-05   8.272665784476085e-06   -4.206039090642053e-06
-5.708133785416788e-05   9.1768634929313e-06   3.229931063852224e-05
-5.708133785416788e-05   9.1768634929313e-06   3.229931063852224e-05
-5.708133785416788e-05   9.1768634929313e-06   3.229931063852224e-05
-5.708133785416788e-05   9.1768634929313e-06   3.229931063852224e-05
-3.880565463376664e-05   7.514003843568174e-06   2.837554394137965e-06
-3.880565463376664e-05   7.514003843568174e-06   2.837554394137965e-06
-3.880565463376664e-05   7.514003843568174e-06   2.837554394137965e-06
-3.880565463376664e-05   7.514003843568174e-06   2.837554394137965e-06
-4.542865383878428e-05   8.883422877192359e-06   1.3054234982325347e-05
-4.542865383878428e-05   8.883422877192359e-06   1.3054234982325347e-05
-4.542865383878428e-05   8.883422877192359e-06   1.3054234982325347e-05
-4.542865383878428e-05   8.883422877192359e-06   1.3054234982325347e-05
2.4992211630166395e-05   -3.2387739747459413e-06   2.5039748436847574e-05
2.4992211630166395e-05   -3.2387739747459413e-06   2.5039748436847574e-05
2.4992211630166395e-05   -3.2387739747459413e-06   2.5039748436847574e-05
2.4992211630166395e-05   -3.2387739747459413e-06   2.5039748436847574e-05
1.0371469186798035e-05   -1.5948805292182767e-06   1.6581804318837115e-06
1.0371469186798035e-05   -1.5948805292182767e-06   1.6581804318837115e-06
1.0371469186798035e-05   -1.5948805292182767e-06   1.6581804318837115e-06
1.0371469186798035e-05   -1.5948805292182767e-06   1.6581804318837115e-06
9.722749780762064e-06   -3.9300890971017376e-06   2.2510709641261877e-05
9.722749780762064e-06   -3.9300890971017376e-06   2.2510709641261877e-05
9.722749780762064e-06   -3.9300890971017376e-06   2.2510709641261877e-05
9.722749780762064e-06   -3.9300890971017376e-06   2.2510709641261877e-05
2.3611042044675912e-05   -2.213496056064322e-06   -1.6663999565501861e-06
2.3611042044675912e-05   -2.213496056064322e-06   -1.6663999565501861e-06
2.3611042044675912e-05   -2.213496056064322e-06   -1.6663999565501861e-06
2.3611042044675912e-05   -2.213496056064322e-06   -1.6663999565501861e-06
1.6320001271525426e-05   -2.810076549080885e-06   1.084328296117772e-05
1.6320001271525426e-05   -2.810076549080885e-06   1.084328296117772e-05
1.6320001271525426e-05   -2.810076549080885e-06   1.084328296117772e-05
1.6320001271525426e-05   -2.810076549080885e-06   1.084328296117772e-05
2.361104204467595e-05   -3.930089097101526e-06   2.1480753816639688e-05
2.361104204467595e-05   -3.930089097101526e-06   2.1480753816639688e-05
2.361104204467595e-05   -3.930089097101526e-06   2.1480753816639688e-05
2.361104204467595e-05   -3.930089097101526e-06   2.1480753816639688e-05
9.72274978076203e-06   -2.213496056064322e-06   -6.364441319278887e-07
9.72274978076203e-06   -2.213496056064322e-06   -6.364441319278887e-07
9.72274978076203e-06   -2.213496056064322e-06   -6.364441319278887e-07
9.72274978076203e-06   -2.213496056064322e-06   -6.364441319278887e-07
8.994010573777536e-06   -4.1146400978234274e-06   2.063290749467015e-05
8.994010573777536e-06   -4.1146400978234274e-06   2.063290749467015e-05
8.994010573777536e-06   -4.1146400978234274e-06   2.063290749467015e-05
8.994010573777536e-06   -4.1146400978234274e-06   2.063290749467015e-05
2.2425266222069003e-05   -2.4263264120304683e-06   -2.7655067972914615e-06
2.2425266222069003e-05   -2.4263264120304683e-06   -2.7655067972914615e-06
2.2425266222069003e-05   -2.4263264120304683e-06   -2.7655067972914615e-06
2.2425266222069003e-05   -2.4263264120304683e-06   -2.7655067972914615e-06
1.5706226937011384e-05   -3.0725160540601756e-06   8.820605796356374e-06
1.5706226937011384e-05   -3.0725160540601756e-06   8.820605796356374e-06
1.5706226937011384e-05   -3.0725160540601756e-06   8.820605796356374e-06
1.5706226937011384e-05   -3.0725160540601756e-06   8.820605796356374e-06
2.2425266222069044e-05   -4.114640097823395e-06   1.961991928319429e-05
2.2425266222069044e-05   -4.114640097823395e-06   1.961991928319429e-05
2.2425266222069044e-05   -4.114640097823395e-06   1.961991928319429e-05
2.2425266222069044e-05   -4.114640097823395e-06   1.961991928319429e-05
8.99401057377752e-06   -2.4263264120304683e-06   -1.7525185858156128e-06
8.99401057377752e-06   -2.4263264120304683e-06   -1.7525185858156128e-06
8.99401057377752e-06   -2.4263264120304683e-06   -1.7525185858156128e-06
8.99401057377752e-06   -2.4263264120304683e-06   -1.7525185858156128e-06
8.340715166142593e-06   -4.286496130044863e-06   1.8193618597914327e-05
8.340715166142593e-06   -4.286496130044863e-06   1.8193618597914327e-05
8.340715166142593e-06   -4.286496130044863e-06   1.8193618597914327e-05
8.340715166142593e-06   -4.286496130044863e-06   1.8193618597914327e-05
2.1080114658857663e-05   -2.7072620288979415e-06   -3.986254350632352e-06
2.1080114658857663e-05   -2.7072620288979415e-06   -3.986254350632352e-06
2.1080114658857663e-05   -2.7072620288979415e-06   -3.986254350632352e-06
2.1080114658857663e-05   -2.7072620288979415e-06   -3.986254350632352e-06
1.4567415490614927e-05   -3.1236653419714627e-06   7.11808625094908e-06
1.4567415490614927e-05   -3.1236653419714627e-06   7.11808625094908e-06
1.4567415490614927e-05   -3.1236653419714627e-06   7.11808625094908e-06
1.4567415490614927e-05   -3.1236653419714627e-06   7.11808625094908e-06
1.0371469186798072e-05   -1.7934603014129093e-08   3.0940218224661566e-05
1.0371469186798072e-05   -1.7934603014129093e-08   3.0940218224661566e-05
1.0371469186798072e-05   -1.7934603014129093e-08   3.0940218224661566e-05
1.0371469186798072e-05   -1.7934603014129093e-08   3.0940218224661566e-05
-3.347227339562967e-06   8.169850290581579e-07   8.576675793302985e-06
-3.347227339562967e-06   8.169850290581579e-07   8.576675793302985e-06
-3.347227339562967e-06   8.169850290581579e-07   8.576675793302985e-06
-3.347227339562967e-06   8.169850290581579e-07   8.576675793302985e-06
-3.943368034109169e-06   -6.190294343164093e-07   3.0999147466839825e-05
-3.943368034109169e-06   -6.190294343164093e-07   3.0999147466839825e-05
-3.943368034109169e-06   -6.190294343164093e-07   3.0999147466839825e-05
-3.943368034109169e-06   -6.190294343164093e-07   3.0999147466839825e-05
9.722749780762028e-06   1.9094864028281963e-07   7.736297597295306e-06
9.722749780762028e-06   1.9094864028281963e-07   7.736297597295306e-06
9.722749780762028e-06   1.9094864028281963e-07   7.736297597295306e-06
9.722749780762028e-06   1.9094864028281963e-07   7.736297597295306e-06
3.1030663205021036e-06   3.8915282713283816e-08   1.8860323378937254e-05
3.1030663205021036e-06   3.8915282713283816e-08   1.8860323378937254e-05
3.1030663205021036e-06   3.8915282713283816e-08   1.8860323378937254e-05
3.1030663205021036e-06   3.8915282713283816e-08   1.8860323378937254e-05
9.72274978076205e-06   -6.19029434316417e-07   3.0513160622080548e-05
9.72274978076205e-06   -6.19029434316417e-07   3.0513160622080548e-05
9.72274978076205e-06   -6.19029434316417e-07   3.0513160622080548e-05
9.72274978076205e-06   -6.19029434316417e-07   3.0513160622080548e-05
-3.943368034109183e-06   1.9094864028281963e-07   8.222284442054766e-06
-3.943368034109183e-06   1.9094864028281963e-07   8.222284442054766e-06
-3.943368034109183e-06   1.9094864028281963e-07   8.222284442054766e-06
-3.943368034109183e-06   1.9094864028281963e-07   8.222284442054766e-06
-4.552907476709005e-06   -1.09263559561288e-06   3.0627880755451945e-05
-4.552907476709005e-06   -1.09263559561288e-06   3.0627880755451945e-05
-4.552907476709005e-06   -1.09263559561288e-06   3.0627880755451945e-05
-4.552907476709005e-06   -1.09263559561288e-06   3.0627880755451945e-05
8.994010573777518e-06   -3.2113820092006737e-07   7.586785567825313e-06
8.994010573777518e-06   -3.2113820092006737e-07   7.586785567825313e-06
8.994010573777518e-06   -3.2113820092006737e-07   7.586785567825313e-06
8.994010573777518e-06   -3.2113820092006737e-07   7.586785567825313e-06
2.447508932755462e-06   -3.7853179473464754e-07   1.8532057792485266e-05
2.447508932755462e-06   -3.7853179473464754e-07   1.8532057792485266e-05
2.447508932755462e-06   -3.7853179473464754e-07   1.8532057792485266e-05
2.447508932755462e-06   -3.7853179473464754e-07   1.8532057792485266e-05
8.99401057377755e-06   -1.092635595612905e-06   3.0164982318636215e-05
8.99401057377755e-06   -1.092635595612905e-06   3.0164982318636215e-05
8.99401057377755e-06   -1.092635595612905e-06   3.0164982318636215e-05
8.99401057377755e-06   -1.092635595612905e-06   3.0164982318636215e-05
-4.552907476709019e-06   -3.2113820092006737e-07   8.04968400464122e-06
-4.552907476709019e-06   -3.2113820092006737e-07   8.04968400464122e-06
-4.552907476709019e-06   -3.2113820092006737e-07   8.04968400464122e-06
-4.552907476709019e-06   -3.2113820092006737e-07   8.04968400464122e-06
-5.157347785728457e-06   -1.5310078306791756e-06   3.090582487784606e-05
-5.157347785728457e-06   -1.5310078306791756e-06   3.090582487784606e-05
-5.157347785728457e-06   -1.5310078306791756e-06   3.090582487784606e-05
-5.157347785728457e-06   -1.5310078306791756e-06   3.090582487784606e-05
8.340715166142557e-06   -8.25550340617133e-07   7.985778797356912e-06
8.340715166142557e-06   -8.25550340617133e-07   7.985778797356912e-06
8.340715166142557e-06   -8.25550340617133e-07   7.985778797356912e-06
8.340715166142557e-06   -8.25550340617133e-07   7.985778797356912e-06
1.9298132791121426e-06   -7.263470390489121e-07   1.861109329479946e-05
1.9298132791121426e-06   -7.263470390489121e-07   1.861109329479946e-05
1.9298132791121426e-06   -7.263470390489121e-07   1.861109329479946e-05
1.9298132791121426e-06   -7.263470390489121e-07   1.861109329479946e-05
-3.347227339562967e-06   3.1281785165384537e-06   3.3573007187476375e-05
-3.347227339562967e-06   3.1281785165384537e-06   3.3573007187476375e-05
-3.347227339562967e-06   3.1281785165384537e-06   3.3573007187476375e-05
-3.347227339562967e-06   3.1281785165384537e-06   3.3573007187476375e-05
-1.6839480268344753e-05   3.079004784980804e-06   1.1056414733905378e-05
-1.6839480268344753e-05   3.079004784980804e-06   1.1056414733905378e-05
-1.6839480268344753e-05   3.079004784980804e-06   1.1056414733905378e-05
-1.6839480268344753e-05   3.079004784980804e-06   1.1056414733905378e-05
-1.7427684155734487e-05   2.600235786778945e-06   3.335392339433611e-05
-1.7427684155734487e-05   2.600235786778945e-06   3.335392339433611e-05
-1.7427684155734487e-05   2.600235786778945e-06   3.335392339433611e-05
-1.7427684155734487e-05   2.600235786778945e-06   3.335392339433611e-05
-3.943368034109165e-06   2.5103267329558508e-06   1.0934008623921199e-05
-3.943368034109165e-06   2.5103267329558508e-06   1.0934008623921199e-05
-3.943368034109165e-06   2.5103267329558508e-06   1.0934008623921199e-05
-3.943368034109165e-06   2.5103267329558508e-06   1.0934008623921199e-05
-1.0415374750625613e-05   2.7591901100895277e-06   2.157136845850233e-05
-1.0415374750625613e-05   2.7591901100895277e-06   2.157136845850233e-05
-1.0415374750625613e-05   2.7591901100895277e-06   2.157136845850233e-05
-1.0415374750625613e-05   2.7591901100895277e-06   2.157136845850233e-05
-3.943368034109169e-06   2.600235786778807e-06   3.340786882663027e-05
-3.943368034109169e-06   2.600235786778807e-06   3.340786882663027e-05
-3.943368034109169e-06   2.600235786778807e-06   3.340786882663027e-05
-3.943368034109169e-06   2.600235786778807e-06   3.340786882663027e-05
-1.7427684155734514e-05   2.5103267329558508e-06   1.0880063191627608e-05
-1.7427684155734514e-05   2.5103267329558508e-06   1.0880063191627608e-05
-1.7427684155734514e-05   2.5103267329558508e-06   1.0880063191627608e-05
-1.7427684155734514e-05   2.5103267329558508e-06   1.0880063191627608e-05
-1.803001124810446e-05   2.0806828521533014e-06   3.3524057925385245e-05
-1.803001124810446e-05   2.0806828521533014e-06   3.3524057925385245e-05
-1.803001124810446e-05   2.0806828521533014e-06   3.3524057925385245e-05
-1.803001124810446e-05   2.0806828521533014e-06   3.3524057925385245e-05
-4.552907476708998e-06   1.9481782230581536e-06   1.1141721083850258e-05
-4.552907476708998e-06   1.9481782230581536e-06   1.1141721083850258e-05
-4.552907476708998e-06   1.9481782230581536e-06   1.1141721083850258e-05
-4.552907476708998e-06   1.9481782230581536e-06   1.1141721083850258e-05
-1.0954014284097746e-05   2.3465186878488236e-06   2.1571228150624167e-05
-1.0954014284097746e-05   2.3465186878488236e-06   2.1571228150624167e-05
-1.0954014284097746e-05   2.3465186878488236e-06   2.1571228150624167e-05
-1.0954014284097746e-05   2.3465186878488236e-06   2.1571228150624167e-05
-4.552907476709019e-06   2.080682852153409e-06   3.360356070284277e-05
-4.552907476709019e-06   2.080682852153409e-06   3.360356070284277e-05
-4.552907476709019e-06   2.080682852153409e-06   3.360356070284277e-05
-4.552907476709019e-06   2.080682852153409e-06   3.360356070284277e-05
-1.8030011248104487e-05   1.9481782230581536e-06   1.1062218306393088e-05
-1.8030011248104487e-05   1.9481782230581536e-06   1.1062218306393088e-05
-1.8030011248104487e-05   1.9481782230581536e-06   1.1062218306393088e-05
-1.8030011248104487e-05   1.9481782230581536e-06   1.1062218306393088e-05
-1.8625302908835173e-05   1.587688186208483e-06   3.397365918700909e-05
-1.8625302908835173e-05   1.587688186208483e-06   3.397365918700909e-05
-1.8625302908835173e-05   1.587688186208483e-06   3.397365918700909e-05
-1.8625302908835173e-05   1.587688186208483e-06   3.397365918700909e-05
-5.157347785728447e-06   1.4070084183395205e-06   1.1635475175885964e-05
-5.157347785728447e-06   1.4070084183395205e-06   1.1635475175885964e-05
-5.157347785728447e-06   1.4070084183395205e-06   1.1635475175885964e-05
-5.157347785728447e-06   1.4070084183395205e-06   1.1635475175885964e-05
-1.1517454640936282e-05   1.9435716119972288e-06   2.191371535170374e-05
-1.1517454640936282e-05   1.9435716119972288e-06   2.191371535170374e-05
-1.1517454640936282e-05   1.9435716119972288e-06   2.191371535170374e-05
-1.1517454640936282e-05   1.9435716119972288e-06   2.191371535170374e-05
-1.6839480268344753e-05   6.156104723002999e-06   2.969509280763413e-05
-1.6839480268344753e-05   6.156104723002999e-06   2.969509280763413e-05
-1.6839480268344753e-05   6.156104723002999e-06   2.969509280763413e-05
-1.6839480268344753e-05   6.156104723002999e-06   2.969509280763413e-05
-3.010618314584296e-05   5.2797310352227685e-06   7.058097132469059e-06
-3.010618314584296e-05   5.2797310352227685e-06   7.058097132469059e-06
-3.010618314584296e-05   5.2797310352227685e-06   7.058097132469059e-06
-3.010618314584296e-05   5.2797310352227685e-06   7.058097132469059e-06
-3.073720458969043e-05   5.650686536099944e-06   2.9302520168871882e-05
-3.073720458969043e-05   5.650686536099944e-06   2.9302520168871882e-05
-3.073720458969043e-05   5.650686536099944e-06   2.9302520168871882e-05
-3.073720458969043e-05   5.650686536099944e-06   2.9302520168871882e-05
-1.7427684155734457e-05   4.724320995607052e-06   7.675805436574543e-06
-1.7427684155734457e-05   4.724320995607052e-06   7.675805436574543e-06
-1.7427684155734457e-05   4.724320995607052e-06   7.675805436574543e-06
-1.7427684155734457e-05   4.724320995607052e-06   7.675805436574543e-06
-2.3710413560072718e-05   5.359782683514924e-06   1.776574409772765e-05
-2.3710413560072718e-05   5.359782683514924e-06   1.776574409772765e-05
-2.3710413560072718e-05   5.359782683514924e-06   1.776574409772765e-05
-2.3710413560072718e-05   5.359782683514924e-06   1.776574409772765e-05
-1.7427684155734514e-05   5.650686536100141e-06   2.9858339493167964e-05
-1.7427684155734514e-05   5.650686536100141e-06   2.9858339493167964e-05
-1.7427684155734514e-05   5.650686536100141e-06   2.9858339493167964e-05
-1.7427684155734514e-05   5.650686536100141e-06   2.9858339493167964e-05
-3.073720458969043e-05   4.724320995607052e-06   7.1199861122787315e-06
-3.073720458969043e-05   4.724320995607052e-06   7.1199861122787315e-06
-3.073720458969043e-05   4.724320995607052e-06   7.1199861122787315e-06
-3.073720458969043e-05   4.724320995607052e-06   7.1199861122787315e-06
-3.1447312753466556e-05   5.179587406595708e-06   3.0305453789379773e-05
-3.1447312753466556e-05   5.179587406595708e-06   3.0305453789379773e-05
-3.1447312753466556e-05   5.179587406595708e-06   3.0305453789379773e-05
-3.1447312753466556e-05   5.179587406595708e-06   3.0305453789379773e-05
-1.8030011248104402e-05   4.21027329883944e-06   8.524873078429962e-06
-1.8030011248104402e-05   4.21027329883944e-06   8.524873078429962e-06
-1.8030011248104402e-05   4.21027329883944e-06   8.524873078429962e-06
-1.8030011248104402e-05   4.21027329883944e-06   8.524873078429962e-06
-2.4147252628646444e-05   4.9814938127639395e-06   1.825754307097934e-05
-2.4147252628646444e-05   4.9814938127639395e-06   1.825754307097934e-05
-2.4147252628646444e-05   4.9814938127639395e-06   1.825754307097934e-05
-2.4147252628646444e-05   4.9814938127639395e-06   1.825754307097934e-05
-1.8030011248104487e-05   5.179587406595764e-06   3.088704225403345e-05
-1.8030011248104487e-05   5.179587406595764e-06   3.088704225403345e-05
-1.8030011248104487e-05   5.179587406595764e-06   3.088704225403345e-05
-1.8030011248104487e-05   5.179587406595764e-06   3.088704225403345e-05
-3.14473127534665e-05   4.21027329883944e-06   7.943284613776288e-06
-3.14473127534665e-05   4.21027329883944e-06   7.943284613776288e-06
-3.14473127534665e-05   4.21027329883944e-06   7.943284613776288e-06
-3.14473127534665e-05   4.21027329883944e-06   7.943284613776288e-06
-3.2078566471718654e-05   4.630828446035556e-06   3.115119325054587e-05
-3.2078566471718654e-05   4.630828446035556e-06   3.115119325054587e-05
-3.2078566471718654e-05   4.630828446035556e-06   3.115119325054587e-05
-3.2078566471718654e-05   4.630828446035556e-06   3.115119325054587e-05
-1.8625302908835115e-05   3.635507959251147e-06   9.326279604477143e-06
-1.8625302908835115e-05   3.635507959251147e-06   9.326279604477143e-06
-1.8625302908835115e-05   3.635507959251147e-06   9.326279604477143e-06
-1.8625302908835115e-05   3.635507959251147e-06   9.326279604477143e-06
-2.4859115699988016e-05   4.583186090287338e-06   1.914736071110954e-05
-2.4859115699988016e-05   4.583186090287338e-06   1.914736071110954e-05
-2.4859115699988016e-05   4.583186090287338e-06   1.914736071110954e-05
-2.4859115699988016e-05   4.583186090287338e-06   1.914736071110954e-05
-3.010618314584296e-05   8.48632515181203e-06   1.426941461727207e-05
-3.010618314584296e-05   8.48632515181203e-06   1.426941461727207e-05
-3.010618314584296e-05   8.48632515181203e-06   1.426941461727207e-05
-3.010618314584296e-05   8.48632515181203e-06   1.426941461727207e-05
-4.254897764637054e-05   6.927255296249957e-06   -7.404018130277904e-06
-4.254897764637054e-05   6.927255296249957e-06   -7.404018130277904e-06
-4.254897764637054e-05   6.927255296249957e-06   -7.404018130277904e-06
-4.254897764637054e-05   6.927255296249957e-06   -7.404018130277904e-06
-4.386858473327511e-05   8.444535540914812e-06   1.8298982321662306e-05
-4.386858473327511e-05   8.444535540914812e-06   1.8298982321662306e-05
-4.386858473327511e-05   8.444535540914812e-06   1.8298982321662306e-05
-4.386858473327511e-05   8.444535540914812e-06   1.8298982321662306e-05
-3.0737204589690364e-05   6.749381151458823e-06   -2.569558617305091e-06
-3.0737204589690364e-05   6.749381151458823e-06   -2.569558617305091e-06
-3.0737204589690364e-05   6.749381151458823e-06   -2.569558617305091e-06
-3.0737204589690364e-05   6.749381151458823e-06   -2.569558617305091e-06
-3.543543244136675e-05   7.512427049488754e-06   4.80299359667145e-06
-3.543543244136675e-05   7.512427049488754e-06   4.80299359667145e-06
-3.543543244136675e-05   7.512427049488754e-06   4.80299359667145e-06
-3.543543244136675e-05   7.512427049488754e-06   4.80299359667145e-06
-3.073720458969043e-05   8.44453554091465e-06   1.9316074955335683e-05
-3.073720458969043e-05   8.44453554091465e-06   1.9316074955335683e-05
-3.073720458969043e-05   8.44453554091465e-06   1.9316074955335683e-05
-3.073720458969043e-05   8.44453554091465e-06   1.9316074955335683e-05
-4.386858473327506e-05   6.749381151458823e-06   -3.586651250978522e-06
-4.386858473327506e-05   6.749381151458823e-06   -3.586651250978522e-06
-4.386858473327506e-05   6.749381151458823e-06   -3.586651250978522e-06
-4.386858473327506e-05   6.749381151458823e-06   -3.586651250978522e-06
-4.50197669404733e-05   8.272665784476085e-06   2.179039971282929e-05
-4.50197669404733e-05   8.272665784476085e-06   2.179039971282929e-05
-4.50197669404733e-05   8.272665784476085e-06   2.179039971282929e-05
-4.50197669404733e-05   8.272665784476085e-06   2.179039971282929e-05
-3.1447312753466475e-05   6.531431456097787e-06   2.14383331512049e-07
-3.1447312753466475e-05   6.531431456097787e-06   2.14383331512049e-07
-3.1447312753466475e-05   6.531431456097787e-06   2.14383331512049e-07
-3.1447312753466475e-05   6.531431456097787e-06   2.14383331512049e-07
-3.683340041892376e-05   7.517523110168968e-06   8.599541114832714e-06
-3.683340041892376e-05   7.517523110168968e-06   8.599541114832714e-06
-3.683340041892376e-05   7.517523110168968e-06   8.599541114832714e-06
-3.683340041892376e-05   7.517523110168968e-06   8.599541114832714e-06
-3.14473127534665e-05   8.27266578447611e-06   2.2835140309856094e-05
-3.14473127534665e-05   8.27266578447611e-06   2.2835140309856094e-05
-3.14473127534665e-05   8.27266578447611e-06   2.2835140309856094e-05
-3.14473127534665e-05   8.27266578447611e-06   2.2835140309856094e-05
-4.501976694047319e-05   6.531431456097787e-06   -8.303572655150274e-07
-4.501976694047319e-05   6.531431456097787e-06   -8.303572655150274e-07
-4.501976694047319e-05   6.531431456097787e-06   -8.303572655150274e-07
-4.501976694047319e-05   6.531431456097787e-06   -8.303572655150274e-07
-4.635500349292555e-05   7.514003843568174e-06   2.785716816913796e-05
-4.635500349292555e-05   7.514003843568174e-06   2.785716816913796e-05
-4.635500349292555e-05   7.514003843568174e-06   2.785716816913796e-05
-4.635500349292555e-05   7.514003843568174e-06   2.785716816913796e-05
-3.207856647171852e-05   5.799633491710169e-06   5.091728678241101e-06
-3.207856647171852e-05   5.799633491710169e-06   5.091728678241101e-06
-3.207856647171852e-05   5.799633491710169e-06   5.091728678241101e-06
-3.207856647171852e-05   5.799633491710169e-06   5.091728678241101e-06
-3.714451178050351e-05   7.198784855942967e-06   1.2695480041008313e-05
-3.714451178050351e-05   7.198784855942967e-06   1.2695480041008313e-05
-3.714451178050351e-05   7.198784855942967e-06   1.2695480041008313e-05
-3.714451178050351e-05   7.198784855942967e-06   1.2695480041008313e-05
1.3898173852125846e-05   -1.5948805292182617e-06   1.9712459436975515e-05
1.3898173852125846e-05   -1.5948805292182617e-06   1.9712459436975515e-05
1.3898173852125846e-05   -1.5948805292182617e-06   1.9712459436975515e-05
1.3898173852125846e-05   -1.5948805292182617e-06   1.9712459436975515e-05
3.641431490158336e-06   3.2880621344362135e-08   3.594545524033925e-06
3.641431490158336e-06   3.2880621344362135e-08   3.594545524033925e-06
3.641431490158336e-06   3.2880621344362135e-08   3.594545524033925e-06
3.641431490158336e-06   3.2880621344362135e-08   3.594545524033925e-06
3.1559018396629178e-06   -2.213496056064322e-06   1.8376647694509098e-05
3.1559018396629178e-06   -2.213496056064322e-06   1.8376647694509098e-05
3.1559018396629178e-06   -2.213496056064322e-06   1.8376647694509098e-05
3.1559018396629178e-06   -2.213496056064322e-06   1.8376647694509098e-05
1.2697825535863807e-05   -5.216239628838201e-07   1.4583182782664254e-06
1.2697825535863807e-05   -5.216239628838201e-07   1.4583182782664254e-06
1.2697825535863807e-05   -5.216239628838201e-07   1.4583182782664254e-06
1.2697825535863807e-05   -5.216239628838201e-07   1.4583182782664254e-06
7.855783501682816e-06   -1.152769344107225e-06   9.907075563969516e-06
7.855783501682816e-06   -1.152769344107225e-06   9.907075563969516e-06
7.855783501682816e-06   -1.152769344107225e-06   9.907075563969516e-06
7.855783501682816e-06   -1.152769344107225e-06   9.907075563969516e-06
1.2697825535863821e-05   -2.213496056064329e-06   1.736152443860108e-05
1.2697825535863821e-05   -2.213496056064329e-06   1.736152443860108e-05
1.2697825535863821e-05   -2.213496056064329e-06   1.736152443860108e-05
1.2697825535863821e-05   -2.213496056064329e-06   1.736152443860108e-05
3.155901839662911e-06   -5.216239628838201e-07   2.4734415341745803e-06
3.155901839662911e-06   -5.216239628838201e-07   2.4734415341745803e-06
3.155901839662911e-06   -5.216239628838201e-07   2.4734415341745803e-06
3.155901839662911e-06   -5.216239628838201e-07   2.4734415341745803e-06
2.5899623620282005e-06   -2.4263264120302514e-06   1.7245685402656765e-05
2.5899623620282005e-06   -2.4263264120302514e-06   1.7245685402656765e-05
2.5899623620282005e-06   -2.4263264120302514e-06   1.7245685402656765e-05
2.5899623620282005e-06   -2.4263264120302514e-06   1.7245685402656765e-05
1.1681398052817782e-05   -7.605326599656546e-07   1.093816333435282e-06
1.1681398052817782e-05   -7.605326599656546e-07   1.093816333435282e-06
1.1681398052817782e-05   -7.605326599656546e-07   1.093816333435282e-06
1.1681398052817782e-05   -7.605326599656546e-07   1.093816333435282e-06
7.276112884541851e-06   -1.3948296962117395e-06   8.816536502309441e-06
7.276112884541851e-06   -1.3948296962117395e-06   8.816536502309441e-06
7.276112884541851e-06   -1.3948296962117395e-06   8.816536502309441e-06
7.276112884541851e-06   -1.3948296962117395e-06   8.816536502309441e-06
1.1681398052817797e-05   -2.4263264120302883e-06   1.624620915141779e-05
1.1681398052817797e-05   -2.4263264120302883e-06   1.624620915141779e-05
1.1681398052817797e-05   -2.4263264120302883e-06   1.624620915141779e-05
1.1681398052817797e-05   -2.4263264120302883e-06   1.624620915141779e-05
2.589962362028187e-06   -7.605326599656546e-07   2.0932925846741486e-06
2.589962362028187e-06   -7.605326599656546e-07   2.0932925846741486e-06
2.589962362028187e-06   -7.605326599656546e-07   2.0932925846741486e-06
2.589962362028187e-06   -7.605326599656546e-07   2.0932925846741486e-06
2.09957550563372e-06   -2.7072620288977247e-06   1.5937602717910893e-05
2.09957550563372e-06   -2.7072620288977247e-06   1.5937602717910893e-05
2.09957550563372e-06   -2.7072620288977247e-06   1.5937602717910893e-05
2.09957550563372e-06   -2.7072620288977247e-06   1.5937602717910893e-05
1.0491010217228952e-05   -1.1581635170837892e-06   1.022419091497174e-06
1.0491010217228952e-05   -1.1581635170837892e-06   1.022419091497174e-06
1.0491010217228952e-05   -1.1581635170837892e-06   1.022419091497174e-06
1.0491010217228952e-05   -1.1581635170837892e-06   1.022419091497174e-06
6.420839653523072e-06   -1.5193908992122609e-06   8.02277312695069e-06
6.420839653523072e-06   -1.5193908992122609e-06   8.02277312695069e-06
6.420839653523072e-06   -1.5193908992122609e-06   8.02277312695069e-06
6.420839653523072e-06   -1.5193908992122609e-06   8.02277312695069e-06
3.6414314901583427e-06   8.169850290581059e-07   2.7106659709489125e-05
3.6414314901583427e-06   8.169850290581059e-07   2.7106659709489125e-05
3.6414314901583427e-06   8.169850290581059e-07   2.7106659709489125e-05
3.6414314901583427e-06   8.169850290581059e-07   2.7106659709489125e-05
-5.701682205685828e-06   1.5543856619496064e-06   1.1977243929483746e-05
-5.701682205685828e-06   1.5543856619496064e-06   1.1977243929483746e-05
-5.701682205685828e-06   1.5543856619496064e-06   1.1977243929483746e-05
-5.701682205685828e-06   1.5543856619496064e-06   1.1977243929483746e-05
-6.1282561245635945e-06   1.909486402826028e-07   2.719163245268612e-05
-6.1282561245635945e-06   1.909486402826028e-07   2.719163245268612e-05
-6.1282561245635945e-06   1.909486402826028e-07   2.719163245268612e-05
-6.1282561245635945e-06   1.909486402826028e-07   2.719163245268612e-05
3.155901839662912e-06   9.280203552054517e-07   1.1275792816688306e-05
3.155901839662912e-06   9.280203552054517e-07   1.1275792816688306e-05
3.155901839662912e-06   9.280203552054517e-07   1.1275792816688306e-05
3.155901839662912e-06   9.280203552054517e-07   1.1275792816688306e-05
-1.3281072173000668e-06   8.10041065384343e-07   1.8819928818853438e-05
-1.3281072173000668e-06   8.10041065384343e-07   1.8819928818853438e-05
-1.3281072173000668e-06   8.10041065384343e-07   1.8819928818853438e-05
-1.3281072173000668e-06   8.10041065384343e-07   1.8819928818853438e-05
3.1559018396629178e-06   1.909486402826682e-07   2.674938942373215e-05
3.1559018396629178e-06   1.909486402826682e-07   2.674938942373215e-05
3.1559018396629178e-06   1.909486402826682e-07   2.674938942373215e-05
3.1559018396629178e-06   1.909486402826682e-07   2.674938942373215e-05
-6.1282561245635945e-06   9.280203552054517e-07   1.1718035845642073e-05
-6.1282561245635945e-06   9.280203552054517e-07   1.1718035845642073e-05
-6.1282561245635945e-06   9.280203552054517e-07   1.1718035845642073e-05
-6.1282561245635945e-06   9.280203552054517e-07   1.1718035845642073e-05
-6.5673066011070585e-06   -3.2113820092006737e-07   2.701608180374058e-05
-6.5673066011070585e-06   -3.2113820092006737e-07   2.701608180374058e-05
-6.5673066011070585e-06   -3.2113820092006737e-07   2.701608180374058e-05
-6.5673066011070585e-06   -3.2113820092006737e-07   2.701608180374058e-05
2.5899623620281887e-06   3.973488781514826e-07   1.1322874617739077e-05
2.5899623620281887e-06   3.973488781514826e-07   1.1322874617739077e-05
2.5899623620281887e-06   3.973488781514826e-07   1.1322874617739077e-05
2.5899623620281887e-06   3.973488781514826e-07   1.1322874617739077e-05
-1.7835147178007797e-06   3.7329425046244737e-07   1.8626435860734475e-05
-1.7835147178007797e-06   3.7329425046244737e-07   1.8626435860734475e-05
-1.7835147178007797e-06   3.7329425046244737e-07   1.8626435860734475e-05
-1.7835147178007797e-06   3.7329425046244737e-07   1.8626435860734475e-05
2.5899623620282005e-06   -3.211382009200725e-07   2.658498955629776e-05
2.5899623620282005e-06   -3.211382009200725e-07   2.658498955629776e-05
2.5899623620282005e-06   -3.211382009200725e-07   2.658498955629776e-05
2.5899623620282005e-06   -3.211382009200725e-07   2.658498955629776e-05
-6.5673066011070585e-06   3.973488781514826e-07   1.1753966865182082e-05
-6.5673066011070585e-06   3.973488781514826e-07   1.1753966865182082e-05
-6.5673066011070585e-06   3.973488781514826e-07   1.1753966865182082e-05
-6.5673066011070585e-06   3.973488781514826e-07   1.1753966865182082e-05
-6.999829741749503e-06   -8.25550340617133e-07   2.7370578274169845e-05
-6.999829741749503e-06   -8.25550340617133e-07   2.7370578274169845e-05
-6.999829741749503e-06   -8.25550340617133e-07   2.7370578274169845e-05
-6.999829741749503e-06   -8.25550340617133e-07   2.7370578274169845e-05
2.0995755056337125e-06   -1.447455590210863e-07   1.1796419992906833e-05
2.0995755056337125e-06   -1.447455590210863e-07   1.1796419992906833e-05
2.0995755056337125e-06   -1.447455590210863e-07   1.1796419992906833e-05
2.0995755056337125e-06   -1.447455590210863e-07   1.1796419992906833e-05
-2.1690242554653026e-06   -1.843543475103966e-08   1.883496685350988e-05
-2.1690242554653026e-06   -1.843543475103966e-08   1.883496685350988e-05
-2.1690242554653026e-06   -1.843543475103966e-08   1.883496685350988e-05
-2.1690242554653026e-06   -1.843543475103966e-08   1.883496685350988e-05
-5.701682205685828e-06   3.0790047849807334e-06   3.005834326876109e-05
-5.701682205685828e-06   3.0790047849807334e-06   3.005834326876109e-05
-5.701682205685828e-06   3.0790047849807334e-06   3.005834326876109e-05
-5.701682205685828e-06   3.0790047849807334e-06   3.005834326876109e-05
-1.4885816419054314e-05   2.903040199362132e-06   1.4645874161775931e-05
-1.4885816419054314e-05   2.903040199362132e-06   1.4645874161775931e-05
-1.4885816419054314e-05   2.903040199362132e-06   1.4645874161775931e-05
-1.4885816419054314e-05   2.903040199362132e-06   1.4645874161775931e-05
-1.529515103107016e-05   2.5103267329560676e-06   2.9792611193570854e-05
-1.529515103107016e-05   2.5103267329560676e-06   2.9792611193570854e-05
-1.529515103107016e-05   2.5103267329560676e-06   2.9792611193570854e-05
-1.529515103107016e-05   2.5103267329560676e-06   2.9792611193570854e-05
-6.128256124563574e-06   2.3257509979865247e-06   1.462519845704167e-05
-6.128256124563574e-06   2.3257509979865247e-06   1.462519845704167e-05
-6.128256124563574e-06   2.3257509979865247e-06   1.462519845704167e-05
-6.128256124563574e-06   2.3257509979865247e-06   1.462519845704167e-05
-1.0522367217776646e-05   2.6397518057517944e-06   2.1760316461071874e-05
-1.0522367217776646e-05   2.6397518057517944e-06   2.1760316461071874e-05
-1.0522367217776646e-05   2.6397518057517944e-06   2.1760316461071874e-05
-1.0522367217776646e-05   2.6397518057517944e-06   2.1760316461071874e-05
-6.1282561245635945e-06   2.510326732956045e-06   2.990335663455247e-05
-6.1282561245635945e-06   2.510326732956045e-06   2.990335663455247e-05
-6.1282561245635945e-06   2.510326732956045e-06   2.990335663455247e-05
-6.1282561245635945e-06   2.510326732956045e-06   2.990335663455247e-05
-1.529515103107016e-05   2.3257509979865247e-06   1.451445301606008e-05
-1.529515103107016e-05   2.3257509979865247e-06   1.451445301606008e-05
-1.529515103107016e-05   2.3257509979865247e-06   1.451445301606008e-05
-1.529515103107016e-05   2.3257509979865247e-06   1.451445301606008e-05
-1.5717890733990525e-05   1.9481782230581536e-06   2.999006566879736e-05
-1.5717890733990525e-05   1.9481782230581536e-06   2.999006566879736e-05
-1.5717890733990525e-05   1.9481782230581536e-06   2.999006566879736e-05
-1.5717890733990525e-05   1.9481782230581536e-06   2.999006566879736e-05
-6.567306601107031e-06   1.751422866137645e-06   1.4857145328143925e-05
-6.567306601107031e-06   1.751422866137645e-06   1.4857145328143925e-05
-6.567306601107031e-06   1.751422866137645e-06   1.4857145328143925e-05
-6.567306601107031e-06   1.751422866137645e-06   1.4857145328143925e-05
-1.0886791897153057e-05   2.2007279728666115e-06   2.1786704424183194e-05
-1.0886791897153057e-05   2.2007279728666115e-06   2.1786704424183194e-05
-1.0886791897153057e-05   2.2007279728666115e-06   2.1786704424183194e-05
-1.0886791897153057e-05   2.2007279728666115e-06   2.1786704424183194e-05
-6.5673066011070585e-06   1.9481782230580642e-06   3.0108118882949753e-05
-6.5673066011070585e-06   1.9481782230580642e-06   3.0108118882949753e-05
-6.5673066011070585e-06   1.9481782230580642e-06   3.0108118882949753e-05
-6.5673066011070585e-06   1.9481782230580642e-06   3.0108118882949753e-05
-1.5717890733990525e-05   1.7514228661374281e-06   1.4739092113991723e-05
-1.5717890733990525e-05   1.7514228661374281e-06   1.4739092113991723e-05
-1.5717890733990525e-05   1.7514228661374281e-06   1.4739092113991723e-05
-1.5717890733990525e-05   1.7514228661374281e-06   1.4739092113991723e-05
-1.6134017166501624e-05   1.4070084183393037e-06   3.0473713959425263e-05
-1.6134017166501624e-05   1.4070084183393037e-06   3.0473713959425263e-05
-1.6134017166501624e-05   1.4070084183393037e-06   3.0473713959425263e-05
-1.6134017166501624e-05   1.4070084183393037e-06   3.0473713959425263e-05
-6.999829741749497e-06   1.2015314196122447e-06   1.5373354450741547e-05
-6.999829741749497e-06   1.2015314196122447e-06   1.5373354450741547e-05
-6.999829741749497e-06   1.2015314196122447e-06   1.5373354450741547e-05
-6.999829741749497e-06   1.2015314196122447e-06   1.5373354450741547e-05
-1.1274437007824167e-05   1.7705201178167679e-06   2.2156306675276437e-05
-1.1274437007824167e-05   1.7705201178167679e-06   2.2156306675276437e-05
-1.1274437007824167e-05   1.7705201178167679e-06   2.2156306675276437e-05
-1.1274437007824167e-05   1.7705201178167679e-06   2.2156306675276437e-05
-1.4885816419054314e-05   5.2797310352227185e-06   2.6480271128621674e-05
-1.4885816419054314e-05   5.2797310352227185e-06   2.6480271128621674e-05
-1.4885816419054314e-05   5.2797310352227185e-06   2.6480271128621674e-05
-1.4885816419054314e-05   5.2797310352227185e-06   2.6480271128621674e-05
-2.39037646009246e-05   4.3133939016026714e-06   1.0870555211998998e-05
-2.39037646009246e-05   4.3133939016026714e-06   1.0870555211998998e-05
-2.39037646009246e-05   4.3133939016026714e-06   1.0870555211998998e-05
-2.39037646009246e-05   4.3133939016026714e-06   1.0870555211998998e-05
-2.4349972579775024e-05   4.7243209956068354e-06   2.5992527654174332e-05
-2.4349972579775024e-05   4.7243209956068354e-06   2.5992527654174332e-05
-2.4349972579775024e-05   4.7243209956068354e-06   2.5992527654174332e-05
-2.4349972579775024e-05   4.7243209956068354e-06   2.5992527654174332e-05
-1.5295151031070146e-05   3.7312780217010205e-06   1.1496984190676818e-05
-1.5295151031070146e-05   3.7312780217010205e-06   1.1496984190676818e-05
-1.5295151031070146e-05   3.7312780217010205e-06   1.1496984190676818e-05
-1.5295151031070146e-05   3.7312780217010205e-06   1.1496984190676818e-05
-1.956137440869864e-05   4.4385728680546976e-06   1.8182979578913153e-05
-1.956137440869864e-05   4.4385728680546976e-06   1.8182979578913153e-05
-1.956137440869864e-05   4.4385728680546976e-06   1.8182979578913153e-05
-1.956137440869864e-05   4.4385728680546976e-06   1.8182979578913153e-05
-1.529515103107016e-05   4.724320995606854e-06   2.658835343851795e-05
-1.529515103107016e-05   4.724320995606854e-06   2.658835343851795e-05
-1.529515103107016e-05   4.724320995606854e-06   2.658835343851795e-05
-1.529515103107016e-05   4.724320995606854e-06   2.658835343851795e-05
-2.434997257977497e-05   3.7312780217012374e-06   1.0901158406333362e-05
-2.434997257977497e-05   3.7312780217012374e-06   1.0901158406333362e-05
-2.434997257977497e-05   3.7312780217012374e-06   1.0901158406333362e-05
-2.434997257977497e-05   3.7312780217012374e-06   1.0901158406333362e-05
-2.487835946752534e-05   4.21027329883944e-06   2.684772788061709e-05
-2.487835946752534e-05   4.21027329883944e-06   2.684772788061709e-05
-2.487835946752534e-05   4.21027329883944e-06   2.684772788061709e-05
-2.487835946752534e-05   4.21027329883944e-06   2.684772788061709e-05
-1.5717890733990512e-05   3.2019523651437634e-06   1.2185272551609976e-05
-1.5717890733990512e-05   3.2019523651437634e-06   1.2185272551609976e-05
-1.5717890733990512e-05   3.2019523651437634e-06   1.2185272551609976e-05
-1.5717890733990512e-05   3.2019523651437634e-06   1.2185272551609976e-05
-1.9850399959046742e-05   4.02690004271968e-06   1.857781932015814e-05
-1.9850399959046742e-05   4.02690004271968e-06   1.857781932015814e-05
-1.9850399959046742e-05   4.02690004271968e-06   1.857781932015814e-05
-1.9850399959046742e-05   4.02690004271968e-06   1.857781932015814e-05
-1.5717890733990525e-05   4.210273298839342e-06   2.7452720440834452e-05
-1.5717890733990525e-05   4.210273298839342e-06   2.7452720440834452e-05
-1.5717890733990525e-05   4.210273298839342e-06   2.7452720440834452e-05
-1.5717890733990525e-05   4.210273298839342e-06   2.7452720440834452e-05
-2.4878359467525287e-05   3.2019523651437634e-06   1.1580279991392722e-05
-2.4878359467525287e-05   3.2019523651437634e-06   1.1580279991392722e-05
-2.4878359467525287e-05   3.2019523651437634e-06   1.1580279991392722e-05
-2.4878359467525287e-05   3.2019523651437634e-06   1.1580279991392722e-05
-2.533171905055962e-05   3.6355079592513637e-06   2.767333725345344e-05
-2.533171905055962e-05   3.6355079592513637e-06   2.767333725345344e-05
-2.533171905055962e-05   3.6355079592513637e-06   2.767333725345344e-05
-2.533171905055962e-05   3.6355079592513637e-06   2.767333725345344e-05
-1.6134017166501593e-05   2.6361929671106944e-06   1.2943423108641345e-05
-1.6134017166501593e-05   2.6361929671106944e-06   1.2943423108641345e-05
-1.6134017166501593e-05   2.6361929671106944e-06   1.2943423108641345e-05
-1.6134017166501593e-05   2.6361929671106944e-06   1.2943423108641345e-05
-2.034761276111222e-05   3.614537608553252e-06   1.937907564812674e-05
-2.034761276111222e-05   3.614537608553252e-06   1.937907564812674e-05
-2.034761276111222e-05   3.614537608553252e-06   1.937907564812674e-05
-2.034761276111222e-05   3.614537608553252e-06   1.937907564812674e-05
-2.3903764600924653e-05   6.92725529624993e-06   1.2373795499039998e-05
-2.3903764600924653e-05   6.92725529624993e-06   1.2373795499039998e-05
-2.3903764600924653e-05   6.92725529624993e-06   1.2373795499039998e-05
-2.3903764600924653e-05   6.92725529624993e-06   1.2373795499039998e-05
-3.2039213056909174e-05   5.3081709601447875e-06   -2.15673586259743e-06
-3.2039213056909174e-05   5.3081709601447875e-06   -2.15673586259743e-06
-3.2039213056909174e-05   5.3081709601447875e-06   -2.15673586259743e-06
-3.2039213056909174e-05   5.3081709601447875e-06   -2.15673586259743e-06
-3.318321806424949e-05   6.749381151458823e-06   1.5259290259616578e-05
-3.318321806424949e-05   6.749381151458823e-06   1.5259290259616578e-05
-3.318321806424949e-05   6.749381151458823e-06   1.5259290259616578e-05
-3.318321806424949e-05   6.749381151458823e-06   1.5259290259616578e-05
-2.4349972579774915e-05   5.009893376502379e-06   1.5809071171333025e-06
-2.4349972579774915e-05   5.009893376502379e-06   1.5809071171333025e-06
-2.4349972579774915e-05   5.009893376502379e-06   1.5809071171333025e-06
-2.4349972579774915e-05   5.009893376502379e-06   1.5809071171333025e-06
-2.7335832655923305e-05   5.888289755826004e-06   6.030302749787447e-06
-2.7335832655923305e-05   5.888289755826004e-06   6.030302749787447e-06
-2.7335832655923305e-05   5.888289755826004e-06   6.030302749787447e-06
-2.7335832655923305e-05   5.888289755826004e-06   6.030302749787447e-06
-2.434997257977497e-05   6.749381151458897e-06   1.630298292459051e-05
-2.434997257977497e-05   6.749381151458897e-06   1.630298292459051e-05
-2.434997257977497e-05   6.749381151458897e-06   1.630298292459051e-05
-2.434997257977497e-05   6.749381151458897e-06   1.630298292459051e-05
-3.318321806424949e-05   5.009893376502379e-06   5.372144521594252e-07
-3.318321806424949e-05   5.009893376502379e-06   5.372144521594252e-07
-3.318321806424949e-05   5.009893376502379e-06   5.372144521594252e-07
-3.318321806424949e-05   5.009893376502379e-06   5.372144521594252e-07
-3.4168068379417257e-05   6.531431456097787e-06   1.8056275354184134e-05
-3.4168068379417257e-05   6.531431456097787e-06   1.8056275354184134e-05
-3.4168068379417257e-05   6.531431456097787e-06   1.8056275354184134e-05
-3.4168068379417257e-05   6.531431456097787e-06   1.8056275354184134e-05
-2.48783594675252e-05   4.760512715816772e-06   3.635978411866054e-06
-2.48783594675252e-05   4.760512715816772e-06   3.635978411866054e-06
-2.48783594675252e-05   4.760512715816772e-06   3.635978411866054e-06
-2.48783594675252e-05   4.760512715816772e-06   3.635978411866054e-06
-2.8434472155149145e-05   5.811071316087031e-06   8.932497731077614e-06
-2.8434472155149145e-05   5.811071316087031e-06   8.932497731077614e-06
-2.8434472155149145e-05   5.811071316087031e-06   8.932497731077614e-06
-2.8434472155149145e-05   5.811071316087031e-06   8.932497731077614e-06
-2.4878359467525287e-05   6.53143145609773e-06   1.9118826598352634e-05
-2.4878359467525287e-05   6.53143145609773e-06   1.9118826598352634e-05
-2.4878359467525287e-05   6.53143145609773e-06   1.9118826598352634e-05
-2.4878359467525287e-05   6.53143145609773e-06   1.9118826598352634e-05
-3.416806837941731e-05   4.760512715816772e-06   2.5734271676975534e-06
-3.416806837941731e-05   4.760512715816772e-06   2.5734271676975534e-06
-3.416806837941731e-05   4.760512715816772e-06   2.5734271676975534e-06
-3.416806837941731e-05   4.760512715816772e-06   2.5734271676975534e-06
-3.534664112117515e-05   5.7996334917099525e-06   2.3005372899777016e-05
-3.534664112117515e-05   5.7996334917099525e-06   2.3005372899777016e-05
-3.534664112117515e-05   5.7996334917099525e-06   2.3005372899777016e-05
-3.534664112117515e-05   5.7996334917099525e-06   2.3005372899777016e-05
-2.5331719050559514e-05   4.081957292524944e-06   7.3444418349288354e-06
-2.5331719050559514e-05   4.081957292524944e-06   7.3444418349288354e-06
-2.5331719050559514e-05   4.081957292524944e-06   7.3444418349288354e-06
-2.5331719050559514e-05   4.081957292524944e-06   7.3444418349288354e-06
-2.8707845368757826e-05   5.502501820667163e-06   1.2118992315040015e-05
-2.8707845368757826e-05   5.502501820667163e-06   1.2118992315040015e-05
-2.8707845368757826e-05   5.502501820667163e-06   1.2118992315040015e-05
-2.8707845368757826e-05   5.502501820667163e-06   1.2118992315040015e-05
2.8038485564021667e-06   3.28806213443467e-08   1.47178562074343e-05
2.8038485564021667e-06   3.28806213443467e-08   1.47178562074343e-05
2.8038485564021667e-06   3.28806213443467e-08   1.47178562074343e-05
2.8038485564021667e-06   3.28806213443467e-08   1.47178562074343e-05
-3.0708846109361344e-06   1.5961537521344809e-06   5.864598140344502e-06
-3.0708846109361344e-06   1.5961537521344809e-06   5.864598140344502e-06
-3.0708846109361344e-06   1.5961537521344809e-06   5.864598140344502e-06
-3.0708846109361344e-06   1.5961537521344809e-06   5.864598140344502e-06
-3.415035374529898e-06   -5.21623962884037e-07   1.4514476961603653e-05
-3.415035374529898e-06   -5.21623962884037e-07   1.4514476961603653e-05
-3.415035374529898e-06   -5.21623962884037e-07   1.4514476961603653e-05
-3.415035374529898e-06   -5.21623962884037e-07   1.4514476961603653e-05
1.756694976336343e-06   1.078851899468129e-06   4.934640859415398e-06
1.756694976336343e-06   1.078851899468129e-06   4.934640859415398e-06
1.756694976336343e-06   1.078851899468129e-06   4.934640859415398e-06
1.756694976336343e-06   1.078851899468129e-06   4.934640859415398e-06
-6.194384203921322e-07   4.579373225053508e-07   9.26741193347378e-06
-6.194384203921322e-07   4.579373225053508e-07   9.26741193347378e-06
-6.194384203921322e-07   4.579373225053508e-07   9.26741193347378e-06
-6.194384203921322e-07   4.579373225053508e-07   9.26741193347378e-06
1.7566949763363416e-06   -5.216239628840973e-07   1.3554191444192462e-05
1.7566949763363416e-06   -5.216239628840973e-07   1.3554191444192462e-05
1.7566949763363416e-06   -5.216239628840973e-07   1.3554191444192462e-05
1.7566949763363416e-06   -5.216239628840973e-07   1.3554191444192462e-05
-3.415035374529898e-06   1.078851899468129e-06   5.894926376826589e-06
-3.415035374529898e-06   1.078851899468129e-06   5.894926376826589e-06
-3.415035374529898e-06   1.078851899468129e-06   5.894926376826589e-06
-3.415035374529898e-06   1.078851899468129e-06   5.894926376826589e-06
-3.840219153827251e-06   -7.605326599654377e-07   1.4133399376947036e-05
-3.840219153827251e-06   -7.605326599654377e-07   1.4133399376947036e-05
-3.840219153827251e-06   -7.605326599654377e-07   1.4133399376947036e-05
-3.840219153827251e-06   -7.605326599654377e-07   1.4133399376947036e-05
8.479087105976933e-07   7.943307863886567e-07   5.386934868426317e-06
8.479087105976933e-07   7.943307863886567e-07   5.386934868426317e-06
8.479087105976933e-07   7.943307863886567e-07   5.386934868426317e-06
8.479087105976933e-07   7.943307863886567e-07   5.386934868426317e-06
-1.184299150443961e-06   2.3753124836663198e-07   9.108027692975634e-06
-1.184299150443961e-06   2.3753124836663198e-07   9.108027692975634e-06
-1.184299150443961e-06   2.3753124836663198e-07   9.108027692975634e-06
-1.184299150443961e-06   2.3753124836663198e-07   9.108027692975634e-06
8.479087105976821e-07   -7.60532659965486e-07   1.3200481309134362e-05
8.479087105976821e-07   -7.60532659965486e-07   1.3200481309134362e-05
8.479087105976821e-07   -7.60532659965486e-07   1.3200481309134362e-05
8.479087105976821e-07   -7.60532659965486e-07   1.3200481309134362e-05
-3.840219153827244e-06   7.943307863886567e-07   6.319852936238746e-06
-3.840219153827244e-06   7.943307863886567e-07   6.319852936238746e-06
-3.840219153827244e-06   7.943307863886567e-07   6.319852936238746e-06
-3.840219153827244e-06   7.943307863886567e-07   6.319852936238746e-06
-4.195651288987642e-06   -1.1581635170837892e-06   1.3995884573040729e-05
-4.195651288987642e-06   -1.1581635170837892e-06   1.3995884573040729e-05
-4.195651288987642e-06   -1.1581635170837892e-06   1.3995884573040729e-05
-4.195651288987642e-06   -1.1581635170837892e-06   1.3995884573040729e-05
-2.9232129342803793e-07   1.9110060543237658e-07   6.680776106931689e-06
-2.9232129342803793e-07   1.9110060543237658e-07   6.680776106931689e-06
-2.9232129342803793e-07   1.9110060543237658e-07   6.680776106931689e-06
-2.9232129342803793e-07   1.9110060543237658e-07   6.680776106931689e-06
-1.7935179253004908e-06   3.5839731690441926e-08   9.275927017631015e-06
-1.7935179253004908e-06   3.5839731690441926e-08   9.275927017631015e-06
-1.7935179253004908e-06   3.5839731690441926e-08   9.275927017631015e-06
-1.7935179253004908e-06   3.5839731690441926e-08   9.275927017631015e-06
-3.0708846109361344e-06   1.554385661949489e-06   2.3596078111623366e-05
-3.0708846109361344e-06   1.554385661949489e-06   2.3596078111623366e-05
-3.0708846109361344e-06   1.554385661949489e-06   2.3596078111623366e-05
-3.0708846109361344e-06   1.554385661949489e-06   2.3596078111623366e-05
-7.987646706481284e-06   1.8632637200130097e-06   1.5586801453886055e-05
-7.987646706481284e-06   1.8632637200130097e-06   1.5586801453886055e-05
-7.987646706481284e-06   1.8632637200130097e-06   1.5586801453886055e-05
-7.987646706481284e-06   1.8632637200130097e-06   1.5586801453886055e-05
-8.247288990158468e-06   9.280203552054517e-07   2.353143409835896e-05
-8.247288990158468e-06   9.280203552054517e-07   2.353143409835896e-05
-8.247288990158468e-06   9.280203552054517e-07   2.353143409835896e-05
-8.247288990158468e-06   9.280203552054517e-07   2.353143409835896e-05
-3.4150353745298993e-06   1.2856967789414689e-06   1.5263072218069787e-05
-3.4150353745298993e-06   1.2856967789414689e-06   1.5263072218069787e-05
-3.4150353745298993e-06   1.2856967789414689e-06   1.5263072218069787e-05
-3.4150353745298993e-06   1.2856967789414689e-06   1.5263072218069787e-05
-5.714303834835909e-06   1.3407136483256123e-06   1.906217619694934e-05
-5.714303834835909e-06   1.3407136483256123e-06   1.906217619694934e-05
-5.714303834835909e-06   1.3407136483256123e-06   1.906217619694934e-05
-5.714303834835909e-06   1.3407136483256123e-06   1.906217619694934e-05
-3.4150353745298912e-06   9.280203552054574e-07   2.3316828244117284e-05
-3.4150353745298912e-06   9.280203552054574e-07   2.3316828244117284e-05
-3.4150353745298912e-06   9.280203552054574e-07   2.3316828244117284e-05
-3.4150353745298912e-06   9.280203552054574e-07   2.3316828244117284e-05
-8.247288990158468e-06   1.2856967789414689e-06   1.5477678072311368e-05
-8.247288990158468e-06   1.2856967789414689e-06   1.5477678072311368e-05
-8.247288990158468e-06   1.2856967789414689e-06   1.5477678072311368e-05
-8.247288990158468e-06   1.2856967789414689e-06   1.5477678072311368e-05
-8.515109536743373e-06   3.973488781514826e-07   2.357622078820725e-05
-8.515109536743373e-06   3.973488781514826e-07   2.357622078820725e-05
-8.515109536743373e-06   3.973488781514826e-07   2.357622078820725e-05
-8.515109536743373e-06   3.973488781514826e-07   2.357622078820725e-05
-3.840219153827245e-06   7.527478418100936e-07   1.5571497438485152e-05
-3.840219153827245e-06   7.527478418100936e-07   1.5571497438485152e-05
-3.840219153827245e-06   7.527478418100936e-07   1.5571497438485152e-05
-3.840219153827245e-06   7.527478418100936e-07   1.5571497438485152e-05
-5.979440292169705e-06   9.187557271231675e-07   1.903726127120183e-05
-5.979440292169705e-06   9.187557271231675e-07   1.903726127120183e-05
-5.979440292169705e-06   9.187557271231675e-07   1.903726127120183e-05
-5.979440292169705e-06   9.187557271231675e-07   1.903726127120183e-05
-3.840219153827244e-06   3.9734887815139173e-07   2.3362981410011822e-05
-3.840219153827244e-06   3.9734887815139173e-07   2.3362981410011822e-05
-3.840219153827244e-06   3.9734887815139173e-07   2.3362981410011822e-05
-3.840219153827244e-06   3.9734887815139173e-07   2.3362981410011822e-05
-8.515109536743373e-06   7.527478418100936e-07   1.5784736816680392e-05
-8.515109536743373e-06   7.527478418100936e-07   1.5784736816680392e-05
-8.515109536743373e-06   7.527478418100936e-07   1.5784736816680392e-05
-8.515109536743373e-06   7.527478418100936e-07   1.5784736816680392e-05
-8.777864316986432e-06   -1.447455590210863e-07   2.4032616471640665e-05
-8.777864316986432e-06   -1.447455590210863e-07   2.4032616471640665e-05
-8.777864316986432e-06   -1.447455590210863e-07   2.4032616471640665e-05
-8.777864316986432e-06   -1.447455590210863e-07   2.4032616471640665e-05
-4.195651288987637e-06   1.7557128144352844e-07   1.6203404654030716e-05
-4.195651288987637e-06   1.7557128144352844e-07   1.6203404654030716e-05
-4.195651288987637e-06   1.7557128144352844e-07   1.6203404654030716e-05
-4.195651288987637e-06   1.7557128144352844e-07   1.6203404654030716e-05
-6.2442004431354764e-06   5.042161768354595e-07   1.9420466307041822e-05
-6.2442004431354764e-06   5.042161768354595e-07   1.9420466307041822e-05
-6.2442004431354764e-06   5.042161768354595e-07   1.9420466307041822e-05
-6.2442004431354764e-06   5.042161768354595e-07   1.9420466307041822e-05
-7.987646706481284e-06   2.9030401993623834e-06   2.6555613930124775e-05
-7.987646706481284e-06   2.9030401993623834e-06   2.6555613930124775e-05
-7.987646706481284e-06   2.9030401993623834e-06   2.6555613930124775e-05
-7.987646706481284e-06   2.9030401993623834e-06   2.6555613930124775e-05
-1.2886447419820985e-05   2.2357375203875974e-06   1.799056446717375e-05
-1.2886447419820985e-05   2.2357375203875974e-06   1.799056446717375e-05
-1.2886447419820985e-05   2.2357375203875974e-06   1.799056446717375e-05
-1.2886447419820985e-05   2.2357375203875974e-06   1.799056446717375e-05
-1.3106260254448234e-05   2.3257509979865247e-06   2.606354530536629e-05
-1.3106260254448234e-05   2.3257509979865247e-06   2.606354530536629e-05
-1.3106260254448234e-05   2.3257509979865247e-06   2.606354530536629e-05
-1.3106260254448234e-05   2.3257509979865247e-06   2.606354530536629e-05
-8.247288990158478e-06   1.700665323999006e-06   1.8340311269275807e-05
-8.247288990158478e-06   1.700665323999006e-06   1.8340311269275807e-05
-8.247288990158478e-06   1.700665323999006e-06   1.8340311269275807e-05
-8.247288990158478e-06   1.700665323999006e-06   1.8340311269275807e-05
-1.0562284426432468e-05   2.2469243723970047e-06   2.187088156736035e-05
-1.0562284426432468e-05   2.2469243723970047e-06   2.187088156736035e-05
-1.0562284426432468e-05   2.2469243723970047e-06   2.187088156736035e-05
-1.0562284426432468e-05   2.2469243723970047e-06   2.187088156736035e-05
-8.247288990158468e-06   2.3257509979865065e-06   2.6438596709758692e-05
-8.247288990158468e-06   2.3257509979865065e-06   2.6438596709758692e-05
-8.247288990158468e-06   2.3257509979865065e-06   2.6438596709758692e-05
-8.247288990158468e-06   2.3257509979865065e-06   2.6438596709758692e-05
-1.3106260254448234e-05   1.700665323999006e-06   1.796525986488335e-05
-1.3106260254448234e-05   1.700665323999006e-06   1.796525986488335e-05
-1.3106260254448234e-05   1.700665323999006e-06   1.796525986488335e-05
-1.3106260254448234e-05   1.700665323999006e-06   1.796525986488335e-05
-1.3341779044526365e-05   1.751422866137645e-06   2.632266303835096e-05
-1.3341779044526365e-05   1.751422866137645e-06   2.632266303835096e-05
-1.3341779044526365e-05   1.751422866137645e-06   2.632266303835096e-05
-1.3341779044526365e-05   1.751422866137645e-06   2.632266303835096e-05
-8.515109536743363e-06   1.1568625114406197e-06   1.86349500715309e-05
-8.515109536743363e-06   1.1568625114406197e-06   1.86349500715309e-05
-8.515109536743363e-06   1.1568625114406197e-06   1.86349500715309e-05
-8.515109536743363e-06   1.1568625114406197e-06   1.86349500715309e-05
-1.075009709840686e-05   1.8185396532901556e-06   2.1962923055860307e-05
-1.075009709840686e-05   1.8185396532901556e-06   2.1962923055860307e-05
-1.075009709840686e-05   1.8185396532901556e-06   2.1962923055860307e-05
-1.075009709840686e-05   1.8185396532901556e-06   2.1962923055860307e-05
-8.515109536743373e-06   1.7514228661374536e-06   2.6679399251169065e-05
-8.515109536743373e-06   1.7514228661374536e-06   2.6679399251169065e-05
-8.515109536743373e-06   1.7514228661374536e-06   2.6679399251169065e-05
-8.515109536743373e-06   1.7514228661374536e-06   2.6679399251169065e-05
-1.3341779044526365e-05   1.1568625114406197e-06   1.8278213858712684e-05
-1.3341779044526365e-05   1.1568625114406197e-06   1.8278213858712684e-05
-1.3341779044526365e-05   1.1568625114406197e-06   1.8278213858712684e-05
-1.3341779044526365e-05   1.1568625114406197e-06   1.8278213858712684e-05
-1.3572436438760672e-05   1.2015314196122447e-06   2.6864999002609402e-05
-1.3572436438760672e-05   1.2015314196122447e-06   2.6864999002609402e-05
-1.3572436438760672e-05   1.2015314196122447e-06   2.6864999002609402e-05
-1.3572436438760672e-05   1.2015314196122447e-06   2.6864999002609402e-05
-8.777864316986445e-06   6.414163230982926e-07   1.921011452422756e-05
-8.777864316986445e-06   6.414163230982926e-07   1.921011452422756e-05
-8.777864316986445e-06   6.414163230982926e-07   1.921011452422756e-05
-8.777864316986445e-06   6.414163230982926e-07   1.921011452422756e-05
-1.0959349757706146e-05   1.3966346300588704e-06   2.2392792607917327e-05
-1.0959349757706146e-05   1.3966346300588704e-06   2.2392792607917327e-05
-1.0959349757706146e-05   1.3966346300588704e-06   2.2392792607917327e-05
-1.0959349757706146e-05   1.3966346300588704e-06   2.2392792607917327e-05
-1.2886447419821012e-05   4.31339390160258e-06   2.29597156531353e-05
-1.2886447419821012e-05   4.31339390160258e-06   2.29597156531353e-05
-1.2886447419821012e-05   4.31339390160258e-06   2.29597156531353e-05
-1.2886447419821012e-05   4.31339390160258e-06   2.29597156531353e-05
-1.770512737124801e-05   3.0233531630483946e-06   1.4154557957624466e-05
-1.770512737124801e-05   3.0233531630483946e-06   1.4154557957624466e-05
-1.770512737124801e-05   3.0233531630483946e-06   1.4154557957624466e-05
-1.770512737124801e-05   3.0233531630483946e-06   1.4154557957624466e-05
-1.794667510869011e-05   3.7312780217012374e-06   2.2283568422325163e-05
-1.794667510869011e-05   3.7312780217012374e-06   2.2283568422325163e-05
-1.794667510869011e-05   3.7312780217012374e-06   2.2283568422325163e-05
-1.794667510869011e-05   3.7312780217012374e-06   2.2283568422325163e-05
-1.3106260254448229e-05   2.4604312589379847e-06   1.4978718389579938e-05
-1.3106260254448229e-05   2.4604312589379847e-06   1.4978718389579938e-05
-1.3106260254448229e-05   2.4604312589379847e-06   1.4978718389579938e-05
-1.3106260254448229e-05   2.4604312589379847e-06   1.4978718389579938e-05
-1.53784778569568e-05   3.3530926934802717e-06   1.823015086636887e-05
-1.53784778569568e-05   3.3530926934802717e-06   1.823015086636887e-05
-1.53784778569568e-05   3.3530926934802717e-06   1.823015086636887e-05
-1.53784778569568e-05   3.3530926934802717e-06   1.823015086636887e-05
-1.3106260254448234e-05   3.7312780217011162e-06   2.3046076479983028e-05
-1.3106260254448234e-05   3.7312780217011162e-06   2.3046076479983028e-05
-1.3106260254448234e-05   3.7312780217011162e-06   2.3046076479983028e-05
-1.3106260254448234e-05   3.7312780217011162e-06   2.3046076479983028e-05
-1.7946675108690055e-05   2.4604312589379847e-06   1.4216210331922019e-05
-1.7946675108690055e-05   2.4604312589379847e-06   1.4216210331922019e-05
-1.7946675108690055e-05   2.4604312589379847e-06   1.4216210331922019e-05
-1.7946675108690055e-05   2.4604312589379847e-06   1.4216210331922019e-05
-1.828034041822824e-05   3.2019523651439803e-06   2.3023414574344092e-05
-1.828034041822824e-05   3.2019523651439803e-06   2.3023414574344092e-05
-1.828034041822824e-05   3.2019523651439803e-06   2.3023414574344092e-05
-1.828034041822824e-05   3.2019523651439803e-06   2.3023414574344092e-05
-1.3341779044526375e-05   1.9595708624347424e-06   1.553790785313293e-05
-1.3341779044526375e-05   1.9595708624347424e-06   1.553790785313293e-05
-1.3341779044526375e-05   1.9595708624347424e-06   1.553790785313293e-05
-1.3341779044526375e-05   1.9595708624347424e-06   1.553790785313293e-05
-1.5509768638502195e-05   2.937920000289874e-06   1.8564214360379592e-05
-1.5509768638502195e-05   2.937920000289874e-06   1.8564214360379592e-05
-1.5509768638502195e-05   2.937920000289874e-06   1.8564214360379592e-05
-1.5509768638502195e-05   2.937920000289874e-06   1.8564214360379592e-05
-1.3341779044526365e-05   3.201952365143848e-06   2.3768843475969266e-05
-1.3341779044526365e-05   3.201952365143848e-06   2.3768843475969266e-05
-1.3341779044526365e-05   3.201952365143848e-06   2.3768843475969266e-05
-1.3341779044526365e-05   3.201952365143848e-06   2.3768843475969266e-05
-1.8280340418228187e-05   1.9595708624347424e-06   1.4792478951507486e-05
-1.8280340418228187e-05   1.9595708624347424e-06   1.4792478951507486e-05
-1.8280340418228187e-05   1.9595708624347424e-06   1.4792478951507486e-05
-1.8280340418228187e-05   1.9595708624347424e-06   1.4792478951507486e-05
-1.854779741076979e-05   2.6361929671106944e-06   2.3846200884711103e-05
-1.854779741076979e-05   2.6361929671106944e-06   2.3846200884711103e-05
-1.854779741076979e-05   2.6361929671106944e-06   2.3846200884711103e-05
-1.854779741076979e-05   2.6361929671106944e-06   2.3846200884711103e-05
-1.357243643876064e-05   1.4492713420529314e-06   1.6266085573063904e-05
-1.357243643876064e-05   1.4492713420529314e-06   1.6266085573063904e-05
-1.357243643876064e-05   1.4492713420529314e-06   1.6266085573063904e-05
-1.357243643876064e-05   1.4492713420529314e-06   1.6266085573063904e-05
-1.5786212671746856e-05   2.5430495181309482e-06   1.929944572239418e-05
-1.5786212671746856e-05   2.5430495181309482e-06   1.929944572239418e-05
-1.5786212671746856e-05   2.5430495181309482e-06   1.929944572239418e-05
-1.5786212671746856e-05   2.5430495181309482e-06   1.929944572239418e-05
-1.770512737124801e-05   5.308170960144722e-06   1.012985073706933e-05
-1.770512737124801e-05   5.308170960144722e-06   1.012985073706933e-05
-1.770512737124801e-05   5.308170960144722e-06   1.012985073706933e-05
-1.770512737124801e-05   5.308170960144722e-06   1.012985073706933e-05
-2.1491502976077022e-05   3.573483893230269e-06   2.77841248887216e-06
-2.1491502976077022e-05   3.573483893230269e-06   2.77841248887216e-06
-2.1491502976077022e-05   3.573483893230269e-06   2.77841248887216e-06
-2.1491502976077022e-05   3.573483893230269e-06   2.77841248887216e-06
-2.240762367289144e-05   5.009893376502596e-06   1.1876734262989894e-05
-2.240762367289144e-05   5.009893376502596e-06   1.1876734262989894e-05
-2.240762367289144e-05   5.009893376502596e-06   1.1876734262989894e-05
-2.240762367289144e-05   5.009893376502596e-06   1.1876734262989894e-05
-1.794667510869007e-05   3.198921926277228e-06   5.528402859455842e-06
-1.794667510869007e-05   3.198921926277228e-06   5.528402859455842e-06
-1.794667510869007e-05   3.198921926277228e-06   5.528402859455842e-06
-1.794667510869007e-05   3.198921926277228e-06   5.528402859455842e-06
-1.9197615359650997e-05   4.2293235443164635e-06   6.995062306900616e-06
-1.9197615359650997e-05   4.2293235443164635e-06   6.995062306900616e-06
-1.9197615359650997e-05   4.2293235443164635e-06   6.995062306900616e-06
-1.9197615359650997e-05   4.2293235443164635e-06   6.995062306900616e-06
-1.7946675108690055e-05   5.009893376502531e-06   1.2963317133124833e-05
-1.7946675108690055e-05   5.009893376502531e-06   1.2963317133124833e-05
-1.7946675108690055e-05   5.009893376502531e-06   1.2963317133124833e-05
-1.7946675108690055e-05   5.009893376502531e-06   1.2963317133124833e-05
-2.2407623672891493e-05   3.198921926277228e-06   4.441819989320749e-06
-2.2407623672891493e-05   3.198921926277228e-06   4.441819989320749e-06
-2.2407623672891493e-05   3.198921926277228e-06   4.441819989320749e-06
-2.2407623672891493e-05   3.198921926277228e-06   4.441819989320749e-06
-2.3194045126179034e-05   4.760512715816772e-06   1.3987795705892045e-05
-2.3194045126179034e-05   4.760512715816772e-06   1.3987795705892045e-05
-2.3194045126179034e-05   4.760512715816772e-06   1.3987795705892045e-05
-2.3194045126179034e-05   4.760512715816772e-06   1.3987795705892045e-05
-1.828034041822819e-05   2.9416505676079343e-06   6.889605148232571e-06
-1.828034041822819e-05   2.9416505676079343e-06   6.889605148232571e-06
-1.828034041822819e-05   2.9416505676079343e-06   6.889605148232571e-06
-1.828034041822819e-05   2.9416505676079343e-06   6.889605148232571e-06
-1.9974043506696288e-05   4.0825001603043195e-06   9.0279338733956e-06
-1.9974043506696288e-05   4.0825001603043195e-06   9.0279338733956e-06
-1.9974043506696288e-05   4.0825001603043195e-06   9.0279338733956e-06
-1.9974043506696288e-05   4.0825001603043195e-06   9.0279338733956e-06
-1.8280340418228187e-05   4.7605127158168295e-06   1.5079112994817153e-05
-1.8280340418228187e-05   4.7605127158168295e-06   1.5079112994817153e-05
-1.8280340418228187e-05   4.7605127158168295e-06   1.5079112994817153e-05
-1.8280340418228187e-05   4.7605127158168295e-06   1.5079112994817153e-05
-2.3194045126179142e-05   2.9416505676079343e-06   5.798287859307271e-06
-2.3194045126179142e-05   2.9416505676079343e-06   5.798287859307271e-06
-2.3194045126179142e-05   2.9416505676079343e-06   5.798287859307271e-06
-2.3194045126179142e-05   2.9416505676079343e-06   5.798287859307271e-06
-2.4195186655328097e-05   4.081957292524944e-06   1.7808066389408527e-05
-2.4195186655328097e-05   4.081957292524944e-06   1.7808066389408527e-05
-2.4195186655328097e-05   4.081957292524944e-06   1.7808066389408527e-05
-2.4195186655328097e-05   4.081957292524944e-06   1.7808066389408527e-05
-1.8547797410769706e-05   2.3507202644006695e-06   9.434493198685564e-06
-1.8547797410769706e-05   2.3507202644006695e-06   9.434493198685564e-06
-1.8547797410769706e-05   2.3507202644006695e-06   9.434493198685564e-06
-1.8547797410769706e-05   2.3507202644006695e-06   9.434493198685564e-06
-2.0195715190547564e-05   3.800784093466788e-06   1.1310984534208444e-05
-2.0195715190547564e-05   3.800784093466788e-06   1.1310984534208444e-05
-2.0195715190547564e-05   3.800784093466788e-06   1.1310984534208444e-05
-2.0195715190547564e-05   3.800784093466788e-06   1.1310984534208444e-05
-8.774855050341912e-06   1.5961537521345116e-06   1.0506837249042418e-05
-8.774855050341912e-06   1.5961537521345116e-06   1.0506837249042418e-05
-8.774855050341912e-06   1.5961537521345116e-06   1.0506837249042418e-05
-8.774855050341912e-06   1.5961537521345116e-06   1.0506837249042418e-05
-9.606261436317262e-06   3.016631778838771e-06   9.973446755106035e-06
-9.606261436317262e-06   3.016631778838771e-06   9.973446755106035e-06
-9.606261436317262e-06   3.016631778838771e-06   9.973446755106035e-06
-9.606261436317262e-06   3.016631778838771e-06   9.973446755106035e-06
-9.853828458902393e-06   1.078851899468129e-06   1.1283874104071575e-05
-9.853828458902393e-06   1.078851899468129e-06   1.1283874104071575e-05
-9.853828458902393e-06   1.078851899468129e-06   1.1283874104071575e-05
-9.853828458902393e-06   1.078851899468129e-06   1.1283874104071575e-05
-9.81571189653059e-06   2.356426622509146e-06   1.0453801666294034e-05
-9.81571189653059e-06   2.356426622509146e-06   1.0453801666294034e-05
-9.81571189653059e-06   2.356426622509146e-06   1.0453801666294034e-05
-9.81571189653059e-06   2.356426622509146e-06   1.0453801666294034e-05
-9.276685357714393e-06   1.880432435804073e-06   9.841020613623306e-06
-9.276685357714393e-06   1.880432435804073e-06   9.841020613623306e-06
-9.276685357714393e-06   1.880432435804073e-06   9.841020613623306e-06
-9.276685357714393e-06   1.880432435804073e-06   9.841020613623306e-06
-9.815711896530617e-06   1.0788518994680078e-06   1.0517329270246954e-05
-9.815711896530617e-06   1.0788518994680078e-06   1.0517329270246954e-05
-9.815711896530617e-06   1.0788518994680078e-06   1.0517329270246954e-05
-9.815711896530617e-06   1.0788518994680078e-06   1.0517329270246954e-05
-9.853828458902393e-06   2.356426622509146e-06   1.1220346500118573e-05
-9.853828458902393e-06   2.356426622509146e-06   1.1220346500118573e-05
-9.853828458902393e-06   2.356426622509146e-06   1.1220346500118573e-05
-9.853828458902393e-06   2.356426622509146e-06   1.1220346500118573e-05
-1.0175126212439473e-05   7.943307863886567e-07   1.1639158117246104e-05
-1.0175126212439473e-05   7.943307863886567e-07   1.1639158117246104e-05
-1.0175126212439473e-05   7.943307863886567e-07   1.1639158117246104e-05
-1.0175126212439473e-05   7.943307863886567e-07   1.1639158117246104e-05
-1.0828159848136367e-05   1.900175531254454e-06   1.2064040663154754e-05
-1.0828159848136367e-05   1.900175531254454e-06   1.2064040663154754e-05
-1.0828159848136367e-05   1.900175531254454e-06   1.2064040663154754e-05
-1.0828159848136367e-05   1.900175531254454e-06   1.2064040663154754e-05
-9.896154872962905e-06   1.5957148778660652e-06   1.0693375429898704e-05
-9.896154872962905e-06   1.5957148778660652e-06   1.0693375429898704e-05
-9.896154872962905e-06   1.5957148778660652e-06   1.0693375429898704e-05
-9.896154872962905e-06   1.5957148778660652e-06   1.0693375429898704e-05
-1.0828159848136367e-05   7.943307863885397e-07   1.0975651270326279e-05
-1.0828159848136367e-05   7.943307863885397e-07   1.0975651270326279e-05
-1.0828159848136367e-05   7.943307863885397e-07   1.0975651270326279e-05
-1.0828159848136367e-05   7.943307863885397e-07   1.0975651270326279e-05
-1.0175126212439473e-05   1.900175531254454e-06   1.2727547510074308e-05
-1.0175126212439473e-05   1.900175531254454e-06   1.2727547510074308e-05
-1.0175126212439473e-05   1.900175531254454e-06   1.2727547510074308e-05
-1.0175126212439473e-05   1.900175531254454e-06   1.2727547510074308e-05
-1.0379806560142673e-05   1.91100605432485e-07   1.2789331670514921e-05
-1.0379806560142673e-05   1.91100605432485e-07   1.2789331670514921e-05
-1.0379806560142673e-05   1.91100605432485e-07   1.2789331670514921e-05
-1.0379806560142673e-05   1.91100605432485e-07   1.2789331670514921e-05
-1.1906213037619219e-05   7.780658586464427e-07   1.4981163314380436e-05
-1.1906213037619219e-05   7.780658586464427e-07   1.4981163314380436e-05
-1.1906213037619219e-05   7.780658586464427e-07   1.4981163314380436e-05
-1.1906213037619219e-05   7.780658586464427e-07   1.4981163314380436e-05
-1.0331230905812352e-05   1.2464707562687052e-06   1.2075150156128514e-05
-1.0331230905812352e-05   1.2464707562687052e-06   1.2075150156128514e-05
-1.0331230905812352e-05   1.2464707562687052e-06   1.2075150156128514e-05
-1.0331230905812352e-05   1.2464707562687052e-06   1.2075150156128514e-05
-9.606261436317262e-06   1.863263720013083e-06   2.089600054376833e-05
-9.606261436317262e-06   1.863263720013083e-06   2.089600054376833e-05
-9.606261436317262e-06   1.863263720013083e-06   2.089600054376833e-05
-9.606261436317262e-06   1.863263720013083e-06   2.089600054376833e-05
-9.74348780097609e-06   7.809194846655201e-07   2.0017883394795027e-05
-9.74348780097609e-06   7.809194846655201e-07   2.0017883394795027e-05
-9.74348780097609e-06   7.809194846655201e-07   2.0017883394795027e-05
-9.74348780097609e-06   7.809194846655201e-07   2.0017883394795027e-05
-9.820289365384963e-06   1.2856967789414689e-06   2.0104988337723683e-05
-9.820289365384963e-06   1.2856967789414689e-06   2.0104988337723683e-05
-9.820289365384963e-06   1.2856967789414689e-06   2.0104988337723683e-05
-9.820289365384963e-06   1.2856967789414689e-06   2.0104988337723683e-05
-9.853828458902392e-06   3.7397743295620577e-07   2.0707918434510495e-05
-9.853828458902392e-06   3.7397743295620577e-07   2.0707918434510495e-05
-9.853828458902392e-06   3.7397743295620577e-07   2.0707918434510495e-05
-9.853828458902392e-06   3.7397743295620577e-07   2.0707918434510495e-05
-9.726238195181435e-06   9.513111731352308e-07   2.0148867750868147e-05
-9.726238195181435e-06   9.513111731352308e-07   2.0148867750868147e-05
-9.726238195181435e-06   9.513111731352308e-07   2.0148867750868147e-05
-9.726238195181435e-06   9.513111731352308e-07   2.0148867750868147e-05
-9.853828458902397e-06   1.2856967789415373e-06   2.0652019945314733e-05
-9.853828458902397e-06   1.2856967789415373e-06   2.0652019945314733e-05
-9.853828458902397e-06   1.2856967789415373e-06   2.0652019945314733e-05
-9.853828458902397e-06   1.2856967789415373e-06   2.0652019945314733e-05
-9.820289365384963e-06   3.7397743295620577e-07   2.0160886826919324e-05
-9.820289365384963e-06   3.7397743295620577e-07   2.0160886826919324e-05
-9.820289365384963e-06   3.7397743295620577e-07   2.0160886826919324e-05
-9.820289365384963e-06   3.7397743295620577e-07   2.0160886826919324e-05
-9.915396223944431e-06   7.527478418102021e-07   2.038065953072568e-05
-9.915396223944431e-06   7.527478418102021e-07   2.038065953072568e-05
-9.915396223944431e-06   7.527478418102021e-07   2.038065953072568e-05
-9.915396223944431e-06   7.527478418102021e-07   2.038065953072568e-05
-1.0175126212439475e-05   -9.749063946797379e-08   2.1323685933650963e-05
-1.0175126212439475e-05   -9.749063946797379e-08   2.1323685933650963e-05
-1.0175126212439475e-05   -9.749063946797379e-08   2.1323685933650963e-05
-1.0175126212439475e-05   -9.749063946797379e-08   2.1323685933650963e-05
-9.820298561600255e-06   6.144392431541284e-07   2.0305148586012637e-05
-9.820298561600255e-06   6.144392431541284e-07   2.0305148586012637e-05
-9.820298561600255e-06   6.144392431541284e-07   2.0305148586012637e-05
-9.820298561600255e-06   6.144392431541284e-07   2.0305148586012637e-05
-1.0175126212439473e-05   7.527478418101582e-07   2.0890802619492215e-05
-1.0175126212439473e-05   7.527478418101582e-07   2.0890802619492215e-05
-1.0175126212439473e-05   7.527478418101582e-07   2.0890802619492215e-05
-1.0175126212439473e-05   7.527478418101582e-07   2.0890802619492215e-05
-9.915396223944404e-06   -9.749063946797379e-08   2.0813542844884013e-05
-9.915396223944404e-06   -9.749063946797379e-08   2.0813542844884013e-05
-9.915396223944404e-06   -9.749063946797379e-08   2.0813542844884013e-05
-9.915396223944404e-06   -9.749063946797379e-08   2.0813542844884013e-05
-9.9847397529404e-06   1.7557128144342002e-07   2.0966986832198398e-05
-9.9847397529404e-06   1.7557128144342002e-07   2.0966986832198398e-05
-9.9847397529404e-06   1.7557128144342002e-07   2.0966986832198398e-05
-9.9847397529404e-06   1.7557128144342002e-07   2.0966986832198398e-05
-1.0379806560142644e-05   -7.167869050659541e-07   2.216084642277429e-05
-1.0379806560142644e-05   -7.167869050659541e-07   2.216084642277429e-05
-1.0379806560142644e-05   -7.167869050659541e-07   2.216084642277429e-05
-1.0379806560142644e-05   -7.167869050659541e-07   2.216084642277429e-05
-9.968753012959926e-06   2.1881315629725118e-07   2.0914397140651037e-05
-9.968753012959926e-06   2.1881315629725118e-07   2.0914397140651037e-05
-9.968753012959926e-06   2.1881315629725118e-07   2.0914397140651037e-05
-9.968753012959926e-06   2.1881315629725118e-07   2.0914397140651037e-05
-9.743487800976117e-06   2.2357375203875178e-06   2.3050738623232284e-05
-9.743487800976117e-06   2.2357375203875178e-06   2.3050738623232284e-05
-9.743487800976117e-06   2.2357375203875178e-06   2.3050738623232284e-05
-9.743487800976117e-06   2.2357375203875178e-06   2.3050738623232284e-05
-1.0497950216219122e-05   2.174054529129445e-07   2.0582302024009183e-05
-1.0497950216219122e-05   2.174054529129445e-07   2.0582302024009183e-05
-1.0497950216219122e-05   2.174054529129445e-07   2.0582302024009183e-05
-1.0497950216219122e-05   2.174054529129445e-07   2.0582302024009183e-05
-1.052397477493359e-05   1.700665323999006e-06   2.1871570182511253e-05
-1.052397477493359e-05   1.700665323999006e-06   2.1871570182511253e-05
-1.052397477493359e-05   1.700665323999006e-06   2.1871570182511253e-05
-1.052397477493359e-05   1.700665323999006e-06   2.1871570182511253e-05
-9.820289365384961e-06   -1.260869296290006e-07   2.1794812518773646e-05
-9.820289365384961e-06   -1.260869296290006e-07   2.1794812518773646e-05
-9.820289365384961e-06   -1.260869296290006e-07   2.1794812518773646e-05
-9.820289365384961e-06   -1.260869296290006e-07   2.1794812518773646e-05
-1.0129147509397574e-05   9.72828336711089e-07   2.165022693232391e-05
-1.0129147509397574e-05   9.72828336711089e-07   2.165022693232391e-05
-1.0129147509397574e-05   9.72828336711089e-07   2.165022693232391e-05
-1.0129147509397574e-05   9.72828336711089e-07   2.165022693232391e-05
-9.820289365384963e-06   1.7006653239990194e-06   2.2967621534688014e-05
-9.820289365384963e-06   1.7006653239990194e-06   2.2967621534688014e-05
-9.820289365384963e-06   1.7006653239990194e-06   2.2967621534688014e-05
-9.820289365384963e-06   1.7006653239990194e-06   2.2967621534688014e-05
-1.052397477493359e-05   -1.260869296290006e-07   2.0698761166596777e-05
-1.052397477493359e-05   -1.260869296290006e-07   2.0698761166596777e-05
-1.052397477493359e-05   -1.260869296290006e-07   2.0698761166596777e-05
-1.052397477493359e-05   -1.260869296290006e-07   2.0698761166596777e-05
-1.0571028890448293e-05   1.1568625114406197e-06   2.221432178463854e-05
-1.0571028890448293e-05   1.1568625114406197e-06   2.221432178463854e-05
-1.0571028890448293e-05   1.1568625114406197e-06   2.221432178463854e-05
-1.0571028890448293e-05   1.1568625114406197e-06   2.221432178463854e-05
-9.915396223944416e-06   -5.373891567888233e-07   2.2138151674736434e-05
-9.915396223944416e-06   -5.373891567888233e-07   2.2138151674736434e-05
-9.915396223944416e-06   -5.373891567888233e-07   2.2138151674736434e-05
-9.915396223944416e-06   -5.373891567888233e-07   2.2138151674736434e-05
-1.0135071330727702e-05   6.327146893759074e-07   2.1802214545009707e-05
-1.0135071330727702e-05   6.327146893759074e-07   2.1802214545009707e-05
-1.0135071330727702e-05   6.327146893759074e-07   2.1802214545009707e-05
-1.0135071330727702e-05   6.327146893759074e-07   2.1802214545009707e-05
-9.915396223944404e-06   1.1568625114405411e-06   2.323087278557586e-05
-9.915396223944404e-06   1.1568625114405411e-06   2.323087278557586e-05
-9.915396223944404e-06   1.1568625114405411e-06   2.323087278557586e-05
-9.915396223944404e-06   1.1568625114405411e-06   2.323087278557586e-05
-1.0571028890448293e-05   -5.373891567888233e-07   2.1121600673798736e-05
-1.0571028890448293e-05   -5.373891567888233e-07   2.1121600673798736e-05
-1.0571028890448293e-05   -5.373891567888233e-07   2.1121600673798736e-05
-1.0571028890448293e-05   -5.373891567888233e-07   2.1121600673798736e-05
-1.0601265225330009e-05   6.414163230982926e-07   2.2826512111024473e-05
-1.0601265225330009e-05   6.414163230982926e-07   2.2826512111024473e-05
-1.0601265225330009e-05   6.414163230982926e-07   2.2826512111024473e-05
-1.0601265225330009e-05   6.414163230982926e-07   2.2826512111024473e-05
-9.984739752940407e-06   -9.502411553882978e-07   2.2753964144133512e-05
-9.984739752940407e-06   -9.502411553882978e-07   2.2753964144133512e-05
-9.984739752940407e-06   -9.502411553882978e-07   2.2753964144133512e-05
-9.984739752940407e-06   -9.502411553882978e-07   2.2753964144133512e-05
-1.0157858801586965e-05   2.83083513335689e-07   2.2302501090642373e-05
-1.0157858801586965e-05   2.83083513335689e-07   2.2302501090642373e-05
-1.0157858801586965e-05   2.83083513335689e-07   2.2302501090642373e-05
-1.0157858801586965e-05   2.83083513335689e-07   2.2302501090642373e-05
-1.0497950216219122e-05   3.0233531630484005e-06   1.8777757316330726e-05
-1.0497950216219122e-05   3.0233531630484005e-06   1.8777757316330726e-05
-1.0497950216219122e-05   3.0233531630484005e-06   1.8777757316330726e-05
-1.0497950216219122e-05   3.0233531630484005e-06   1.8777757316330726e-05
-1.158583365088871e-05   9.93240935387549e-07   1.5746550921951557e-05
-1.158583365088871e-05   9.93240935387549e-07   1.5746550921951557e-05
-1.158583365088871e-05   9.93240935387549e-07   1.5746550921951557e-05
-1.158583365088871e-05   9.93240935387549e-07   1.5746550921951557e-05
-1.1605198618619308e-05   2.460431258938093e-06   1.77331368760279e-05
-1.1605198618619308e-05   2.460431258938093e-06   1.77331368760279e-05
-1.1605198618619308e-05   2.460431258938093e-06   1.77331368760279e-05
-1.1605198618619308e-05   2.460431258938093e-06   1.77331368760279e-05
-1.05239747749336e-05   5.406115403046611e-07   1.708298896773168e-05
-1.05239747749336e-05   5.406115403046611e-07   1.708298896773168e-05
-1.05239747749336e-05   5.406115403046611e-07   1.708298896773168e-05
-1.05239747749336e-05   5.406115403046611e-07   1.708298896773168e-05
-1.1024358461527894e-05   1.7957752999316415e-06   1.7163863522945964e-05
-1.1024358461527894e-05   1.7957752999316415e-06   1.7163863522945964e-05
-1.1024358461527894e-05   1.7957752999316415e-06   1.7163863522945964e-05
-1.1024358461527894e-05   1.7957752999316415e-06   1.7163863522945964e-05
-1.052397477493359e-05   2.460431258938026e-06   1.8885028707207787e-05
-1.052397477493359e-05   2.460431258938026e-06   1.8885028707207787e-05
-1.052397477493359e-05   2.460431258938026e-06   1.8885028707207787e-05
-1.052397477493359e-05   2.460431258938026e-06   1.8885028707207787e-05
-1.1605198618619308e-05   5.406115403046611e-07   1.593109713655166e-05
-1.1605198618619308e-05   5.406115403046611e-07   1.593109713655166e-05
-1.1605198618619308e-05   5.406115403046611e-07   1.593109713655166e-05
-1.1605198618619308e-05   5.406115403046611e-07   1.593109713655166e-05
-1.1731312042389608e-05   1.9595708624347424e-06   1.8390067629016934e-05
-1.1731312042389608e-05   1.9595708624347424e-06   1.8390067629016934e-05
-1.1731312042389608e-05   1.9595708624347424e-06   1.8390067629016934e-05
-1.1731312042389608e-05   1.9595708624347424e-06   1.8390067629016934e-05
-1.0571028890448288e-05   1.5299061236493175e-07   1.75402105258232e-05
-1.0571028890448288e-05   1.5299061236493175e-07   1.75402105258232e-05
-1.0571028890448288e-05   1.5299061236493175e-07   1.75402105258232e-05
-1.0571028890448288e-05   1.5299061236493175e-07   1.75402105258232e-05
-1.099318497055559e-05   1.4240378341216645e-06   1.7481175659614747e-05
-1.099318497055559e-05   1.4240378341216645e-06   1.7481175659614747e-05
-1.099318497055559e-05   1.4240378341216645e-06   1.7481175659614747e-05
-1.099318497055559e-05   1.4240378341216645e-06   1.7481175659614747e-05
-1.0571028890448293e-05   1.9595708624347746e-06   1.9474015779058517e-05
-1.0571028890448293e-05   1.9595708624347746e-06   1.9474015779058517e-05
-1.0571028890448293e-05   1.9595708624347746e-06   1.9474015779058517e-05
-1.0571028890448293e-05   1.9595708624347746e-06   1.9474015779058517e-05
-1.1731312042389608e-05   1.5299061236493175e-07   1.645626237578129e-05
-1.1731312042389608e-05   1.5299061236493175e-07   1.645626237578129e-05
-1.1731312042389608e-05   1.5299061236493175e-07   1.645626237578129e-05
-1.1731312042389608e-05   1.5299061236493175e-07   1.645626237578129e-05
-1.180658794100155e-05   1.4492713420530398e-06   1.9206318833740895e-05
-1.180658794100155e-05   1.4492713420530398e-06   1.9206318833740895e-05
-1.180658794100155e-05   1.4492713420530398e-06   1.9206318833740895e-05
-1.180658794100155e-05   1.4492713420530398e-06   1.9206318833740895e-05
-1.0601265225330002e-05   -2.3778429799432496e-07   1.8209681024983085e-05
-1.0601265225330002e-05   -2.3778429799432496e-07   1.8209681024983085e-05
-1.0601265225330002e-05   -2.3778429799432496e-07   1.8209681024983085e-05
-1.0601265225330002e-05   -2.3778429799432496e-07   1.8209681024983085e-05
-1.104863265897732e-05   1.0919632124012715e-06   1.8157444908156685e-05
-1.104863265897732e-05   1.0919632124012715e-06   1.8157444908156685e-05
-1.104863265897732e-05   1.0919632124012715e-06   1.8157444908156685e-05
-1.104863265897732e-05   1.0919632124012715e-06   1.8157444908156685e-05
-1.158583365088871e-05   3.573483893230237e-06   7.224356751130709e-06
-1.158583365088871e-05   3.573483893230237e-06   7.224356751130709e-06
-1.158583365088871e-05   3.573483893230237e-06   7.224356751130709e-06
-1.158583365088871e-05   3.573483893230237e-06   7.224356751130709e-06
-1.1447485164057841e-05   1.6376616636241438e-06   6.293444224751753e-06
-1.1447485164057841e-05   1.6376616636241438e-06   6.293444224751753e-06
-1.1447485164057841e-05   1.6376616636241438e-06   6.293444224751753e-06
-1.1447485164057841e-05   1.6376616636241438e-06   6.293444224751753e-06
-1.2036163891774492e-05   3.1989219262771196e-06   7.916331118264924e-06
-1.2036163891774492e-05   3.1989219262771196e-06   7.916331118264924e-06
-1.2036163891774492e-05   3.1989219262771196e-06   7.916331118264924e-06
-1.2036163891774492e-05   3.1989219262771196e-06   7.916331118264924e-06
-1.1605198618619286e-05   1.3172581174493176e-06   8.327053948302995e-06
-1.1605198618619286e-05   1.3172581174493176e-06   8.327053948302995e-06
-1.1605198618619286e-05   1.3172581174493176e-06   8.327053948302995e-06
-1.1605198618619286e-05   1.3172581174493176e-06   8.327053948302995e-06
-1.1289525088599087e-05   2.514310208108668e-06   7.082700143873702e-06
-1.1289525088599087e-05   2.514310208108668e-06   7.082700143873702e-06
-1.1289525088599087e-05   2.514310208108668e-06   7.082700143873702e-06
-1.1289525088599087e-05   2.514310208108668e-06   7.082700143873702e-06
-1.1605198618619254e-05   3.198921926277168e-06   9.045329403561562e-06
-1.1605198618619254e-05   3.198921926277168e-06   9.045329403561562e-06
-1.1605198618619254e-05   3.198921926277168e-06   9.045329403561562e-06
-1.1605198618619254e-05   3.198921926277168e-06   9.045329403561562e-06
-1.2036163891774546e-05   1.3172581174493176e-06   7.198055663006303e-06
-1.2036163891774546e-05   1.3172581174493176e-06   7.198055663006303e-06
-1.2036163891774546e-05   1.3172581174493176e-06   7.198055663006303e-06
-1.2036163891774546e-05   1.3172581174493176e-06   7.198055663006303e-06
-1.2553037313252206e-05   2.9416505676079343e-06   9.386867723950318e-06
-1.2553037313252206e-05   2.9416505676079343e-06   9.386867723950318e-06
-1.2553037313252206e-05   2.9416505676079343e-06   9.386867723950318e-06
-1.2553037313252206e-05   2.9416505676079343e-06   9.386867723950318e-06
-1.17313120423896e-05   1.1077737312885404e-06   9.11765170763751e-06
-1.17313120423896e-05   1.1077737312885404e-06   9.11765170763751e-06
-1.17313120423896e-05   1.1077737312885404e-06   9.11765170763751e-06
-1.17313120423896e-05   1.1077737312885404e-06   9.11765170763751e-06
-1.1709179427072181e-05   2.327294461534901e-06   8.34905157729457e-06
-1.1709179427072181e-05   2.327294461534901e-06   8.34905157729457e-06
-1.1709179427072181e-05   2.327294461534901e-06   8.34905157729457e-06
-1.1709179427072181e-05   2.327294461534901e-06   8.34905157729457e-06
-1.1731312042389608e-05   2.9416505676079775e-06   1.0487193825741586e-05
-1.1731312042389608e-05   2.9416505676079775e-06   1.0487193825741586e-05
-1.1731312042389608e-05   2.9416505676079775e-06   1.0487193825741586e-05
-1.1731312042389608e-05   2.9416505676079775e-06   1.0487193825741586e-05
-1.255303731325226e-05   1.1077737312885404e-06   8.017325605845998e-06
-1.255303731325226e-05   1.1077737312885404e-06   8.017325605845998e-06
-1.255303731325226e-05   1.1077737312885404e-06   8.017325605845998e-06
-1.255303731325226e-05   1.1077737312885404e-06   8.017325605845998e-06
-1.33212757482709e-05   2.350720264400561e-06   1.2088174755608364e-05
-1.33212757482709e-05   2.350720264400561e-06   1.2088174755608364e-05
-1.33212757482709e-05   2.350720264400561e-06   1.2088174755608364e-05
-1.33212757482709e-05   2.350720264400561e-06   1.2088174755608364e-05
-1.1806587941001555e-05   6.862124664192004e-07   1.0562399755614663e-05
-1.1806587941001555e-05   6.862124664192004e-07   1.0562399755614663e-05
-1.1806587941001555e-05   6.862124664192004e-07   1.0562399755614663e-05
-1.1806587941001555e-05   6.862124664192004e-07   1.0562399755614663e-05
-1.1851087817403405e-05   2.104763752205853e-06   9.785435444810528e-06
-1.1851087817403405e-05   2.104763752205853e-06   9.785435444810528e-06
-1.1851087817403405e-05   2.104763752205853e-06   9.785435444810528e-06
-1.1851087817403405e-05   2.104763752205853e-06   9.785435444810528e-06
-2.278065716568735e-05   3.01663177883878e-06   8.791862694261694e-06
-2.278065716568735e-05   3.01663177883878e-06   8.791862694261694e-06
-2.278065716568735e-05   3.01663177883878e-06   8.791862694261694e-06
-2.278065716568735e-05   3.01663177883878e-06   8.791862694261694e-06
-1.538149434445529e-05   4.1768465366372794e-06   2.1819929584327607e-05
-1.538149434445529e-05   4.1768465366372794e-06   2.1819929584327607e-05
-1.538149434445529e-05   4.1768465366372794e-06   2.1819929584327607e-05
-1.538149434445529e-05   4.1768465366372794e-06   2.1819929584327607e-05
-1.537424737239906e-05   2.3564266225090374e-06   9.985731795172155e-06
-1.537424737239906e-05   2.3564266225090374e-06   9.985731795172155e-06
-1.537424737239906e-05   2.3564266225090374e-06   9.985731795172155e-06
-1.537424737239906e-05   2.3564266225090374e-06   9.985731795172155e-06
-2.50938633490377e-05   1.6916090037556904e-06   2.6583982327488585e-05
-2.50938633490377e-05   1.6916090037556904e-06   2.6583982327488585e-05
-2.50938633490377e-05   1.6916090037556904e-06   2.6583982327488585e-05
-2.50938633490377e-05   1.6916090037556904e-06   2.6583982327488585e-05
-1.864315096033369e-05   2.475027593906102e-06   1.5362743858891604e-05
-1.864315096033369e-05   2.475027593906102e-06   1.5362743858891604e-05
-1.864315096033369e-05   2.475027593906102e-06   1.5362743858891604e-05
-1.864315096033369e-05   2.475027593906102e-06   1.5362743858891604e-05
-2.509386334903774e-05   2.3564266225090382e-06   1.0384622366423968e-05
-2.509386334903774e-05   2.3564266225090382e-06   1.0384622366423968e-05
-2.509386334903774e-05   2.3564266225090382e-06   1.0384622366423968e-05
-2.509386334903774e-05   2.3564266225090382e-06   1.0384622366423968e-05
-1.5374247372399033e-05   1.6916090037556904e-06   2.6185091756236528e-05
-1.5374247372399033e-05   1.6916090037556904e-06   2.6185091756236528e-05
-1.5374247372399033e-05   1.6916090037556904e-06   2.6185091756236528e-05
-1.5374247372399033e-05   1.6916090037556904e-06   2.6185091756236528e-05
-1.5584237254708886e-05   1.900175531254454e-06   1.1168765605799338e-05
-1.5584237254708886e-05   1.900175531254454e-06   1.1168765605799338e-05
-1.5584237254708886e-05   1.900175531254454e-06   1.1168765605799338e-05
-1.5584237254708886e-05   1.900175531254454e-06   1.1168765605799338e-05
-2.5182420919732206e-05   1.2137010320940455e-06   2.757762308033453e-05
-2.5182420919732206e-05   1.2137010320940455e-06   2.757762308033453e-05
-2.5182420919732206e-05   1.2137010320940455e-06   2.757762308033453e-05
-2.5182420919732206e-05   1.2137010320940455e-06   2.757762308033453e-05
-1.9894211021316824e-05   1.5460891081485418e-06   1.8564507070676033e-05
-1.9894211021316824e-05   1.5460891081485418e-06   1.8564507070676033e-05
-1.9894211021316824e-05   1.5460891081485418e-06   1.8564507070676033e-05
-1.9894211021316824e-05   1.5460891081485418e-06   1.8564507070676033e-05
-2.5182420919732246e-05   1.9001755312544437e-06   1.1580650305295745e-05
-2.5182420919732246e-05   1.9001755312544437e-06   1.1580650305295745e-05
-2.5182420919732246e-05   1.9001755312544437e-06   1.1580650305295745e-05
-2.5182420919732246e-05   1.9001755312544437e-06   1.1580650305295745e-05
-1.5584237254708852e-05   1.2137010320940455e-06   2.7165738380838245e-05
-1.5584237254708852e-05   1.2137010320940455e-06   2.7165738380838245e-05
-1.5584237254708852e-05   1.2137010320940455e-06   2.7165738380838245e-05
-1.5584237254708852e-05   1.2137010320940455e-06   2.7165738380838245e-05
-1.541814065177798e-05   7.780658586464427e-07   1.323795326321959e-05
-1.541814065177798e-05   7.780658586464427e-07   1.323795326321959e-05
-1.541814065177798e-05   7.780658586464427e-07   1.323795326321959e-05
-1.541814065177798e-05   7.780658586464427e-07   1.323795326321959e-05
-2.545537683567552e-05   -8.187584015028173e-07   3.092477479247168e-05
-2.545537683567552e-05   -8.187584015028173e-07   3.092477479247168e-05
-2.545537683567552e-05   -8.187584015028173e-07   3.092477479247168e-05
-2.545537683567552e-05   -8.187584015028173e-07   3.092477479247168e-05
-1.9590842066538118e-05   7.495433842842668e-07   2.020956910577041e-05
-1.9590842066538118e-05   7.495433842842668e-07   2.020956910577041e-05
-1.9590842066538118e-05   7.495433842842668e-07   2.020956910577041e-05
-1.9590842066538118e-05   7.495433842842668e-07   2.020956910577041e-05
-1.5381494344455318e-05   7.80919484665487e-07   2.0181834729838394e-05
-1.5381494344455318e-05   7.80919484665487e-07   2.0181834729838394e-05
-1.5381494344455318e-05   7.80919484665487e-07   2.0181834729838394e-05
-1.5381494344455318e-05   7.80919484665487e-07   2.0181834729838394e-05
-9.438861844252364e-06   -4.7180457487541955e-06   2.678684309012492e-05
-9.438861844252364e-06   -4.7180457487541955e-06   2.678684309012492e-05
-9.438861844252364e-06   -4.7180457487541955e-06   2.678684309012492e-05
-9.438861844252364e-06   -4.7180457487541955e-06   2.678684309012492e-05
-9.458208372000891e-06   3.7397743295620577e-07   1.6930371312560576e-05
-9.458208372000891e-06   3.7397743295620577e-07   1.6930371312560576e-05
-9.458208372000891e-06   3.7397743295620577e-07   1.6930371312560576e-05
-9.458208372000891e-06   3.7397743295620577e-07   1.6930371312560576e-05
-1.5374247372399033e-05   -3.864243262049463e-06   2.9333368730227563e-05
-1.5374247372399033e-05   -3.864243262049463e-06   2.9333368730227563e-05
-1.5374247372399033e-05   -3.864243262049463e-06   2.9333368730227563e-05
-1.5374247372399033e-05   -3.864243262049463e-06   2.9333368730227563e-05
-1.2347431423470271e-05   -2.333270874359055e-06   2.337009204939877e-05
-1.2347431423470271e-05   -2.333270874359055e-06   2.337009204939877e-05
-1.2347431423470271e-05   -2.333270874359055e-06   2.337009204939877e-05
-1.2347431423470271e-05   -2.333270874359055e-06   2.337009204939877e-05
-1.5374247372399046e-05   3.739774329562577e-07   1.9473303729563684e-05
-1.5374247372399046e-05   3.739774329562577e-07   1.9473303729563684e-05
-1.5374247372399046e-05   3.739774329562577e-07   1.9473303729563684e-05
-1.5374247372399046e-05   3.739774329562577e-07   1.9473303729563684e-05
-9.458208372000891e-06   -3.864243262049463e-06   2.679043631322415e-05
-9.458208372000891e-06   -3.864243262049463e-06   2.679043631322415e-05
-9.458208372000891e-06   -3.864243262049463e-06   2.679043631322415e-05
-9.458208372000891e-06   -3.864243262049463e-06   2.679043631322415e-05
-9.495698928227024e-06   -9.749063946797379e-08   1.745247246010467e-05
-9.495698928227024e-06   -9.749063946797379e-08   1.745247246010467e-05
-9.495698928227024e-06   -9.749063946797379e-08   1.745247246010467e-05
-9.495698928227024e-06   -9.749063946797379e-08   1.745247246010467e-05
-1.5584237254708855e-05   -3.951543254920138e-06   2.9912467906845696e-05
-1.5584237254708855e-05   -3.951543254920138e-06   2.9912467906845696e-05
-1.5584237254708855e-05   -3.951543254920138e-06   2.9912467906845696e-05
-1.5584237254708855e-05   -3.951543254920138e-06   2.9912467906845696e-05
-1.225756392300107e-05   -2.0385860703385234e-06   2.3220238043250406e-05
-1.225756392300107e-05   -2.0385860703385234e-06   2.3220238043250406e-05
-1.225756392300107e-05   -2.0385860703385234e-06   2.3220238043250406e-05
-1.225756392300107e-05   -2.0385860703385234e-06   2.3220238043250406e-05
-1.5584237254708886e-05   -9.749063946801318e-08   1.976490402937612e-05
-1.5584237254708886e-05   -9.749063946801318e-08   1.976490402937612e-05
-1.5584237254708886e-05   -9.749063946801318e-08   1.976490402937612e-05
-1.5584237254708886e-05   -9.749063946801318e-08   1.976490402937612e-05
-9.495698928227024e-06   -3.951543254920138e-06   2.7600036337574422e-05
-9.495698928227024e-06   -3.951543254920138e-06   2.7600036337574422e-05
-9.495698928227024e-06   -3.951543254920138e-06   2.7600036337574422e-05
-9.495698928227024e-06   -3.951543254920138e-06   2.7600036337574422e-05
-9.403415870291848e-06   -7.167869050659541e-07   1.8103636607717712e-05
-9.403415870291848e-06   -7.167869050659541e-07   1.8103636607717712e-05
-9.403415870291848e-06   -7.167869050659541e-07   1.8103636607717712e-05
-9.403415870291848e-06   -7.167869050659541e-07   1.8103636607717712e-05
-1.5418140651777938e-05   -3.98648792501136e-06   3.008999852216166e-05
-1.5418140651777938e-05   -3.98648792501136e-06   3.008999852216166e-05
-1.5418140651777938e-05   -3.98648792501136e-06   3.008999852216166e-05
-1.5418140651777938e-05   -3.98648792501136e-06   3.008999852216166e-05
-1.2314978183416746e-05   -2.2883293433257528e-06   2.3899165925881646e-05
-1.2314978183416746e-05   -2.2883293433257528e-06   2.3899165925881646e-05
-1.2314978183416746e-05   -2.2883293433257528e-06   2.3899165925881646e-05
-1.2314978183416746e-05   -2.2883293433257528e-06   2.3899165925881646e-05
-9.438861844252364e-06   2.174054529129187e-07   1.8657873459485507e-05
-9.438861844252364e-06   2.174054529129187e-07   1.8657873459485507e-05
-9.438861844252364e-06   2.174054529129187e-07   1.8657873459485507e-05
-9.438861844252364e-06   2.174054529129187e-07   1.8657873459485507e-05
-6.947683971173061e-06   -3.6858241170062075e-06   2.046789883933278e-05
-6.947683971173061e-06   -3.6858241170062075e-06   2.046789883933278e-05
-6.947683971173061e-06   -3.6858241170062075e-06   2.046789883933278e-05
-6.947683971173061e-06   -3.6858241170062075e-06   2.046789883933278e-05
-6.886077459803086e-06   -1.260869296290006e-07   1.646800073503178e-05
-6.886077459803086e-06   -1.260869296290006e-07   1.646800073503178e-05
-6.886077459803086e-06   -1.260869296290006e-07   1.646800073503178e-05
-6.886077459803086e-06   -1.260869296290006e-07   1.646800073503178e-05
-9.458208372000887e-06   -3.619914045267542e-06   2.2851181858077888e-05
-9.458208372000887e-06   -3.619914045267542e-06   2.2851181858077888e-05
-9.458208372000887e-06   -3.619914045267542e-06   2.2851181858077888e-05
-9.458208372000887e-06   -3.619914045267542e-06   2.2851181858077888e-05
-8.132497370623265e-06   -1.862491012637386e-06   1.9587209702870412e-05
-8.132497370623265e-06   -1.862491012637386e-06   1.9587209702870412e-05
-8.132497370623265e-06   -1.862491012637386e-06   1.9587209702870412e-05
-8.132497370623265e-06   -1.862491012637386e-06   1.9587209702870412e-05
-9.458208372000891e-06   -1.2608692962903818e-07   1.8564297004414708e-05
-9.458208372000891e-06   -1.2608692962903818e-07   1.8564297004414708e-05
-9.458208372000891e-06   -1.2608692962903818e-07   1.8564297004414708e-05
-9.458208372000891e-06   -1.2608692962903818e-07   1.8564297004414708e-05
-6.886077459803086e-06   -3.619914045267542e-06   2.0754885588694816e-05
-6.886077459803086e-06   -3.619914045267542e-06   2.0754885588694816e-05
-6.886077459803086e-06   -3.619914045267542e-06   2.0754885588694816e-05
-6.886077459803086e-06   -3.619914045267542e-06   2.0754885588694816e-05
-6.833390895691664e-06   -5.373891567888233e-07   1.6861364284247583e-05
-6.833390895691664e-06   -5.373891567888233e-07   1.6861364284247583e-05
-6.833390895691664e-06   -5.373891567888233e-07   1.6861364284247583e-05
-6.833390895691664e-06   -5.373891567888233e-07   1.6861364284247583e-05
-9.495698928227012e-06   -3.730250832971384e-06   2.321426134418254e-05
-9.495698928227012e-06   -3.730250832971384e-06   2.321426134418254e-05
-9.495698928227012e-06   -3.730250832971384e-06   2.321426134418254e-05
-9.495698928227012e-06   -3.730250832971384e-06   2.321426134418254e-05
-8.061185465134965e-06   -1.9858880008799974e-06   1.9776787873107408e-05
-8.061185465134965e-06   -1.9858880008799974e-06   1.9776787873107408e-05
-8.061185465134965e-06   -1.9858880008799974e-06   1.9776787873107408e-05
-8.061185465134965e-06   -1.9858880008799974e-06   1.9776787873107408e-05
-9.495698928227024e-06   -5.373891567888891e-07   1.8777081289957174e-05
-9.495698928227024e-06   -5.373891567888891e-07   1.8777081289957174e-05
-9.495698928227024e-06   -5.373891567888891e-07   1.8777081289957174e-05
-9.495698928227024e-06   -5.373891567888891e-07   1.8777081289957174e-05
-6.833390895691664e-06   -3.730250832971384e-06   2.129854433847303e-05
-6.833390895691664e-06   -3.730250832971384e-06   2.129854433847303e-05
-6.833390895691664e-06   -3.730250832971384e-06   2.129854433847303e-05
-6.833390895691664e-06   -3.730250832971384e-06   2.129854433847303e-05
-6.700063756245048e-06   -9.502411553882978e-07   1.747056956455113e-05
-6.700063756245048e-06   -9.502411553882978e-07   1.747056956455113e-05
-6.700063756245048e-06   -9.502411553882978e-07   1.747056956455113e-05
-6.700063756245048e-06   -9.502411553882978e-07   1.747056956455113e-05
-9.40341587029185e-06   -3.886240616107588e-06   2.37377560977272e-05
-9.40341587029185e-06   -3.886240616107588e-06   2.37377560977272e-05
-9.40341587029185e-06   -3.886240616107588e-06   2.37377560977272e-05
-9.40341587029185e-06   -3.886240616107588e-06   2.37377560977272e-05
-7.97785582212866e-06   -2.165979149780831e-06   2.0329665804325872e-05
-7.97785582212866e-06   -2.165979149780831e-06   2.0329665804325872e-05
-7.97785582212866e-06   -2.165979149780831e-06   2.0329665804325872e-05
-7.97785582212866e-06   -2.165979149780831e-06   2.0329665804325872e-05
-6.947683971173061e-06   9.932409353875307e-07   1.2698251952072818e-05
-6.947683971173061e-06   9.932409353875307e-07   1.2698251952072818e-05
-6.947683971173061e-06   9.932409353875307e-07   1.2698251952072818e-05
-6.947683971173061e-06   9.932409353875307e-07   1.2698251952072818e-05
-5.796777853881861e-06   -1.5127772626125167e-06   1.3112817895424855e-05
-5.796777853881861e-06   -1.5127772626125167e-06   1.3112817895424855e-05
-5.796777853881861e-06   -1.5127772626125167e-06   1.3112817895424855e-05
-5.796777853881861e-06   -1.5127772626125167e-06   1.3112817895424855e-05
-5.672809911661306e-06   5.406115403046611e-07   1.1465553212998848e-05
-5.672809911661306e-06   5.406115403046611e-07   1.1465553212998848e-05
-5.672809911661306e-06   5.406115403046611e-07   1.1465553212998848e-05
-5.672809911661306e-06   5.406115403046611e-07   1.1465553212998848e-05
-6.88607745980308e-06   -1.7705139983083848e-06   1.4874341116402926e-05
-6.88607745980308e-06   -1.7705139983083848e-06   1.4874341116402926e-05
-6.88607745980308e-06   -1.7705139983083848e-06   1.4874341116402926e-05
-6.88607745980308e-06   -1.7705139983083848e-06   1.4874341116402926e-05
-6.2797011900339165e-06   -3.4517202078017265e-07   1.3008508813603997e-05
-6.2797011900339165e-06   -3.4517202078017265e-07   1.3008508813603997e-05
-6.2797011900339165e-06   -3.4517202078017265e-07   1.3008508813603997e-05
-6.2797011900339165e-06   -3.4517202078017265e-07   1.3008508813603997e-05
-6.886077459803086e-06   5.40611540304616e-07   1.285222853616649e-05
-6.886077459803086e-06   5.40611540304616e-07   1.285222853616649e-05
-6.886077459803086e-06   5.40611540304616e-07   1.285222853616649e-05
-6.886077459803086e-06   5.40611540304616e-07   1.285222853616649e-05
-5.672809911661306e-06   -1.7705139983083848e-06   1.3487665793235202e-05
-5.672809911661306e-06   -1.7705139983083848e-06   1.3487665793235202e-05
-5.672809911661306e-06   -1.7705139983083848e-06   1.3487665793235202e-05
-5.672809911661306e-06   -1.7705139983083848e-06   1.3487665793235202e-05
-5.617288779453445e-06   1.5299061236493175e-07   1.2007485819877785e-05
-5.617288779453445e-06   1.5299061236493175e-07   1.2007485819877785e-05
-5.617288779453445e-06   1.5299061236493175e-07   1.2007485819877785e-05
-5.617288779453445e-06   1.5299061236493175e-07   1.2007485819877785e-05
-6.83339089569169e-06   -1.9678232482920363e-06   1.530681099666905e-05
-6.83339089569169e-06   -1.9678232482920363e-06   1.530681099666905e-05
-6.83339089569169e-06   -1.9678232482920363e-06   1.530681099666905e-05
-6.83339089569169e-06   -1.9678232482920363e-06   1.530681099666905e-05
-6.156754335650076e-06   -6.208422538455023e-07   1.3370894799931486e-05
-6.156754335650076e-06   -6.208422538455023e-07   1.3370894799931486e-05
-6.156754335650076e-06   -6.208422538455023e-07   1.3370894799931486e-05
-6.156754335650076e-06   -6.208422538455023e-07   1.3370894799931486e-05
-6.833390895691664e-06   1.529906123648997e-07   1.3279974136272128e-05
-6.833390895691664e-06   1.529906123648997e-07   1.3279974136272128e-05
-6.833390895691664e-06   1.529906123648997e-07   1.3279974136272128e-05
-6.833390895691664e-06   1.529906123648997e-07   1.3279974136272128e-05
-5.617288779453445e-06   -1.9678232482920363e-06   1.4034322680274815e-05
-5.617288779453445e-06   -1.9678232482920363e-06   1.4034322680274815e-05
-5.617288779453445e-06   -1.9678232482920363e-06   1.4034322680274815e-05
-5.617288779453445e-06   -1.9678232482920363e-06   1.4034322680274815e-05
-5.525234705032575e-06   -2.3778429799432496e-07   1.2688043804018312e-05
-5.525234705032575e-06   -2.3778429799432496e-07   1.2688043804018312e-05
-5.525234705032575e-06   -2.3778429799432496e-07   1.2688043804018312e-05
-5.525234705032575e-06   -2.3778429799432496e-07   1.2688043804018312e-05
-6.7000637562450355e-06   -2.2265128454514106e-06   1.5839329351179814e-05
-6.7000637562450355e-06   -2.2265128454514106e-06   1.5839329351179814e-05
-6.7000637562450355e-06   -2.2265128454514106e-06   1.5839329351179814e-05
-6.7000637562450355e-06   -2.2265128454514106e-06   1.5839329351179814e-05
-6.061656825479638e-06   -8.624942721442296e-07   1.395690665591991e-05
-6.061656825479638e-06   -8.624942721442296e-07   1.395690665591991e-05
-6.061656825479638e-06   -8.624942721442296e-07   1.395690665591991e-05
-6.061656825479638e-06   -8.624942721442296e-07   1.395690665591991e-05
-5.796777853881861e-06   1.6376616636241546e-06   2.903027673836756e-06
-5.796777853881861e-06   1.6376616636241546e-06   2.903027673836756e-06
-5.796777853881861e-06   1.6376616636241546e-06   2.903027673836756e-06
-5.796777853881861e-06   1.6376616636241546e-06   2.903027673836756e-06
-3.3589691130903043e-06   -1.6872827938936618e-07   5.882208276014459e-06
-3.3589691130903043e-06   -1.6872827938936618e-07   5.882208276014459e-06
-3.3589691130903043e-06   -1.6872827938936618e-07   5.882208276014459e-06
-3.3589691130903043e-06   -1.6872827938936618e-07   5.882208276014459e-06
-3.550180182441238e-06   1.3172581174493176e-06   2.929866491842726e-06
-3.550180182441238e-06   1.3172581174493176e-06   2.929866491842726e-06
-3.550180182441238e-06   1.3172581174493176e-06   2.929866491842726e-06
-3.550180182441238e-06   1.3172581174493176e-06   2.929866491842726e-06
-5.6728099116612805e-06   -2.3548110406296056e-07   7.399226240116974e-06
-5.6728099116612805e-06   -2.3548110406296056e-07   7.399226240116974e-06
-5.6728099116612805e-06   -2.3548110406296056e-07   7.399226240116974e-06
-5.6728099116612805e-06   -2.3548110406296056e-07   7.399226240116974e-06
-4.436662215422019e-06   8.420011201543467e-07   4.692490745187802e-06
-4.436662215422019e-06   8.420011201543467e-07   4.692490745187802e-06
-4.436662215422019e-06   8.420011201543467e-07   4.692490745187802e-06
-4.436662215422019e-06   8.420011201543467e-07   4.692490745187802e-06
-5.672809911661306e-06   1.3172581174493716e-06   3.861510024749833e-06
-5.672809911661306e-06   1.3172581174493716e-06   3.861510024749833e-06
-5.672809911661306e-06   1.3172581174493716e-06   3.861510024749833e-06
-5.672809911661306e-06   1.3172581174493716e-06   3.861510024749833e-06
-3.5501801824411837e-06   -2.3548110406296056e-07   6.467582707209596e-06
-3.5501801824411837e-06   -2.3548110406296056e-07   6.467582707209596e-06
-3.5501801824411837e-06   -2.3548110406296056e-07   6.467582707209596e-06
-3.5501801824411837e-06   -2.3548110406296056e-07   6.467582707209596e-06
-3.7071931642157258e-06   1.1077737312886488e-06   3.808749021540431e-06
-3.7071931642157258e-06   1.1077737312886488e-06   3.808749021540431e-06
-3.7071931642157258e-06   1.1077737312886488e-06   3.808749021540431e-06
-3.7071931642157258e-06   1.1077737312886488e-06   3.808749021540431e-06
-5.6172887794534325e-06   -3.257698190340069e-07   7.852367843796905e-06
-5.6172887794534325e-06   -3.257698190340069e-07   7.852367843796905e-06
-5.6172887794534325e-06   -3.257698190340069e-07   7.852367843796905e-06
-5.6172887794534325e-06   -3.257698190340069e-07   7.852367843796905e-06
-4.515442997928668e-06   6.836635883338796e-07   5.410298163501448e-06
-4.515442997928668e-06   6.836635883338796e-07   5.410298163501448e-06
-4.515442997928668e-06   6.836635883338796e-07   5.410298163501448e-06
-4.515442997928668e-06   6.836635883338796e-07   5.410298163501448e-06
-5.617288779453445e-06   1.1077737312885656e-06   4.66887515173422e-06
-5.617288779453445e-06   1.1077737312885656e-06   4.66887515173422e-06
-5.617288779453445e-06   1.1077737312885656e-06   4.66887515173422e-06
-5.617288779453445e-06   1.1077737312885656e-06   4.66887515173422e-06
-3.7071931642157258e-06   -3.257698190340069e-07   6.992241713603279e-06
-3.7071931642157258e-06   -3.257698190340069e-07   6.992241713603279e-06
-3.7071931642157258e-06   -3.257698190340069e-07   6.992241713603279e-06
-3.7071931642157258e-06   -3.257698190340069e-07   6.992241713603279e-06
-4.092637186711354e-06   6.862124664192004e-07   5.379911166108402e-06
-4.092637186711354e-06   6.862124664192004e-07   5.379911166108402e-06
-4.092637186711354e-06   6.862124664192004e-07   5.379911166108402e-06
-4.092637186711354e-06   6.862124664192004e-07   5.379911166108402e-06
-5.525234705032589e-06   -4.3559545453080795e-07   8.440658449213522e-06
-5.525234705032589e-06   -4.3559545453080795e-07   8.440658449213522e-06
-5.525234705032589e-06   -4.3559545453080795e-07   8.440658449213522e-06
-5.525234705032589e-06   -4.3559545453080795e-07   8.440658449213522e-06
-4.526238173358933e-06   5.763986393778173e-07   6.168467773411883e-06
-4.526238173358933e-06   5.763986393778173e-07   6.168467773411883e-06
-4.526238173358933e-06   5.763986393778173e-07   6.168467773411883e-06
-4.526238173358933e-06   5.763986393778173e-07   6.168467773411883e-06
-5.337169054377143e-05   4.176846536637268e-06   2.2874254331371838e-05
-5.337169054377143e-05   4.176846536637268e-06   2.2874254331371838e-05
-5.337169054377143e-05   4.176846536637268e-06   2.2874254331371838e-05
-5.337169054377143e-05   4.176846536637268e-06   2.2874254331371838e-05
-1.2546767479177878e-05   -2.608382787029085e-05   7.275938812820429e-05
-1.2546767479177878e-05   -2.608382787029085e-05   7.275938812820429e-05
-1.2546767479177878e-05   -2.608382787029085e-05   7.275938812820429e-05
-1.2546767479177878e-05   -2.608382787029085e-05   7.275938812820429e-05
-1.4726938263533661e-05   1.6916090037556904e-06   1.2556110881182633e-05
-1.4726938263533661e-05   1.6916090037556904e-06   1.2556110881182633e-05
-1.4726938263533661e-05   1.6916090037556904e-06   1.2556110881182633e-05
-1.4726938263533661e-05   1.6916090037556904e-06   1.2556110881182633e-05
-4.8676528033944856e-05   -2.027417971860614e-05   8.231823373195162e-05
-4.8676528033944856e-05   -2.027417971860614e-05   8.231823373195162e-05
-4.8676528033944856e-05   -2.027417971860614e-05   8.231823373195162e-05
-4.8676528033944856e-05   -2.027417971860614e-05   8.231823373195162e-05
-3.245478651723966e-05   -1.0093469233885823e-05   4.91735715799441e-05
-3.245478651723966e-05   -1.0093469233885823e-05   4.91735715799441e-05
-3.245478651723966e-05   -1.0093469233885823e-05   4.91735715799441e-05
-3.245478651723966e-05   -1.0093469233885823e-05   4.91735715799441e-05
-4.867652803394477e-05   1.6916090037556967e-06   2.5735584114599717e-05
-4.867652803394477e-05   1.6916090037556967e-06   2.5735584114599717e-05
-4.867652803394477e-05   1.6916090037556967e-06   2.5735584114599717e-05
-4.867652803394477e-05   1.6916090037556967e-06   2.5735584114599717e-05
-1.4726938263533682e-05   -2.027417971860614e-05   6.913876049853451e-05
-1.4726938263533682e-05   -2.027417971860614e-05   6.913876049853451e-05
-1.4726938263533682e-05   -2.027417971860614e-05   6.913876049853451e-05
-1.4726938263533682e-05   -2.027417971860614e-05   6.913876049853451e-05
-1.5060061948651797e-05   1.2137010320940455e-06   1.3797708149536139e-05
-1.5060061948651797e-05   1.2137010320940455e-06   1.3797708149536139e-05
-1.5060061948651797e-05   1.2137010320940455e-06   1.3797708149536139e-05
-1.5060061948651797e-05   1.2137010320940455e-06   1.3797708149536139e-05
-4.5927678138593574e-05   -1.7474842073058468e-05   7.64568609958638e-05
-4.5927678138593574e-05   -1.7474842073058468e-05   7.64568609958638e-05
-4.5927678138593574e-05   -1.7474842073058468e-05   7.64568609958638e-05
-4.5927678138593574e-05   -1.7474842073058468e-05   7.64568609958638e-05
-3.1484171866549454e-05   -9.562583632819307e-06   4.763699547831349e-05
-3.1484171866549454e-05   -9.562583632819307e-06   4.763699547831349e-05
-3.1484171866549454e-05   -9.562583632819307e-06   4.763699547831349e-05
-3.1484171866549454e-05   -9.562583632819307e-06   4.763699547831349e-05
-4.592767813859349e-05   1.2137010320940434e-06   2.5010834012627602e-05
-4.592767813859349e-05   1.2137010320940434e-06   2.5010834012627602e-05
-4.592767813859349e-05   1.2137010320940434e-06   2.5010834012627602e-05
-4.592767813859349e-05   1.2137010320940434e-06   2.5010834012627602e-05
-1.506006194865183e-05   -1.7474842073058468e-05   6.524373513277231e-05
-1.506006194865183e-05   -1.7474842073058468e-05   6.524373513277231e-05
-1.506006194865183e-05   -1.7474842073058468e-05   6.524373513277231e-05
-1.506006194865183e-05   -1.7474842073058468e-05   6.524373513277231e-05
-1.6496864496218717e-05   -8.187584015028173e-07   1.727783731576313e-05
-1.6496864496218717e-05   -8.187584015028173e-07   1.727783731576313e-05
-1.6496864496218717e-05   -8.187584015028173e-07   1.727783731576313e-05
-1.6496864496218717e-05   -8.187584015028173e-07   1.727783731576313e-05
-4.240405547849802e-05   -1.3757293757646144e-05   6.821961016658117e-05
-4.240405547849802e-05   -1.3757293757646144e-05   6.821961016658117e-05
-4.240405547849802e-05   -1.3757293757646144e-05   6.821961016658117e-05
-4.240405547849802e-05   -1.3757293757646144e-05   6.821961016658117e-05
-3.028330633875198e-05   -8.827150872797371e-06   4.506027586942856e-05
-3.028330633875198e-05   -8.827150872797371e-06   4.506027586942856e-05
-3.028330633875198e-05   -8.827150872797371e-06   4.506027586942856e-05
-3.028330633875198e-05   -8.827150872797371e-06   4.506027586942856e-05
-1.254676747917785e-05   -4.718045748754199e-06   1.2984142333064019e-05
-1.254676747917785e-05   -4.718045748754199e-06   1.2984142333064019e-05
-1.254676747917785e-05   -4.718045748754199e-06   1.2984142333064019e-05
-1.254676747917785e-05   -4.718045748754199e-06   1.2984142333064019e-05
-4.370456018999404e-06   -8.086927558534551e-06   2.4589999014159894e-05
-4.370456018999404e-06   -8.086927558534551e-06   2.4589999014159894e-05
-4.370456018999404e-06   -8.086927558534551e-06   2.4589999014159894e-05
-4.370456018999404e-06   -8.086927558534551e-06   2.4589999014159894e-05
-4.882387327272982e-06   -3.864243262049463e-06   1.1590057337666423e-05
-4.882387327272982e-06   -3.864243262049463e-06   1.1590057337666423e-05
-4.882387327272982e-06   -3.864243262049463e-06   1.1590057337666423e-05
-4.882387327272982e-06   -3.864243262049463e-06   1.1590057337666423e-05
-1.4726938263533685e-05   -1.072146079122817e-05   3.211197274894143e-05
-1.4726938263533685e-05   -1.072146079122817e-05   3.211197274894143e-05
-1.4726938263533685e-05   -1.072146079122817e-05   3.211197274894143e-05
-1.4726938263533685e-05   -1.072146079122817e-05   3.211197274894143e-05
-8.655454218369982e-06   -5.617113070609432e-06   1.8930224041297297e-05
-8.655454218369982e-06   -5.617113070609432e-06   1.8930224041297297e-05
-8.655454218369982e-06   -5.617113070609432e-06   1.8930224041297297e-05
-8.655454218369982e-06   -5.617113070609432e-06   1.8930224041297297e-05
-1.4726938263533654e-05   -3.864243262049451e-06   1.5704387855173526e-05
-1.4726938263533654e-05   -3.864243262049451e-06   1.5704387855173526e-05
-1.4726938263533654e-05   -3.864243262049451e-06   1.5704387855173526e-05
-1.4726938263533654e-05   -3.864243262049451e-06   1.5704387855173526e-05
-4.882387327272982e-06   -1.072146079122817e-05   2.799764223143421e-05
-4.882387327272982e-06   -1.072146079122817e-05   2.799764223143421e-05
-4.882387327272982e-06   -1.072146079122817e-05   2.799764223143421e-05
-4.882387327272982e-06   -1.072146079122817e-05   2.799764223143421e-05
-5.320995693068993e-06   -3.951543254920138e-06   1.303189315831428e-05
-5.320995693068993e-06   -3.951543254920138e-06   1.303189315831428e-05
-5.320995693068993e-06   -3.951543254920138e-06   1.303189315831428e-05
-5.320995693068993e-06   -3.951543254920138e-06   1.303189315831428e-05
-1.5060061948651825e-05   -9.805784116968989e-06   3.277621476818154e-05
-1.5060061948651825e-05   -9.805784116968989e-06   3.277621476818154e-05
-1.5060061948651825e-05   -9.805784116968989e-06   3.277621476818154e-05
-1.5060061948651825e-05   -9.805784116968989e-06   3.277621476818154e-05
-9.760308087947504e-06   -6.867357979072492e-06   2.2180235984269948e-05
-9.760308087947504e-06   -6.867357979072492e-06   2.2180235984269948e-05
-9.760308087947504e-06   -6.867357979072492e-06   2.2180235984269948e-05
-9.760308087947504e-06   -6.867357979072492e-06   2.2180235984269948e-05
-1.506006194865183e-05   -3.951543254920159e-06   1.654443767554363e-05
-1.506006194865183e-05   -3.951543254920159e-06   1.654443767554363e-05
-1.506006194865183e-05   -3.951543254920159e-06   1.654443767554363e-05
-1.506006194865183e-05   -3.951543254920159e-06   1.654443767554363e-05
-5.320995693068993e-06   -9.805784116968989e-06   2.9263670250952254e-05
-5.320995693068993e-06   -9.805784116968989e-06   2.9263670250952254e-05
-5.320995693068993e-06   -9.805784116968989e-06   2.9263670250952254e-05
-5.320995693068993e-06   -9.805784116968989e-06   2.9263670250952254e-05
-6.034490607981653e-06   -3.98648792501136e-06   1.4256120896474018e-05
-6.034490607981653e-06   -3.98648792501136e-06   1.4256120896474018e-05
-6.034490607981653e-06   -3.98648792501136e-06   1.4256120896474018e-05
-6.034490607981653e-06   -3.98648792501136e-06   1.4256120896474018e-05
-1.64968644962187e-05   -9.22821243345923e-06   3.4838445415271e-05
-1.64968644962187e-05   -9.22821243345923e-06   3.4838445415271e-05
-1.64968644962187e-05   -9.22821243345923e-06   3.4838445415271e-05
-1.64968644962187e-05   -9.22821243345923e-06   3.4838445415271e-05
-1.0405334671730971e-05   -6.270228479706433e-06   2.2911105335539795e-05
-1.0405334671730971e-05   -6.270228479706433e-06   2.2911105335539795e-05
-1.0405334671730971e-05   -6.270228479706433e-06   2.2911105335539795e-05
-1.0405334671730971e-05   -6.270228479706433e-06   2.2911105335539795e-05
-4.370456018999404e-06   -3.6858241170062126e-06   6.985806738355198e-06
-4.370456018999404e-06   -3.6858241170062126e-06   6.985806738355198e-06
-4.370456018999404e-06   -3.6858241170062126e-06   6.985806738355198e-06
-4.370456018999404e-06   -3.6858241170062126e-06   6.985806738355198e-06
-2.438449933412582e-06   -2.259902403008004e-06   1.106136990939891e-05
-2.438449933412582e-06   -2.259902403008004e-06   1.106136990939891e-05
-2.438449933412582e-06   -2.259902403008004e-06   1.106136990939891e-05
-2.438449933412582e-06   -2.259902403008004e-06   1.106136990939891e-05
-2.3439450361102134e-06   -3.619914045267542e-06   8.04799059003666e-06
-2.3439450361102134e-06   -3.619914045267542e-06   8.04799059003666e-06
-2.3439450361102134e-06   -3.619914045267542e-06   8.04799059003666e-06
-2.3439450361102134e-06   -3.619914045267542e-06   8.04799059003666e-06
-4.882387327272976e-06   -2.9579345327401124e-06   1.1881540034458006e-05
-4.882387327272976e-06   -2.9579345327401124e-06   1.1881540034458006e-05
-4.882387327272976e-06   -2.9579345327401124e-06   1.1881540034458006e-05
-4.882387327272976e-06   -2.9579345327401124e-06   1.1881540034458006e-05
-3.286751726591096e-06   -2.9634069851905897e-06   9.225430838125017e-06
-3.286751726591096e-06   -2.9634069851905897e-06   9.225430838125017e-06
-3.286751726591096e-06   -2.9634069851905897e-06   9.225430838125017e-06
-3.286751726591096e-06   -2.9634069851905897e-06   9.225430838125017e-06
-4.882387327272955e-06   -3.6199140452675352e-06   7.650802882520175e-06
-4.882387327272955e-06   -3.6199140452675352e-06   7.650802882520175e-06
-4.882387327272955e-06   -3.6199140452675352e-06   7.650802882520175e-06
-4.882387327272955e-06   -3.6199140452675352e-06   7.650802882520175e-06
-2.3439450361102134e-06   -2.957934532740099e-06   1.2278727741974464e-05
-2.3439450361102134e-06   -2.957934532740099e-06   1.2278727741974464e-05
-2.3439450361102134e-06   -2.957934532740099e-06   1.2278727741974464e-05
-2.3439450361102134e-06   -2.957934532740099e-06   1.2278727741974464e-05
-2.348360231040796e-06   -3.730250832971384e-06   8.605163953516741e-06
-2.348360231040796e-06   -3.730250832971384e-06   8.605163953516741e-06
-2.348360231040796e-06   -3.730250832971384e-06   8.605163953516741e-06
-2.348360231040796e-06   -3.730250832971384e-06   8.605163953516741e-06
-5.320995693068997e-06   -3.7985078519809717e-06   1.3600510601636064e-05
-5.320995693068997e-06   -3.7985078519809717e-06   1.3600510601636064e-05
-5.320995693068997e-06   -3.7985078519809717e-06   1.3600510601636064e-05
-5.320995693068997e-06   -3.7985078519809717e-06   1.3600510601636064e-05
-3.4856710502767906e-06   -3.2400669046226056e-06   1.0206571628567414e-05
-3.4856710502767906e-06   -3.2400669046226056e-06   1.0206571628567414e-05
-3.4856710502767906e-06   -3.2400669046226056e-06   1.0206571628567414e-05
-3.4856710502767906e-06   -3.2400669046226056e-06   1.0206571628567414e-05
-5.320995693068993e-06   -3.7302508329713215e-06   8.646118164922466e-06
-5.320995693068993e-06   -3.7302508329713215e-06   8.646118164922466e-06
-5.320995693068993e-06   -3.7302508329713215e-06   8.646118164922466e-06
-5.320995693068993e-06   -3.7302508329713215e-06   8.646118164922466e-06
-2.348360231040796e-06   -3.7985078519809717e-06   1.3559556390230286e-05
-2.348360231040796e-06   -3.7985078519809717e-06   1.3559556390230286e-05
-2.348360231040796e-06   -3.7985078519809717e-06   1.3559556390230286e-05
-2.348360231040796e-06   -3.7985078519809717e-06   1.3559556390230286e-05
-2.384899494992619e-06   -3.886240616107588e-06   9.439067914681937e-06
-2.384899494992619e-06   -3.886240616107588e-06   9.439067914681937e-06
-2.384899494992619e-06   -3.886240616107588e-06   9.439067914681937e-06
-2.384899494992619e-06   -3.886240616107588e-06   9.439067914681937e-06
-6.034490607981677e-06   -4.597292564982301e-06   1.5948350938988322e-05
-6.034490607981677e-06   -4.597292564982301e-06   1.5948350938988322e-05
-6.034490607981677e-06   -4.597292564982301e-06   1.5948350938988322e-05
-6.034490607981677e-06   -4.597292564982301e-06   1.5948350938988322e-05
-3.712400033167682e-06   -3.537864157693066e-06   1.1442542936591481e-05
-3.712400033167682e-06   -3.537864157693066e-06   1.1442542936591481e-05
-3.712400033167682e-06   -3.537864157693066e-06   1.1442542936591481e-05
-3.712400033167682e-06   -3.537864157693066e-06   1.1442542936591481e-05
-2.438449933412582e-06   -1.512777262612542e-06   1.9898897416461474e-06
-2.438449933412582e-06   -1.512777262612542e-06   1.9898897416461474e-06
-2.438449933412582e-06   -1.512777262612542e-06   1.9898897416461474e-06
-2.438449933412582e-06   -1.512777262612542e-06   1.9898897416461474e-06
-1.8115987884368572e-06   3.882314558250569e-07   4.175246881001516e-06
-1.8115987884368572e-06   3.882314558250569e-07   4.175246881001516e-06
-1.8115987884368572e-06   3.882314558250569e-07   4.175246881001516e-06
-1.8115987884368572e-06   3.882314558250569e-07   4.175246881001516e-06
-1.46642098203801e-06   -1.7705139983083848e-06   3.312525588544798e-06
-1.46642098203801e-06   -1.7705139983083848e-06   3.312525588544798e-06
-1.46642098203801e-06   -1.7705139983083848e-06   3.312525588544798e-06
-1.46642098203801e-06   -1.7705139983083848e-06   3.312525588544798e-06
-2.3439450361101884e-06   1.3795178635833433e-07   3.6299862078649947e-06
-2.3439450361101884e-06   1.3795178635833433e-07   3.6299862078649947e-06
-2.3439450361101884e-06   1.3795178635833433e-07   3.6299862078649947e-06
-2.3439450361101884e-06   1.3795178635833433e-07   3.6299862078649947e-06
-1.8907089909167198e-06   -7.109114991799112e-07   3.3839107705319407e-06
-1.8907089909167198e-06   -7.109114991799112e-07   3.3839107705319407e-06
-1.8907089909167198e-06   -7.109114991799112e-07   3.3839107705319407e-06
-1.8907089909167198e-06   -7.109114991799112e-07   3.3839107705319407e-06
-2.3439450361102134e-06   -1.7705139983084013e-06   2.1674461177448453e-06
-2.3439450361102134e-06   -1.7705139983084013e-06   2.1674461177448453e-06
-2.3439450361102134e-06   -1.7705139983084013e-06   2.1674461177448453e-06
-2.3439450361102134e-06   -1.7705139983084013e-06   2.1674461177448453e-06
-1.46642098203801e-06   1.3795178635833433e-07   4.775065678665029e-06
-1.46642098203801e-06   1.3795178635833433e-07   4.775065678665029e-06
-1.46642098203801e-06   1.3795178635833433e-07   4.775065678665029e-06
-1.46642098203801e-06   1.3795178635833433e-07   4.775065678665029e-06
-1.2772738050170112e-06   -1.9678232482920363e-06   3.639022590762428e-06
-1.2772738050170112e-06   -1.9678232482920363e-06   3.639022590762428e-06
-1.2772738050170112e-06   -1.9678232482920363e-06   3.639022590762428e-06
-1.2772738050170112e-06   -1.9678232482920363e-06   3.639022590762428e-06
-2.3483602310407902e-06   -2.5850328320918526e-07   4.398574655085474e-06
-2.3483602310407902e-06   -2.5850328320918526e-07   4.398574655085474e-06
-2.3483602310407902e-06   -2.5850328320918526e-07   4.398574655085474e-06
-2.3483602310407902e-06   -2.5850328320918526e-07   4.398574655085474e-06
-1.7142633525371903e-06   -9.104828625256423e-07   3.7329342718361077e-06
-1.7142633525371903e-06   -9.104828625256423e-07   3.7329342718361077e-06
-1.7142633525371903e-06   -9.104828625256423e-07   3.7329342718361077e-06
-1.7142633525371903e-06   -9.104828625256423e-07   3.7329342718361077e-06
-2.348360231040796e-06   -1.967823248292035e-06   2.6134306117126525e-06
-2.348360231040796e-06   -1.967823248292035e-06   2.6134306117126525e-06
-2.348360231040796e-06   -1.967823248292035e-06   2.6134306117126525e-06
-2.348360231040796e-06   -1.967823248292035e-06   2.6134306117126525e-06
-1.2772738050170112e-06   -2.5850328320918526e-07   5.424166634135277e-06
-1.2772738050170112e-06   -2.5850328320918526e-07   5.424166634135277e-06
-1.2772738050170112e-06   -2.5850328320918526e-07   5.424166634135277e-06
-1.2772738050170112e-06   -2.5850328320918526e-07   5.424166634135277e-06
-9.871822766363667e-07   -2.226512845451465e-06   3.994712732499216e-06
-9.871822766363667e-07   -2.226512845451465e-06   3.994712732499216e-06
-9.871822766363667e-07   -2.226512845451465e-06   3.994712732499216e-06
-9.871822766363667e-07   -2.226512845451465e-06   3.994712732499216e-06
-2.3848994949926107e-06   -1.0723930322296758e-06   5.6317695418263945e-06
-2.3848994949926107e-06   -1.0723930322296758e-06   5.6317695418263945e-06
-2.3848994949926107e-06   -1.0723930322296758e-06   5.6317695418263945e-06
-2.3848994949926107e-06   -1.0723930322296758e-06   5.6317695418263945e-06
-1.5707518114689505e-06   -1.2155980639096424e-06   4.360779754961682e-06
-1.5707518114689505e-06   -1.2155980639096424e-06   4.360779754961682e-06
-1.5707518114689505e-06   -1.2155980639096424e-06   4.360779754961682e-06
-1.5707518114689505e-06   -1.2155980639096424e-06   4.360779754961682e-06
-1.8115987884368572e-06   -1.6872827938941e-07   -3.0162806808934576e-06
-1.8115987884368572e-06   -1.6872827938941e-07   -3.0162806808934576e-06
-1.8115987884368572e-06   -1.6872827938941e-07   -3.0162806808934576e-06
-1.8115987884368572e-06   -1.6872827938941e-07   -3.0162806808934576e-06
-3.378311798521525e-07   2.5905511974021883e-07   -3.0333129377453204e-07
-3.378311798521525e-07   2.5905511974021883e-07   -3.0333129377453204e-07
-3.378311798521525e-07   2.5905511974021883e-07   -3.0333129377453204e-07
-3.378311798521525e-07   2.5905511974021883e-07   -3.0333129377453204e-07
1.0935985666300427e-09   -2.3548110406296056e-07   -2.365802273027683e-06
1.0935985666300427e-09   -2.3548110406296056e-07   -2.365802273027683e-06
1.0935985666300427e-09   -2.3548110406296056e-07   -2.365802273027683e-06
1.0935985666300427e-09   -2.3548110406296056e-07   -2.365802273027683e-06
-1.4664209820380188e-06   4.4803838184632566e-07   -3.3005633023235406e-07
-1.4664209820380188e-06   4.4803838184632566e-07   -3.3005633023235406e-07
-1.4664209820380188e-06   4.4803838184632566e-07   -3.3005633023235406e-07
-1.4664209820380188e-06   4.4803838184632566e-07   -3.3005633023235406e-07
-8.260252979813262e-07   1.1988482329018842e-07   -1.2004903351932675e-06
-8.260252979813262e-07   1.1988482329018842e-07   -1.2004903351932675e-06
-8.260252979813262e-07   1.1988482329018842e-07   -1.2004903351932675e-06
-8.260252979813262e-07   1.1988482329018842e-07   -1.2004903351932675e-06
-1.4664209820380641e-06   -2.3548110406296281e-07   -2.7759139645733484e-06
-1.4664209820380641e-06   -2.3548110406296281e-07   -2.7759139645733484e-06
-1.4664209820380641e-06   -2.3548110406296281e-07   -2.7759139645733484e-06
-1.4664209820380641e-06   -2.3548110406296281e-07   -2.7759139645733484e-06
1.0935985666300427e-09   4.4803838184632566e-07   8.005536131325697e-08
1.0935985666300427e-09   4.4803838184632566e-07   8.005536131325697e-08
1.0935985666300427e-09   4.4803838184632566e-07   8.005536131325697e-08
1.0935985666300427e-09   4.4803838184632566e-07   8.005536131325697e-08
1.783518812434738e-07   -3.257698190340069e-07   -2.117622237081244e-06
1.783518812434738e-07   -3.257698190340069e-07   -2.117622237081244e-06
1.783518812434738e-07   -3.257698190340069e-07   -2.117622237081244e-06
1.783518812434738e-07   -3.257698190340069e-07   -2.117622237081244e-06
-1.2772738050170256e-06   3.8308019535670255e-07   -1.1688943528159398e-07
-1.2772738050170256e-06   3.8308019535670255e-07   -1.1688943528159398e-07
-1.2772738050170256e-06   3.8308019535670255e-07   -1.1688943528159398e-07
-1.2772738050170256e-06   3.8308019535670255e-07   -1.1688943528159398e-07
-5.757430673785999e-07   7.825241408806615e-08   -1.103210662583968e-06
-5.757430673785999e-07   7.825241408806615e-08   -1.103210662583968e-06
-5.757430673785999e-07   7.825241408806615e-08   -1.103210662583968e-06
-5.757430673785999e-07   7.825241408806615e-08   -1.103210662583968e-06
-1.2772738050170112e-06   -3.2576981903401707e-07   -2.542932245715618e-06
-1.2772738050170112e-06   -3.2576981903401707e-07   -2.542932245715618e-06
-1.2772738050170112e-06   -3.2576981903401707e-07   -2.542932245715618e-06
-1.2772738050170112e-06   -3.2576981903401707e-07   -2.542932245715618e-06
1.78351881243528e-07   3.8308019535670255e-07   3.084205733528073e-07
1.78351881243528e-07   3.8308019535670255e-07   3.084205733528073e-07
1.78351881243528e-07   3.8308019535670255e-07   3.084205733528073e-07
1.78351881243528e-07   3.8308019535670255e-07   3.084205733528073e-07
3.9874455522376836e-07   -4.3559545453080795e-07   -1.7528762113574233e-06
3.9874455522376836e-07   -4.3559545453080795e-07   -1.7528762113574233e-06
3.9874455522376836e-07   -4.3559545453080795e-07   -1.7528762113574233e-06
3.9874455522376836e-07   -4.3559545453080795e-07   -1.7528762113574233e-06
-9.87182276636348e-07   3.274792615280385e-07   9.915701210724132e-08
-9.87182276636348e-07   3.274792615280385e-07   9.915701210724132e-08
-9.87182276636348e-07   3.274792615280385e-07   9.915701210724132e-08
-9.87182276636348e-07   3.274792615280385e-07   9.915701210724132e-08
-3.4928886363139125e-07   2.776472166768156e-08   -7.841699523184788e-07
-3.4928886363139125e-07   2.776472166768156e-08   -7.841699523184788e-07
-3.4928886363139125e-07   2.776472166768156e-08   -7.841699523184788e-07
-3.4928886363139125e-07   2.776472166768156e-08   -7.841699523184788e-07
              </DataArray>   
             <DataArray type="Float64" NumberOfComponents="3" Name="Stress" format="ascii">   
-2.7707180333012373   -0.6926795083253093   -0.6926795083253093
-2.7707180333012373   -0.6926795083253093   -0.6926795083253093
-2.7707180333012373   -0.6926795083253093   -0.6926795083253093
-2.7707180333012373   -0.6926795083253093   -0.6926795083253093
-1.6033294461028396   -0.050923575011406874   -0.03219548894914781
-1.6033294461028396   -0.050923575011406874   -0.03219548894914781
-1.6033294461028396   -0.050923575011406874   -0.03219548894914781
-1.6033294461028396   -0.050923575011406874   -0.03219548894914781
-1.728106492801664   -0.432026623200416   -0.432026623200416
-1.728106492801664   -0.432026623200416   -0.432026623200416
-1.728106492801664   -0.432026623200416   -0.432026623200416
-1.728106492801664   -0.432026623200416   -0.432026623200416
-2.670347053895283   -0.21939250769191043   -0.08393357980762478
-2.670347053895283   -0.21939250769191043   -0.08393357980762478
-2.670347053895283   -0.21939250769191043   -0.08393357980762478
-2.670347053895283   -0.21939250769191043   -0.08393357980762478
-2.0943107847675506   -0.3434088113945126   -0.005789928711730494
-2.0943107847675506   -0.3434088113945126   -0.005789928711730494
-2.0943107847675506   -0.3434088113945126   -0.005789928711730494
-2.0943107847675506   -0.3434088113945126   -0.005789928711730494
-2.8996464848837555   -0.7249116212209389   -0.7249116212209389
-2.8996464848837555   -0.7249116212209389   -0.7249116212209389
-2.8996464848837555   -0.7249116212209389   -0.7249116212209389
-2.8996464848837555   -0.7249116212209389   -0.7249116212209389
-1.5531960837704044   0.019103468371403587   -0.008604669615936644
-1.5531960837704044   0.019103468371403587   -0.008604669615936644
-1.5531960837704044   0.019103468371403587   -0.008604669615936644
-1.5531960837704044   0.019103468371403587   -0.008604669615936644
-1.732944150182956   -0.433236037545739   -0.433236037545739
-1.732944150182956   -0.433236037545739   -0.433236037545739
-1.732944150182956   -0.433236037545739   -0.433236037545739
-1.732944150182956   -0.433236037545739   -0.433236037545739
-2.760051985094103   -0.22148561510780101   -0.12298596359242737
-2.760051985094103   -0.22148561510780101   -0.12298596359242737
-2.760051985094103   -0.22148561510780101   -0.12298596359242737
-2.760051985094103   -0.22148561510780101   -0.12298596359242737
-2.172385264455002   -0.3233117429013619   -0.11528565047356595
-2.172385264455002   -0.3233117429013619   -0.11528565047356595
-2.172385264455002   -0.3233117429013619   -0.11528565047356595
-2.172385264455002   -0.3233117429013619   -0.11528565047356595
-2.99017518817118   -0.747543797042795   -0.747543797042795
-2.99017518817118   -0.747543797042795   -0.747543797042795
-2.99017518817118   -0.747543797042795   -0.747543797042795
-2.99017518817118   -0.747543797042795   -0.747543797042795
-1.5486482444274947   0.04699484706764073   0.008012606618173004
-1.5486482444274947   0.04699484706764073   0.008012606618173004
-1.5486482444274947   0.04699484706764073   0.008012606618173004
-1.5486482444274947   0.04699484706764073   0.008012606618173004
-1.7319927972995715   -0.43299819932489286   -0.43299819932489286
-1.7319927972995715   -0.43299819932489286   -0.43299819932489286
-1.7319927972995715   -0.43299819932489286   -0.43299819932489286
-1.7319927972995715   -0.43299819932489286   -0.43299819932489286
-2.920320575129379   -0.1942414919733066   -0.0738057262674685
-2.920320575129379   -0.1942414919733066   -0.0738057262674685
-2.920320575129379   -0.1942414919733066   -0.0738057262674685
-2.920320575129379   -0.1942414919733066   -0.0738057262674685
-2.230299352445419   -0.3182696168730351   -0.20834917804488862
-2.230299352445419   -0.3182696168730351   -0.20834917804488862
-2.230299352445419   -0.3182696168730351   -0.20834917804488862
-2.230299352445419   -0.3182696168730351   -0.20834917804488862
-1.763006259234146   -0.4407515648085365   -0.4407515648085365
-1.763006259234146   -0.4407515648085365   -0.4407515648085365
-1.763006259234146   -0.4407515648085365   -0.4407515648085365
-1.763006259234146   -0.4407515648085365   -0.4407515648085365
-0.7356231568385203   -0.04903040854891623   -0.015926881164502412
-0.7356231568385203   -0.04903040854891623   -0.015926881164502412
-0.7356231568385203   -0.04903040854891623   -0.015926881164502412
-0.7356231568385203   -0.04903040854891623   -0.015926881164502412
-0.7722060516978343   -0.19305151292445857   -0.19305151292445857
-0.7722060516978343   -0.19305151292445857   -0.19305151292445857
-0.7722060516978343   -0.19305151292445857   -0.19305151292445857
-0.7722060516978343   -0.19305151292445857   -0.19305151292445857
-1.605087635161138   -0.18883045536639684   -0.06012850283180487
-1.605087635161138   -0.18883045536639684   -0.06012850283180487
-1.605087635161138   -0.18883045536639684   -0.06012850283180487
-1.605087635161138   -0.18883045536639684   -0.06012850283180487
-1.183855653595879   -0.2242951941481006   0.009244625765655125
-1.183855653595879   -0.2242951941481006   0.009244625765655125
-1.183855653595879   -0.2242951941481006   0.009244625765655125
-1.183855653595879   -0.2242951941481006   0.009244625765655125
-1.7281064928016623   -0.43202662320041557   -0.43202662320041557
-1.7281064928016623   -0.43202662320041557   -0.43202662320041557
-1.7281064928016623   -0.43202662320041557   -0.43202662320041557
-1.7281064928016623   -0.43202662320041557   -0.43202662320041557
-0.6940050868235216   0.005326762143347263   -0.0004249636207008245
-0.6940050868235216   0.005326762143347263   -0.0004249636207008245
-0.6940050868235216   0.005326762143347263   -0.0004249636207008245
-0.6940050868235216   0.005326762143347263   -0.0004249636207008245
-0.7549391658382668   -0.1887347914595667   -0.1887347914595667
-0.7549391658382668   -0.1887347914595667   -0.1887347914595667
-0.7549391658382668   -0.1887347914595667   -0.1887347914595667
-0.7549391658382668   -0.1887347914595667   -0.1887347914595667
-1.6010162771304122   -0.15403608988878303   -0.05279661993997557
-1.6010162771304122   -0.15403608988878303   -0.05279661993997557
-1.6010162771304122   -0.15403608988878303   -0.05279661993997557
-1.6010162771304122   -0.15403608988878303   -0.05279661993997557
-1.1673404783038739   -0.18882012687834676   -0.06102953270117634
-1.1673404783038739   -0.18882012687834676   -0.06102953270117634
-1.1673404783038739   -0.18882012687834676   -0.06102953270117634
-1.1673404783038739   -0.18882012687834676   -0.06102953270117634
-1.732944150182956   -0.433236037545739   -0.433236037545739
-1.732944150182956   -0.433236037545739   -0.433236037545739
-1.732944150182956   -0.433236037545739   -0.433236037545739
-1.732944150182956   -0.433236037545739   -0.433236037545739
-0.6664198662546007   0.04705658272851232   0.01807033227068995
-0.6664198662546007   0.04705658272851232   0.01807033227068995
-0.6664198662546007   0.04705658272851232   0.01807033227068995
-0.6664198662546007   0.04705658272851232   0.01807033227068995
-0.7392103818594848   -0.1848025954648712   -0.1848025954648712
-0.7392103818594848   -0.1848025954648712   -0.1848025954648712
-0.7392103818594848   -0.1848025954648712   -0.1848025954648712
-0.7392103818594848   -0.1848025954648712   -0.1848025954648712
-1.5892170061241815   -0.11884777303180286   -0.033269669741052964
-1.5892170061241815   -0.11884777303180286   -0.033269669741052964
-1.5892170061241815   -0.11884777303180286   -0.033269669741052964
-1.5892170061241815   -0.11884777303180286   -0.033269669741052964
-1.173079755167835   -0.16708523650117324   -0.13596584224251168
-1.173079755167835   -0.16708523650117324   -0.13596584224251168
-1.173079755167835   -0.16708523650117324   -0.13596584224251168
-1.173079755167835   -0.16708523650117324   -0.13596584224251168
-0.8029241098842642   -0.20073102747106605   -0.20073102747106605
-0.8029241098842642   -0.20073102747106605   -0.20073102747106605
-0.8029241098842642   -0.20073102747106605   -0.20073102747106605
-0.8029241098842642   -0.20073102747106605   -0.20073102747106605
0.09512366265936023   0.00619588831382264   0.0007812848397572782
0.09512366265936023   0.00619588831382264   0.0007812848397572782
0.09512366265936023   0.00619588831382264   0.0007812848397572782
0.09512366265936023   0.00619588831382264   0.0007812848397572782
0.12376640717343362   0.030941601793358406   0.030941601793358406
0.12376640717343362   0.030941601793358406   0.030941601793358406
0.12376640717343362   0.030941601793358406   0.030941601793358406
0.12376640717343362   0.030941601793358406   0.030941601793358406
-0.7259352305411475   -0.12547142155853228   -0.029277498506950862
-0.7259352305411475   -0.12547142155853228   -0.029277498506950862
-0.7259352305411475   -0.12547142155853228   -0.029277498506950862
-0.7259352305411475   -0.12547142155853228   -0.029277498506950862
-0.31084626315135155   -0.07885147962008737   0.05272499496269503
-0.31084626315135155   -0.07885147962008737   0.05272499496269503
-0.31084626315135155   -0.07885147962008737   0.05272499496269503
-0.31084626315135155   -0.07885147962008737   0.05272499496269503
-0.7722060516978356   -0.1930515129244589   -0.1930515129244589
-0.7722060516978356   -0.1930515129244589   -0.1930515129244589
-0.7722060516978356   -0.1930515129244589   -0.1930515129244589
-0.7722060516978356   -0.1930515129244589   -0.1930515129244589
0.12597841046187183   0.05446287529103595   0.018480344737870958
0.12597841046187183   0.05446287529103595   0.018480344737870958
0.12597841046187183   0.05446287529103595   0.018480344737870958
0.12597841046187183   0.05446287529103595   0.018480344737870958
0.13925960411527616   0.03481490102881904   0.03481490102881904
0.13925960411527616   0.03481490102881904   0.03481490102881904
0.13925960411527616   0.03481490102881904   0.03481490102881904
0.13925960411527616   0.03481490102881904   0.03481490102881904
-0.70026350605529   -0.08445773675710953   -0.019633547247145815
-0.70026350605529   -0.08445773675710953   -0.019633547247145815
-0.70026350605529   -0.08445773675710953   -0.019633547247145815
-0.70026350605529   -0.08445773675710953   -0.019633547247145815
-0.29817683559339264   -0.0487316459513865   -0.018023024954820843
-0.29817683559339264   -0.0487316459513865   -0.018023024954820843
-0.29817683559339264   -0.0487316459513865   -0.018023024954820843
-0.29817683559339264   -0.0487316459513865   -0.018023024954820843
-0.754939165838268   -0.188734791459567   -0.188734791459567
-0.754939165838268   -0.188734791459567   -0.188734791459567
-0.754939165838268   -0.188734791459567   -0.188734791459567
-0.754939165838268   -0.188734791459567   -0.188734791459567
0.1507633125828589   0.09592000441588298   0.03122833997966785
0.1507633125828589   0.09592000441588298   0.03122833997966785
0.1507633125828589   0.09592000441588298   0.03122833997966785
0.1507633125828589   0.09592000441588298   0.03122833997966785
0.16009385450239877   0.04002346362559969   0.04002346362559969
0.16009385450239877   0.04002346362559969   0.04002346362559969
0.16009385450239877   0.04002346362559969   0.04002346362559969
0.16009385450239877   0.04002346362559969   0.04002346362559969
-0.6723253455993536   -0.03554827457093872   0.0003682649418491647
-0.6723253455993536   -0.03554827457093872   0.0003682649418491647
-0.6723253455993536   -0.03554827457093872   0.0003682649418491647
-0.6723253455993536   -0.03554827457093872   0.0003682649418491647
-0.2892472756721124   -0.019695109755720322   -0.08813931809913886
-0.2892472756721124   -0.019695109755720322   -0.08813931809913886
-0.2892472756721124   -0.019695109755720322   -0.08813931809913886
-0.2892472756721124   -0.019695109755720322   -0.08813931809913886
0.1041424755873827   0.026035618896845674   0.026035618896845674
0.1041424755873827   0.026035618896845674   0.026035618896845674
0.1041424755873827   0.026035618896845674   0.026035618896845674
0.1041424755873827   0.026035618896845674   0.026035618896845674
1.0045345593352026   0.09217227077527573   0.030990167049073362
1.0045345593352026   0.09217227077527573   0.030990167049073362
1.0045345593352026   0.09217227077527573   0.030990167049073362
1.0045345593352026   0.09217227077527573   0.030990167049073362
1.0907445828711044   0.2726861457177761   0.2726861457177761
1.0907445828711044   0.2726861457177761   0.2726861457177761
1.0907445828711044   0.2726861457177761   0.2726861457177761
1.0907445828711044   0.2726861457177761   0.2726861457177761
0.09428931184946418   -0.07073125837345412   -0.014771014659677284
0.09428931184946418   -0.07073125837345412   -0.014771014659677284
0.09428931184946418   -0.07073125837345412   -0.014771014659677284
0.09428931184946418   -0.07073125837345412   -0.014771014659677284
0.5727706404779142   0.07131121497676347   0.10404610588121109
0.5727706404779142   0.07131121497676347   0.10404610588121109
0.5727706404779142   0.07131121497676347   0.10404610588121109
0.5727706404779142   0.07131121497676347   0.10404610588121109
0.12376640717343405   0.030941601793358513   0.030941601793358513
0.12376640717343405   0.030941601793358513   0.030941601793358513
0.12376640717343405   0.030941601793358513   0.030941601793358513
0.12376640717343405   0.030941601793358513   0.030941601793358513
1.0164821978548724   0.1262279958587027   0.04783237049569858
1.0164821978548724   0.1262279958587027   0.04783237049569858
1.0164821978548724   0.1262279958587027   0.04783237049569858
1.0164821978548724   0.1262279958587027   0.04783237049569858
1.0860976160226903   0.27152440400567257   0.27152440400567257
1.0860976160226903   0.27152440400567257   0.27152440400567257
1.0860976160226903   0.27152440400567257   0.27152440400567257
1.0860976160226903   0.27152440400567257   0.27152440400567257
0.11923118574140917   -0.030625512122724286   0.00011322231102642126
0.11923118574140917   -0.030625512122724286   0.00011322231102642126
0.11923118574140917   -0.030625512122724286   0.00011322231102642126
0.11923118574140917   -0.030625512122724286   0.00011322231102642126
0.5685686172953714   0.09359924790191389   0.027049786383663947
0.5685686172953714   0.09359924790191389   0.027049786383663947
0.5685686172953714   0.09359924790191389   0.027049786383663947
0.5685686172953714   0.09359924790191389   0.027049786383663947
0.13925960411527638   0.034814901028819095   0.034814901028819095
0.13925960411527638   0.034814901028819095   0.034814901028819095
0.13925960411527638   0.034814901028819095   0.034814901028819095
0.13925960411527638   0.034814901028819095   0.034814901028819095
1.0217144487189769   0.16172924192428478   0.059403729568502206
1.0217144487189769   0.16172924192428478   0.059403729568502206
1.0217144487189769   0.16172924192428478   0.059403729568502206
1.0217144487189769   0.16172924192428478   0.059403729568502206
1.1071556326618877   0.2767889081654719   0.2767889081654719
1.1071556326618877   0.2767889081654719   0.2767889081654719
1.1071556326618877   0.2767889081654719   0.2767889081654719
1.1071556326618877   0.2767889081654719   0.2767889081654719
0.15192319485633884   0.0224310945580926   0.0167625344628058
0.15192319485633884   0.0224310945580926   0.0167625344628058
0.15192319485633884   0.0224310945580926   0.0167625344628058
0.15192319485633884   0.0224310945580926   0.0167625344628058
0.577414843850932   0.12698275205447293   -0.044342815548432085
0.577414843850932   0.12698275205447293   -0.044342815548432085
0.577414843850932   0.12698275205447293   -0.044342815548432085
0.577414843850932   0.12698275205447293   -0.044342815548432085
1.0887800797448177   0.27219501993620443   0.27219501993620443
1.0887800797448177   0.27219501993620443   0.27219501993620443
1.0887800797448177   0.27219501993620443   0.27219501993620443
1.0887800797448177   0.27219501993620443   0.27219501993620443
2.258656177848005   0.17217670716734934   0.05908253941638214
2.258656177848005   0.17217670716734934   0.05908253941638214
2.258656177848005   0.17217670716734934   0.05908253941638214
2.258656177848005   0.17217670716734934   0.05908253941638214
2.3087088670106515   0.5771772167526629   0.5771772167526629
2.3087088670106515   0.5771772167526629   0.5771772167526629
2.3087088670106515   0.5771772167526629   0.5771772167526629
2.3087088670106515   0.5771772167526629   0.5771772167526629
0.9695645681556173   -0.0550745806666465   -0.005453201475228278
0.9695645681556173   -0.0550745806666465   -0.005453201475228278
0.9695645681556173   -0.0550745806666465   -0.005453201475228278
0.9695645681556173   -0.0550745806666465   -0.005453201475228278
1.6108350095647477   0.22799813449341838   0.18182678313051598
1.6108350095647477   0.22799813449341838   0.18182678313051598
1.6108350095647477   0.22799813449341838   0.18182678313051598
1.6108350095647477   0.22799813449341838   0.18182678313051598
1.0907445828711035   0.2726861457177759   0.2726861457177759
1.0907445828711035   0.2726861457177759   0.2726861457177759
1.0907445828711035   0.2726861457177759   0.2726861457177759
1.0907445828711035   0.2726861457177759   0.2726861457177759
2.1395233886572926   0.20141102673036676   0.10701601500816467
2.1395233886572926   0.20141102673036676   0.10701601500816467
2.1395233886572926   0.20141102673036676   0.10701601500816467
2.1395233886572926   0.20141102673036676   0.10701601500816467
2.239771144622909   0.5599427861557272   0.5599427861557272
2.239771144622909   0.5599427861557272   0.5599427861557272
2.239771144622909   0.5599427861557272   0.5599427861557272
2.239771144622909   0.5599427861557272   0.5599427861557272
0.972979065441292   -0.03035840811406587   0.00781446321842895
0.972979065441292   -0.03035840811406587   0.00781446321842895
0.972979065441292   -0.03035840811406587   0.00781446321842895
0.972979065441292   -0.03035840811406587   0.00781446321842895
1.5630869717802052   0.23458896492729026   0.0871855071122096
1.5630869717802052   0.23458896492729026   0.0871855071122096
1.5630869717802052   0.23458896492729026   0.0871855071122096
1.5630869717802052   0.23458896492729026   0.0871855071122096
1.0860976160226903   0.27152440400567257   0.27152440400567257
1.0860976160226903   0.27152440400567257   0.27152440400567257
1.0860976160226903   0.27152440400567257   0.27152440400567257
1.0860976160226903   0.27152440400567257   0.27152440400567257
2.0706735993952896   0.20208097938976904   0.07231686678360616
2.0706735993952896   0.20208097938976904   0.07231686678360616
2.0706735993952896   0.20208097938976904   0.07231686678360616
2.0706735993952896   0.20208097938976904   0.07231686678360616
2.1371251189212748   0.5342812797303187   0.5342812797303187
2.1371251189212748   0.5342812797303187   0.5342812797303187
2.1371251189212748   0.5342812797303187   0.5342812797303187
2.1371251189212748   0.5342812797303187   0.5342812797303187
1.0090101710639945   0.03194456890736802   0.030905939434122433
1.0090101710639945   0.03194456890736802   0.030905939434122433
1.0090101710639945   0.03194456890736802   0.030905939434122433
1.0090101710639945   0.03194456890736802   0.030905939434122433
1.496745908047526   0.25436756299725044   -0.02288917638352861
1.496745908047526   0.25436756299725044   -0.02288917638352861
1.496745908047526   0.25436756299725044   -0.02288917638352861
1.496745908047526   0.25436756299725044   -0.02288917638352861
-2.1896344843985163   -0.15679999766113667   0.024727436097882437
-2.1896344843985163   -0.15679999766113667   0.024727436097882437
-2.1896344843985163   -0.15679999766113667   0.024727436097882437
-2.1896344843985163   -0.15679999766113667   0.024727436097882437
-1.393812083445251   -0.032228009544669256   -0.009041222810239669
-1.393812083445251   -0.032228009544669256   -0.009041222810239669
-1.393812083445251   -0.032228009544669256   -0.009041222810239669
-1.393812083445251   -0.032228009544669256   -0.009041222810239669
-1.4031971031149224   0.05669514307898954   0.02935472326651478
-1.4031971031149224   0.05669514307898954   0.02935472326651478
-1.4031971031149224   0.05669514307898954   0.02935472326651478
-1.4031971031149224   0.05669514307898954   0.02935472326651478
-2.2222051481226393   -0.15162243077335397   -0.026347796092373185
-2.2222051481226393   -0.15162243077335397   -0.026347796092373185
-2.2222051481226393   -0.15162243077335397   -0.026347796092373185
-2.2222051481226393   -0.15162243077335397   -0.026347796092373185
-1.7313011042439308   -0.059148484597356055   -0.0069029059813110055
-1.7313011042439308   -0.059148484597356055   -0.0069029059813110055
-1.7313011042439308   -0.059148484597356055   -0.0069029059813110055
-1.7313011042439308   -0.059148484597356055   -0.0069029059813110055
-2.206016454305931   -0.10762085280746037   0.010594095025274433
-2.206016454305931   -0.10762085280746037   0.010594095025274433
-2.206016454305931   -0.10762085280746037   0.010594095025274433
-2.206016454305931   -0.10762085280746037   0.010594095025274433
-1.4217137613053437   0.010365600739387859   -0.01689902534596717
-1.4217137613053437   0.010365600739387859   -0.01689902534596717
-1.4217137613053437   0.010365600739387859   -0.01689902534596717
-1.4217137613053437   0.010365600739387859   -0.01689902534596717
-1.4048454129676111   0.0808352564688023   0.03341182216410088
-1.4048454129676111   0.0808352564688023   0.03341182216410088
-1.4048454129676111   0.0808352564688023   0.03341182216410088
-1.4048454129676111   0.0808352564688023   0.03341182216410088
-2.235641967495559   -0.13354382307114004   -0.034779467905243014
-2.235641967495559   -0.13354382307114004   -0.034779467905243014
-2.235641967495559   -0.13354382307114004   -0.034779467905243014
-2.235641967495559   -0.13354382307114004   -0.034779467905243014
-1.7798891538702404   -0.039587199309160825   -0.016898594721609567
-1.7798891538702404   -0.039587199309160825   -0.016898594721609567
-1.7798891538702404   -0.039587199309160825   -0.016898594721609567
-1.7798891538702404   -0.039587199309160825   -0.016898594721609567
-2.195466826505151   -0.06455075656366505   0.09710317053930431
-2.195466826505151   -0.06455075656366505   0.09710317053930431
-2.195466826505151   -0.06455075656366505   0.09710317053930431
-2.195466826505151   -0.06455075656366505   0.09710317053930431
-1.4282936875174896   0.02856905640185453   -0.03156335051833188
-1.4282936875174896   0.02856905640185453   -0.03156335051833188
-1.4282936875174896   0.02856905640185453   -0.03156335051833188
-1.4282936875174896   0.02856905640185453   -0.03156335051833188
-1.379264873109671   0.14086339164351014   0.06066298979691141
-1.379264873109671   0.14086339164351014   0.06066298979691141
-1.379264873109671   0.14086339164351014   0.06066298979691141
-1.379264873109671   0.14086339164351014   0.06066298979691141
-2.1738061116689713   -0.10773205773241329   -0.05687869077263752
-2.1738061116689713   -0.10773205773241329   -0.05687869077263752
-2.1738061116689713   -0.10773205773241329   -0.05687869077263752
-2.1738061116689713   -0.10773205773241329   -0.05687869077263752
-1.7117819569733492   0.015988348716893752   0.037946313855931536
-1.7117819569733492   0.015988348716893752   0.037946313855931536
-1.7117819569733492   0.015988348716893752   0.037946313855931536
-1.7117819569733492   0.015988348716893752   0.037946313855931536
-1.4284161759921354   -0.18938464597050414   -0.024905049118826753
-1.4284161759921354   -0.18938464597050414   -0.024905049118826753
-1.4284161759921354   -0.18938464597050414   -0.024905049118826753
-1.4284161759921354   -0.18938464597050414   -0.024905049118826753
-0.6581565202034363   -0.014678024824310715   0.006974552449911877
-0.6581565202034363   -0.014678024824310715   0.006974552449911877
-0.6581565202034363   -0.014678024824310715   0.006974552449911877
-0.6581565202034363   -0.014678024824310715   0.006974552449911877
-0.6677625327458115   0.012656802870618766   0.009982685937946618
-0.6677625327458115   0.012656802870618766   0.009982685937946618
-0.6677625327458115   0.012656802870618766   0.009982685937946618
-0.6677625327458115   0.012656802870618766   0.009982685937946618
-1.4567109444493065   -0.13861995602024957   -0.042899384306166674
-1.4567109444493065   -0.13861995602024957   -0.042899384306166674
-1.4567109444493065   -0.13861995602024957   -0.042899384306166674
-1.4567109444493065   -0.13861995602024957   -0.042899384306166674
-1.0527358637161384   -0.08549741462194613   -0.02415139170063557
-1.0527358637161384   -0.08549741462194613   -0.02415139170063557
-1.0527358637161384   -0.08549741462194613   -0.02415139170063557
-1.0527358637161384   -0.08549741462194613   -0.02415139170063557
-1.455333799955565   -0.15148392610872052   -0.02314969174899445
-1.455333799955565   -0.15148392610872052   -0.02314969174899445
-1.455333799955565   -0.15148392610872052   -0.02314969174899445
-1.455333799955565   -0.15148392610872052   -0.02314969174899445
-0.6665442584682406   0.02811619173039978   0.0006146684660141982
-0.6665442584682406   0.02811619173039978   0.0006146684660141982
-0.6665442584682406   0.02811619173039978   0.0006146684660141982
-0.6665442584682406   0.02811619173039978   0.0006146684660141982
-0.6652270673000259   0.04638972253786991   0.013543232362903092
-0.6652270673000259   0.04638972253786991   0.013543232362903092
-0.6652270673000259   0.04638972253786991   0.013543232362903092
-0.6652270673000259   0.04638972253786991   0.013543232362903092
-1.457289097358339   -0.10157010884691078   -0.0464012344738265
-1.457289097358339   -0.10157010884691078   -0.0464012344738265
-1.457289097358339   -0.10157010884691078   -0.0464012344738265
-1.457289097358339   -0.10157010884691078   -0.0464012344738265
-1.0506751735566766   -0.0475760303823399   -0.011483223032464157
-1.0506751735566766   -0.0475760303823399   -0.011483223032464157
-1.0506751735566766   -0.0475760303823399   -0.011483223032464157
-1.0506751735566766   -0.0475760303823399   -0.011483223032464157
-1.451585983100369   -0.11456821791746427   -0.004887554113422968
-1.451585983100369   -0.11456821791746427   -0.004887554113422968
-1.451585983100369   -0.11456821791746427   -0.004887554113422968
-1.451585983100369   -0.11456821791746427   -0.004887554113422968
-0.6661105043498885   0.0642075088165315   -0.008691739165065639
-0.6661105043498885   0.0642075088165315   -0.008691739165065639
-0.6661105043498885   0.0642075088165315   -0.008691739165065639
-0.6661105043498885   0.0642075088165315   -0.008691739165065639
-0.6540683516714606   0.08027266201591143   0.027183851044797806
-0.6540683516714606   0.08027266201591143   0.027183851044797806
-0.6540683516714606   0.08027266201591143   0.027183851044797806
-0.6540683516714606   0.08027266201591143   0.027183851044797806
-1.4416630750782933   -0.05876132424319286   -0.051703304159502375
-1.4416630750782933   -0.05876132424319286   -0.051703304159502375
-1.4416630750782933   -0.05876132424319286   -0.051703304159502375
-1.4416630750782933   -0.05876132424319286   -0.051703304159502375
-1.0462651587517422   -0.011690176048712447   0.005251369769844014
-1.0462651587517422   -0.011690176048712447   0.005251369769844014
-1.0462651587517422   -0.011690176048712447   0.005251369769844014
-1.0462651587517422   -0.011690176048712447   0.005251369769844014
-0.6940123811631216   -0.15765344404432619   -0.029329333128504827
-0.6940123811631216   -0.15765344404432619   -0.029329333128504827
-0.6940123811631216   -0.15765344404432619   -0.029329333128504827
-0.6940123811631216   -0.15765344404432619   -0.029329333128504827
0.07180037916937196   0.016319477539281854   0.027036279632421424
0.07180037916937196   0.016319477539281854   0.027036279632421424
0.07180037916937196   0.016319477539281854   0.027036279632421424
0.07180037916937196   0.016319477539281854   0.027036279632421424
0.06854672853393268   0.03971438961276639   0.002169598274460371
0.06854672853393268   0.03971438961276639   0.002169598274460371
0.06854672853393268   0.03971438961276639   0.002169598274460371
0.06854672853393268   0.03971438961276639   0.002169598274460371
-0.6969224355897149   -0.10443083312372997   -0.018729192287227633
-0.6969224355897149   -0.10443083312372997   -0.018729192287227633
-0.6969224355897149   -0.10443083312372997   -0.018729192287227633
-0.6969224355897149   -0.10443083312372997   -0.018729192287227633
-0.31567098684172956   -0.05228184853243943   -0.009996563895189459
-0.31567098684172956   -0.05228184853243943   -0.009996563895189459
-0.31567098684172956   -0.05228184853243943   -0.009996563895189459
-0.31567098684172956   -0.05228184853243943   -0.009996563895189459
-0.7017444156843534   -0.12019312005217749   -0.02707680583197208
-0.7017444156843534   -0.12019312005217749   -0.02707680583197208
-0.7017444156843534   -0.12019312005217749   -0.02707680583197208
-0.7017444156843534   -0.12019312005217749   -0.02707680583197208
0.07604550703360041   0.058153474946243004   0.021224405439321962
0.07604550703360041   0.058153474946243004   0.021224405439321962
0.07604550703360041   0.058153474946243004   0.021224405439321962
0.07604550703360041   0.058153474946243004   0.021224405439321962
0.07402215546596527   0.07683896742986164   0.012564312166454768
0.07402215546596527   0.07683896742986164   0.012564312166454768
0.07402215546596527   0.07683896742986164   0.012564312166454768
0.07402215546596527   0.07683896742986164   0.012564312166454768
-0.6946314517092189   -0.06371913218078017   -0.023369834964417645
-0.6946314517092189   -0.06371913218078017   -0.023369834964417645
-0.6946314517092189   -0.06371913218078017   -0.023369834964417645
-0.6946314517092189   -0.06371913218078017   -0.023369834964417645
-0.31069744101525454   -0.012830691429151143   0.0037066138198163286
-0.31069744101525454   -0.012830691429151143   0.0037066138198163286
-0.31069744101525454   -0.012830691429151143   0.0037066138198163286
-0.31069744101525454   -0.012830691429151143   0.0037066138198163286
-0.6964972139559534   -0.0825511038029894   -0.013866674575881331
-0.6964972139559534   -0.0825511038029894   -0.013866674575881331
-0.6964972139559534   -0.0825511038029894   -0.013866674575881331
-0.6964972139559534   -0.0825511038029894   -0.013866674575881331
0.07876852389646852   0.09855154523583946   0.014583576512993173
0.07876852389646852   0.09855154523583946   0.014583576512993173
0.07876852389646852   0.09855154523583946   0.014583576512993173
0.07876852389646852   0.09855154523583946   0.014583576512993173
0.07578531015076889   0.11813536595076107   0.020675811800225496
0.07578531015076889   0.11813536595076107   0.020675811800225496
0.07578531015076889   0.11813536595076107   0.020675811800225496
0.07578531015076889   0.11813536595076107   0.020675811800225496
-0.6854894515344592   -0.020199963240833563   -0.02944902301345255
-0.6854894515344592   -0.020199963240833563   -0.02944902301345255
-0.6854894515344592   -0.020199963240833563   -0.02944902301345255
-0.6854894515344592   -0.020199963240833563   -0.02944902301345255
-0.30287096435593763   0.028425999526894147   0.018708338473672138
-0.30287096435593763   0.028425999526894147   0.018708338473672138
-0.30287096435593763   0.028425999526894147   0.018708338473672138
-0.30287096435593763   0.028425999526894147   0.018708338473672138
0.03280600307879627   -0.11557891545171256   -0.036037207829462556
0.03280600307879627   -0.11557891545171256   -0.036037207829462556
0.03280600307879627   -0.11557891545171256   -0.036037207829462556
0.03280600307879627   -0.11557891545171256   -0.036037207829462556
0.8261629736799375   0.05699821880705261   0.049632180099306804
0.8261629736799375   0.05699821880705261   0.049632180099306804
0.8261629736799375   0.05699821880705261   0.049632180099306804
0.8261629736799375   0.05699821880705261   0.049632180099306804
0.8252111858510259   0.07681825728982315   -0.007945310344852706
0.8252111858510259   0.07681825728982315   -0.007945310344852706
0.8252111858510259   0.07681825728982315   -0.007945310344852706
0.8252111858510259   0.07681825728982315   -0.007945310344852706
0.0472863941120439   -0.06940605944609751   0.0049883752238798935
0.0472863941120439   -0.06940605944609751   0.0049883752238798935
0.0472863941120439   -0.06940605944609751   0.0049883752238798935
0.0472863941120439   -0.06940605944609751   0.0049883752238798935
0.4275299129308844   -0.009922575901722352   0.000891294097957112
0.4275299129308844   -0.009922575901722352   0.000891294097957112
0.4275299129308844   -0.009922575901722352   0.000891294097957112
0.4275299129308844   -0.009922575901722352   0.000891294097957112
0.03789913711161865   -0.08443823686163043   -0.026915732362712913
0.03789913711161865   -0.08443823686163043   -0.026915732362712913
0.03789913711161865   -0.08443823686163043   -0.026915732362712913
0.03789913711161865   -0.08443823686163043   -0.026915732362712913
0.8394120333002804   0.09666402515418517   0.04321315903705687
0.8394120333002804   0.09666402515418517   0.04321315903705687
0.8394120333002804   0.09666402515418517   0.04321315903705687
0.8394120333002804   0.09666402515418517   0.04321315903705687
0.8318077352790038   0.11353909279619395   0.008359697368022953
0.8318077352790038   0.11353909279619395   0.008359697368022953
0.8318077352790038   0.11353909279619395   0.008359697368022953
0.8318077352790038   0.11353909279619395   0.008359697368022953
0.04905643299754077   -0.03301769032388977   -0.0024076424219163506
0.04905643299754077   -0.03301769032388977   -0.0024076424219163506
0.04905643299754077   -0.03301769032388977   -0.0024076424219163506
0.04905643299754077   -0.03301769032388977   -0.0024076424219163506
0.43331764410834894   0.025175833534596237   0.01773298502860646
0.43331764410834894   0.025175833534596237   0.01773298502860646
0.43331764410834894   0.025175833534596237   0.01773298502860646
0.43331764410834894   0.025175833534596237   0.01773298502860646
0.04221202250931004   -0.04998455522395105   -0.019662829963008686
0.04221202250931004   -0.04998455522395105   -0.019662829963008686
0.04221202250931004   -0.04998455522395105   -0.019662829963008686
0.04221202250931004   -0.04998455522395105   -0.019662829963008686
0.8421358971522698   0.1339897090812919   0.03954989044925532
0.8421358971522698   0.1339897090812919   0.03954989044925532
0.8421358971522698   0.1339897090812919   0.03954989044925532
0.8421358971522698   0.1339897090812919   0.03954989044925532
0.8185206417455275   0.15591864687620902   0.017602849164197285
0.8185206417455275   0.15591864687620902   0.017602849164197285
0.8185206417455275   0.15591864687620902   0.017602849164197285
0.8185206417455275   0.15591864687620902   0.017602849164197285
0.04868343135372877   0.01203794567375716   -0.00873616190797117
0.04868343135372877   0.01203794567375716   -0.00873616190797117
0.04868343135372877   0.01203794567375716   -0.00873616190797117
0.04868343135372877   0.01203794567375716   -0.00873616190797117
0.4398047071630288   0.0652995609265965   0.033325895611005255
0.4398047071630288   0.0652995609265965   0.033325895611005255
0.4398047071630288   0.0652995609265965   0.033325895611005255
0.4398047071630288   0.0652995609265965   0.033325895611005255
0.7610070389822535   -0.15249956950457408   -0.06664970507748634
0.7610070389822535   -0.15249956950457408   -0.06664970507748634
0.7610070389822535   -0.15249956950457408   -0.06664970507748634
0.7610070389822535   -0.15249956950457408   -0.06664970507748634
1.5672298424223807   0.10352104373017082   0.04839267519555312
1.5672298424223807   0.10352104373017082   0.04839267519555312
1.5672298424223807   0.10352104373017082   0.04839267519555312
1.5672298424223807   0.10352104373017082   0.04839267519555312
1.5850431016311295   0.049059044657717155   -0.10026360832892017
1.5850431016311295   0.049059044657717155   -0.10026360832892017
1.5850431016311295   0.049059044657717155   -0.10026360832892017
1.5850431016311295   0.049059044657717155   -0.10026360832892017
0.8109831903266547   -0.0312196752867773   0.028952644609883976
0.8109831903266547   -0.0312196752867773   0.028952644609883976
0.8109831903266547   -0.0312196752867773   0.028952644609883976
0.8109831903266547   -0.0312196752867773   0.028952644609883976
1.122340306636036   -0.019652314465251508   -0.028112420426325974
1.122340306636036   -0.019652314465251508   -0.028112420426325974
1.122340306636036   -0.019652314465251508   -0.028112420426325974
1.122340306636036   -0.019652314465251508   -0.028112420426325974
0.7825388509995512   -0.10023902438774498   -0.04424970292465505
0.7825388509995512   -0.10023902438774498   -0.04424970292465505
0.7825388509995512   -0.10023902438774498   -0.04424970292465505
0.7825388509995512   -0.10023902438774498   -0.04424970292465505
1.6278894343518653   0.13248038715232266   0.0305467127801654
1.6278894343518653   0.13248038715232266   0.0305467127801654
1.6278894343518653   0.13248038715232266   0.0305467127801654
1.6278894343518653   0.13248038715232266   0.0305467127801654
1.602619797301797   0.08945569155473782   -0.022755770298059558
1.602619797301797   0.08945569155473782   -0.022755770298059558
1.602619797301797   0.08945569155473782   -0.022755770298059558
1.602619797301797   0.08945569155473782   -0.022755770298059558
0.8078029562812356   -0.01306970285586223   0.014944598031238293
0.8078029562812356   -0.01306970285586223   0.014944598031238293
0.8078029562812356   -0.01306970285586223   0.014944598031238293
0.8078029562812356   -0.01306970285586223   0.014944598031238293
1.1812134460200479   0.029511789858683107   0.019418616423809133
1.1812134460200479   0.029511789858683107   0.019418616423809133
1.1812134460200479   0.029511789858683107   0.019418616423809133
1.1812134460200479   0.029511789858683107   0.019418616423809133
0.7849749407162435   -0.07664596852723027   -0.03561921412234722
0.7849749407162435   -0.07664596852723027   -0.03561921412234722
0.7849749407162435   -0.07664596852723027   -0.03561921412234722
0.7849749407162435   -0.07664596852723027   -0.03561921412234722
1.6235466167688057   0.1511307611281249   0.020203257463596233
1.6235466167688057   0.1511307611281249   0.020203257463596233
1.6235466167688057   0.1511307611281249   0.020203257463596233
1.6235466167688057   0.1511307611281249   0.020203257463596233
1.6000694208651425   0.13701166460489347   -0.034817831879398506
1.6000694208651425   0.13701166460489347   -0.034817831879398506
1.6000694208651425   0.13701166460489347   -0.034817831879398506
1.6000694208651425   0.13701166460489347   -0.034817831879398506
0.7912292002947267   0.028744732937426354   0.008319555848973599
0.7912292002947267   0.028744732937426354   0.008319555848973599
0.7912292002947267   0.028744732937426354   0.008319555848973599
0.7912292002947267   0.028744732937426354   0.008319555848973599
1.1511001464905881   0.051764002695398714   0.014424246108891745
1.1511001464905881   0.051764002695398714   0.014424246108891745
1.1511001464905881   0.051764002695398714   0.014424246108891745
1.1511001464905881   0.051764002695398714   0.014424246108891745
-1.7207823773662188   -0.0780849738792685   0.08864424943772836
-1.7207823773662188   -0.0780849738792685   0.08864424943772836
-1.7207823773662188   -0.0780849738792685   0.08864424943772836
-1.7207823773662188   -0.0780849738792685   0.08864424943772836
-1.1428936834283043   -0.04345987697883813   -0.02306552240375591
-1.1428936834283043   -0.04345987697883813   -0.02306552240375591
-1.1428936834283043   -0.04345987697883813   -0.02306552240375591
-1.1428936834283043   -0.04345987697883813   -0.02306552240375591
-1.10164800985   0.09263124464916389   0.07436344274757715
-1.10164800985   0.09263124464916389   0.07436344274757715
-1.10164800985   0.09263124464916389   0.07436344274757715
-1.10164800985   0.09263124464916389   0.07436344274757715
-1.7286942041371742   -0.12343059653762045   -0.03613809083612288
-1.7286942041371742   -0.12343059653762045   -0.03613809083612288
-1.7286942041371742   -0.12343059653762045   -0.03613809083612288
-1.7286942041371742   -0.12343059653762045   -0.03613809083612288
-1.3657091861396184   -0.021115825072756056   -0.0025463747756112876
-1.3657091861396184   -0.021115825072756056   -0.0025463747756112876
-1.3657091861396184   -0.021115825072756056   -0.0025463747756112876
-1.3657091861396184   -0.021115825072756056   -0.0025463747756112876
-1.6805488939922104   -0.018158373382148096   0.09931623673322473
-1.6805488939922104   -0.018158373382148096   0.09931623673322473
-1.6805488939922104   -0.018158373382148096   0.09931623673322473
-1.6805488939922104   -0.018158373382148096   0.09931623673322473
-1.1422110329310744   -0.005058691442418217   -0.030761736566211617
-1.1422110329310744   -0.005058691442418217   -0.030761736566211617
-1.1422110329310744   -0.005058691442418217   -0.030761736566211617
-1.1422110329310744   -0.005058691442418217   -0.030761736566211617
-1.0971296101577606   0.114899457213126   0.06892457617829645
-1.0971296101577606   0.114899457213126   0.06892457617829645
-1.0971296101577606   0.114899457213126   0.06892457617829645
-1.0971296101577606   0.114899457213126   0.06892457617829645
-1.7018716377316718   -0.10324260764697252   -0.049474744117919425
-1.7018716377316718   -0.10324260764697252   -0.049474744117919425
-1.7018716377316718   -0.10324260764697252   -0.049474744117919425
-1.7018716377316718   -0.10324260764697252   -0.049474744117919425
-1.368575710444378   0.0050467212841320275   0.01576094634981516
-1.368575710444378   0.0050467212841320275   0.01576094634981516
-1.368575710444378   0.0050467212841320275   0.01576094634981516
-1.368575710444378   0.0050467212841320275   0.01576094634981516
-1.6570397951105873   0.002850731045839605   0.06859113029468947
-1.6570397951105873   0.002850731045839605   0.06859113029468947
-1.6570397951105873   0.002850731045839605   0.06859113029468947
-1.6570397951105873   0.002850731045839605   0.06859113029468947
-1.1394627929110508   0.011304778388110004   -0.03914665876312773
-1.1394627929110508   0.011304778388110004   -0.03914665876312773
-1.1394627929110508   0.011304778388110004   -0.03914665876312773
-1.1394627929110508   0.011304778388110004   -0.03914665876312773
-1.0981682859303414   0.12970919715998486   0.054689757950723575
-1.0981682859303414   0.12970919715998486   0.054689757950723575
-1.0981682859303414   0.12970919715998486   0.054689757950723575
-1.0981682859303414   0.12970919715998486   0.054689757950723575
-1.6670682965992416   -0.08177938866904177   -0.06308694223729576
-1.6670682965992416   -0.08177938866904177   -0.06308694223729576
-1.6670682965992416   -0.08177938866904177   -0.06308694223729576
-1.6670682965992416   -0.08177938866904177   -0.06308694223729576
-1.3292076036006304   0.02848104365433468   0.0328190199546384
-1.3292076036006304   0.02848104365433468   0.0328190199546384
-1.3292076036006304   0.02848104365433468   0.0328190199546384
-1.3292076036006304   0.02848104365433468   0.0328190199546384
-1.1462859026925012   -0.10866342579401872   0.02517693009044056
-1.1462859026925012   -0.10866342579401872   0.02517693009044056
-1.1462859026925012   -0.10866342579401872   0.02517693009044056
-1.1462859026925012   -0.10866342579401872   0.02517693009044056
-0.5789707418696028   -0.020956613947651706   0.0011055322614500693
-0.5789707418696028   -0.020956613947651706   0.0011055322614500693
-0.5789707418696028   -0.020956613947651706   0.0011055322614500693
-0.5789707418696028   -0.020956613947651706   0.0011055322614500693
-0.5625253301436808   0.05687950290359786   0.04041229600744474
-0.5625253301436808   0.05687950290359786   0.04041229600744474
-0.5625253301436808   0.05687950290359786   0.04041229600744474
-0.5625253301436808   0.05687950290359786   0.04041229600744474
-1.1645047700462938   -0.10716112437761668   -0.0401279892071096
-1.1645047700462938   -0.10716112437761668   -0.0401279892071096
-1.1645047700462938   -0.10716112437761668   -0.0401279892071096
-1.1645047700462938   -0.10716112437761668   -0.0401279892071096
-0.8600093118628602   -0.04220271001654799   -0.017439858626910568
-0.8600093118628602   -0.04220271001654799   -0.017439858626910568
-0.8600093118628602   -0.04220271001654799   -0.017439858626910568
-0.8600093118628602   -0.04220271001654799   -0.017439858626910568
-1.1426430757831456   -0.06235219489965166   0.024371552630664043
-1.1426430757831456   -0.06235219489965166   0.024371552630664043
-1.1426430757831456   -0.06235219489965166   0.024371552630664043
-1.1426430757831456   -0.06235219489965166   0.024371552630664043
-0.5799578612424463   0.01649973659001569   -0.006370593172795119
-0.5799578612424463   0.01649973659001569   -0.006370593172795119
-0.5799578612424463   0.01649973659001569   -0.006370593172795119
-0.5799578612424463   0.01649973659001569   -0.006370593172795119
-0.560716501027055   0.09401672253723506   0.03496032611561862
-0.560716501027055   0.09401672253723506   0.03496032611561862
-0.560716501027055   0.09401672253723506   0.03496032611561862
-0.560716501027055   0.09401672253723506   0.03496032611561862
-1.1578711067116878   -0.07250119695363538   -0.047382252424577886
-1.1578711067116878   -0.07250119695363538   -0.047382252424577886
-1.1578711067116878   -0.07250119695363538   -0.047382252424577886
-1.1578711067116878   -0.07250119695363538   -0.047382252424577886
-0.8505911518467398   -0.004634963939580655   -7.01837124028673e-05
-0.8505911518467398   -0.004634963939580655   -7.01837124028673e-05
-0.8505911518467398   -0.004634963939580655   -7.01837124028673e-05
-0.8505911518467398   -0.004634963939580655   -7.01837124028673e-05
-1.135563370588851   -0.024678058625878185   0.01633328986184903
-1.135563370588851   -0.024678058625878185   0.01633328986184903
-1.135563370588851   -0.024678058625878185   0.01633328986184903
-1.135563370588851   -0.024678058625878185   0.01633328986184903
-0.5794177856728385   0.049800035686534266   -0.01432941026259435
-0.5794177856728385   0.049800035686534266   -0.01432941026259435
-0.5794177856728385   0.049800035686534266   -0.01432941026259435
-0.5794177856728385   0.049800035686534266   -0.01432941026259435
-0.5605237908713399   0.13304584769121602   0.026193271305580842
-0.5605237908713399   0.13304584769121602   0.026193271305580842
-0.5605237908713399   0.13304584769121602   0.026193271305580842
-0.5605237908713399   0.13304584769121602   0.026193271305580842
-1.1522646432099712   -0.035095705655756426   -0.05098712563168552
-1.1522646432099712   -0.035095705655756426   -0.05098712563168552
-1.1522646432099712   -0.035095705655756426   -0.05098712563168552
-1.1522646432099712   -0.035095705655756426   -0.05098712563168552
-0.8511119744660488   0.029823681259388363   0.013208993462224997
-0.8511119744660488   0.029823681259388363   0.013208993462224997
-0.8511119744660488   0.029823681259388363   0.013208993462224997
-0.8511119744660488   0.029823681259388363   0.013208993462224997
-0.6005301374708505   -0.12423624471144698   -0.0034118149809985393
-0.6005301374708505   -0.12423624471144698   -0.0034118149809985393
-0.6005301374708505   -0.12423624471144698   -0.0034118149809985393
-0.6005301374708505   -0.12423624471144698   -0.0034118149809985393
-0.02026393604202947   0.006115405361939625   0.02564398469116603
-0.02026393604202947   0.006115405361939625   0.02564398469116603
-0.02026393604202947   0.006115405361939625   0.02564398469116603
-0.02026393604202947   0.006115405361939625   0.02564398469116603
-0.02243426929104913   0.03666430154160926   0.012258314740802804
-0.02243426929104913   0.03666430154160926   0.012258314740802804
-0.02243426929104913   0.03666430154160926   0.012258314740802804
-0.02243426929104913   0.03666430154160926   0.012258314740802804
-0.6009068547052182   -0.0796045469837566   -0.01501127691289391
-0.6009068547052182   -0.0796045469837566   -0.01501127691289391
-0.6009068547052182   -0.0796045469837566   -0.01501127691289391
-0.6009068547052182   -0.0796045469837566   -0.01501127691289391
-0.3119887336853613   -0.03895720885345043   -0.009764649523834396
-0.3119887336853613   -0.03895720885345043   -0.009764649523834396
-0.3119887336853613   -0.03895720885345043   -0.009764649523834396
-0.3119887336853613   -0.03895720885345043   -0.009764649523834396
-0.6002597181773099   -0.08302373286268633   -0.008356408394416719
-0.6002597181773099   -0.08302373286268633   -0.008356408394416719
-0.6002597181773099   -0.08302373286268633   -0.008356408394416719
-0.6002597181773099   -0.08302373286268633   -0.008356408394416719
-0.01977989051689342   0.04338500272260439   0.018809507430586243
-0.01977989051689342   0.04338500272260439   0.018809507430586243
-0.01977989051689342   0.04338500272260439   0.018809507430586243
-0.01977989051689342   0.04338500272260439   0.018809507430586243
-0.01966751577954309   0.07712275330784116   0.005875656549013217
-0.01966751577954309   0.07712275330784116   0.005875656549013217
-0.01966751577954309   0.07712275330784116   0.005875656549013217
-0.01966751577954309   0.07712275330784116   0.005875656549013217
-0.5993673271044957   -0.04227054005928549   -0.02200654167506539
-0.5993673271044957   -0.04227054005928549   -0.02200654167506539
-0.5993673271044957   -0.04227054005928549   -0.02200654167506539
-0.5993673271044957   -0.04227054005928549   -0.02200654167506539
-0.30893196733389666   -0.0015497344838633076   0.0042709261640933565
-0.30893196733389666   -0.0015497344838633076   0.0042709261640933565
-0.30893196733389666   -0.0015497344838633076   0.0042709261640933565
-0.30893196733389666   -0.0015497344838633076   0.0042709261640933565
-0.5984660160930416   -0.04313848616673102   -0.016632040510348903
-0.5984660160930416   -0.04313848616673102   -0.016632040510348903
-0.5984660160930416   -0.04313848616673102   -0.016632040510348903
-0.5984660160930416   -0.04313848616673102   -0.016632040510348903
-0.01784286426582605   0.08071666194045786   0.011405005484981716
-0.01784286426582605   0.08071666194045786   0.011405005484981716
-0.01784286426582605   0.08071666194045786   0.011405005484981716
-0.01784286426582605   0.08071666194045786   0.011405005484981716
-0.01905733269950549   0.11878946287309766   -0.0009340112787501395
-0.01905733269950549   0.11878946287309766   -0.0009340112787501395
-0.01905733269950549   0.11878946287309766   -0.0009340112787501395
-0.01905733269950549   0.11878946287309766   -0.0009340112787501395
-0.5990472295044906   -0.004302306668936329   -0.029075767500018793
-0.5990472295044906   -0.004302306668936329   -0.029075767500018793
-0.5990472295044906   -0.004302306668936329   -0.029075767500018793
-0.5990472295044906   -0.004302306668936329   -0.029075767500018793
-0.30655178157370366   0.03589338062606255   0.017142318883425274
-0.30655178157370366   0.03589338062606255   0.017142318883425274
-0.30655178157370366   0.03589338062606255   0.017142318883425274
-0.30655178157370366   0.03589338062606255   0.017142318883425274
-0.059781044407974535   -0.1360685426547626   -0.02975760912185681
-0.059781044407974535   -0.1360685426547626   -0.02975760912185681
-0.059781044407974535   -0.1360685426547626   -0.02975760912185681
-0.059781044407974535   -0.1360685426547626   -0.02975760912185681
0.5362985870257186   0.037799262372507775   0.04875507435819608
0.5362985870257186   0.037799262372507775   0.04875507435819608
0.5362985870257186   0.037799262372507775   0.04875507435819608
0.5362985870257186   0.037799262372507775   0.04875507435819608
0.5187498515458696   0.02004056185219602   -0.019241975718478178
0.5187498515458696   0.02004056185219602   -0.019241975718478178
0.5187498515458696   0.02004056185219602   -0.019241975718478178
0.5187498515458696   0.02004056185219602   -0.019241975718478178
-0.04007822912679952   -0.04979602324847005   0.010498840352130143
-0.04007822912679952   -0.04979602324847005   0.010498840352130143
-0.04007822912679952   -0.04979602324847005   0.010498840352130143
-0.04007822912679952   -0.04979602324847005   0.010498840352130143
0.23541402885409707   -0.0315162811225383   -0.005513159593470075
0.23541402885409707   -0.0315162811225383   -0.005513159593470075
0.23541402885409707   -0.0315162811225383   -0.005513159593470075
0.23541402885409707   -0.0315162811225383   -0.005513159593470075
-0.05954210401668214   -0.09924395465480834   -0.03737260269094465
-0.05954210401668214   -0.09924395465480834   -0.03737260269094465
-0.05954210401668214   -0.09924395465480834   -0.03737260269094465
-0.05954210401668214   -0.09924395465480834   -0.03737260269094465
0.5419688064238783   0.07324357324665914   0.04364978727709831
0.5419688064238783   0.07324357324665914   0.04364978727709831
0.5419688064238783   0.07324357324665914   0.04364978727709831
0.5419688064238783   0.07324357324665914   0.04364978727709831
0.5271749930330583   0.057681395164743375   -0.02703077501427579
0.5271749930330583   0.057681395164743375   -0.02703077501427579
0.5271749930330583   0.057681395164743375   -0.02703077501427579
0.5271749930330583   0.057681395164743375   -0.02703077501427579
-0.03892973975452364   -0.01634603921382247   0.0030333291957744327
-0.03892973975452364   -0.01634603921382247   0.0030333291957744327
-0.03892973975452364   -0.01634603921382247   0.0030333291957744327
-0.03892973975452364   -0.01634603921382247   0.0030333291957744327
0.23751233433627444   0.002327847399986767   0.008434471186096085
0.23751233433627444   0.002327847399986767   0.008434471186096085
0.23751233433627444   0.002327847399986767   0.008434471186096085
0.23751233433627444   0.002327847399986767   0.008434471186096085
-0.05786018798781624   -0.06292706356123282   -0.04503788762327855
-0.05786018798781624   -0.06292706356123282   -0.04503788762327855
-0.05786018798781624   -0.06292706356123282   -0.04503788762327855
-0.05786018798781624   -0.06292706356123282   -0.04503788762327855
0.550197718733916   0.10835469697971459   0.03740955167503554
0.550197718733916   0.10835469697971459   0.03740955167503554
0.550197718733916   0.10835469697971459   0.03740955167503554
0.550197718733916   0.10835469697971459   0.03740955167503554
0.532376390957634   0.10487893693223423   -0.028224165219483396
0.532376390957634   0.10487893693223423   -0.028224165219483396
0.532376390957634   0.10487893693223423   -0.028224165219483396
0.532376390957634   0.10487893693223423   -0.028224165219483396
-0.038962984911091375   0.022741284640484298   -0.004414094104065767
-0.038962984911091375   0.022741284640484298   -0.004414094104065767
-0.038962984911091375   0.022741284640484298   -0.004414094104065767
-0.038962984911091375   0.022741284640484298   -0.004414094104065767
0.24575535783918065   0.04006428043872467   0.02499646193604152
0.24575535783918065   0.04006428043872467   0.02499646193604152
0.24575535783918065   0.04006428043872467   0.02499646193604152
0.24575535783918065   0.04006428043872467   0.02499646193604152
0.48037426681300044   -0.13511838274782714   -0.05794888158505645
0.48037426681300044   -0.13511838274782714   -0.05794888158505645
0.48037426681300044   -0.13511838274782714   -0.05794888158505645
0.48037426681300044   -0.13511838274782714   -0.05794888158505645
1.056355812681624   0.07848712022674073   0.054237078510966936
1.056355812681624   0.07848712022674073   0.054237078510966936
1.056355812681624   0.07848712022674073   0.054237078510966936
1.056355812681624   0.07848712022674073   0.054237078510966936
1.0481266812017591   -0.005008269992346603   -0.07713381979307475
1.0481266812017591   -0.005008269992346603   -0.07713381979307475
1.0481266812017591   -0.005008269992346603   -0.07713381979307475
1.0481266812017591   -0.005008269992346603   -0.07713381979307475
0.523620127277707   -0.011257970950988738   0.03640793574389433
0.523620127277707   -0.011257970950988738   0.03640793574389433
0.523620127277707   -0.011257970950988738   0.03640793574389433
0.523620127277707   -0.011257970950988738   0.03640793574389433
0.7393959052414073   -0.02636788686207167   -0.024266664350528475
0.7393959052414073   -0.02636788686207167   -0.024266664350528475
0.7393959052414073   -0.02636788686207167   -0.024266664350528475
0.7393959052414073   -0.02636788686207167   -0.024266664350528475
0.48087545620793926   -0.11728869095306875   -0.07128469960286189
0.48087545620793926   -0.11728869095306875   -0.07128469960286189
0.48087545620793926   -0.11728869095306875   -0.07128469960286189
0.48087545620793926   -0.11728869095306875   -0.07128469960286189
1.0939419252442328   0.10409302298244166   0.04284110744450527
1.0939419252442328   0.10409302298244166   0.04284110744450527
1.0939419252442328   0.10409302298244166   0.04284110744450527
1.0939419252442328   0.10409302298244166   0.04284110744450527
1.0738654068739506   0.01646149336172556   -0.10346187147353769
1.0738654068739506   0.01646149336172556   -0.10346187147353769
1.0738654068739506   0.01646149336172556   -0.10346187147353769
1.0738654068739506   0.01646149336172556   -0.10346187147353769
0.5274950485258401   0.005120480471851263   0.0271304171425292
0.5274950485258401   0.005120480471851263   0.0271304171425292
0.5274950485258401   0.005120480471851263   0.0271304171425292
0.5274950485258401   0.005120480471851263   0.0271304171425292
0.7728883412723114   -0.0031555100374140443   -0.0073986704285452926
0.7728883412723114   -0.0031555100374140443   -0.0073986704285452926
0.7728883412723114   -0.0031555100374140443   -0.0073986704285452926
0.7728883412723114   -0.0031555100374140443   -0.0073986704285452926
0.486356953193346   -0.0958631157410888   -0.07757646330700518
0.486356953193346   -0.0958631157410888   -0.07757646330700518
0.486356953193346   -0.0958631157410888   -0.07757646330700518
0.486356953193346   -0.0958631157410888   -0.07757646330700518
1.1217864869193683   0.12422807428759008   0.02837694782769489
1.1217864869193683   0.12422807428759008   0.02837694782769489
1.1217864869193683   0.12422807428759008   0.02837694782769489
1.1217864869193683   0.12422807428759008   0.02837694782769489
1.1147327868827501   0.07231709055977939   -0.09732224262728464
1.1147327868827501   0.07231709055977939   -0.09732224262728464
1.1147327868827501   0.07231709055977939   -0.09732224262728464
1.1147327868827501   0.07231709055977939   -0.09732224262728464
0.5292676427702374   0.041298694741182945   0.0198123360345935
0.5292676427702374   0.041298694741182945   0.0198123360345935
0.5292676427702374   0.041298694741182945   0.0198123360345935
0.5292676427702374   0.041298694741182945   0.0198123360345935
0.7786344377562838   0.02338529582958615   0.011268082524913584
0.7786344377562838   0.02338529582958615   0.011268082524913584
0.7786344377562838   0.02338529582958615   0.011268082524913584
0.7786344377562838   0.02338529582958615   0.011268082524913584
-1.229771244297005   -0.04016225060827244   0.08030017031778057
-1.229771244297005   -0.04016225060827244   0.08030017031778057
-1.229771244297005   -0.04016225060827244   0.08030017031778057
-1.229771244297005   -0.04016225060827244   0.08030017031778057
-0.8605013303245411   -0.057498379039468805   -0.030324090555533603
-0.8605013303245411   -0.057498379039468805   -0.030324090555533603
-0.8605013303245411   -0.057498379039468805   -0.030324090555533603
-0.8605013303245411   -0.057498379039468805   -0.030324090555533603
-0.8099231246242732   0.08124515675286242   0.06846959610339048
-0.8099231246242732   0.08124515675286242   0.06846959610339048
-0.8099231246242732   0.08124515675286242   0.06846959610339048
-0.8099231246242732   0.08124515675286242   0.06846959610339048
-1.2298661697285689   -0.10123759883472785   -0.04435787779258795
-1.2298661697285689   -0.10123759883472785   -0.04435787779258795
-1.2298661697285689   -0.10123759883472785   -0.04435787779258795
-1.2298661697285689   -0.10123759883472785   -0.04435787779258795
-0.9902196267745977   -0.01577754816262325   -0.0021972718101058164
-0.9902196267745977   -0.01577754816262325   -0.0021972718101058164
-0.9902196267745977   -0.01577754816262325   -0.0021972718101058164
-0.9902196267745977   -0.01577754816262325   -0.0021972718101058164
-1.1838623139437712   0.008040133439681824   0.07638366885699158
-1.1838623139437712   0.008040133439681824   0.07638366885699158
-1.1838623139437712   0.008040133439681824   0.07638366885699158
-1.1838623139437712   0.008040133439681824   0.07638366885699158
-0.8521838234134884   -0.024289418525964973   -0.03729932256385416
-0.8521838234134884   -0.024289418525964973   -0.03729932256385416
-0.8521838234134884   -0.024289418525964973   -0.03729932256385416
-0.8521838234134884   -0.024289418525964973   -0.03729932256385416
-0.8022948525496773   0.09813994351325048   0.057861226501201304
-0.8022948525496773   0.09813994351325048   0.057861226501201304
-0.8022948525496773   0.09813994351325048   0.057861226501201304
-0.8022948525496773   0.09813994351325048   0.057861226501201304
-1.2007510140639805   -0.0824049382967657   -0.0560736440969026
-1.2007510140639805   -0.0824049382967657   -0.0560736440969026
-1.2007510140639805   -0.0824049382967657   -0.0560736440969026
-1.2007510140639805   -0.0824049382967657   -0.0560736440969026
-0.9832932370622911   0.006505376505448274   0.010382273658020497
-0.9832932370622911   0.006505376505448274   0.010382273658020497
-0.9832932370622911   0.006505376505448274   0.010382273658020497
-0.9832932370622911   0.006505376505448274   0.010382273658020497
-1.1551422018893556   0.028259436700803192   0.061306041778650414
-1.1551422018893556   0.028259436700803192   0.061306041778650414
-1.1551422018893556   0.028259436700803192   0.061306041778650414
-1.1551422018893556   0.028259436700803192   0.061306041778650414
-0.8445199821857803   -0.009140748945796695   -0.045983729220258035
-0.8445199821857803   -0.009140748945796695   -0.045983729220258035
-0.8445199821857803   -0.009140748945796695   -0.045983729220258035
-0.8445199821857803   -0.009140748945796695   -0.045983729220258035
-0.7980712657106888   0.1145953584958222   0.04978976269848655
-0.7980712657106888   0.1145953584958222   0.04978976269848655
-0.7980712657106888   0.1145953584958222   0.04978976269848655
-0.7980712657106888   0.1145953584958222   0.04978976269848655
-1.1617571488591911   -0.05750493769318846   -0.06713485708261446
-1.1617571488591911   -0.05750493769318846   -0.06713485708261446
-1.1617571488591911   -0.05750493769318846   -0.06713485708261446
-1.1617571488591911   -0.05750493769318846   -0.06713485708261446
-0.9463919462623603   0.027384679930008232   0.028029021072260674
-0.9463919462623603   0.027384679930008232   0.028029021072260674
-0.9463919462623603   0.027384679930008232   0.028029021072260674
-0.9463919462623603   0.027384679930008232   0.028029021072260674
-0.8508127022140308   -0.06951831523110086   0.030138986188646178
-0.8508127022140308   -0.06951831523110086   0.030138986188646178
-0.8508127022140308   -0.06951831523110086   0.030138986188646178
-0.8508127022140308   -0.06951831523110086   0.030138986188646178
-0.4934228590321731   -0.03725754547612395   -0.004894501876098311
-0.4934228590321731   -0.03725754547612395   -0.004894501876098311
-0.4934228590321731   -0.03725754547612395   -0.004894501876098311
-0.4934228590321731   -0.03725754547612395   -0.004894501876098311
-0.4683501402538375   0.04747874426783674   0.036916724227701224
-0.4683501402538375   0.04747874426783674   0.036916724227701224
-0.4683501402538375   0.04747874426783674   0.036916724227701224
-0.4683501402538375   0.04747874426783674   0.036916724227701224
-0.8636119156159215   -0.08273555858005949   -0.03599364352192783
-0.8636119156159215   -0.08273555858005949   -0.03599364352192783
-0.8636119156159215   -0.08273555858005949   -0.03599364352192783
-0.8636119156159215   -0.08273555858005949   -0.03599364352192783
-0.6663601278909161   -0.032488765181893406   -0.01361138985990604
-0.6663601278909161   -0.032488765181893406   -0.01361138985990604
-0.6663601278909161   -0.032488765181893406   -0.01361138985990604
-0.6663601278909161   -0.032488765181893406   -0.01361138985990604
-0.8408351847223725   -0.029475599165216415   0.024630051530968977
-0.8408351847223725   -0.029475599165216415   0.024630051530968977
-0.8408351847223725   -0.029475599165216415   0.024630051530968977
-0.8408351847223725   -0.029475599165216415   0.024630051530968977
-0.48820520047918203   -0.0028595444788012264   -0.012020288152391333
-0.48820520047918203   -0.0028595444788012264   -0.012020288152391333
-0.48820520047918203   -0.0028595444788012264   -0.012020288152391333
-0.48820520047918203   -0.0028595444788012264   -0.012020288152391333
-0.4623934672545598   0.0821242177958975   0.030267181865958472
-0.4623934672545598   0.0821242177958975   0.030267181865958472
-0.4623934672545598   0.0821242177958975   0.030267181865958472
-0.4623934672545598   0.0821242177958975   0.030267181865958472
-0.8519853867541615   -0.050041457900977915   -0.042410043106992125
-0.8519853867541615   -0.050041457900977915   -0.042410043106992125
-0.8519853867541615   -0.050041457900977915   -0.042410043106992125
-0.8519853867541615   -0.050041457900977915   -0.042410043106992125
-0.6535639909129884   0.0015627902443791086   0.0010171558236952982
-0.6535639909129884   0.0015627902443791086   0.0010171558236952982
-0.6535639909129884   0.0015627902443791086   0.0010171558236952982
-0.6535639909129884   0.0015627902443791086   0.0010171558236952982
-0.8274849797764423   0.007552154745379097   0.022498379135247333
-0.8274849797764423   0.007552154745379097   0.022498379135247333
-0.8274849797764423   0.007552154745379097   0.022498379135247333
-0.8274849797764423   0.007552154745379097   0.022498379135247333
-0.48326566646208474   0.028158812919735057   -0.02012840929550397
-0.48326566646208474   0.028158812919735057   -0.02012840929550397
-0.48326566646208474   0.028158812919735057   -0.02012840929550397
-0.48326566646208474   0.028158812919735057   -0.02012840929550397
-0.45663815579944844   0.11904199861212547   0.024074908297201568
-0.45663815579944844   0.11904199861212547   0.024074908297201568
-0.45663815579944844   0.11904199861212547   0.024074908297201568
-0.45663815579944844   0.11904199861212547   0.024074908297201568
-0.8432836476757746   -0.01480706341835733   -0.04686972521276912
-0.8432836476757746   -0.01480706341835733   -0.04686972521276912
-0.8432836476757746   -0.01480706341835733   -0.04686972521276912
-0.8432836476757746   -0.01480706341835733   -0.04686972521276912
-0.6486058772159965   0.033606463775616296   0.014948287255690456
-0.6486058772159965   0.033606463775616296   0.014948287255690456
-0.6486058772159965   0.033606463775616296   0.014948287255690456
-0.6486058772159965   0.033606463775616296   0.014948287255690456
-0.5038442775527507   -0.09548440655788096   0.001225266602774731
-0.5038442775527507   -0.09548440655788096   0.001225266602774731
-0.5038442775527507   -0.09548440655788096   0.001225266602774731
-0.5038442775527507   -0.09548440655788096   0.001225266602774731
-0.13012626540550648   -0.011159920482046467   0.020541095048561078
-0.13012626540550648   -0.011159920482046467   0.020541095048561078
-0.13012626540550648   -0.011159920482046467   0.020541095048561078
-0.13012626540550648   -0.011159920482046467   0.020541095048561078
-0.12693548496480825   0.019593021993488162   0.007005198232919924
-0.12693548496480825   0.019593021993488162   0.007005198232919924
-0.12693548496480825   0.019593021993488162   0.007005198232919924
-0.12693548496480825   0.019593021993488162   0.007005198232919924
-0.49831798006127664   -0.055851427962476115   -0.00959230257918958
-0.49831798006127664   -0.055851427962476115   -0.00959230257918958
-0.49831798006127664   -0.055851427962476115   -0.00959230257918958
-0.49831798006127664   -0.055851427962476115   -0.00959230257918958
-0.3153430804327572   -0.03419868652910516   -0.009674719101961401
-0.3153430804327572   -0.03419868652910516   -0.009674719101961401
-0.3153430804327572   -0.03419868652910516   -0.009674719101961401
-0.3153430804327572   -0.03419868652910516   -0.009674719101961401
-0.4975046735317279   -0.05683107912105271   -0.004546118772865268
-0.4975046735317279   -0.05683107912105271   -0.004546118772865268
-0.4975046735317279   -0.05683107912105271   -0.004546118772865268
-0.4975046735317279   -0.05683107912105271   -0.004546118772865268
-0.12481974350962548   0.02350172113679702   0.01367520636552494
-0.12481974350962548   0.02350172113679702   0.01367520636552494
-0.12481974350962548   0.02350172113679702   0.01367520636552494
-0.12481974350962548   0.02350172113679702   0.01367520636552494
-0.11974239155276381   0.05842057991859605   0.001824122662610398
-0.11974239155276381   0.05842057991859605   0.001824122662610398
-0.11974239155276381   0.05842057991859605   0.001824122662610398
-0.11974239155276381   0.05842057991859605   0.001824122662610398
-0.4923550826253326   -0.020948601255122143   -0.016468075936885512
-0.4923550826253326   -0.020948601255122143   -0.016468075936885512
-0.4923550826253326   -0.020948601255122143   -0.016468075936885512
-0.4923550826253326   -0.020948601255122143   -0.016468075936885512
-0.3076601192639339   0.0006926600099020352   0.004112428812122797
-0.3076601192639339   0.0006926600099020352   0.004112428812122797
-0.3076601192639339   0.0006926600099020352   0.004112428812122797
-0.3076601192639339   0.0006926600099020352   0.004112428812122797
-0.49052461536567527   -0.01812796462937752   -0.01013637626434433
-0.49052461536567527   -0.01812796462937752   -0.01013637626434433
-0.49052461536567527   -0.01812796462937752   -0.01013637626434433
-0.49052461536567527   -0.01812796462937752   -0.01013637626434433
-0.11886845741706469   0.05830434468820745   0.006310028571494548
-0.11886845741706469   0.05830434468820745   0.006310028571494548
-0.11886845741706469   0.05830434468820745   0.006310028571494548
-0.11886845741706469   0.05830434468820745   0.006310028571494548
-0.11328956965722786   0.09781129708775521   -0.004265408563839272
-0.11328956965722786   0.09781129708775521   -0.004265408563839272
-0.11328956965722786   0.09781129708775521   -0.004265408563839272
-0.11328956965722786   0.09781129708775521   -0.004265408563839272
-0.4871217568166647   0.014358576478012405   -0.023659674654764554
-0.4871217568166647   0.014358576478012405   -0.023659674654764554
-0.4871217568166647   0.014358576478012405   -0.023659674654764554
-0.4871217568166647   0.014358576478012405   -0.023659674654764554
-0.30064550418673985   0.03575129118783778   0.01739500057479026
-0.30064550418673985   0.03575129118783778   0.01739500057479026
-0.30064550418673985   0.03575129118783778   0.01739500057479026
-0.30064550418673985   0.03575129118783778   0.01739500057479026
-0.16076327232009113   -0.11677074697464616   -0.027033113031763402
-0.16076327232009113   -0.11677074697464616   -0.027033113031763402
-0.16076327232009113   -0.11677074697464616   -0.027033113031763402
-0.16076327232009113   -0.11677074697464616   -0.027033113031763402
0.22834865984170147   0.0181039687668662   0.04454318250432478
0.22834865984170147   0.0181039687668662   0.04454318250432478
0.22834865984170147   0.0181039687668662   0.04454318250432478
0.22834865984170147   0.0181039687668662   0.04454318250432478
0.2124132195103453   -0.006368616578482457   -0.024855574935076716
0.2124132195103453   -0.006368616578482457   -0.024855574935076716
0.2124132195103453   -0.006368616578482457   -0.024855574935076716
0.2124132195103453   -0.006368616578482457   -0.024855574935076716
-0.13437495924934373   -0.02710207631039447   0.016502925114123813
-0.13437495924934373   -0.02710207631039447   0.016502925114123813
-0.13437495924934373   -0.02710207631039447   0.016502925114123813
-0.13437495924934373   -0.02710207631039447   0.016502925114123813
0.03496226193803623   -0.03211775886111238   -0.006887092340705735
0.03496226193803623   -0.03211775886111238   -0.006887092340705735
0.03496226193803623   -0.03211775886111238   -0.006887092340705735
0.03496226193803623   -0.03211775886111238   -0.006887092340705735
-0.15522560459568124   -0.08157978499855392   -0.033272592929402996
-0.15522560459568124   -0.08157978499855392   -0.033272592929402996
-0.15522560459568124   -0.08157978499855392   -0.033272592929402996
-0.15522560459568124   -0.08157978499855392   -0.033272592929402996
0.2367496156496546   0.05159484290265078   0.0388629462803364
0.2367496156496546   0.05159484290265078   0.0388629462803364
0.2367496156496546   0.05159484290265078   0.0388629462803364
0.2367496156496546   0.05159484290265078   0.0388629462803364
0.22579653635170743   0.03036028530305443   -0.0281613243260568
0.22579653635170743   0.03036028530305443   -0.0281613243260568
0.22579653635170743   0.03036028530305443   -0.0281613243260568
0.22579653635170743   0.03036028530305443   -0.0281613243260568
-0.12918418331137313   0.004111474675285571   0.008924269112873029
-0.12918418331137313   0.004111474675285571   0.008924269112873029
-0.12918418331137313   0.004111474675285571   0.008924269112873029
-0.12918418331137313   0.004111474675285571   0.008924269112873029
0.04208100585648993   -0.0004796499170071529   0.0071386296591545075
0.04208100585648993   -0.0004796499170071529   0.0071386296591545075
0.04208100585648993   -0.0004796499170071529   0.0071386296591545075
0.04208100585648993   -0.0004796499170071529   0.0071386296591545075
-0.14930606650778894   -0.04711892070201382   -0.040454751491905284
-0.14930606650778894   -0.04711892070201382   -0.040454751491905284
-0.14930606650778894   -0.04711892070201382   -0.040454751491905284
-0.14930606650778894   -0.04711892070201382   -0.040454751491905284
0.24894143706342947   0.08461369819566056   0.033309766339945354
0.24894143706342947   0.08461369819566056   0.033309766339945354
0.24894143706342947   0.08461369819566056   0.033309766339945354
0.24894143706342947   0.08461369819566056   0.033309766339945354
0.23657354168942052   0.07222308766191517   -0.03254160559742332
0.23657354168942052   0.07222308766191517   -0.03254160559742332
0.23657354168942052   0.07222308766191517   -0.03254160559742332
0.23657354168942052   0.07222308766191517   -0.03254160559742332
-0.1236365454993894   0.040096222746433756   0.0017147865666744637
-0.1236365454993894   0.040096222746433756   0.0017147865666744637
-0.1236365454993894   0.040096222746433756   0.0017147865666744637
-0.1236365454993894   0.040096222746433756   0.0017147865666744637
0.0530779724812777   0.03393730252739263   0.0216628450005426
0.0530779724812777   0.03393730252739263   0.0216628450005426
0.0530779724812777   0.03393730252739263   0.0216628450005426
0.0530779724812777   0.03393730252739263   0.0216628450005426
0.18155026800461857   -0.11799197166141373   -0.05335283625280798
0.18155026800461857   -0.11799197166141373   -0.05335283625280798
0.18155026800461857   -0.11799197166141373   -0.05335283625280798
0.18155026800461857   -0.11799197166141373   -0.05335283625280798
0.5469391687180523   0.05393207922048575   0.057694130999756565
0.5469391687180523   0.05393207922048575   0.057694130999756565
0.5469391687180523   0.05393207922048575   0.057694130999756565
0.5469391687180523   0.05393207922048575   0.057694130999756565
0.5414837164537794   -0.029014367938065902   -0.07023763836756379
0.5414837164537794   -0.029014367938065902   -0.07023763836756379
0.5414837164537794   -0.029014367938065902   -0.07023763836756379
0.5414837164537794   -0.029014367938065902   -0.07023763836756379
0.22922569818132926   0.009783671185402978   0.04305453065595749
0.22922569818132926   0.009783671185402978   0.04305453065595749
0.22922569818132926   0.009783671185402978   0.04305453065595749
0.22922569818132926   0.009783671185402978   0.04305453065595749
0.35526182013533514   -0.02441015652138248   -0.018775420344471355
0.35526182013533514   -0.02441015652138248   -0.018775420344471355
0.35526182013533514   -0.02441015652138248   -0.018775420344471355
0.35526182013533514   -0.02441015652138248   -0.018775420344471355
0.18665998862219765   -0.09827471251810665   -0.06171563343619087
0.18665998862219765   -0.09827471251810665   -0.06171563343619087
0.18665998862219765   -0.09827471251810665   -0.06171563343619087
0.18665998862219765   -0.09827471251810665   -0.06171563343619087
0.5876033768506733   0.0825979666032102   0.04874832907563409
0.5876033768506733   0.0825979666032102   0.04874832907563409
0.5876033768506733   0.0825979666032102   0.04874832907563409
0.5876033768506733   0.0825979666032102   0.04874832907563409
0.571068234650334   -0.008438971651987925   -0.08424002960116055
0.571068234650334   -0.008438971651987925   -0.08424002960116055
0.571068234650334   -0.008438971651987925   -0.08424002960116055
0.571068234650334   -0.008438971651987925   -0.08424002960116055
0.23704256931092044   0.024855464450834655   0.033573661322226216
0.23704256931092044   0.024855464450834655   0.033573661322226216
0.23704256931092044   0.024855464450834655   0.033573661322226216
0.23704256931092044   0.024855464450834655   0.033573661322226216
0.3851472974067139   -0.0036629409137692165   -0.002251770260701367
0.3851472974067139   -0.0036629409137692165   -0.002251770260701367
0.3851472974067139   -0.0036629409137692165   -0.002251770260701367
0.3851472974067139   -0.0036629409137692165   -0.002251770260701367
0.19481150902658873   -0.08115628832185255   -0.07156988732674333
0.19481150902658873   -0.08115628832185255   -0.07156988732674333
0.19481150902658873   -0.08115628832185255   -0.07156988732674333
0.19481150902658873   -0.08115628832185255   -0.07156988732674333
0.6170027959978646   0.10127628218389799   0.03571752330061406
0.6170027959978646   0.10127628218389799   0.03571752330061406
0.6170027959978646   0.10127628218389799   0.03571752330061406
0.6170027959978646   0.10127628218389799   0.03571752330061406
0.6164951615698445   0.03674619257733329   -0.09017769358426195
0.6164951615698445   0.03674619257733329   -0.09017769358426195
0.6164951615698445   0.03674619257733329   -0.09017769358426195
0.6164951615698445   0.03674619257733329   -0.09017769358426195
0.245042167394436   0.05534786485212728   0.02667674573744012
0.245042167394436   0.05534786485212728   0.02667674573744012
0.245042167394436   0.05534786485212728   0.02667674573744012
0.245042167394436   0.05534786485212728   0.02667674573744012
0.40005168810056685   0.01920284588414195   0.011968567151414304
0.40005168810056685   0.01920284588414195   0.011968567151414304
0.40005168810056685   0.01920284588414195   0.011968567151414304
0.40005168810056685   0.01920284588414195   0.011968567151414304
-0.7370390281454586   -0.01234384003578215   0.07198630228382322
-0.7370390281454586   -0.01234384003578215   0.07198630228382322
-0.7370390281454586   -0.01234384003578215   0.07198630228382322
-0.7370390281454586   -0.01234384003578215   0.07198630228382322
-0.5749568435208938   -0.07298590270610358   -0.03561052896768398
-0.5749568435208938   -0.07298590270610358   -0.03561052896768398
-0.5749568435208938   -0.07298590270610358   -0.03561052896768398
-0.5749568435208938   -0.07298590270610358   -0.03561052896768398
-0.5204353068818323   0.06183115341803894   0.06155502062450928
-0.5204353068818323   0.06183115341803894   0.06155502062450928
-0.5204353068818323   0.06183115341803894   0.06155502062450928
-0.5204353068818323   0.06183115341803894   0.06155502062450928
-0.7339285592128159   -0.07995027519984717   -0.0484716374781491
-0.7339285592128159   -0.07995027519984717   -0.0484716374781491
-0.7339285592128159   -0.07995027519984717   -0.0484716374781491
-0.7339285592128159   -0.07995027519984717   -0.0484716374781491
-0.6170369535151919   -0.016980232301319217   -0.009090842682468011
-0.6170369535151919   -0.016980232301319217   -0.009090842682468011
-0.6170369535151919   -0.016980232301319217   -0.009090842682468011
-0.6170369535151919   -0.016980232301319217   -0.009090842682468011
-0.6885588749066982   0.029650614548901888   0.06877589430368737
-0.6885588749066982   0.029650614548901888   0.06877589430368737
-0.6885588749066982   0.029650614548901888   0.06877589430368737
-0.6885588749066982   0.029650614548901888   0.06877589430368737
-0.5626523722596272   -0.04461711740238679   -0.04308203544403587
-0.5626523722596272   -0.04461711740238679   -0.04308203544403587
-0.5626523722596272   -0.04461711740238679   -0.04308203544403587
-0.5626523722596272   -0.04461711740238679   -0.04308203544403587
-0.5075263605640699   0.07786742913004636   0.05206353953723154
-0.5075263605640699   0.07786742913004636   0.05206353953723154
-0.5075263605640699   0.07786742913004636   0.05206353953723154
-0.5075263605640699   0.07786742913004636   0.05206353953723154
-0.7002391080226837   -0.06177813559647467   -0.06056026760935815
-0.7002391080226837   -0.06177813559647467   -0.06056026760935815
-0.7002391080226837   -0.06177813559647467   -0.06056026760935815
-0.7002391080226837   -0.06177813559647467   -0.06056026760935815
-0.599425638191652   0.0040098825734199706   0.004304157428168833
-0.599425638191652   0.0040098825734199706   0.004304157428168833
-0.599425638191652   0.0040098825734199706   0.004304157428168833
-0.599425638191652   0.0040098825734199706   0.004304157428168833
-0.6548355988785517   0.04910725171888777   0.05557189079592792
-0.6548355988785517   0.04910725171888777   0.05557189079592792
-0.6548355988785517   0.04910725171888777   0.05557189079592792
-0.6548355988785517   0.04910725171888777   0.05557189079592792
-0.5499458684056094   -0.03003395688272685   -0.05213261365769335
-0.5499458684056094   -0.03003395688272685   -0.05213261365769335
-0.5499458684056094   -0.03003395688272685   -0.05213261365769335
-0.5499458684056094   -0.03003395688272685   -0.05213261365769335
-0.49707097623489216   0.09783970062501038   0.044902161884080645
-0.49707097623489216   0.09783970062501038   0.044902161884080645
-0.49707097623489216   0.09783970062501038   0.044902161884080645
-0.49707097623489216   0.09783970062501038   0.044902161884080645
-0.6549785820631813   -0.032685228194198945   -0.07008429185774864
-0.6549785820631813   -0.032685228194198945   -0.07008429185774864
-0.6549785820631813   -0.032685228194198945   -0.07008429185774864
-0.6549785820631813   -0.032685228194198945   -0.07008429185774864
-0.5638819504788681   0.024706506894255742   0.020923422179555028
-0.5638819504788681   0.024706506894255742   0.020923422179555028
-0.5638819504788681   0.024706506894255742   0.020923422179555028
-0.5638819504788681   0.024706506894255742   0.020923422179555028
-0.5547967918671518   -0.041760555290762   0.03396438188568483
-0.5547967918671518   -0.041760555290762   0.03396438188568483
-0.5547967918671518   -0.041760555290762   0.03396438188568483
-0.5547967918671518   -0.041760555290762   0.03396438188568483
-0.4073531280757027   -0.055336416685336384   -0.010542961811370908
-0.4073531280757027   -0.055336416685336384   -0.010542961811370908
-0.4073531280757027   -0.055336416685336384   -0.010542961811370908
-0.4073531280757027   -0.055336416685336384   -0.010542961811370908
-0.37695431723630207   0.02808836762074285   0.03146838910244913
-0.37695431723630207   0.02808836762074285   0.03146838910244913
-0.37695431723630207   0.02808836762074285   0.03146838910244913
-0.37695431723630207   0.02808836762074285   0.03146838910244913
-0.5630012888582369   -0.05901791528794377   -0.030425820551520277
-0.5630012888582369   -0.05901791528794377   -0.030425820551520277
-0.5630012888582369   -0.05901791528794377   -0.030425820551520277
-0.5630012888582369   -0.05901791528794377   -0.030425820551520277
-0.474214147353189   -0.029483230899112395   -0.012775268929493003
-0.474214147353189   -0.029483230899112395   -0.012775268929493003
-0.474214147353189   -0.029483230899112395   -0.012775268929493003
-0.474214147353189   -0.029483230899112395   -0.012775268929493003
-0.5403525799138386   -0.005104167465626794   0.028903976348143463
-0.5403525799138386   -0.005104167465626794   0.028903976348143463
-0.5403525799138386   -0.005104167465626794   0.028903976348143463
-0.5403525799138386   -0.005104167465626794   0.028903976348143463
-0.39706031806600633   -0.023282672086882283   -0.01769057533844322
-0.39706031806600633   -0.023282672086882283   -0.01769057533844322
-0.39706031806600633   -0.023282672086882283   -0.01769057533844322
-0.39706031806600633   -0.023282672086882283   -0.01769057533844322
-0.3658231013329347   0.0607068915824891   0.025169418889116207
-0.3658231013329347   0.0607068915824891   0.025169418889116207
-0.3658231013329347   0.0607068915824891   0.025169418889116207
-0.3658231013329347   0.0607068915824891   0.025169418889116207
-0.5463291452945982   -0.02765749034567179   -0.03642546463968707
-0.5463291452945982   -0.02765749034567179   -0.03642546463968707
-0.5463291452945982   -0.02765749034567179   -0.03642546463968707
-0.5463291452945982   -0.02765749034567179   -0.03642546463968707
-0.4581175599915519   0.0019674940636406485   0.001311068141832631
-0.4581175599915519   0.0019674940636406485   0.001311068141832631
-0.4581175599915519   0.0019674940636406485   0.001311068141832631
-0.4581175599915519   0.0019674940636406485   0.001311068141832631
-0.5223511589202209   0.02960732638709193   0.02619965049943109
-0.5223511589202209   0.02960732638709193   0.02619965049943109
-0.5223511589202209   0.02960732638709193   0.02619965049943109
-0.5223511589202209   0.02960732638709193   0.02619965049943109
-0.38686565111628884   0.006377511440744693   -0.025713949885913998
-0.38686565111628884   0.006377511440744693   -0.025713949885913998
-0.38686565111628884   0.006377511440744693   -0.025713949885913998
-0.38686565111628884   0.006377511440744693   -0.025713949885913998
-0.3547273236848293   0.09611213099748488   0.019169922875496775
-0.3547273236848293   0.09611213099748488   0.019169922875496775
-0.3547273236848293   0.09611213099748488   0.019169922875496775
-0.3547273236848293   0.09611213099748488   0.019169922875496775
-0.5325666180220631   0.006594688148068711   -0.04133103457482552
-0.5325666180220631   0.006594688148068711   -0.04133103457482552
-0.5325666180220631   0.006594688148068711   -0.04133103457482552
-0.5325666180220631   0.006594688148068711   -0.04133103457482552
-0.446477336479947   0.03279890322288778   0.015089180539842633
-0.446477336479947   0.03279890322288778   0.015089180539842633
-0.446477336479947   0.03279890322288778   0.015089180539842633
-0.446477336479947   0.03279890322288778   0.015089180539842633
-0.40686397691403753   -0.06941867194261873   0.005985049254229719
-0.40686397691403753   -0.06941867194261873   0.005985049254229719
-0.40686397691403753   -0.06941867194261873   0.005985049254229719
-0.40686397691403753   -0.06941867194261873   0.005985049254229719
-0.24200837485098295   -0.029200867199339835   0.014945968571445565
-0.24200837485098295   -0.029200867199339835   0.014945968571445565
-0.24200837485098295   -0.029200867199339835   0.014945968571445565
-0.24200837485098295   -0.029200867199339835   0.014945968571445565
-0.23372294812157118   -0.0006283463941100659   0.0019280733229352295
-0.23372294812157118   -0.0006283463941100659   0.0019280733229352295
-0.23372294812157118   -0.0006283463941100659   0.0019280733229352295
-0.23372294812157118   -0.0006283463941100659   0.0019280733229352295
-0.395900797779963   -0.03165869464996371   -0.0035169513451491115
-0.395900797779963   -0.03165869464996371   -0.0035169513451491115
-0.395900797779963   -0.03165869464996371   -0.0035169513451491115
-0.395900797779963   -0.03165869464996371   -0.0035169513451491115
-0.32013253409261405   -0.031195813607325644   -0.009303831293165725
-0.32013253409261405   -0.031195813607325644   -0.009303831293165725
-0.32013253409261405   -0.031195813607325644   -0.009303831293165725
-0.32013253409261405   -0.031195813607325644   -0.009303831293165725
-0.39542760692192686   -0.033264025966463315   0.0004543342615273959
-0.39542760692192686   -0.033264025966463315   0.0004543342615273959
-0.39542760692192686   -0.033264025966463315   0.0004543342615273959
-0.39542760692192686   -0.033264025966463315   0.0004543342615273959
-0.2316674493490897   0.0035056745529108563   0.008071546238319752
-0.2316674493490897   0.0035056745529108563   0.008071546238319752
-0.2316674493490897   0.0035056745529108563   0.008071546238319752
-0.2316674493490897   0.0035056745529108563   0.008071546238319752
-0.22163184346569814   0.03584598978497412   -0.003218359896054016
-0.22163184346569814   0.03584598978497412   -0.003218359896054016
-0.22163184346569814   0.03584598978497412   -0.003218359896054016
-0.22163184346569814   0.03584598978497412   -0.003218359896054016
-0.3847492183746611   0.0015146218714721382   -0.010268896608502723
-0.3847492183746611   0.0015146218714721382   -0.010268896608502723
-0.3847492183746611   0.0015146218714721382   -0.010268896608502723
-0.3847492183746611   0.0015146218714721382   -0.010268896608502723
-0.30737853621349803   0.0015963635863822517   0.004357045056325129
-0.30737853621349803   0.0015963635863822517   0.004357045056325129
-0.30737853621349803   0.0015963635863822517   0.004357045056325129
-0.30737853621349803   0.0015963635863822517   0.004357045056325129
-0.3834123505107576   0.0030996443930574047   -0.005169579810574518
-0.3834123505107576   0.0030996443930574047   -0.005169579810574518
-0.3834123505107576   0.0030996443930574047   -0.005169579810574518
-0.3834123505107576   0.0030996443930574047   -0.005169579810574518
-0.22068185778506583   0.03654782080791762   0.0008297374841601396
-0.22068185778506583   0.03654782080791762   0.0008297374841601396
-0.22068185778506583   0.03654782080791762   0.0008297374841601396
-0.22068185778506583   0.03654782080791762   0.0008297374841601396
-0.21021139252341348   0.07265489457305441   -0.009088448472805807
-0.21021139252341348   0.07265489457305441   -0.009088448472805807
-0.21021139252341348   0.07265489457305441   -0.009088448472805807
-0.21021139252341348   0.07265489457305441   -0.009088448472805807
-0.37429219889625615   0.03494369962159158   -0.017486021805737696
-0.37429219889625615   0.03494369962159158   -0.017486021805737696
-0.37429219889625615   0.03494369962159158   -0.017486021805737696
-0.37429219889625615   0.03494369962159158   -0.017486021805737696
-0.29531496830990184   0.03450632387323495   0.01746808707458011
-0.29531496830990184   0.03450632387323495   0.01746808707458011
-0.29531496830990184   0.03450632387323495   0.01746808707458011
-0.29531496830990184   0.03450632387323495   0.01746808707458011
-0.26230712443830007   -0.09340462825241275   -0.022344018312071102
-0.26230712443830007   -0.09340462825241275   -0.022344018312071102
-0.26230712443830007   -0.09340462825241275   -0.022344018312071102
-0.26230712443830007   -0.09340462825241275   -0.022344018312071102
-0.08131766616461576   -0.0014513677611859375   0.039186477922729494
-0.08131766616461576   -0.0014513677611859375   0.039186477922729494
-0.08131766616461576   -0.0014513677611859375   0.039186477922729494
-0.08131766616461576   -0.0014513677611859375   0.039186477922729494
-0.0924364586734481   -0.02777280021714141   -0.028789194995506518
-0.0924364586734481   -0.02777280021714141   -0.028789194995506518
-0.0924364586734481   -0.02777280021714141   -0.028789194995506518
-0.0924364586734481   -0.02777280021714141   -0.028789194995506518
-0.2302093679705507   -0.003565263086228461   0.02243289077015368
-0.2302093679705507   -0.003565263086228461   0.02243289077015368
-0.2302093679705507   -0.003565263086228461   0.02243289077015368
-0.2302093679705507   -0.003565263086228461   0.02243289077015368
-0.1665368547480304   -0.030172104770577773   -0.0067144415273355205
-0.1665368547480304   -0.030172104770577773   -0.0067144415273355205
-0.1665368547480304   -0.030172104770577773   -0.0067144415273355205
-0.1665368547480304   -0.030172104770577773   -0.0067144415273355205
-0.2515334535201667   -0.059487433500178426   -0.028265366563978496
-0.2515334535201667   -0.059487433500178426   -0.028265366563978496
-0.2515334535201667   -0.059487433500178426   -0.028265366563978496
-0.2515334535201667   -0.059487433500178426   -0.028265366563978496
-0.06827909090352638   0.030982652417109728   0.033242191219850975
-0.06827909090352638   0.030982652417109728   0.033242191219850975
-0.06827909090352638   0.030982652417109728   0.033242191219850975
-0.06827909090352638   0.030982652417109728   0.033242191219850975
-0.07475232043812503   0.006730949503969387   -0.032410219616955976
-0.07475232043812503   0.006730949503969387   -0.032410219616955976
-0.07475232043812503   0.006730949503969387   -0.032410219616955976
-0.07475232043812503   0.006730949503969387   -0.032410219616955976
-0.21992039626416218   0.02622086995989535   0.014963995936702222
-0.21992039626416218   0.02622086995989535   0.014963995936702222
-0.21992039626416218   0.02622086995989535   0.014963995936702222
-0.21992039626416218   0.02622086995989535   0.014963995936702222
-0.15296822612666938   0.00037035070503023404   0.007207683288610087
-0.15296822612666938   0.00037035070503023404   0.007207683288610087
-0.15296822612666938   0.00037035070503023404   0.007207683288610087
-0.15296822612666938   0.00037035070503023404   0.007207683288610087
-0.24056754698379865   -0.026966857851743506   -0.03508402984984284
-0.24056754698379865   -0.026966857851743506   -0.03508402984984284
-0.24056754698379865   -0.026966857851743506   -0.03508402984984284
-0.24056754698379865   -0.026966857851743506   -0.03508402984984284
-0.05146767130044362   0.0625561757336577   0.028187799841764727
-0.05146767130044362   0.0625561757336577   0.028187799841764727
-0.05146767130044362   0.0625561757336577   0.028187799841764727
-0.05146767130044362   0.0625561757336577   0.028187799841764727
-0.05979399432565615   0.045260170575460154   -0.03630802546191147
-0.05979399432565615   0.045260170575460154   -0.03630802546191147
-0.05979399432565615   0.045260170575460154   -0.03630802546191147
-0.05979399432565615   0.045260170575460154   -0.03630802546191147
-0.20938721628586068   0.059923521387995914   0.007763805900016921
-0.20938721628586068   0.059923521387995914   0.007763805900016921
-0.20938721628586068   0.059923521387995914   0.007763805900016921
-0.20938721628586068   0.059923521387995914   0.007763805900016921
-0.1389244652649817   0.03220630857464957   0.021131124187350005
-0.1389244652649817   0.03220630857464957   0.021131124187350005
-0.1389244652649817   0.03220630857464957   0.021131124187350005
-0.1389244652649817   0.03220630857464957   0.021131124187350005
-0.11866685464671155   -0.10044176508517175   -0.04856906716376562
-0.11866685464671155   -0.10044176508517175   -0.04856906716376562
-0.11866685464671155   -0.10044176508517175   -0.04856906716376562
-0.11866685464671155   -0.10044176508517175   -0.04856906716376562
0.03999785602336476   0.029674108018994165   0.05975978443932827
0.03999785602336476   0.029674108018994165   0.05975978443932827
0.03999785602336476   0.029674108018994165   0.05975978443932827
0.03999785602336476   0.029674108018994165   0.05975978443932827
0.040292787477695755   -0.04947721802603598   -0.0643170046976192
0.040292787477695755   -0.04947721802603598   -0.0643170046976192
0.040292787477695755   -0.04947721802603598   -0.0643170046976192
0.040292787477695755   -0.04947721802603598   -0.0643170046976192
-0.06514251534752769   0.03099661648214177   0.04891110493481313
-0.06514251534752769   0.03099661648214177   0.04891110493481313
-0.06514251534752769   0.03099661648214177   0.04891110493481313
-0.06514251534752769   0.03099661648214177   0.04891110493481313
-0.027181351364762473   -0.021329436343383565   -0.01135939636905961
-0.027181351364762473   -0.021329436343383565   -0.01135939636905961
-0.027181351364762473   -0.021329436343383565   -0.01135939636905961
-0.027181351364762473   -0.021329436343383565   -0.01135939636905961
-0.10777071070440315   -0.07739430649701481   -0.0558389488704084
-0.10777071070440315   -0.07739430649701481   -0.0558389488704084
-0.10777071070440315   -0.07739430649701481   -0.0558389488704084
-0.10777071070440315   -0.07739430649701481   -0.0558389488704084
0.08594994549416618   0.06194266761271443   0.052548899745982564
0.08594994549416618   0.06194266761271443   0.052548899745982564
0.08594994549416618   0.06194266761271443   0.052548899745982564
0.08594994549416618   0.06194266761271443   0.052548899745982564
0.07415607852955694   -0.029717407033054803   -0.07640420531584226
0.07415607852955694   -0.029717407033054803   -0.07640420531584226
0.07415607852955694   -0.029717407033054803   -0.07640420531584226
0.07415607852955694   -0.029717407033054803   -0.07640420531584226
-0.052704004974624435   0.04533469106858927   0.03922761613592697
-0.052704004974624435   0.04533469106858927   0.03922761613592697
-0.052704004974624435   0.04533469106858927   0.03922761613592697
-0.052704004974624435   0.04533469106858927   0.03922761613592697
0.0006587008294568226   -0.0009983557745829438   0.003726962970815711
0.0006587008294568226   -0.0009983557745829438   0.003726962970815711
0.0006587008294568226   -0.0009983557745829438   0.003726962970815711
0.0006587008294568226   -0.0009983557745829438   0.003726962970815711
-0.09475969668049457   -0.061135792730718994   -0.06458035859411523
-0.09475969668049457   -0.061135792730718994   -0.06458035859411523
-0.09475969668049457   -0.061135792730718994   -0.06458035859411523
-0.09475969668049457   -0.061135792730718994   -0.06458035859411523
0.11924369378806915   0.07978500031889615   0.03953146362476783
0.11924369378806915   0.07978500031889615   0.03953146362476783
0.11924369378806915   0.07978500031889615   0.03953146362476783
0.11924369378806915   0.07978500031889615   0.03953146362476783
0.12161427087395674   0.008962342467035294   -0.08182296966754059
0.12161427087395674   0.008962342467035294   -0.08182296966754059
0.12161427087395674   0.008962342467035294   -0.08182296966754059
0.12161427087395674   0.008962342467035294   -0.08182296966754059
-0.04108403210378682   0.07062388640711054   0.0318780698157868
-0.04108403210378682   0.07062388640711054   0.0318780698157868
-0.04108403210378682   0.07062388640711054   0.0318780698157868
-0.04108403210378682   0.07062388640711054   0.0318780698157868
0.02574903913220979   0.02036198309177069   0.018474560799392373
0.02574903913220979   0.02036198309177069   0.018474560799392373
0.02574903913220979   0.02036198309177069   0.018474560799392373
0.02574903913220979   0.02036198309177069   0.018474560799392373
-0.24410726476415429   0.013961098051137787   0.06827489606178022
-0.24410726476415429   0.013961098051137787   0.06827489606178022
-0.24410726476415429   0.013961098051137787   0.06827489606178022
-0.24410726476415429   0.013961098051137787   0.06827489606178022
-0.29026143510246616   -0.08900256373611087   -0.04023489759050679
-0.29026143510246616   -0.08900256373611087   -0.04023489759050679
-0.29026143510246616   -0.08900256373611087   -0.04023489759050679
-0.29026143510246616   -0.08900256373611087   -0.04023489759050679
-0.2317374858321188   0.041362887077264876   0.055903100526744826
-0.2317374858321188   0.041362887077264876   0.055903100526744826
-0.2317374858321188   0.041362887077264876   0.055903100526744826
-0.2317374858321188   0.041362887077264876   0.055903100526744826
-0.23704803711486444   -0.05852256630531157   -0.05184967870902329
-0.23704803711486444   -0.05852256630531157   -0.05184967870902329
-0.23704803711486444   -0.05852256630531157   -0.05184967870902329
-0.23704803711486444   -0.05852256630531157   -0.05184967870902329
-0.24445060609962357   -0.018802599647238245   -0.01867820556794629
-0.24445060609962357   -0.018802599647238245   -0.01867820556794629
-0.24445060609962357   -0.018802599647238245   -0.01867820556794629
-0.24445060609962357   -0.018802599647238245   -0.01867820556794629
-0.1920892797764374   0.05083018043217908   0.06359136124562188
-0.1920892797764374   0.05083018043217908   0.06359136124562188
-0.1920892797764374   0.05083018043217908   0.06359136124562188
-0.1920892797764374   0.05083018043217908   0.06359136124562188
-0.2738782764395068   -0.06517189292918388   -0.04826607250374241
-0.2738782764395068   -0.06517189292918388   -0.04826607250374241
-0.2738782764395068   -0.06517189292918388   -0.04826607250374241
-0.2738782764395068   -0.06517189292918388   -0.04826607250374241
-0.2136861978960006   0.0570535672214302   0.04704533635345239
-0.2136861978960006   0.0570535672214302   0.04704533635345239
-0.2136861978960006   0.0570535672214302   0.04704533635345239
-0.2136861978960006   0.0570535672214302   0.04704533635345239
-0.19836799980047687   -0.04079005928332654   -0.06458640765457169
-0.19836799980047687   -0.04079005928332654   -0.06458640765457169
-0.19836799980047687   -0.04079005928332654   -0.06458640765457169
-0.19836799980047687   -0.04079005928332654   -0.06458640765457169
-0.2159153548237693   0.0012439551968712464   -0.0038895042280819928
-0.2159153548237693   0.0012439551968712464   -0.0038895042280819928
-0.2159153548237693   0.0012439551968712464   -0.0038895042280819928
-0.2159153548237693   0.0012439551968712464   -0.0038895042280819928
-0.15315017109108922   0.06991186719460896   0.05080080941443135
-0.15315017109108922   0.06991186719460896   0.05080080941443135
-0.15315017109108922   0.06991186719460896   0.05080080941443135
-0.15315017109108922   0.06991186719460896   0.05080080941443135
-0.256246699076424   -0.050991031727539084   -0.05771257059968733
-0.256246699076424   -0.050991031727539084   -0.05771257059968733
-0.256246699076424   -0.050991031727539084   -0.05771257059968733
-0.256246699076424   -0.050991031727539084   -0.05771257059968733
-0.19717210708035718   0.08101949080280205   0.04063282814446281
-0.19717210708035718   0.08101949080280205   0.04063282814446281
-0.19717210708035718   0.08101949080280205   0.04063282814446281
-0.19717210708035718   0.08101949080280205   0.04063282814446281
-0.14673707692695842   -0.00708307539025449   -0.07275779305396637
-0.14673707692695842   -0.00708307539025449   -0.07275779305396637
-0.14673707692695842   -0.00708307539025449   -0.07275779305396637
-0.14673707692695842   -0.00708307539025449   -0.07275779305396637
-0.18161037204257807   0.022189202287760834   0.011943731298471951
-0.18161037204257807   0.022189202287760834   0.011943731298471951
-0.18161037204257807   0.022189202287760834   0.011943731298471951
-0.18161037204257807   0.022189202287760834   0.011943731298471951
-0.2598430416052153   -0.01596242149753345   0.03881692765716607
-0.2598430416052153   -0.01596242149753345   0.03881692765716607
-0.2598430416052153   -0.01596242149753345   0.03881692765716607
-0.2598430416052153   -0.01596242149753345   0.03881692765716607
-0.32259919804085535   -0.07259884221981895   -0.01571969899976351
-0.32259919804085535   -0.07259884221981895   -0.01571969899976351
-0.32259919804085535   -0.07259884221981895   -0.01571969899976351
-0.32259919804085535   -0.07259884221981895   -0.01571969899976351
-0.2876044837334717   0.007334812423064281   0.025941012878754898
-0.2876044837334717   0.007334812423064281   0.025941012878754898
-0.2876044837334717   0.007334812423064281   0.025941012878754898
-0.2876044837334717   0.007334812423064281   0.025941012878754898
-0.2628094432056849   -0.03429151066657251   -0.023802288597243298
-0.2628094432056849   -0.03429151066657251   -0.023802288597243298
-0.2628094432056849   -0.03429151066657251   -0.023802288597243298
-0.2628094432056849   -0.03429151066657251   -0.023802288597243298
-0.28341652325212296   -0.02666561168669887   -0.013145273725889462
-0.28341652325212296   -0.02666561168669887   -0.013145273725889462
-0.28341652325212296   -0.02666561168669887   -0.013145273725889462
-0.28341652325212296   -0.02666561168669887   -0.013145273725889462
-0.24075649009147437   0.018292001530967203   0.03387896477626473
-0.24075649009147437   0.018292001530967203   0.03387896477626473
-0.24075649009147437   0.018292001530967203   0.03387896477626473
-0.24075649009147437   0.018292001530967203   0.03387896477626473
-0.30745026245629636   -0.04304152538309461   -0.022911542929211683
-0.30745026245629636   -0.04304152538309461   -0.022911542929211683
-0.30745026245629636   -0.04304152538309461   -0.022911542929211683
-0.30745026245629636   -0.04304152538309461   -0.022911542929211683
-0.2714863289786222   0.03855449710910704   0.019791656318231137
-0.2714863289786222   0.03855449710910704   0.019791656318231137
-0.2714863289786222   0.03855449710910704   0.019791656318231137
-0.2714863289786222   0.03855449710910704   0.019791656318231137
-0.24125524408668558   -0.004199366609328008   -0.029546960769206536
-0.24125524408668558   -0.004199366609328008   -0.029546960769206536
-0.24125524408668558   -0.004199366609328008   -0.029546960769206536
-0.24125524408668558   -0.004199366609328008   -0.029546960769206536
-0.2641625565418988   0.0024683949517591702   0.0005052348483410973
-0.2641625565418988   0.0024683949517591702   0.0005052348483410973
-0.2641625565418988   0.0024683949517591702   0.0005052348483410973
-0.2641625565418988   0.0024683949517591702   0.0005052348483410973
-0.21812975872298573   0.051369749820483236   0.03051134961947361
-0.21812975872298573   0.051369749820483236   0.03051134961947361
-0.21812975872298573   0.051369749820483236   0.03051134961947361
-0.21812975872298573   0.051369749820483236   0.03051134961947361
-0.29225914765136407   -0.014661952629747815   -0.03085598730662715
-0.29225914765136407   -0.014661952629747815   -0.03085598730662715
-0.29225914765136407   -0.014661952629747815   -0.03085598730662715
-0.29225914765136407   -0.014661952629747815   -0.03085598730662715
-0.2552899314704937   0.07310559450454894   0.01394681065600626
-0.2552899314704937   0.07310559450454894   0.01394681065600626
-0.2552899314704937   0.07310559450454894   0.01394681065600626
-0.2552899314704937   0.07310559450454894   0.01394681065600626
-0.22265481603402598   0.029195634853850357   -0.034956860674930174
-0.22265481603402598   0.029195634853850357   -0.034956860674930174
-0.22265481603402598   0.029195634853850357   -0.034956860674930174
-0.22265481603402598   0.029195634853850357   -0.034956860674930174
-0.2459594879619308   0.0325517117576259   0.014397311969227777
-0.2459594879619308   0.0325517117576259   0.014397311969227777
-0.2459594879619308   0.0325517117576259   0.014397311969227777
-0.2459594879619308   0.0325517117576259   0.014397311969227777
-0.3115376105528746   -0.0439150240082881   0.010904420228603693
-0.3115376105528746   -0.0439150240082881   0.010904420228603693
-0.3115376105528746   -0.0439150240082881   0.010904420228603693
-0.3115376105528746   -0.0439150240082881   0.010904420228603693
-0.35483279304062526   -0.045836637448131975   0.009508426322573399
-0.35483279304062526   -0.045836637448131975   0.009508426322573399
-0.35483279304062526   -0.045836637448131975   0.009508426322573399
-0.35483279304062526   -0.045836637448131975   0.009508426322573399
-0.3419157152078794   -0.02083057612346275   -0.0033614412847585446
-0.3419157152078794   -0.02083057612346275   -0.0033614412847585446
-0.3419157152078794   -0.02083057612346275   -0.0033614412847585446
-0.3419157152078794   -0.02083057612346275   -0.0033614412847585446
-0.2948829214500042   -0.006216406702679721   0.0031000434218344183
-0.2948829214500042   -0.006216406702679721   0.0031000434218344183
-0.2948829214500042   -0.006216406702679721   0.0031000434218344183
-0.2948829214500042   -0.006216406702679721   0.0031000434218344183
-0.32628091554814304   -0.027544339449444497   -0.008722868186621116
-0.32628091554814304   -0.027544339449444497   -0.008722868186621116
-0.32628091554814304   -0.027544339449444497   -0.008722868186621116
-0.32628091554814304   -0.027544339449444497   -0.008722868186621116
-0.29512103258559425   -0.009717279278177497   0.005410360319379944
-0.29512103258559425   -0.009717279278177497   0.005410360319379944
-0.29512103258559425   -0.009717279278177497   0.005410360319379944
-0.29512103258559425   -0.009717279278177497   0.005410360319379944
-0.339596589339319   -0.015248688814999634   0.002652300749580387
-0.339596589339319   -0.015248688814999634   0.002652300749580387
-0.339596589339319   -0.015248688814999634   0.002652300749580387
-0.339596589339319   -0.015248688814999634   0.002652300749580387
-0.3249842359885839   0.013815425489947727   -0.00852986090217123
-0.3249842359885839   0.013815425489947727   -0.00852986090217123
-0.3249842359885839   0.013815425489947727   -0.00852986090217123
-0.3249842359885839   0.013815425489947727   -0.00852986090217123
-0.27881912075800563   0.02521600336946206   -0.0035338088390426785
-0.27881912075800563   0.02521600336946206   -0.0035338088390426785
-0.27881912075800563   0.02521600336946206   -0.0035338088390426785
-0.27881912075800563   0.02521600336946206   -0.0035338088390426785
-0.3085930266977308   0.0034257534519196026   0.004754554683083842
-0.3085930266977308   0.0034257534519196026   0.004754554683083842
-0.3085930266977308   0.0034257534519196026   0.004754554683083842
-0.3085930266977308   0.0034257534519196026   0.004754554683083842
-0.2782556432608504   0.024805860515973624   -0.00030627849978013405
-0.2782556432608504   0.024805860515973624   -0.00030627849978013405
-0.2782556432608504   0.024805860515973624   -0.00030627849978013405
-0.2782556432608504   0.024805860515973624   -0.00030627849978013405
-0.3237324667723746   0.016040815056800717   -0.004496404387980449
-0.3237324667723746   0.016040815056800717   -0.004496404387980449
-0.3237324667723746   0.016040815056800717   -0.004496404387980449
-0.3237324667723746   0.016040815056800717   -0.004496404387980449
-0.3087719504897584   0.04867227564621483   -0.014363390089119056
-0.3087719504897584   0.04867227564621483   -0.014363390089119056
-0.3087719504897584   0.04867227564621483   -0.014363390089119056
-0.3087719504897584   0.04867227564621483   -0.014363390089119056
-0.263508603148708   0.05677711220802545   -0.010818065438540563
-0.263508603148708   0.05677711220802545   -0.010818065438540563
-0.263508603148708   0.05677711220802545   -0.010818065438540563
-0.263508603148708   0.05677711220802545   -0.010818065438540563
-0.29172318596332636   0.03445247071912866   0.017601310367459766
-0.29172318596332636   0.03445247071912866   0.017601310367459766
-0.29172318596332636   0.03445247071912866   0.017601310367459766
-0.29172318596332636   0.03445247071912866   0.017601310367459766
-0.3650294212203757   -0.06957773730145682   -0.017733614722856988
-0.3650294212203757   -0.06957773730145682   -0.017733614722856988
-0.3650294212203757   -0.06957773730145682   -0.017733614722856988
-0.3650294212203757   -0.06957773730145682   -0.017733614722856988
-0.38981237601866275   -0.01962593054333999   0.03361813809588473
-0.38981237601866275   -0.01962593054333999   0.03361813809588473
-0.38981237601866275   -0.01962593054333999   0.03361813809588473
-0.38981237601866275   -0.01962593054333999   0.03361813809588473
-0.39608864938913746   -0.047836652664545946   -0.033044775702847
-0.39608864938913746   -0.047836652664545946   -0.033044775702847
-0.39608864938913746   -0.047836652664545946   -0.033044775702847
-0.39608864938913746   -0.047836652664545946   -0.033044775702847
-0.32723356939009074   0.02085259428201261   0.028366117398709603
-0.32723356939009074   0.02085259428201261   0.028366117398709603
-0.32723356939009074   0.02085259428201261   0.028366117398709603
-0.32723356939009074   0.02085259428201261   0.028366117398709603
-0.36800534833366605   -0.02716713087709602   -0.0054820512817133
-0.36800534833366605   -0.02716713087709602   -0.0054820512817133
-0.36800534833366605   -0.02716713087709602   -0.0054820512817133
-0.36800534833366605   -0.02716713087709602   -0.0054820512817133
-0.3490598092648704   -0.03650368919813374   -0.023408798495044847
-0.3490598092648704   -0.03650368919813374   -0.023408798495044847
-0.3490598092648704   -0.03650368919813374   -0.023408798495044847
-0.3490598092648704   -0.03650368919813374   -0.023408798495044847
-0.37208036549279866   0.011701674837157727   0.027458316277143204
-0.37208036549279866   0.011701674837157727   0.027458316277143204
-0.37208036549279866   0.011701674837157727   0.027458316277143204
-0.37208036549279866   0.011701674837157727   0.027458316277143204
-0.3738998612658358   -0.01498283426561077   -0.037075060189154754
-0.3738998612658358   -0.01498283426561077   -0.037075060189154754
-0.3738998612658358   -0.01498283426561077   -0.037075060189154754
-0.3738998612658358   -0.01498283426561077   -0.037075060189154754
-0.31198811411407934   0.0492020336688906   0.021064140291405742
-0.31198811411407934   0.0492020336688906   0.021064140291405742
-0.31198811411407934   0.0492020336688906   0.021064140291405742
-0.31198811411407934   0.0492020336688906   0.021064140291405742
-0.3479085740535608   0.002656914947869876   0.00842979197810703
-0.3479085740535608   0.002656914947869876   0.00842979197810703
-0.3479085740535608   0.002656914947869876   0.00842979197810703
-0.3479085740535608   0.002656914947869876   0.00842979197810703
-0.3331379724221035   -0.005426723312497023   -0.03005639426733024
-0.3331379724221035   -0.005426723312497023   -0.03005639426733024
-0.3331379724221035   -0.005426723312497023   -0.03005639426733024
-0.3331379724221035   -0.005426723312497023   -0.03005639426733024
-0.3505447930246221   0.04185113264896852   0.02286631410233814
-0.3505447930246221   0.04185113264896852   0.02286631410233814
-0.3505447930246221   0.04185113264896852   0.02286631410233814
-0.3505447930246221   0.04185113264896852   0.02286631410233814
-0.3544828352563832   0.0212149404111011   -0.04068348001393466
-0.3544828352563832   0.0212149404111011   -0.04068348001393466
-0.3544828352563832   0.0212149404111011   -0.04068348001393466
-0.3544828352563832   0.0212149404111011   -0.04068348001393466
-0.29670067542427986   0.08080289167850856   0.013862369205980107
-0.29670067542427986   0.08080289167850856   0.013862369205980107
-0.29670067542427986   0.08080289167850856   0.013862369205980107
-0.29670067542427986   0.08080289167850856   0.013862369205980107
-0.33083936971383815   0.03225383582409154   0.021732394901036144
-0.33083936971383815   0.03225383582409154   0.021732394901036144
-0.33083936971383815   0.03225383582409154   0.021732394901036144
-0.33083936971383815   0.03225383582409154   0.021732394901036144
-0.41805011263398284   -0.0827722814209621   -0.044424194103099446
-0.41805011263398284   -0.0827722814209621   -0.044424194103099446
-0.41805011263398284   -0.0827722814209621   -0.044424194103099446
-0.41805011263398284   -0.0827722814209621   -0.044424194103099446
-0.4623765648571306   0.006380652507013557   0.060485172212879974
-0.4623765648571306   0.006380652507013557   0.060485172212879974
-0.4623765648571306   0.006380652507013557   0.060485172212879974
-0.4623765648571306   0.006380652507013557   0.060485172212879974
-0.45615823361425245   -0.06882291580892137   -0.05917083825377775
-0.45615823361425245   -0.06882291580892137   -0.05917083825377775
-0.45615823361425245   -0.06882291580892137   -0.05917083825377775
-0.45615823361425245   -0.06882291580892137   -0.05917083825377775
-0.3586320808890779   0.05218502575202723   0.05421638838087446
-0.3586320808890779   0.05218502575202723   0.05421638838087446
-0.3586320808890779   0.05218502575202723   0.05421638838087446
-0.3586320808890779   0.05218502575202723   0.05421638838087446
-0.4068208972645978   -0.01778215528408103   -0.0027111113483795704
-0.4068208972645978   -0.01778215528408103   -0.0027111113483795704
-0.4068208972645978   -0.01778215528408103   -0.0027111113483795704
-0.4068208972645978   -0.01778215528408103   -0.0027111113483795704
-0.40130696593911386   -0.05617758070549563   -0.050795430411787135
-0.40130696593911386   -0.05617758070549563   -0.050795430411787135
-0.40130696593911386   -0.05617758070549563   -0.050795430411787135
-0.40130696593911386   -0.05617758070549563   -0.050795430411787135
-0.41117674280514444   0.041846296407672706   0.05506740357516837
-0.41117674280514444   0.041846296407672706   0.05506740357516837
-0.41117674280514444   0.041846296407672706   0.05506740357516837
-0.41117674280514444   0.041846296407672706   0.05506740357516837
-0.4178371801326157   -0.04964258226101839   -0.07052557535412006
-0.4178371801326157   -0.04964258226101839   -0.07052557535412006
-0.4178371801326157   -0.04964258226101839   -0.07052557535412006
-0.4178371801326157   -0.04964258226101839   -0.07052557535412006
-0.34147367392073846   0.06569476887216505   0.044378273398556864
-0.34147367392073846   0.06569476887216505   0.044378273398556864
-0.34147367392073846   0.06569476887216505   0.044378273398556864
-0.34147367392073846   0.06569476887216505   0.044378273398556864
-0.38088247805416764   0.0022629280763532544   0.010637479532121344
-0.38088247805416764   0.0022629280763532544   0.010637479532121344
-0.38088247805416764   0.0022629280763532544   0.010637479532121344
-0.38088247805416764   0.0022629280763532544   0.010637479532121344
-0.38332029491891023   -0.04038841890956618   -0.05877164381057362
-0.38332029491891023   -0.04038841890956618   -0.05877164381057362
-0.38332029491891023   -0.04038841890956618   -0.05877164381057362
-0.38332029491891023   -0.04038841890956618   -0.05877164381057362
-0.37357316910343674   0.05885799555172176   0.04229390197903871
-0.37357316910343674   0.05885799555172176   0.04229390197903871
-0.37357316910343674   0.05885799555172176   0.04229390197903871
-0.37357316910343674   0.05885799555172176   0.04229390197903871
-0.3675403509934113   -0.01645777126357631   -0.07707389964802289
-0.3675403509934113   -0.01645777126357631   -0.07707389964802289
-0.3675403509934113   -0.01645777126357631   -0.07707389964802289
-0.3675403509934113   -0.01645777126357631   -0.07707389964802289
-0.32610814495728574   0.08585124558886606   0.03655366630378524
-0.32610814495728574   0.08585124558886606   0.03655366630378524
-0.32610814495728574   0.08585124558886606   0.03655366630378524
-0.32610814495728574   0.08585124558886606   0.03655366630378524
-0.3454008807664397   0.02229176755005431   0.026090868940219874
-0.3454008807664397   0.02229176755005431   0.026090868940219874
-0.3454008807664397   0.02229176755005431   0.026090868940219874
-0.3454008807664397   0.02229176755005431   0.026090868940219874
0.25297753392111294   0.04090020764432695   0.06603999028809988
0.25297753392111294   0.04090020764432695   0.06603999028809988
0.25297753392111294   0.04090020764432695   0.06603999028809988
0.25297753392111294   0.04090020764432695   0.06603999028809988
-0.00612161359728659   -0.10613229073734226   -0.04361536428807665
-0.00612161359728659   -0.10613229073734226   -0.04361536428807665
-0.00612161359728659   -0.10613229073734226   -0.04361536428807665
-0.00612161359728659   -0.10613229073734226   -0.04361536428807665
0.05630045071137277   0.02072152652670537   0.051022297624824256
0.05630045071137277   0.02072152652670537   0.051022297624824256
0.05630045071137277   0.02072152652670537   0.051022297624824256
0.05630045071137277   0.02072152652670537   0.051022297624824256
0.2639335097344879   -0.03718328052953877   -0.05458947847489958
0.2639335097344879   -0.03718328052953877   -0.05458947847489958
0.2639335097344879   -0.03718328052953877   -0.05458947847489958
0.2639335097344879   -0.03718328052953877   -0.05458947847489958
0.1290940482204942   -0.020621180990565136   -0.03145813053611331
0.1290940482204942   -0.020621180990565136   -0.03145813053611331
0.1290940482204942   -0.020621180990565136   -0.03145813053611331
0.1290940482204942   -0.020621180990565136   -0.03145813053611331
0.30879289643421165   0.07293365920428874   0.05959051528988908
0.30879289643421165   0.07293365920428874   0.05959051528988908
0.30879289643421165   0.07293365920428874   0.05959051528988908
0.30879289643421165   0.07293365920428874   0.05959051528988908
0.014199820107442938   -0.08663665711132583   -0.052122671756789835
0.014199820107442938   -0.08663665711132583   -0.052122671756789835
0.014199820107442938   -0.08663665711132583   -0.052122671756789835
0.014199820107442938   -0.08663665711132583   -0.052122671756789835
0.07906300019096177   0.036129931799492865   0.04258254776808668
0.07906300019096177   0.036129931799492865   0.04258254776808668
0.07906300019096177   0.036129931799492865   0.04258254776808668
0.07906300019096177   0.036129931799492865   0.04258254776808668
0.30751427269432335   -0.019776758881180287   -0.06829410210501492
0.30751427269432335   -0.019776758881180287   -0.06829410210501492
0.30751427269432335   -0.019776758881180287   -0.06829410210501492
0.30751427269432335   -0.019776758881180287   -0.06829410210501492
0.16842082868745714   -0.0014097859579135646   -0.01478473446376187
0.16842082868745714   -0.0014097859579135646   -0.01478473446376187
0.16842082868745714   -0.0014097859579135646   -0.01478473446376187
0.16842082868745714   -0.0014097859579135646   -0.01478473446376187
0.3528668997731703   0.09176054753660223   0.0469317268714307
0.3528668997731703   0.09176054753660223   0.0469317268714307
0.3528668997731703   0.09176054753660223   0.0469317268714307
0.3528668997731703   0.09176054753660223   0.0469317268714307
0.03640918270699964   -0.07270856502341203   -0.06184804282881912
0.03640918270699964   -0.07270856502341203   -0.06184804282881912
0.03640918270699964   -0.07270856502341203   -0.06184804282881912
0.03640918270699964   -0.07270856502341203   -0.06184804282881912
0.10115424954199731   0.06441657667524037   0.03684914080455217
0.10115424954199731   0.06441657667524037   0.03684914080455217
0.10115424954199731   0.06441657667524037   0.03684914080455217
0.10115424954199731   0.06441657667524037   0.03684914080455217
0.3653648827335038   0.019183744872686002   -0.07531755476257534
0.3653648827335038   0.019183744872686002   -0.07531755476257534
0.3653648827335038   0.019183744872686002   -0.07531755476257534
0.3653648827335038   0.019183744872686002   -0.07531755476257534
0.20143541431053416   0.020118988551525694   0.0009817948335346773
0.20143541431053416   0.020118988551525694   0.0009817948335346773
0.20143541431053416   0.020118988551525694   0.0009817948335346773
0.20143541431053416   0.020118988551525694   0.0009817948335346773
0.0349984747213069   0.011029324538398508   0.04482346202915004
0.0349984747213069   0.011029324538398508   0.04482346202915004
0.0349984747213069   0.011029324538398508   0.04482346202915004
0.0349984747213069   0.011029324538398508   0.04482346202915004
-0.24048364416257428   -0.09010665390680514   -0.020008243556246093
-0.24048364416257428   -0.09010665390680514   -0.020008243556246093
-0.24048364416257428   -0.09010665390680514   -0.020008243556246093
-0.24048364416257428   -0.09010665390680514   -0.020008243556246093
-0.20109221150440873   -0.013090951308934212   0.020483276489702655
-0.20109221150440873   -0.013090951308934212   0.020483276489702655
-0.20109221150440873   -0.013090951308934212   0.020483276489702655
-0.20109221150440873   -0.013090951308934212   0.020483276489702655
0.036703715671024845   -0.010346675636052117   -0.015893175414155802
0.036703715671024845   -0.010346675636052117   -0.015893175414155802
0.036703715671024845   -0.010346675636052117   -0.015893175414155802
0.036703715671024845   -0.010346675636052117   -0.015893175414155802
-0.09445153833319385   -0.02332127955447374   -0.015123216306205318
-0.09445153833319385   -0.02332127955447374   -0.015123216306205318
-0.09445153833319385   -0.02332127955447374   -0.015123216306205318
-0.09445153833319385   -0.02332127955447374   -0.015123216306205318
0.05843931683007602   0.04267194167419605   0.03976621307084983
0.05843931683007602   0.04267194167419605   0.03976621307084983
0.05843931683007602   0.04267194167419605   0.03976621307084983
0.05843931683007602   0.04267194167419605   0.03976621307084983
-0.2208197318566095   -0.06410148781232365   -0.027143788767909856
-0.2208197318566095   -0.06410148781232365   -0.027143788767909856
-0.2208197318566095   -0.06410148781232365   -0.027143788767909856
-0.2208197318566095   -0.06410148781232365   -0.027143788767909856
-0.18033640298128628   0.01678927143132812   0.01447738832867482
-0.18033640298128628   0.01678927143132812   0.01447738832867482
-0.18033640298128628   0.01678927143132812   0.01447738832867482
-0.18033640298128628   0.01678927143132812   0.01447738832867482
0.06262226179197483   0.018016366308551118   -0.021507578735907813
0.06262226179197483   0.018016366308551118   -0.021507578735907813
0.06262226179197483   0.018016366308551118   -0.021507578735907813
0.06262226179197483   0.018016366308551118   -0.021507578735907813
-0.07245203344414688   0.003043177810457199   -0.0018358784030836446
-0.07245203344414688   0.003043177810457199   -0.0018358784030836446
-0.07245203344414688   0.003043177810457199   -0.0018358784030836446
-0.07245203344414688   0.003043177810457199   -0.0018358784030836446
0.08527168528687273   0.07413882702387904   0.03561707802325531
0.08527168528687273   0.07413882702387904   0.03561707802325531
0.08527168528687273   0.07413882702387904   0.03561707802325531
0.08527168528687273   0.07413882702387904   0.03561707802325531
-0.20105346028324952   -0.03740082309106236   -0.034917803658750836
-0.20105346028324952   -0.03740082309106236   -0.034917803658750836
-0.20105346028324952   -0.03740082309106236   -0.034917803658750836
-0.20105346028324952   -0.03740082309106236   -0.034917803658750836
-0.15945724313483078   0.050576956659584685   0.008752175454546247
-0.15945724313483078   0.050576956659584685   0.008752175454546247
-0.15945724313483078   0.050576956659584685   0.008752175454546247
-0.15945724313483078   0.050576956659584685   0.008752175454546247
0.08544295370575221   0.05017401160245892   -0.027464773303894997
0.08544295370575221   0.05017401160245892   -0.027464773303894997
0.08544295370575221   0.05017401160245892   -0.027464773303894997
0.08544295370575221   0.05017401160245892   -0.027464773303894997
-0.04812615821934901   0.0321481992320626   0.012328560073478857
-0.04812615821934901   0.0321481992320626   0.012328560073478857
-0.04812615821934901   0.0321481992320626   0.012328560073478857
-0.04812615821934901   0.0321481992320626   0.012328560073478857
-0.2186929204811128   -0.01728550334324221   0.0161242242875002
-0.2186929204811128   -0.01728550334324221   0.0161242242875002
-0.2186929204811128   -0.01728550334324221   0.0161242242875002
-0.2186929204811128   -0.01728550334324221   0.0161242242875002
-0.4706025215780509   -0.06401109741927175   0.004153918988726052
-0.4706025215780509   -0.06401109741927175   0.004153918988726052
-0.4706025215780509   -0.06401109741927175   0.004153918988726052
-0.4706025215780509   -0.06401109741927175   0.004153918988726052
-0.45242704792932265   -0.040118604287525395   -0.008866818023044783
-0.45242704792932265   -0.040118604287525395   -0.008866818023044783
-0.45242704792932265   -0.040118604287525395   -0.008866818023044783
-0.45242704792932265   -0.040118604287525395   -0.008866818023044783
-0.1972291294852521   0.016703120929979755   0.010004614346575427
-0.1972291294852521   0.016703120929979755   0.010004614346575427
-0.1972291294852521   0.016703120929979755   0.010004614346575427
-0.1972291294852521   0.016703120929979755   0.010004614346575427
-0.33522710363781133   -0.02403551203834549   -0.008803064726500175
-0.33522710363781133   -0.02403551203834549   -0.008803064726500175
-0.33522710363781133   -0.02403551203834549   -0.008803064726500175
-0.33522710363781133   -0.02403551203834549   -0.008803064726500175
-0.19748770072795507   0.01477133714163787   0.010643541921402596
-0.19748770072795507   0.01477133714163787   0.010643541921402596
-0.19748770072795507   0.01477133714163787   0.010643541921402596
-0.19748770072795507   0.01477133714163787   0.010643541921402596
-0.45044622394262596   -0.036464567755195305   -0.002616734621895352
-0.45044622394262596   -0.036464567755195305   -0.002616734621895352
-0.45044622394262596   -0.036464567755195305   -0.002616734621895352
-0.45044622394262596   -0.036464567755195305   -0.002616734621895352
-0.4306024682534773   -0.007222637308202093   -0.013943664731891757
-0.4306024682534773   -0.007222637308202093   -0.013943664731891757
-0.4306024682534773   -0.007222637308202093   -0.013943664731891757
-0.4306024682534773   -0.007222637308202093   -0.013943664731891757
-0.17667876849372663   0.04587510894222528   0.003679723255576913
-0.17667876849372663   0.04587510894222528   0.003679723255576913
-0.17667876849372663   0.04587510894222528   0.003679723255576913
-0.17667876849372663   0.04587510894222528   0.003679723255576913
-0.312694085459252   0.004859875467138952   0.004582671349498513
-0.312694085459252   0.004859875467138952   0.004582671349498513
-0.312694085459252   0.004859875467138952   0.004582671349498513
-0.312694085459252   0.004859875467138952   0.004582671349498513
-0.17615114380407834   0.047412459714387026   0.004780495931657677
-0.17615114380407834   0.047412459714387026   0.004780495931657677
-0.17615114380407834   0.047412459714387026   0.004780495931657677
-0.17615114380407834   0.047412459714387026   0.004780495931657677
-0.42975389649039625   -0.0073837916276353055   -0.009539651597056456
-0.42975389649039625   -0.0073837916276353055   -0.009539651597056456
-0.42975389649039625   -0.0073837916276353055   -0.009539651597056456
-0.42975389649039625   -0.0073837916276353055   -0.009539651597056456
-0.40965888881062107   0.0257632268770408   -0.01973720643158138
-0.40965888881062107   0.0257632268770408   -0.01973720643158138
-0.40965888881062107   0.0257632268770408   -0.01973720643158138
-0.40965888881062107   0.0257632268770408   -0.01973720643158138
-0.1570172318965516   0.07513298472394117   -0.003603796418411409
-0.1570172318965516   0.07513298472394117   -0.003603796418411409
-0.1570172318965516   0.07513298472394117   -0.003603796418411409
-0.1570172318965516   0.07513298472394117   -0.003603796418411409
-0.2913359238487797   0.033675646272405546   0.01709461144755875
-0.2913359238487797   0.033675646272405546   0.01709461144755875
-0.2913359238487797   0.033675646272405546   0.01709461144755875
-0.2913359238487797   0.033675646272405546   0.01709461144755875
-0.47035253169617447   -0.04514919591854061   -0.013458033102618557
-0.47035253169617447   -0.04514919591854061   -0.013458033102618557
-0.47035253169617447   -0.04514919591854061   -0.013458033102618557
-0.47035253169617447   -0.04514919591854061   -0.013458033102618557
-0.6983213950116628   -0.03948571309919599   0.027877824596614455
-0.6983213950116628   -0.03948571309919599   0.027877824596614455
-0.6983213950116628   -0.03948571309919599   0.027877824596614455
-0.6983213950116628   -0.03948571309919599   0.027877824596614455
-0.6985327584793302   -0.06658397653447246   -0.0375175475944762
-0.6985327584793302   -0.06658397653447246   -0.0375175475944762
-0.6985327584793302   -0.06658397653447246   -0.0375175475944762
-0.6985327584793302   -0.06658397653447246   -0.0375175475944762
-0.42730389544626063   0.042512063671498   0.03411827643323793
-0.42730389544626063   0.042512063671498   0.03411827643323793
-0.42730389544626063   0.042512063671498   0.03411827643323793
-0.42730389544626063   0.042512063671498   0.03411827643323793
-0.5704207580965949   -0.02438292898130058   -0.0037047762669648425
-0.5704207580965949   -0.02438292898130058   -0.0037047762669648425
-0.5704207580965949   -0.02438292898130058   -0.0037047762669648425
-0.5704207580965949   -0.02438292898130058   -0.0037047762669648425
-0.4489645591133607   -0.012917852323777138   -0.018755125906983302
-0.4489645591133607   -0.012917852323777138   -0.018755125906983302
-0.4489645591133607   -0.012917852323777138   -0.018755125906983302
-0.4489645591133607   -0.012917852323777138   -0.018755125906983302
-0.6754486883051475   -0.009730654032110403   0.02104948077408269
-0.6754486883051475   -0.009730654032110403   0.02104948077408269
-0.6754486883051475   -0.009730654032110403   0.02104948077408269
-0.6754486883051475   -0.009730654032110403   0.02104948077408269
-0.6711933798309409   -0.03520080400452723   -0.041744782358821966
-0.6711933798309409   -0.03520080400452723   -0.041744782358821966
-0.6711933798309409   -0.03520080400452723   -0.041744782358821966
-0.6711933798309409   -0.03520080400452723   -0.041744782358821966
-0.4071261337486991   0.06906264459655694   0.027152725887240436
-0.4071261337486991   0.06906264459655694   0.027152725887240436
-0.4071261337486991   0.06906264459655694   0.027152725887240436
-0.4071261337486991   0.06906264459655694   0.027152725887240436
-0.5434000107251815   0.004743930300625823   0.010086876776455034
-0.5434000107251815   0.004743930300625823   0.010086876776455034
-0.5434000107251815   0.004743930300625823   0.010086876776455034
-0.5434000107251815   0.004743930300625823   0.010086876776455034
-0.428068910275909   0.016727786623162544   -0.02522629877541492
-0.428068910275909   0.016727786623162544   -0.02522629877541492
-0.428068910275909   0.016727786623162544   -0.02522629877541492
-0.428068910275909   0.016727786623162544   -0.02522629877541492
-0.6486497663097789   0.018734890962820883   0.01703759027963987
-0.6486497663097789   0.018734890962820883   0.01703759027963987
-0.6486497663097789   0.018734890962820883   0.01703759027963987
-0.6486497663097789   0.018734890962820883   0.01703759027963987
-0.646734791995192   -0.0009633207512330655   -0.044934576371815985
-0.646734791995192   -0.0009633207512330655   -0.044934576371815985
-0.646734791995192   -0.0009633207512330655   -0.044934576371815985
-0.646734791995192   -0.0009633207512330655   -0.044934576371815985
-0.3871581203954573   0.09839466714485003   0.02013519537642824
-0.3871581203954573   0.09839466714485003   0.02013519537642824
-0.3871581203954573   0.09839466714485003   0.02013519537642824
-0.3871581203954573   0.09839466714485003   0.02013519537642824
-0.5231648382719214   0.03191523519880579   0.022449678835855504
-0.5231648382719214   0.03191523519880579   0.022449678835855504
-0.5231648382719214   0.03191523519880579   0.022449678835855504
-0.5231648382719214   0.03191523519880579   0.022449678835855504
-0.7171484830001205   -0.06484952604427542   -0.04089380240059379
-0.7171484830001205   -0.06484952604427542   -0.04089380240059379
-0.7171484830001205   -0.06484952604427542   -0.04089380240059379
-0.7171484830001205   -0.06484952604427542   -0.04089380240059379
-0.9578839941610849   -0.016845089270323077   0.060376011994505444
-0.9578839941610849   -0.016845089270323077   0.060376011994505444
-0.9578839941610849   -0.016845089270323077   0.060376011994505444
-0.9578839941610849   -0.016845089270323077   0.060376011994505444
-0.9445186547514565   -0.08674941869802183   -0.05456926000699217
-0.9445186547514565   -0.08674941869802183   -0.05456926000699217
-0.9445186547514565   -0.08674941869802183   -0.05456926000699217
-0.9445186547514565   -0.08674941869802183   -0.05456926000699217
-0.65144089812174   0.07183892588713725   0.059518851771865236
-0.65144089812174   0.07183892588713725   0.059518851771865236
-0.65144089812174   0.07183892588713725   0.059518851771865236
-0.65144089812174   0.07183892588713725   0.059518851771865236
-0.7824970408983097   -0.013882596318000956   0.006490218529064666
-0.7824970408983097   -0.013882596318000956   0.006490218529064666
-0.7824970408983097   -0.013882596318000956   0.006490218529064666
-0.7824970408983097   -0.013882596318000956   0.006490218529064666
-0.693957665542284   -0.03497381728627433   -0.04625224215744013
-0.693957665542284   -0.03497381728627433   -0.04625224215744013
-0.693957665542284   -0.03497381728627433   -0.04625224215744013
-0.693957665542284   -0.03497381728627433   -0.04625224215744013
-0.9007103223799632   0.021354889426339313   0.056368093726098696
-0.9007103223799632   0.021354889426339313   0.056368093726098696
-0.9007103223799632   0.021354889426339313   0.056368093726098696
-0.9007103223799632   0.021354889426339313   0.056368093726098696
-0.9012678655570993   -0.0681288960272603   -0.0649458594622091
-0.9012678655570993   -0.0681288960272603   -0.0649458594622091
-0.9012678655570993   -0.0681288960272603   -0.0649458594622091
-0.9012678655570993   -0.0681288960272603   -0.0649458594622091
-0.6291746678592427   0.08408129818787544   0.049066675307260936
-0.6291746678592427   0.08408129818787544   0.049066675307260936
-0.6291746678592427   0.08408129818787544   0.049066675307260936
-0.6291746678592427   0.08408129818787544   0.049066675307260936
-0.7579640004664271   0.005657200080670333   0.01762960280687809
-0.7579640004664271   0.005657200080670333   0.01762960280687809
-0.7579640004664271   0.005657200080670333   0.01762960280687809
-0.7579640004664271   0.005657200080670333   0.01762960280687809
-0.6704161541886141   -0.0196510612428851   -0.05340839690883106
-0.6704161541886141   -0.0196510612428851   -0.05340839690883106
-0.6704161541886141   -0.0196510612428851   -0.05340839690883106
-0.6704161541886141   -0.0196510612428851   -0.05340839690883106
-0.8584464475202817   0.037183395110941625   0.04384893958366139
-0.8584464475202817   0.037183395110941625   0.04384893958366139
-0.8584464475202817   0.037183395110941625   0.04384893958366139
-0.8584464475202817   0.037183395110941625   0.04384893958366139
-0.8479869499623702   -0.04032014513909002   -0.07242448233091074
-0.8479869499623702   -0.04032014513909002   -0.07242448233091074
-0.8479869499623702   -0.04032014513909002   -0.07242448233091074
-0.8479869499623702   -0.04032014513909002   -0.07242448233091074
-0.6096073025554719   0.09886703769800978   0.040872512377539014
-0.6096073025554719   0.09886703769800978   0.040872512377539014
-0.6096073025554719   0.09886703769800978   0.040872512377539014
-0.6096073025554719   0.09886703769800978   0.040872512377539014
-0.712046045713168   0.023962673870772   0.03331816558895101
-0.712046045713168   0.023962673870772   0.03331816558895101
-0.712046045713168   0.023962673870772   0.03331816558895101
-0.712046045713168   0.023962673870772   0.03331816558895101
0.760443601130892   0.06909756692496655   0.06596870929528231
0.760443601130892   0.06909756692496655   0.06596870929528231
0.760443601130892   0.06909756692496655   0.06596870929528231
0.760443601130892   0.06909756692496655   0.06596870929528231
0.27851431728608633   -0.1264160213836763   -0.043422957393668984
0.27851431728608633   -0.1264160213836763   -0.043422957393668984
0.27851431728608633   -0.1264160213836763   -0.043422957393668984
0.27851431728608633   -0.1264160213836763   -0.043422957393668984
0.3439219619779739   -0.0007747214489300935   0.04746486468465779
0.3439219619779739   -0.0007747214489300935   0.04746486468465779
0.3439219619779739   -0.0007747214489300935   0.04746486468465779
0.3439219619779739   -0.0007747214489300935   0.04746486468465779
0.7742451860440318   -0.017541124728965185   -0.05543717667358516
0.7742451860440318   -0.017541124728965185   -0.05543717667358516
0.7742451860440318   -0.017541124728965185   -0.05543717667358516
0.7742451860440318   -0.017541124728965185   -0.05543717667358516
0.5061105098737033   -0.02287702823372638   -0.04886572571314894
0.5061105098737033   -0.02287702823372638   -0.04886572571314894
0.5061105098737033   -0.02287702823372638   -0.04886572571314894
0.5061105098737033   -0.02287702823372638   -0.04886572571314894
0.8195749149025221   0.09633080398085545   0.057339538909031186
0.8195749149025221   0.09633080398085545   0.057339538909031186
0.8195749149025221   0.09633080398085545   0.057339538909031186
0.8195749149025221   0.09633080398085545   0.057339538909031186
0.30180128793730887   -0.11143759534092626   -0.052475631626667615
0.30180128793730887   -0.11143759534092626   -0.052475631626667615
0.30180128793730887   -0.11143759534092626   -0.052475631626667615
0.30180128793730887   -0.11143759534092626   -0.052475631626667615
0.36972901310014017   0.014153238826863548   0.039141146029387515
0.36972901310014017   0.014153238826863548   0.039141146029387515
0.36972901310014017   0.014153238826863548   0.039141146029387515
0.36972901310014017   0.014153238826863548   0.039141146029387515
0.8212983738105252   -0.0005746330745174943   -0.0698343726766156
0.8212983738105252   -0.0005746330745174943   -0.0698343726766156
0.8212983738105252   -0.0005746330745174943   -0.0698343726766156
0.8212983738105252   -0.0005746330745174943   -0.0698343726766156
0.5552455837365574   -0.004550723130357218   -0.029597151247823278
0.5552455837365574   -0.004550723130357218   -0.029597151247823278
0.5552455837365574   -0.004550723130357218   -0.029597151247823278
0.5552455837365574   -0.004550723130357218   -0.029597151247823278
0.8671312851555988   0.11463047852243476   0.04412507245179342
0.8671312851555988   0.11463047852243476   0.04412507245179342
0.8671312851555988   0.11463047852243476   0.04412507245179342
0.8671312851555988   0.11463047852243476   0.04412507245179342
0.3273100096423504   -0.09763796488280672   -0.06116266754988696
0.3273100096423504   -0.09763796488280672   -0.06116266754988696
0.3273100096423504   -0.09763796488280672   -0.06116266754988696
0.3273100096423504   -0.09763796488280672   -0.06116266754988696
0.39550032902860904   0.047059088512769895   0.033923717142738855
0.39550032902860904   0.047059088512769895   0.033923717142738855
0.39550032902860904   0.047059088512769895   0.033923717142738855
0.39550032902860904   0.047059088512769895   0.033923717142738855
0.8830871546953835   0.04367385049983932   -0.07533189141071436
0.8830871546953835   0.04367385049983932   -0.07533189141071436
0.8830871546953835   0.04367385049983932   -0.07533189141071436
0.8830871546953835   0.04367385049983932   -0.07533189141071436
0.5855641864016238   0.017744509215675497   -0.012929350048492827
0.5855641864016238   0.017744509215675497   -0.012929350048492827
0.5855641864016238   0.017744509215675497   -0.012929350048492827
0.5855641864016238   0.017744509215675497   -0.012929350048492827
0.33076544232834165   0.038690117824511636   0.05272652860941955
0.33076544232834165   0.038690117824511636   0.05272652860941955
0.33076544232834165   0.038690117824511636   0.05272652860941955
0.33076544232834165   0.038690117824511636   0.05272652860941955
-0.1611540660882584   -0.11795264717403661   -0.022747405117991577
-0.1611540660882584   -0.11795264717403661   -0.022747405117991577
-0.1611540660882584   -0.11795264717403661   -0.022747405117991577
-0.1611540660882584   -0.11795264717403661   -0.022747405117991577
-0.11617180455674227   -0.03455005580158132   0.015965443985965305
-0.11617180455674227   -0.03455005580158132   0.015965443985965305
-0.11617180455674227   -0.03455005580158132   0.015965443985965305
-0.11617180455674227   -0.03455005580158132   0.015965443985965305
0.3333851177412035   0.0009762625648223888   -0.00697034051294583
0.3333851177412035   0.0009762625648223888   -0.00697034051294583
0.3333851177412035   0.0009762625648223888   -0.00697034051294583
0.3333851177412035   0.0009762625648223888   -0.00697034051294583
0.0923546815521144   -0.024933439508985942   -0.020820481017238213
0.0923546815521144   -0.024933439508985942   -0.020820481017238213
0.0923546815521144   -0.024933439508985942   -0.020820481017238213
0.0923546815521144   -0.024933439508985942   -0.020820481017238213
0.3572754570221881   0.06636485950697821   0.04709275894982025
0.3572754570221881   0.06636485950697821   0.04709275894982025
0.3572754570221881   0.06636485950697821   0.04709275894982025
0.3572754570221881   0.06636485950697821   0.04709275894982025
-0.13812869450571194   -0.09800520341171011   -0.03036385814875427
-0.13812869450571194   -0.09800520341171011   -0.03036385814875427
-0.13812869450571194   -0.09800520341171011   -0.03036385814875427
-0.13812869450571194   -0.09800520341171011   -0.03036385814875427
-0.09212979940202905   -0.006614199089556202   0.010091655467559477
-0.09212979940202905   -0.006614199089556202   0.010091655467559477
-0.09212979940202905   -0.006614199089556202   0.010091655467559477
-0.09212979940202905   -0.006614199089556202   0.010091655467559477
0.36167777782053745   0.02604251920006527   -0.013004310741823994
0.36167777782053745   0.02604251920006527   -0.013004310741823994
0.36167777782053745   0.02604251920006527   -0.013004310741823994
0.36167777782053745   0.02604251920006527   -0.013004310741823994
0.11558333531202532   -0.0028583671139274965   -0.008279526988625547
0.11558333531202532   -0.0028583671139274965   -0.008279526988625547
0.11558333531202532   -0.0028583671139274965   -0.008279526988625547
0.11558333531202532   -0.0028583671139274965   -0.008279526988625547
0.3865238355131548   0.09545991348685887   0.04180858343446551
0.3865238355131548   0.09545991348685887   0.04180858343446551
0.3865238355131548   0.09545991348685887   0.04180858343446551
0.3865238355131548   0.09545991348685887   0.04180858343446551
-0.11503813132517782   -0.07409386760689449   -0.03697033563084612
-0.11503813132517782   -0.07409386760689449   -0.03697033563084612
-0.11503813132517782   -0.07409386760689449   -0.03697033563084612
-0.11503813132517782   -0.07409386760689449   -0.03697033563084612
-0.0683900775625169   0.025749341156568375   0.004244905734921377
-0.0683900775625169   0.025749341156568375   0.004244905734921377
-0.0683900775625169   0.025749341156568375   0.004244905734921377
-0.0683900775625169   0.025749341156568375   0.004244905734921377
0.3867685950191528   0.05588957758849637   -0.018565441980265142
0.3867685950191528   0.05588957758849637   -0.018565441980265142
0.3867685950191528   0.05588957758849637   -0.018565441980265142
0.3867685950191528   0.05588957758849637   -0.018565441980265142
0.14427842468919266   0.024213339971084633   0.0063617386888600354
0.14427842468919266   0.024213339971084633   0.0063617386888600354
0.14427842468919266   0.024213339971084633   0.0063617386888600354
0.14427842468919266   0.024213339971084633   0.0063617386888600354
-0.12685216204533106   0.008391736895038911   0.022417731027571462
-0.12685216204533106   0.008391736895038911   0.022417731027571462
-0.12685216204533106   0.008391736895038911   0.022417731027571462
-0.12685216204533106   0.008391736895038911   0.022417731027571462
-0.5920946077281335   -0.10415073904424177   -0.0030074463727310886
-0.5920946077281335   -0.10415073904424177   -0.0030074463727310886
-0.5920946077281335   -0.10415073904424177   -0.0030074463727310886
-0.5920946077281335   -0.10415073904424177   -0.0030074463727310886
-0.563587312987161   -0.0613516693766308   -0.013911153684568326
-0.563587312987161   -0.0613516693766308   -0.013911153684568326
-0.563587312987161   -0.0613516693766308   -0.013911153684568326
-0.563587312987161   -0.0613516693766308   -0.013911153684568326
-0.10636920797052918   0.01552356264590651   0.014904808469542442
-0.10636920797052918   0.01552356264590651   0.014904808469542442
-0.10636920797052918   0.01552356264590651   0.014904808469542442
-0.10636920797052918   0.01552356264590651   0.014904808469542442
-0.34783644255085433   -0.03201916706129607   -0.012998500338094101
-0.34783644255085433   -0.03201916706129607   -0.012998500338094101
-0.34783644255085433   -0.03201916706129607   -0.012998500338094101
-0.34783644255085433   -0.03201916706129607   -0.012998500338094101
-0.10161973601413454   0.037216019111976986   0.016959711785445676
-0.10161973601413454   0.037216019111976986   0.016959711785445676
-0.10161973601413454   0.037216019111976986   0.016959711785445676
-0.10161973601413454   0.037216019111976986   0.016959711785445676
-0.5670448981511463   -0.08175223905029214   -0.01079850983083353
-0.5670448981511463   -0.08175223905029214   -0.01079850983083353
-0.5670448981511463   -0.08175223905029214   -0.01079850983083353
-0.5670448981511463   -0.08175223905029214   -0.01079850983083353
-0.53708918635573   -0.030701460408319045   -0.0187927056351413
-0.53708918635573   -0.030701460408319045   -0.0187927056351413
-0.53708918635573   -0.030701460408319045   -0.0187927056351413
-0.53708918635573   -0.030701460408319045   -0.0187927056351413
-0.08296861790023158   0.04084513836025526   0.008438225526735232
-0.08296861790023158   0.04084513836025526   0.008438225526735232
-0.08296861790023158   0.04084513836025526   0.008438225526735232
-0.08296861790023158   0.04084513836025526   0.008438225526735232
-0.3211100867084759   -0.0063746812900468824   -0.00019893578903181636
-0.3211100867084759   -0.0063746812900468824   -0.00019893578903181636
-0.3211100867084759   -0.0063746812900468824   -0.00019893578903181636
-0.3211100867084759   -0.0063746812900468824   -0.00019893578903181636
-0.07723699769570835   0.06717984286053083   0.010761622049075934
-0.07723699769570835   0.06717984286053083   0.010761622049075934
-0.07723699769570835   0.06717984286053083   0.010761622049075934
-0.07723699769570835   0.06717984286053083   0.010761622049075934
-0.5416209500766486   -0.05583630842498815   -0.016316676223064805
-0.5416209500766486   -0.05583630842498815   -0.016316676223064805
-0.5416209500766486   -0.05583630842498815   -0.016316676223064805
-0.5416209500766486   -0.05583630842498815   -0.016316676223064805
-0.5124232678016106   -0.00015293404181543346   -0.02462735434213533
-0.5124232678016106   -0.00015293404181543346   -0.02462735434213533
-0.5124232678016106   -0.00015293404181543346   -0.02462735434213533
-0.5124232678016106   -0.00015293404181543346   -0.02462735434213533
-0.060633526181658556   0.0667063707304521   0.0020706330653277524
-0.060633526181658556   0.0667063707304521   0.0020706330653277524
-0.060633526181658556   0.0667063707304521   0.0020706330653277524
-0.060633526181658556   0.0667063707304521   0.0020706330653277524
-0.2965592912707045   0.019173398234713437   0.011980580873961902
-0.2965592912707045   0.019173398234713437   0.011980580873961902
-0.2965592912707045   0.019173398234713437   0.011980580873961902
-0.2965592912707045   0.019173398234713437   0.011980580873961902
-0.5769367330019323   -0.022548423311471458   -0.008820388474490282
-0.5769367330019323   -0.022548423311471458   -0.008820388474490282
-0.5769367330019323   -0.022548423311471458   -0.008820388474490282
-0.5769367330019323   -0.022548423311471458   -0.008820388474490282
-1.0132317029936584   -0.08438856143551252   0.019538155267674065
-1.0132317029936584   -0.08438856143551252   0.019538155267674065
-1.0132317029936584   -0.08438856143551252   0.019538155267674065
-1.0132317029936584   -0.08438856143551252   0.019538155267674065
-0.9993771885978994   -0.0870973839017041   -0.041855668281134004
-0.9993771885978994   -0.0870973839017041   -0.041855668281134004
-0.9993771885978994   -0.0870973839017041   -0.041855668281134004
-0.9993771885978994   -0.0870973839017041   -0.041855668281134004
-0.5331928901153119   0.039255205282808375   0.03745408601524334
-0.5331928901153119   0.039255205282808375   0.03745408601524334
-0.5331928901153119   0.039255205282808375   0.03745408601524334
-0.5331928901153119   0.039255205282808375   0.03745408601524334
-0.7752836550287175   -0.03382110648389047   -0.0045316633556921546
-0.7752836550287175   -0.03382110648389047   -0.0045316633556921546
-0.7752836550287175   -0.03382110648389047   -0.0045316633556921546
-0.7752836550287175   -0.03382110648389047   -0.0045316633556921546
-0.549506772863311   0.008563173677541558   -0.013423296119485013
-0.549506772863311   0.008563173677541558   -0.013423296119485013
-0.549506772863311   0.008563173677541558   -0.013423296119485013
-0.549506772863311   0.008563173677541558   -0.013423296119485013
-0.9829953482716258   -0.05633739471816443   0.009293544166693365
-0.9829953482716258   -0.05633739471816443   0.009293544166693365
-0.9829953482716258   -0.05633739471816443   0.009293544166693365
-0.9829953482716258   -0.05633739471816443   0.009293544166693365
-0.9647508421588021   -0.05715188135516347   -0.04629519546125841
-0.9647508421588021   -0.05715188135516347   -0.04629519546125841
-0.9647508421588021   -0.05715188135516347   -0.04629519546125841
-0.9647508421588021   -0.05715188135516347   -0.04629519546125841
-0.5085234452173043   0.06339859256890056   0.029935947079773397
-0.5085234452173043   0.06339859256890056   0.029935947079773397
-0.5085234452173043   0.06339859256890056   0.029935947079773397
-0.5085234452173043   0.06339859256890056   0.029935947079773397
-0.7400577834835581   -0.005476523689347118   0.00830475115314308
-0.7400577834835581   -0.005476523689347118   0.00830475115314308
-0.7400577834835581   -0.005476523689347118   0.00830475115314308
-0.7400577834835581   -0.005476523689347118   0.00830475115314308
-0.5238378334424327   0.03636856598747357   -0.01960596746444175
-0.5238378334424327   0.03636856598747357   -0.01960596746444175
-0.5238378334424327   0.03636856598747357   -0.01960596746444175
-0.5238378334424327   0.03636856598747357   -0.01960596746444175
-0.9486246495955172   -0.029310050435590373   0.0064939364355932755
-0.9486246495955172   -0.029310050435590373   0.0064939364355932755
-0.9486246495955172   -0.029310050435590373   0.0064939364355932755
-0.9486246495955172   -0.029310050435590373   0.0064939364355932755
-0.9337887422027369   -0.02469368011478615   -0.04867591911447304
-0.9337887422027369   -0.02469368011478615   -0.04867591911447304
-0.9337887422027369   -0.02469368011478615   -0.04867591911447304
-0.9337887422027369   -0.02469368011478615   -0.04867591911447304
-0.484630374509727   0.08994623125012909   0.02423794682534295
-0.484630374509727   0.08994623125012909   0.02423794682534295
-0.484630374509727   0.08994623125012909   0.02423794682534295
-0.484630374509727   0.08994623125012909   0.02423794682534295
-0.7162294738416217   0.01875568389410559   0.019378102406908772
-0.7162294738416217   0.01875568389410559   0.019378102406908772
-0.7162294738416217   0.01875568389410559   0.019378102406908772
-0.7162294738416217   0.01875568389410559   0.019378102406908772
-1.0174863149051607   -0.04838787413592274   -0.037735591589427096
-1.0174863149051607   -0.04838787413592274   -0.037735591589427096
-1.0174863149051607   -0.04838787413592274   -0.037735591589427096
-1.0174863149051607   -0.04838787413592274   -0.037735591589427096
-1.45022595342422   -0.052303608943427504   0.06538952417427328
-1.45022595342422   -0.052303608943427504   0.06538952417427328
-1.45022595342422   -0.052303608943427504   0.06538952417427328
-1.45022595342422   -0.052303608943427504   0.06538952417427328
-1.4223682575193237   -0.10425070928267499   -0.05000196467961228
-1.4223682575193237   -0.10425070928267499   -0.05000196467961228
-1.4223682575193237   -0.10425070928267499   -0.05000196467961228
-1.4223682575193237   -0.10425070928267499   -0.05000196467961228
-0.9440724600234179   0.08110239545061337   0.06646819523894709
-0.9440724600234179   0.08110239545061337   0.06646819523894709
-0.9440724600234179   0.08110239545061337   0.06646819523894709
-0.9440724600234179   0.08110239545061337   0.06646819523894709
-1.154934059914519   -0.014276486089004142   0.013390793537742071
-1.154934059914519   -0.014276486089004142   0.013390793537742071
-1.154934059914519   -0.014276486089004142   0.013390793537742071
-1.154934059914519   -0.014276486089004142   0.013390793537742071
-0.9850104522907424   -0.01516885785870542   -0.04195051278835208
-0.9850104522907424   -0.01516885785870542   -0.04195051278835208
-0.9850104522907424   -0.01516885785870542   -0.04195051278835208
-0.9850104522907424   -0.01516885785870542   -0.04195051278835208
-1.3807539302816356   -0.007303121002997737   0.061122083229139826
-1.3807539302816356   -0.007303121002997737   0.061122083229139826
-1.3807539302816356   -0.007303121002997737   0.061122083229139826
-1.3807539302816356   -0.007303121002997737   0.061122083229139826
-1.369965757518414   -0.08566775941956531   -0.058887523070771615
-1.369965757518414   -0.08566775941956531   -0.058887523070771615
-1.369965757518414   -0.08566775941956531   -0.058887523070771615
-1.369965757518414   -0.08566775941956531   -0.058887523070771615
-0.9150145959093314   0.09256415070678817   0.05267000372414263
-0.9150145959093314   0.09256415070678817   0.05267000372414263
-0.9150145959093314   0.09256415070678817   0.05267000372414263
-0.9150145959093314   0.09256415070678817   0.05267000372414263
-1.1278964430347744   0.006007347500045612   0.024072486578154625
-1.1278964430347744   0.006007347500045612   0.024072486578154625
-1.1278964430347744   0.006007347500045612   0.024072486578154625
-1.1278964430347744   0.006007347500045612   0.024072486578154625
-0.9536450680929901   -0.00017479851483215292   -0.047743407972529975
-0.9536450680929901   -0.00017479851483215292   -0.047743407972529975
-0.9536450680929901   -0.00017479851483215292   -0.047743407972529975
-0.9536450680929901   -0.00017479851483215292   -0.047743407972529975
-1.330660957958981   0.007745517177831507   0.044223198128978104
-1.330660957958981   0.007745517177831507   0.044223198128978104
-1.330660957958981   0.007745517177831507   0.044223198128978104
-1.330660957958981   0.007745517177831507   0.044223198128978104
-1.3126891666948053   -0.06334488985421982   -0.06710526124427549
-1.3126891666948053   -0.06334488985421982   -0.06710526124427549
-1.3126891666948053   -0.06334488985421982   -0.06710526124427549
-1.3126891666948053   -0.06334488985421982   -0.06710526124427549
-0.889477646077119   0.10333377847702879   0.044852102921796824
-0.889477646077119   0.10333377847702879   0.044852102921796824
-0.889477646077119   0.10333377847702879   0.044852102921796824
-0.889477646077119   0.10333377847702879   0.044852102921796824
-1.070111237230261   0.022870104134100316   0.04021586834225038
-1.070111237230261   0.022870104134100316   0.04021586834225038
-1.070111237230261   0.022870104134100316   0.04021586834225038
-1.070111237230261   0.022870104134100316   0.04021586834225038
1.2765855686193943   0.09540692220746477   0.06762050922877257
1.2765855686193943   0.09540692220746477   0.06762050922877257
1.2765855686193943   0.09540692220746477   0.06762050922877257
1.2765855686193943   0.09540692220746477   0.06762050922877257
0.5631025717957575   -0.15032683419390497   -0.031077738224981312
0.5631025717957575   -0.15032683419390497   -0.031077738224981312
0.5631025717957575   -0.15032683419390497   -0.031077738224981312
0.5631025717957575   -0.15032683419390497   -0.031077738224981312
0.6278762379214848   -0.026438492517412565   0.04644493250666368
0.6278762379214848   -0.026438492517412565   0.04644493250666368
0.6278762379214848   -0.026438492517412565   0.04644493250666368
0.6278762379214848   -0.026438492517412565   0.04644493250666368
1.29066895732708   -0.0023527019348215106   -0.0487082825338038
1.29066895732708   -0.0023527019348215106   -0.0487082825338038
1.29066895732708   -0.0023527019348215106   -0.0487082825338038
1.29066895732708   -0.0023527019348215106   -0.0487082825338038
0.884526755204407   -0.02681135011159186   -0.06918035940596709
0.884526755204407   -0.02681135011159186   -0.06918035940596709
0.884526755204407   -0.02681135011159186   -0.06918035940596709
0.884526755204407   -0.02681135011159186   -0.06918035940596709
1.3356229915156572   0.11713642416244385   0.05657276231180308
1.3356229915156572   0.11713642416244385   0.05657276231180308
1.3356229915156572   0.11713642416244385   0.05657276231180308
1.3356229915156572   0.11713642416244385   0.05657276231180308
0.587239312650667   -0.14161050969692507   -0.041567676667908574
0.587239312650667   -0.14161050969692507   -0.041567676667908574
0.587239312650667   -0.14161050969692507   -0.041567676667908574
0.587239312650667   -0.14161050969692507   -0.041567676667908574
0.6532065047269242   -0.012716193954194294   0.03754969200860144
0.6532065047269242   -0.012716193954194294   0.03754969200860144
0.6532065047269242   -0.012716193954194294   0.03754969200860144
0.6532065047269242   -0.012716193954194294   0.03754969200860144
1.3349343933860547   0.012778243040793835   -0.06085927119345043
1.3349343933860547   0.012778243040793835   -0.06085927119345043
1.3349343933860547   0.012778243040793835   -0.06085927119345043
1.3349343933860547   0.012778243040793835   -0.06085927119345043
0.9401139061048093   -0.01064043916540669   -0.04705795098468307
0.9401139061048093   -0.01064043916540669   -0.04705795098468307
0.9401139061048093   -0.01064043916540669   -0.04705795098468307
0.9401139061048093   -0.01064043916540669   -0.04705795098468307
1.379625241754247   0.1334435481560115   0.041929665532292756
1.379625241754247   0.1334435481560115   0.041929665532292756
1.379625241754247   0.1334435481560115   0.041929665532292756
1.379625241754247   0.1334435481560115   0.041929665532292756
0.6122941185342043   -0.12960303689393715   -0.050125396015254994
0.6122941185342043   -0.12960303689393715   -0.050125396015254994
0.6122941185342043   -0.12960303689393715   -0.050125396015254994
0.6122941185342043   -0.12960303689393715   -0.050125396015254994
0.676152941935685   0.023937592299073773   0.03292103034515637
0.676152941935685   0.023937592299073773   0.03292103034515637
0.676152941935685   0.023937592299073773   0.03292103034515637
0.676152941935685   0.023937592299073773   0.03292103034515637
1.3893943233963235   0.05705066494302874   -0.06373196095055289
1.3893943233963235   0.05705066494302874   -0.06373196095055289
1.3893943233963235   0.05705066494302874   -0.06373196095055289
1.3893943233963235   0.05705066494302874   -0.06373196095055289
0.9608996384146486   0.011130508719703114   -0.03174538302984515
0.9608996384146486   0.011130508719703114   -0.03174538302984515
0.9608996384146486   0.011130508719703114   -0.03174538302984515
0.9608996384146486   0.011130508719703114   -0.03174538302984515
0.622921937669779   0.055792071659510306   0.06190018529170684
0.622921937669779   0.055792071659510306   0.06190018529170684
0.622921937669779   0.055792071659510306   0.06190018529170684
0.622921937669779   0.055792071659510306   0.06190018529170684
-0.07704143274617611   -0.18521624910804538   -0.01769818847056644
-0.07704143274617611   -0.18521624910804538   -0.01769818847056644
-0.07704143274617611   -0.18521624910804538   -0.01769818847056644
-0.07704143274617611   -0.18521624910804538   -0.01769818847056644
-0.02125594711840821   -0.06540972154411834   0.01574080380196222
-0.02125594711840821   -0.06540972154411834   0.01574080380196222
-0.02125594711840821   -0.06540972154411834   0.01574080380196222
-0.02125594711840821   -0.06540972154411834   0.01574080380196222
0.6176591796770928   -0.03414816785231278   0.003069316619604412
0.6176591796770928   -0.03414816785231278   0.003069316619604412
0.6176591796770928   -0.03414816785231278   0.003069316619604412
0.6176591796770928   -0.03414816785231278   0.003069316619604412
0.27783264614090847   -0.05162374027542925   -0.03296896982828363
0.27783264614090847   -0.05162374027542925   -0.03296896982828363
0.27783264614090847   -0.05162374027542925   -0.03296896982828363
0.27783264614090847   -0.05162374027542925   -0.03296896982828363
0.6501790935188235   0.07669439118177353   0.05482632679417486
0.6501790935188235   0.07669439118177353   0.05482632679417486
0.6501790935188235   0.07669439118177353   0.05482632679417486
0.6501790935188235   0.07669439118177353   0.05482632679417486
-0.05150062570817333   -0.17397704532623604   -0.02691526536474565
-0.05150062570817333   -0.17397704532623604   -0.02691526536474565
-0.05150062570817333   -0.17397704532623604   -0.02691526536474565
-0.05150062570817333   -0.17397704532623604   -0.02691526536474565
0.004573885408664886   -0.040856101490275035   0.009606478218408428
0.004573885408664886   -0.040856101490275035   0.009606478218408428
0.004573885408664886   -0.040856101490275035   0.009606478218408428
0.004573885408664886   -0.040856101490275035   0.009606478218408428
0.6441133237459459   -0.015634695284180683   -0.004997711566304054
0.6441133237459459   -0.015634695284180683   -0.004997711566304054
0.6441133237459459   -0.015634695284180683   -0.004997711566304054
0.6441133237459459   -0.015634695284180683   -0.004997711566304054
0.30026877519238854   -0.03654823943323099   -0.021371220396009458
0.30026877519238854   -0.03654823943323099   -0.021371220396009458
0.30026877519238854   -0.03654823943323099   -0.021371220396009458
0.30026877519238854   -0.03654823943323099   -0.021371220396009458
0.67838054715186   0.10177056437542492   0.048933145803661246
0.67838054715186   0.10177056437542492   0.048933145803661246
0.67838054715186   0.10177056437542492   0.048933145803661246
0.67838054715186   0.10177056437542492   0.048933145803661246
-0.0283398049557421   -0.15690782810836512   -0.038910246985538334
-0.0283398049557421   -0.15690782810836512   -0.038910246985538334
-0.0283398049557421   -0.15690782810836512   -0.038910246985538334
-0.0283398049557421   -0.15690782810836512   -0.038910246985538334
0.024849610741467933   -0.012099930843961222   0.0034060001350703925
0.024849610741467933   -0.012099930843961222   0.0034060001350703925
0.024849610741467933   -0.012099930843961222   0.0034060001350703925
0.024849610741467933   -0.012099930843961222   0.0034060001350703925
0.6639201686537837   0.007978612372720989   -0.012283856138007459
0.6639201686537837   0.007978612372720989   -0.012283856138007459
0.6639201686537837   0.007978612372720989   -0.012283856138007459
0.6639201686537837   0.007978612372720989   -0.012283856138007459
0.327752876267109   -0.013998818816072373   -0.008928156582926993
0.327752876267109   -0.013998818816072373   -0.008928156582926993
0.327752876267109   -0.013998818816072373   -0.008928156582926993
0.327752876267109   -0.013998818816072373   -0.008928156582926993
-0.0271918254476161   0.015581688724369738   0.030751910189818467
-0.0271918254476161   0.015581688724369738   0.030751910189818467
-0.0271918254476161   0.015581688724369738   0.030751910189818467
-0.0271918254476161   0.015581688724369738   0.030751910189818467
-0.7122429976343975   -0.23244233902406164   -0.014231478707429347
-0.7122429976343975   -0.23244233902406164   -0.014231478707429347
-0.7122429976343975   -0.23244233902406164   -0.014231478707429347
-0.7122429976343975   -0.23244233902406164   -0.014231478707429347
-0.6558148271823078   -0.10034457435550935   -0.014990257325819593
-0.6558148271823078   -0.10034457435550935   -0.014990257325819593
-0.6558148271823078   -0.10034457435550935   -0.014990257325819593
-0.6558148271823078   -0.10034457435550935   -0.014990257325819593
-0.024522866398583455   -0.07987690730299582   0.013873393159962537
-0.024522866398583455   -0.07987690730299582   0.013873393159962537
-0.024522866398583455   -0.07987690730299582   0.013873393159962537
-0.024522866398583455   -0.07987690730299582   0.013873393159962537
-0.3565572172356205   -0.09394926008129548   -0.02945089764658037
-0.3565572172356205   -0.09394926008129548   -0.02945089764658037
-0.3565572172356205   -0.09394926008129548   -0.02945089764658037
-0.3565572172356205   -0.09394926008129548   -0.02945089764658037
0.0014974193613708792   0.039112924458112215   0.024984990198627117
0.0014974193613708792   0.039112924458112215   0.024984990198627117
0.0014974193613708792   0.039112924458112215   0.024984990198627117
0.0014974193613708792   0.039112924458112215   0.024984990198627117
-0.6801919408133278   -0.2176912339876858   -0.01952916584874298
-0.6801919408133278   -0.2176912339876858   -0.01952916584874298
-0.6801919408133278   -0.2176912339876858   -0.01952916584874298
-0.6801919408133278   -0.2176912339876858   -0.01952916584874298
-0.6237771110618849   -0.07308656906042404   -0.020411818415007797
-0.6237771110618849   -0.07308656906042404   -0.020411818415007797
-0.6237771110618849   -0.07308656906042404   -0.020411818415007797
-0.6237771110618849   -0.07308656906042404   -0.020411818415007797
-0.0004590478717170776   -0.062085624117974865   0.0056713344441972485
-0.0004590478717170776   -0.062085624117974865   0.0056713344441972485
-0.0004590478717170776   -0.062085624117974865   0.0056713344441972485
-0.0004590478717170776   -0.062085624117974865   0.0056713344441972485
-0.3254563919061694   -0.07435256427053154   -0.01635368358645292
-0.3254563919061694   -0.07435256427053154   -0.01635368358645292
-0.3254563919061694   -0.07435256427053154   -0.01635368358645292
-0.3254563919061694   -0.07435256427053154   -0.01635368358645292
0.0277507003451869   0.06519020598844656   0.019444245422294972
0.0277507003451869   0.06519020598844656   0.019444245422294972
0.0277507003451869   0.06519020598844656   0.019444245422294972
0.0277507003451869   0.06519020598844656   0.019444245422294972
-0.6519965237252413   -0.2003720636133015   -0.03422338717891181
-0.6519965237252413   -0.2003720636133015   -0.03422338717891181
-0.6519965237252413   -0.2003720636133015   -0.03422338717891181
-0.6519965237252413   -0.2003720636133015   -0.03422338717891181
-0.6011370876010147   -0.04710312143236749   -0.026473266329414043
-0.6011370876010147   -0.04710312143236749   -0.026473266329414043
-0.6011370876010147   -0.04710312143236749   -0.026473266329414043
-0.6011370876010147   -0.04710312143236749   -0.026473266329414043
0.015341651623234745   -0.047867780209989094   -0.008365946090068068
0.015341651623234745   -0.047867780209989094   -0.008365946090068068
0.015341651623234745   -0.047867780209989094   -0.008365946090068068
0.015341651623234745   -0.047867780209989094   -0.008365946090068068
-0.3026450711511312   -0.05607484830340648   -0.00815327224563248
-0.3026450711511312   -0.05607484830340648   -0.00815327224563248
-0.3026450711511312   -0.05607484830340648   -0.00815327224563248
-0.3026450711511312   -0.05607484830340648   -0.00815327224563248
-0.6669558792391597   -0.019240560741012186   -0.0009976650142895574
-0.6669558792391597   -0.019240560741012186   -0.0009976650142895574
-0.6669558792391597   -0.019240560741012186   -0.0009976650142895574
-0.6669558792391597   -0.019240560741012186   -0.0009976650142895574
-1.35038289669127   -0.2499033232388362   -0.0114428812798695
-1.35038289669127   -0.2499033232388362   -0.0114428812798695
-1.35038289669127   -0.2499033232388362   -0.0114428812798695
-1.35038289669127   -0.2499033232388362   -0.0114428812798695
-1.2897877492190775   -0.12847255424902834   -0.04458985254011306
-1.2897877492190775   -0.12847255424902834   -0.04458985254011306
-1.2897877492190775   -0.12847255424902834   -0.04458985254011306
-1.2897877492190775   -0.12847255424902834   -0.04458985254011306
-0.6434618015151828   -0.08298577638910784   0.02941607304340454
-0.6434618015151828   -0.08298577638910784   0.02941607304340454
-0.6434618015151828   -0.08298577638910784   0.02941607304340454
-0.6434618015151828   -0.08298577638910784   0.02941607304340454
-0.9789975196046146   -0.11294644529180659   -0.020757817891422767
-0.9789975196046146   -0.11294644529180659   -0.020757817891422767
-0.9789975196046146   -0.11294644529180659   -0.020757817891422767
-0.9789975196046146   -0.11294644529180659   -0.020757817891422767
-0.6315632110199721   0.011062478104075069   -0.005139228973725277
-0.6315632110199721   0.011062478104075069   -0.005139228973725277
-0.6315632110199721   0.011062478104075069   -0.005139228973725277
-0.6315632110199721   0.011062478104075069   -0.005139228973725277
-1.3022052996236084   -0.2230397686515257   -0.012110390160259176
-1.3022052996236084   -0.2230397686515257   -0.012110390160259176
-1.3022052996236084   -0.2230397686515257   -0.012110390160259176
-1.3022052996236084   -0.2230397686515257   -0.012110390160259176
-1.2439897465534813   -0.10000982127449057   -0.051639820800943516
-1.2439897465534813   -0.10000982127449057   -0.051639820800943516
-1.2439897465534813   -0.10000982127449057   -0.051639820800943516
-1.2439897465534813   -0.10000982127449057   -0.051639820800943516
-0.6123496257761784   -0.06161542083593135   0.02525445978903807
-0.6123496257761784   -0.06161542083593135   0.02525445978903807
-0.6123496257761784   -0.06161542083593135   0.02525445978903807
-0.6123496257761784   -0.06161542083593135   0.02525445978903807
-0.9319299238988916   -0.08563872324501234   -0.0068168821776935645
-0.9319299238988916   -0.08563872324501234   -0.0068168821776935645
-0.9319299238988916   -0.08563872324501234   -0.0068168821776935645
-0.9319299238988916   -0.08563872324501234   -0.0068168821776935645
-0.5994496851648703   0.03737825297112793   -0.009239510961485925
-0.5994496851648703   0.03737825297112793   -0.009239510961485925
-0.5994496851648703   0.03737825297112793   -0.009239510961485925
-0.5994496851648703   0.03737825297112793   -0.009239510961485925
-1.2590954344007153   -0.20120924231747062   -0.025968838994121418
-1.2590954344007153   -0.20120924231747062   -0.025968838994121418
-1.2590954344007153   -0.20120924231747062   -0.025968838994121418
-1.2590954344007153   -0.20120924231747062   -0.025968838994121418
-1.2068349501103115   -0.06999947494905592   -0.05328600857005914
-1.2068349501103115   -0.06999947494905592   -0.05328600857005914
-1.2068349501103115   -0.06999947494905592   -0.05328600857005914
-1.2068349501103115   -0.06999947494905592   -0.05328600857005914
-0.5944778603463949   -0.04802917475683009   0.007748923268152023
-0.5944778603463949   -0.04802917475683009   0.007748923268152023
-0.5944778603463949   -0.04802917475683009   0.007748923268152023
-0.5944778603463949   -0.04802917475683009   0.007748923268152023
-0.905971106512179   -0.06899169403615601   -0.002266057883246138
-0.905971106512179   -0.06899169403615601   -0.002266057883246138
-0.905971106512179   -0.06899169403615601   -0.002266057883246138
-0.905971106512179   -0.06899169403615601   -0.002266057883246138
-1.3135357605805658   -0.04455465000215428   -0.03255587396302984
-1.3135357605805658   -0.04455465000215428   -0.03255587396302984
-1.3135357605805658   -0.04455465000215428   -0.03255587396302984
-1.3135357605805658   -0.04455465000215428   -0.03255587396302984
-1.9806575069532262   -0.1689932498018283   0.07485713569606729
-1.9806575069532262   -0.1689932498018283   0.07485713569606729
-1.9806575069532262   -0.1689932498018283   0.07485713569606729
-1.9806575069532262   -0.1689932498018283   0.07485713569606729
-1.912706881269285   -0.1346326205912084   -0.04357246372429481
-1.912706881269285   -0.1346326205912084   -0.04357246372429481
-1.912706881269285   -0.1346326205912084   -0.04357246372429481
-1.912706881269285   -0.1346326205912084   -0.04357246372429481
-1.2343311681566207   0.03539364120692051   0.06882685731621094
-1.2343311681566207   0.03539364120692051   0.06882685731621094
-1.2343311681566207   0.03539364120692051   0.06882685731621094
-1.2343311681566207   0.03539364120692051   0.06882685731621094
-1.5382604802504638   -0.0530245324968493   0.007381252170836752
-1.5382604802504638   -0.0530245324968493   0.007381252170836752
-1.5382604802504638   -0.0530245324968493   0.007381252170836752
-1.5382604802504638   -0.0530245324968493   0.007381252170836752
-1.2630327028535664   -0.0032006059629375305   -0.03608656899864336
-1.2630327028535664   -0.0032006059629375305   -0.03608656899864336
-1.2630327028535664   -0.0032006059629375305   -0.03608656899864336
-1.2630327028535664   -0.0032006059629375305   -0.03608656899864336
-1.8793764534175244   -0.0914094802665385   0.07985653520981942
-1.8793764534175244   -0.0914094802665385   0.07985653520981942
-1.8793764534175244   -0.0914094802665385   0.07985653520981942
-1.8793764534175244   -0.0914094802665385   0.07985653520981942
-1.8398110124752334   -0.1133071616177192   -0.051890141332523246
-1.8398110124752334   -0.1133071616177192   -0.051890141332523246
-1.8398110124752334   -0.1133071616177192   -0.051890141332523246
-1.8398110124752334   -0.1133071616177192   -0.051890141332523246
-1.189039676390799   0.056641683767807205   0.06645902497016899
-1.189039676390799   0.056641683767807205   0.06645902497016899
-1.189039676390799   0.056641683767807205   0.06645902497016899
-1.189039676390799   0.056641683767807205   0.06645902497016899
-1.4952453552782137   -0.021388952435165864   0.030643400856287632
-1.4952453552782137   -0.021388952435165864   0.030643400856287632
-1.4952453552782137   -0.021388952435165864   0.030643400856287632
-1.4952453552782137   -0.021388952435165864   0.030643400856287632
-1.2187570352688717   0.013487037466315355   -0.03897312311869067
-1.2187570352688717   0.013487037466315355   -0.03897312311869067
-1.2187570352688717   0.013487037466315355   -0.03897312311869067
-1.2187570352688717   0.013487037466315355   -0.03897312311869067
-1.8091562669132424   -0.06921512863229778   0.05729155349202575
-1.8091562669132424   -0.06921512863229778   0.05729155349202575
-1.8091562669132424   -0.06921512863229778   0.05729155349202575
-1.8091562669132424   -0.06921512863229778   0.05729155349202575
-1.7644202227894368   -0.09316740531701662   -0.06271123933608194
-1.7644202227894368   -0.09316740531701662   -0.06271123933608194
-1.7644202227894368   -0.09316740531701662   -0.06271123933608194
-1.7644202227894368   -0.09316740531701662   -0.06271123933608194
-1.15548365341692   0.08206302856809639   0.0514079713797513
-1.15548365341692   0.08206302856809639   0.0514079713797513
-1.15548365341692   0.08206302856809639   0.0514079713797513
-1.15548365341692   0.08206302856809639   0.0514079713797513
-1.4141745984399192   0.005652916029987798   0.053953221948033384
-1.4141745984399192   0.005652916029987798   0.053953221948033384
-1.4141745984399192   0.005652916029987798   0.053953221948033384
-1.4141745984399192   0.005652916029987798   0.053953221948033384
1.743196304176618   0.10454271392904041   0.06317627000887581
1.743196304176618   0.10454271392904041   0.06317627000887581
1.743196304176618   0.10454271392904041   0.06317627000887581
1.743196304176618   0.10454271392904041   0.06317627000887581
0.8309629668406793   -0.15560569382710368   0.01411777639873825
0.8309629668406793   -0.15560569382710368   0.01411777639873825
0.8309629668406793   -0.15560569382710368   0.01411777639873825
0.8309629668406793   -0.15560569382710368   0.01411777639873825
0.8768032008356227   -0.06566525608541424   0.04859470320468989
0.8768032008356227   -0.06566525608541424   0.04859470320468989
0.8768032008356227   -0.06566525608541424   0.04859470320468989
0.8768032008356227   -0.06566525608541424   0.04859470320468989
1.7523752755685078   0.01491746386372006   -0.014073003197385164
1.7523752755685078   0.01491746386372006   -0.014073003197385164
1.7523752755685078   0.01491746386372006   -0.014073003197385164
1.7523752755685078   0.01491746386372006   -0.014073003197385164
1.2255588239261352   -0.03341692050752054   -0.08142739115255232
1.2255588239261352   -0.03341692050752054   -0.08142739115255232
1.2255588239261352   -0.03341692050752054   -0.08142739115255232
1.2255588239261352   -0.03341692050752054   -0.08142739115255232
1.7854663606579626   0.11634034371736335   0.049959542396245074
1.7854663606579626   0.11634034371736335   0.049959542396245074
1.7854663606579626   0.11634034371736335   0.049959542396245074
1.7854663606579626   0.11634034371736335   0.049959542396245074
0.8516510563558713   -0.15914919532935548   0.01631792004987398
0.8516510563558713   -0.15914919532935548   0.01631792004987398
0.8516510563558713   -0.15914919532935548   0.01631792004987398
0.8516510563558713   -0.15914919532935548   0.01631792004987398
0.8941638976167422   -0.055808472314000324   0.036977647801891333
0.8941638976167422   -0.055808472314000324   0.036977647801891333
0.8941638976167422   -0.055808472314000324   0.036977647801891333
0.8941638976167422   -0.055808472314000324   0.036977647801891333
1.7830661476641316   0.02602966173233201   -0.0043117726763949454
1.7830661476641316   0.02602966173233201   -0.0043117726763949454
1.7830661476641316   0.02602966173233201   -0.0043117726763949454
1.7830661476641316   0.02602966173233201   -0.0043117726763949454
1.2760980815275877   -0.026423910948646323   -0.055630844623020134
1.2760980815275877   -0.026423910948646323   -0.055630844623020134
1.2760980815275877   -0.026423910948646323   -0.055630844623020134
1.2760980815275877   -0.026423910948646323   -0.055630844623020134
1.8110645942765617   0.12709846823433335   0.0346116538837557
1.8110645942765617   0.12709846823433335   0.0346116538837557
1.8110645942765617   0.12709846823433335   0.0346116538837557
1.8110645942765617   0.12709846823433335   0.0346116538837557
0.8716879537673365   -0.15135477605297953   0.020144232293842393
0.8716879537673365   -0.15135477605297953   0.020144232293842393
0.8716879537673365   -0.15135477605297953   0.020144232293842393
0.8716879537673365   -0.15135477605297953   0.020144232293842393
0.9197154933908215   -0.017377928751031002   0.03380390058465026
0.9197154933908215   -0.017377928751031002   0.03380390058465026
0.9197154933908215   -0.017377928751031002   0.03380390058465026
0.9197154933908215   -0.017377928751031002   0.03380390058465026
1.8149887645888683   0.05149743612091867   -0.0007152985725368682
1.8149887645888683   0.05149743612091867   -0.0007152985725368682
1.8149887645888683   0.05149743612091867   -0.0007152985725368682
1.8149887645888683   0.05149743612091867   -0.0007152985725368682
1.2823606512954584   -0.012177474423119894   -0.04158853839089478
1.2823606512954584   -0.012177474423119894   -0.04158853839089478
1.2823606512954584   -0.012177474423119894   -0.04158853839089478
1.2823606512954584   -0.012177474423119894   -0.04158853839089478
0.8769836085264904   0.02237621253395297   0.06623907846673707
0.8769836085264904   0.02237621253395297   0.06623907846673707
0.8769836085264904   0.02237621253395297   0.06623907846673707
0.8769836085264904   0.02237621253395297   0.06623907846673707
0.04603952090925846   -0.3098687682875699   0.03179093969282609
0.04603952090925846   -0.3098687682875699   0.03179093969282609
0.04603952090925846   -0.3098687682875699   0.03179093969282609
0.04603952090925846   -0.3098687682875699   0.03179093969282609
0.10576827746669795   -0.13120709472873865   0.029665584447870035
0.10576827746669795   -0.13120709472873865   0.029665584447870035
0.10576827746669795   -0.13120709472873865   0.029665584447870035
0.10576827746669795   -0.13120709472873865   0.029665584447870035
0.8544910902121579   -0.14881303819709404   0.02018193219903583
0.8544910902121579   -0.14881303819709404   0.02018193219903583
0.8544910902121579   -0.14881303819709404   0.02018193219903583
0.8544910902121579   -0.14881303819709404   0.02018193219903583
0.4555280858798468   -0.13887141569490724   -0.05204590860422171
0.4555280858798468   -0.13887141569490724   -0.05204590860422171
0.4555280858798468   -0.13887141569490724   -0.05204590860422171
0.4555280858798468   -0.13887141569490724   -0.05204590860422171
0.8977449836879888   0.03231900158513776   0.05531935979596821
0.8977449836879888   0.03231900158513776   0.05531935979596821
0.8977449836879888   0.03231900158513776   0.05531935979596821
0.8977449836879888   0.03231900158513776   0.05531935979596821
0.07393396898981167   -0.30091954951203564   0.04020649684673558
0.07393396898981167   -0.30091954951203564   0.04020649684673558
0.07393396898981167   -0.30091954951203564   0.04020649684673558
0.07393396898981167   -0.30091954951203564   0.04020649684673558
0.12977908006212302   -0.11320290076745831   0.02149550470106911
0.12977908006212302   -0.11320290076745831   0.02149550470106911
0.12977908006212302   -0.11320290076745831   0.02149550470106911
0.12977908006212302   -0.11320290076745831   0.02149550470106911
0.8750443737599466   -0.13937905532720418   0.02495061153111966
0.8750443737599466   -0.13937905532720418   0.02495061153111966
0.8750443737599466   -0.13937905532720418   0.02495061153111966
0.8750443737599466   -0.13937905532720418   0.02495061153111966
0.4759626958883574   -0.13197581561394445   -0.026024613588215728
0.4759626958883574   -0.13197581561394445   -0.026024613588215728
0.4759626958883574   -0.13197581561394445   -0.026024613588215728
0.4759626958883574   -0.13197581561394445   -0.026024613588215728
0.9171107833370105   0.04928754980428188   0.046616054284950845
0.9171107833370105   0.04928754980428188   0.046616054284950845
0.9171107833370105   0.04928754980428188   0.046616054284950845
0.9171107833370105   0.04928754980428188   0.046616054284950845
0.09869877813580276   -0.2908833982482122   0.04377449255022346
0.09869877813580276   -0.2908833982482122   0.04377449255022346
0.09869877813580276   -0.2908833982482122   0.04377449255022346
0.09869877813580276   -0.2908833982482122   0.04377449255022346
0.16663475614585735   -0.08617547159370784   0.014231136537713282
0.16663475614585735   -0.08617547159370784   0.014231136537713282
0.16663475614585735   -0.08617547159370784   0.014231136537713282
0.16663475614585735   -0.08617547159370784   0.014231136537713282
0.8975375030619729   -0.1250408976449955   0.030576917834366932
0.8975375030619729   -0.1250408976449955   0.030576917834366932
0.8975375030619729   -0.1250408976449955   0.030576917834366932
0.8975375030619729   -0.1250408976449955   0.030576917834366932
0.5118089498772254   -0.11527753913996999   0.004259286275697924
0.5118089498772254   -0.11527753913996999   0.004259286275697924
0.5118089498772254   -0.11527753913996999   0.004259286275697924
0.5118089498772254   -0.11527753913996999   0.004259286275697924
0.0983961807381698   -0.05893926124841622   0.04264473179822911
0.0983961807381698   -0.05893926124841622   0.04264473179822911
0.0983961807381698   -0.05893926124841622   0.04264473179822911
0.0983961807381698   -0.05893926124841622   0.04264473179822911
-0.7453278830101762   -0.5321938933459183   0.04607684058342802
-0.7453278830101762   -0.5321938933459183   0.04607684058342802
-0.7453278830101762   -0.5321938933459183   0.04607684058342802
-0.7453278830101762   -0.5321938933459183   0.04607684058342802
-0.6509115862048673   -0.2073173704370701   0.00305979729587489
-0.6509115862048673   -0.2073173704370701   0.00305979729587489
-0.6509115862048673   -0.2073173704370701   0.00305979729587489
-0.6509115862048673   -0.2073173704370701   0.00305979729587489
0.05218553369279942   -0.3870409375478415   0.01758570839747979
0.05218553369279942   -0.3870409375478415   0.01758570839747979
0.05218553369279942   -0.3870409375478415   0.01758570839747979
0.05218553369279942   -0.3870409375478415   0.01758570839747979
-0.3211537069842026   -0.2984956427473573   -0.0624504954975669
-0.3211537069842026   -0.2984956427473573   -0.0624504954975669
-0.3211537069842026   -0.2984956427473573   -0.0624504954975669
-0.3211537069842026   -0.2984956427473573   -0.0624504954975669
0.12353877063287641   -0.04631422284890603   0.033625178398929714
0.12353877063287641   -0.04631422284890603   0.033625178398929714
0.12353877063287641   -0.04631422284890603   0.033625178398929714
0.12353877063287641   -0.04631422284890603   0.033625178398929714
-0.7057347584882516   -0.5315140204793184   0.0531405859212075
-0.7057347584882516   -0.5315140204793184   0.0531405859212075
-0.7057347584882516   -0.5315140204793184   0.0531405859212075
-0.7057347584882516   -0.5315140204793184   0.0531405859212075
-0.6144919773907881   -0.186038189774954   -5.8564321688766435e-05
-0.6144919773907881   -0.186038189774954   -5.8564321688766435e-05
-0.6144919773907881   -0.186038189774954   -5.8564321688766435e-05
-0.6144919773907881   -0.186038189774954   -5.8564321688766435e-05
0.07749919823573179   -0.3785085481638914   0.02540174296554845
0.07749919823573179   -0.3785085481638914   0.02540174296554845
0.07749919823573179   -0.3785085481638914   0.02540174296554845
0.07749919823573179   -0.3785085481638914   0.02540174296554845
-0.2842637909565032   -0.2882866542368233   -0.023276598207867837
-0.2842637909565032   -0.2882866542368233   -0.023276598207867837
-0.2842637909565032   -0.2882866542368233   -0.023276598207867837
-0.2842637909565032   -0.2882866542368233   -0.023276598207867837
0.14652595424900505   -0.029514579674218118   0.02154155454224096
0.14652595424900505   -0.029514579674218118   0.02154155454224096
0.14652595424900505   -0.029514579674218118   0.02154155454224096
0.14652595424900505   -0.029514579674218118   0.02154155454224096
-0.6686019720421863   -0.5201153969027681   0.06346866954914462
-0.6686019720421863   -0.5201153969027681   0.06346866954914462
-0.6686019720421863   -0.5201153969027681   0.06346866954914462
-0.6686019720421863   -0.5201153969027681   0.06346866954914462
-0.5543922911962077   -0.16152813036036767   -0.006933754022518562
-0.5543922911962077   -0.16152813036036767   -0.006933754022518562
-0.5543922911962077   -0.16152813036036767   -0.006933754022518562
-0.5543922911962077   -0.16152813036036767   -0.006933754022518562
0.11701307901749194   -0.35472229422835844   0.03466957353053249
0.11701307901749194   -0.35472229422835844   0.03466957353053249
0.11701307901749194   -0.35472229422835844   0.03466957353053249
0.11701307901749194   -0.35472229422835844   0.03466957353053249
-0.23639334772286558   -0.2654572493696901   0.01771354186367531
-0.23639334772286558   -0.2654572493696901   0.01771354186367531
-0.23639334772286558   -0.2654572493696901   0.01771354186367531
-0.23639334772286558   -0.2654572493696901   0.01771354186367531
-0.6653473524586271   -0.10654209844774137   0.02032769844298899
-0.6653473524586271   -0.10654209844774137   0.02032769844298899
-0.6653473524586271   -0.10654209844774137   0.02032769844298899
-0.6653473524586271   -0.10654209844774137   0.02032769844298899
-1.657944786500212   -0.8283282795978204   -0.038925478917533854
-1.657944786500212   -0.8283282795978204   -0.038925478917533854
-1.657944786500212   -0.8283282795978204   -0.038925478917533854
-1.657944786500212   -0.8283282795978204   -0.038925478917533854
-1.5021452020164792   -0.26975896524737175   -0.04576647074661874
-1.5021452020164792   -0.26975896524737175   -0.04576647074661874
-1.5021452020164792   -0.26975896524737175   -0.04576647074661874
-1.5021452020164792   -0.26975896524737175   -0.04576647074661874
-0.7457564053137078   -0.6924263195644187   0.01394465087902158
-0.7457564053137078   -0.6924263195644187   0.01394465087902158
-0.7457564053137078   -0.6924263195644187   0.01394465087902158
-0.7457564053137078   -0.6924263195644187   0.01394465087902158
-1.1415111927212354   -0.48995479219229454   -0.06561015996956576
-1.1415111927212354   -0.48995479219229454   -0.06561015996956576
-1.1415111927212354   -0.48995479219229454   -0.06561015996956576
-1.1415111927212354   -0.48995479219229454   -0.06561015996956576
-0.6223248466360568   -0.0807553125678265   0.019431437270683714
-0.6223248466360568   -0.0807553125678265   0.019431437270683714
-0.6223248466360568   -0.0807553125678265   0.019431437270683714
-0.6223248466360568   -0.0807553125678265   0.019431437270683714
-1.6217951886502915   -0.877648400200123   -0.036126968962916034
-1.6217951886502915   -0.877648400200123   -0.036126968962916034
-1.6217951886502915   -0.877648400200123   -0.036126968962916034
-1.6217951886502915   -0.877648400200123   -0.036126968962916034
-1.4536499732631272   -0.24425485054446677   -0.04664234126675179
-1.4536499732631272   -0.24425485054446677   -0.04664234126675179
-1.4536499732631272   -0.24425485054446677   -0.04664234126675179
-1.4536499732631272   -0.24425485054446677   -0.04664234126675179
-0.7104389003185573   -0.6869449419887446   0.021113573253259882
-0.7104389003185573   -0.6869449419887446   0.021113573253259882
-0.7104389003185573   -0.6869449419887446   0.021113573253259882
-0.7104389003185573   -0.6869449419887446   0.021113573253259882
-1.0906017641678478   -0.47665796500192714   -0.045962079141900286
-1.0906017641678478   -0.47665796500192714   -0.045962079141900286
-1.0906017641678478   -0.47665796500192714   -0.045962079141900286
-1.0906017641678478   -0.47665796500192714   -0.045962079141900286
-0.5880657121209827   -0.060502179676843494   0.006536751929231399
-0.5880657121209827   -0.060502179676843494   0.006536751929231399
-0.5880657121209827   -0.060502179676843494   0.006536751929231399
-0.5880657121209827   -0.060502179676843494   0.006536751929231399
-1.5759273502222442   -0.8706018016179105   -0.03168227498888229
-1.5759273502222442   -0.8706018016179105   -0.03168227498888229
-1.5759273502222442   -0.8706018016179105   -0.03168227498888229
-1.5759273502222442   -0.8706018016179105   -0.03168227498888229
-1.377987210205501   -0.216856144292303   -0.052876574550045255
-1.377987210205501   -0.216856144292303   -0.052876574550045255
-1.377987210205501   -0.216856144292303   -0.052876574550045255
-1.377987210205501   -0.216856144292303   -0.052876574550045255
-0.6340278309094117   -0.6175384667542909   0.050898883805394896
-0.6340278309094117   -0.6175384667542909   0.050898883805394896
-0.6340278309094117   -0.6175384667542909   0.050898883805394896
-0.6340278309094117   -0.6175384667542909   0.050898883805394896
-1.0338275608495124   -0.43196473025321114   -0.025496131299261177
-1.0338275608495124   -0.43196473025321114   -0.025496131299261177
-1.0338275608495124   -0.43196473025321114   -0.025496131299261177
-1.0338275608495124   -0.43196473025321114   -0.025496131299261177
-1.5047763755646677   -0.09089232619237617   -0.010519377645257004
-1.5047763755646677   -0.09089232619237617   -0.010519377645257004
-1.5047763755646677   -0.09089232619237617   -0.010519377645257004
-1.5047763755646677   -0.09089232619237617   -0.010519377645257004
-2.6549879004217436   -0.5255782873086988   0.02709646387824938
-2.6549879004217436   -0.5255782873086988   0.02709646387824938
-2.6549879004217436   -0.5255782873086988   0.02709646387824938
-2.6549879004217436   -0.5255782873086988   0.02709646387824938
-2.5505370266404124   -0.252788464176334   -0.05587781111627037
-2.5505370266404124   -0.252788464176334   -0.05587781111627037
-2.5505370266404124   -0.252788464176334   -0.05587781111627037
-2.5505370266404124   -0.252788464176334   -0.05587781111627037
-1.4716198124912925   -0.2724197168098914   0.10952122844183551
-1.4716198124912925   -0.2724197168098914   0.10952122844183551
-1.4716198124912925   -0.2724197168098914   0.10952122844183551
-1.4716198124912925   -0.2724197168098914   0.10952122844183551
-1.9626332763725434   -0.3048030509114772   0.02802642593932266
-1.9626332763725434   -0.3048030509114772   0.02802642593932266
-1.9626332763725434   -0.3048030509114772   0.02802642593932266
-1.9626332763725434   -0.3048030509114772   0.02802642593932266
-1.442979814555823   -0.02003429939525525   0.00033580070455214994
-1.442979814555823   -0.02003429939525525   0.00033580070455214994
-1.442979814555823   -0.02003429939525525   0.00033580070455214994
-1.442979814555823   -0.02003429939525525   0.00033580070455214994
-2.5891056569841244   -0.5151025139992188   0.013593086988030011
-2.5891056569841244   -0.5151025139992188   0.013593086988030011
-2.5891056569841244   -0.5151025139992188   0.013593086988030011
-2.5891056569841244   -0.5151025139992188   0.013593086988030011
-2.493058307653944   -0.23163899520384035   -0.07092573862492371
-2.493058307653944   -0.23163899520384035   -0.07092573862492371
-2.493058307653944   -0.23163899520384035   -0.07092573862492371
-2.493058307653944   -0.23163899520384035   -0.07092573862492371
-1.4217001085545489   -0.258807996137144   0.1276601278688287
-1.4217001085545489   -0.258807996137144   0.1276601278688287
-1.4217001085545489   -0.258807996137144   0.1276601278688287
-1.4217001085545489   -0.258807996137144   0.1276601278688287
-1.9323417165570969   -0.25104307068327336   0.026965195613210882
-1.9323417165570969   -0.25104307068327336   0.026965195613210882
-1.9323417165570969   -0.25104307068327336   0.026965195613210882
-1.9323417165570969   -0.25104307068327336   0.026965195613210882
-1.3985089525561345   -0.0013186617621108176   -0.013873426514133397
-1.3985089525561345   -0.0013186617621108176   -0.013873426514133397
-1.3985089525561345   -0.0013186617621108176   -0.013873426514133397
-1.3985089525561345   -0.0013186617621108176   -0.013873426514133397
-2.5198777470764693   -0.49275661300298007   0.056094682061568826
-2.5198777470764693   -0.49275661300298007   0.056094682061568826
-2.5198777470764693   -0.49275661300298007   0.056094682061568826
-2.5198777470764693   -0.49275661300298007   0.056094682061568826
-2.3736933679357057   -0.18772403834250057   -0.07931764865450854
-2.3736933679357057   -0.18772403834250057   -0.07931764865450854
-2.3736933679357057   -0.18772403834250057   -0.07931764865450854
-2.3736933679357057   -0.18772403834250057   -0.07931764865450854
-1.344038641769161   -0.24067141973830086   0.1406815430776567
-1.344038641769161   -0.24067141973830086   0.1406815430776567
-1.344038641769161   -0.24067141973830086   0.1406815430776567
-1.344038641769161   -0.24067141973830086   0.1406815430776567
-1.8168121762150826   -0.19192929849071824   0.05536294795671255
-1.8168121762150826   -0.19192929849071824   0.05536294795671255
-1.8168121762150826   -0.19192929849071824   0.05536294795671255
-1.8168121762150826   -0.19192929849071824   0.05536294795671255
1.9093415409346122   0.06261855951308104   0.026860469005707904
1.9093415409346122   0.06261855951308104   0.026860469005707904
1.9093415409346122   0.06261855951308104   0.026860469005707904
1.9093415409346122   0.06261855951308104   0.026860469005707904
0.9748352583705154   -0.05137565961796167   0.019746650172673588
0.9748352583705154   -0.05137565961796167   0.019746650172673588
0.9748352583705154   -0.05137565961796167   0.019746650172673588
0.9748352583705154   -0.05137565961796167   0.019746650172673588
0.9367679157332202   -0.13761398591179905   0.03887710776030731
0.9367679157332202   -0.13761398591179905   0.03887710776030731
0.9367679157332202   -0.13761398591179905   0.03887710776030731
0.9367679157332202   -0.13761398591179905   0.03887710776030731
1.8954841119052985   0.10679386322143669   0.01428391019217716
1.8954841119052985   0.10679386322143669   0.01428391019217716
1.8954841119052985   0.10679386322143669   0.01428391019217716
1.8954841119052985   0.10679386322143669   0.01428391019217716
1.3529418637052963   -0.01920066242535795   -0.04996368242085886
1.3529418637052963   -0.01920066242535795   -0.04996368242085886
1.3529418637052963   -0.01920066242535795   -0.04996368242085886
1.3529418637052963   -0.01920066242535795   -0.04996368242085886
1.885055639923365   0.04837935006246663   0.02055606344147859
1.885055639923365   0.04837935006246663   0.02055606344147859
1.885055639923365   0.04837935006246663   0.02055606344147859
1.885055639923365   0.04837935006246663   0.02055606344147859
0.944082672509724   -0.08231318795825662   0.020150093689284956
0.944082672509724   -0.08231318795825662   0.020150093689284956
0.944082672509724   -0.08231318795825662   0.020150093689284956
0.944082672509724   -0.08231318795825662   0.020150093689284956
0.9124895767396325   -0.1407918804987389   0.03215708709274981
0.9124895767396325   -0.1407918804987389   0.03215708709274981
0.9124895767396325   -0.1407918804987389   0.03215708709274981
0.9124895767396325   -0.1407918804987389   0.03215708709274981
1.8732996504444734   0.10216989605642302   0.02473216719686601
1.8732996504444734   0.10216989605642302   0.02473216719686601
1.8732996504444734   0.10216989605642302   0.02473216719686601
1.8732996504444734   0.10216989605642302   0.02473216719686601
1.3489183789790904   -0.02648613542507272   -0.057830161335817754
1.3489183789790904   -0.02648613542507272   -0.057830161335817754
1.3489183789790904   -0.02648613542507272   -0.057830161335817754
1.3489183789790904   -0.02648613542507272   -0.057830161335817754
1.8577619997765455   0.043061623894018464   0.006152186019618533
1.8577619997765455   0.043061623894018464   0.006152186019618533
1.8577619997765455   0.043061623894018464   0.006152186019618533
1.8577619997765455   0.043061623894018464   0.006152186019618533
0.9224335739550656   -0.08727726178883019   0.028362454460007736
0.9224335739550656   -0.08727726178883019   0.028362454460007736
0.9224335739550656   -0.08727726178883019   0.028362454460007736
0.9224335739550656   -0.08727726178883019   0.028362454460007736
0.8868773263436518   -0.12842831188508017   0.027767399642685348
0.8868773263436518   -0.12842831188508017   0.027767399642685348
0.8868773263436518   -0.12842831188508017   0.027767399642685348
0.8868773263436518   -0.12842831188508017   0.027767399642685348
1.8391152946254117   0.10333024972581556   0.035577693035747496
1.8391152946254117   0.10333024972581556   0.035577693035747496
1.8391152946254117   0.10333024972581556   0.035577693035747496
1.8391152946254117   0.10333024972581556   0.035577693035747496
1.298244957084062   -0.026686797079730373   -0.0780735542602501
1.298244957084062   -0.026686797079730373   -0.0780735542602501
1.298244957084062   -0.026686797079730373   -0.0780735542602501
1.298244957084062   -0.026686797079730373   -0.0780735542602501
0.9661821395628682   -0.12264779432676762   0.047753190843243185
0.9661821395628682   -0.12264779432676762   0.047753190843243185
0.9661821395628682   -0.12264779432676762   0.047753190843243185
0.9661821395628682   -0.12264779432676762   0.047753190843243185
0.18749491042353364   -0.11505412823761021   0.010205718166418083
0.18749491042353364   -0.11505412823761021   0.010205718166418083
0.18749491042353364   -0.11505412823761021   0.010205718166418083
0.18749491042353364   -0.11505412823761021   0.010205718166418083
0.12184716418211045   -0.2891593390020218   0.05109435420450592
0.12184716418211045   -0.2891593390020218   0.05109435420450592
0.12184716418211045   -0.2891593390020218   0.05109435420450592
0.12184716418211045   -0.2891593390020218   0.05109435420450592
0.9714329623787819   0.0377058601486637   0.036882494927651756
0.9714329623787819   0.0377058601486637   0.036882494927651756
0.9714329623787819   0.0377058601486637   0.036882494927651756
0.9714329623787819   0.0377058601486637   0.036882494927651756
0.5531045997960667   -0.1227793926991792   -0.0021274204218789533
0.5531045997960667   -0.1227793926991792   -0.0021274204218789533
0.5531045997960667   -0.1227793926991792   -0.0021274204218789533
0.5531045997960667   -0.1227793926991792   -0.0021274204218789533
0.9389252973942501   -0.12796048097479765   0.04001051112846166
0.9389252973942501   -0.12796048097479765   0.04001051112846166
0.9389252973942501   -0.12796048097479765   0.04001051112846166
0.9389252973942501   -0.12796048097479765   0.04001051112846166
0.14614434529866527   -0.1317034817465319   0.015124402531790183
0.14614434529866527   -0.1317034817465319   0.015124402531790183
0.14614434529866527   -0.1317034817465319   0.015124402531790183
0.14614434529866527   -0.1317034817465319   0.015124402531790183
0.09244021687362498   -0.29174133098490773   0.04574339012892366
0.09244021687362498   -0.29174133098490773   0.04574339012892366
0.09244021687362498   -0.29174133098490773   0.04574339012892366
0.09244021687362498   -0.29174133098490773   0.04574339012892366
0.9490437513365113   0.030442610443426416   0.043693469134979145
0.9490437513365113   0.030442610443426416   0.043693469134979145
0.9490437513365113   0.030442610443426416   0.043693469134979145
0.9490437513365113   0.030442610443426416   0.043693469134979145
0.5131631008213766   -0.13085902317790116   -0.026510517274919723
0.5131631008213766   -0.13085902317790116   -0.026510517274919723
0.5131631008213766   -0.13085902317790116   -0.026510517274919723
0.5131631008213766   -0.13085902317790116   -0.026510517274919723
0.914879357235803   -0.12978279926939842   0.03309690834425237
0.914879357235803   -0.12978279926939842   0.03309690834425237
0.914879357235803   -0.12978279926939842   0.03309690834425237
0.914879357235803   -0.12978279926939842   0.03309690834425237
0.11768145531746149   -0.14043907692894975   0.020647328292148208
0.11768145531746149   -0.14043907692894975   0.020647328292148208
0.11768145531746149   -0.14043907692894975   0.020647328292148208
0.11768145531746149   -0.14043907692894975   0.020647328292148208
0.05953518490822263   -0.2915969313872513   0.0357990672768997
0.05953518490822263   -0.2915969313872513   0.0357990672768997
0.05953518490822263   -0.2915969313872513   0.0357990672768997
0.05953518490822263   -0.2915969313872513   0.0357990672768997
0.9236341841390268   0.03088778989992602   0.052235586834550825
0.9236341841390268   0.03088778989992602   0.052235586834550825
0.9236341841390268   0.03088778989992602   0.052235586834550825
0.9236341841390268   0.03088778989992602   0.052235586834550825
0.48877275966947004   -0.12985152498334726   -0.04724876604876796
0.48877275966947004   -0.12985152498334726   -0.04724876604876796
0.48877275966947004   -0.12985152498334726   -0.04724876604876796
0.48877275966947004   -0.12985152498334726   -0.04724876604876796
0.14613096501639303   -0.35454259939888644   0.04287446229198952
0.14613096501639303   -0.35454259939888644   0.04287446229198952
0.14613096501639303   -0.35454259939888644   0.04287446229198952
0.14613096501639303   -0.35454259939888644   0.04287446229198952
-0.5694231497729211   -0.17850964175713574   0.0006221214987128729
-0.5694231497729211   -0.17850964175713574   0.0006221214987128729
-0.5694231497729211   -0.17850964175713574   0.0006221214987128729
-0.5694231497729211   -0.17850964175713574   0.0006221214987128729
-0.688189638762405   -0.5269213126020389   0.058559005581758375
-0.688189638762405   -0.5269213126020389   0.058559005581758375
-0.688189638762405   -0.5269213126020389   0.058559005581758375
-0.688189638762405   -0.5269213126020389   0.058559005581758375
0.16810959033395775   -0.030076944861921015   0.02332409082364062
0.16810959033395775   -0.030076944861921015   0.02332409082364062
0.16810959033395775   -0.030076944861921015   0.02332409082364062
0.16810959033395775   -0.030076944861921015   0.02332409082364062
-0.2326905703005962   -0.26867451855513413   0.010105793692668681
-0.2326905703005962   -0.26867451855513413   0.010105793692668681
-0.2326905703005962   -0.26867451855513413   0.010105793692668681
-0.2326905703005962   -0.26867451855513413   0.010105793692668681
0.10068029765325895   -0.3746991582696713   0.030799840827897912
0.10068029765325895   -0.3746991582696713   0.030799840827897912
0.10068029765325895   -0.3746991582696713   0.030799840827897912
0.10068029765325895   -0.3746991582696713   0.030799840827897912
-0.6322513014030042   -0.1937900545155915   0.005119434292311376
-0.6322513014030042   -0.1937900545155915   0.005119434292311376
-0.6322513014030042   -0.1937900545155915   0.005119434292311376
-0.6322513014030042   -0.1937900545155915   0.005119434292311376
-0.7291493973812724   -0.5353817952424176   0.04768410318998337
-0.7291493973812724   -0.5353817952424176   0.04768410318998337
-0.7291493973812724   -0.5353817952424176   0.04768410318998337
-0.7291493973812724   -0.5353817952424176   0.04768410318998337
0.140555756315201   -0.03813968727709027   0.03271944362898559
0.140555756315201   -0.03813968727709027   0.03271944362898559
0.140555756315201   -0.03813968727709027   0.03271944362898559
0.140555756315201   -0.03813968727709027   0.03271944362898559
-0.2838740821374328   -0.2850079333228946   -0.024081311206585368
-0.2838740821374328   -0.2850079333228946   -0.024081311206585368
-0.2838740821374328   -0.2850079333228946   -0.024081311206585368
-0.2838740821374328   -0.2850079333228946   -0.024081311206585368
0.06935608342995707   -0.3812510344441838   0.01983242636986006
0.06935608342995707   -0.3812510344441838   0.01983242636986006
0.06935608342995707   -0.3812510344441838   0.01983242636986006
0.06935608342995707   -0.3812510344441838   0.01983242636986006
-0.6716193736914222   -0.2059400972707079   0.005892523667520556
-0.6716193736914222   -0.2059400972707079   0.005892523667520556
-0.6716193736914222   -0.2059400972707079   0.005892523667520556
-0.6716193736914222   -0.2059400972707079   0.005892523667520556
-0.7735399971335736   -0.5317354118566604   0.04015706154008855
-0.7735399971335736   -0.5317354118566604   0.04015706154008855
-0.7735399971335736   -0.5317354118566604   0.04015706154008855
-0.7735399971335736   -0.5317354118566604   0.04015706154008855
0.10989861552794487   -0.04263273894314794   0.03865202793140532
0.10989861552794487   -0.04263273894314794   0.03865202793140532
0.10989861552794487   -0.04263273894314794   0.03865202793140532
0.10989861552794487   -0.04263273894314794   0.03865202793140532
-0.32540209910123546   -0.29121497615316705   -0.058233691717116294
-0.32540209910123546   -0.29121497615316705   -0.058233691717116294
-0.32540209910123546   -0.29121497615316705   -0.058233691717116294
-0.32540209910123546   -0.29121497615316705   -0.058233691717116294
-0.6452098926512695   -0.6078003766454615   0.05097914199530068
-0.6452098926512695   -0.6078003766454615   0.05097914199530068
-0.6452098926512695   -0.6078003766454615   0.05097914199530068
-0.6452098926512695   -0.6078003766454615   0.05097914199530068
-1.4299163957577135   -0.2222386587685598   -0.03310903727184265
-1.4299163957577135   -0.2222386587685598   -0.03310903727184265
-1.4299163957577135   -0.2222386587685598   -0.03310903727184265
-1.4299163957577135   -0.2222386587685598   -0.03310903727184265
-1.6374729206886025   -0.8826996278982622   -0.04570537541530091
-1.6374729206886025   -0.8826996278982622   -0.04570537541530091
-1.6374729206886025   -0.8826996278982622   -0.04570537541530091
-1.6374729206886025   -0.8826996278982622   -0.04570537541530091
-0.6004522002849958   -0.049827795317469614   0.020152680684231122
-0.6004522002849958   -0.049827795317469614   0.020152680684231122
-0.6004522002849958   -0.049827795317469614   0.020152680684231122
-0.6004522002849958   -0.049827795317469614   0.020152680684231122
-1.0679301315071212   -0.42351878082354066   -0.036432216834347726
-1.0679301315071212   -0.42351878082354066   -0.036432216834347726
-1.0679301315071212   -0.42351878082354066   -0.036432216834347726
-1.0679301315071212   -0.42351878082354066   -0.036432216834347726
-0.7287617601100419   -0.6883840862093171   0.017161172450848444
-0.7287617601100419   -0.6883840862093171   0.017161172450848444
-0.7287617601100419   -0.6883840862093171   0.017161172450848444
-0.7287617601100419   -0.6883840862093171   0.017161172450848444
-1.5058890548833805   -0.2408690310262383   -0.029616643261227853
-1.5058890548833805   -0.2408690310262383   -0.029616643261227853
-1.5058890548833805   -0.2408690310262383   -0.029616643261227853
-1.5058890548833805   -0.2408690310262383   -0.029616643261227853
-1.6861943401467205   -0.8968897588015259   -0.052855070982482696
-1.6861943401467205   -0.8968897588015259   -0.052855070982482696
-1.6861943401467205   -0.8968897588015259   -0.052855070982482696
-1.6861943401467205   -0.8968897588015259   -0.052855070982482696
-0.6382075099525237   -0.06306204866185124   0.030073793753155408
-0.6382075099525237   -0.06306204866185124   0.030073793753155408
-0.6382075099525237   -0.06306204866185124   0.030073793753155408
-0.6382075099525237   -0.06306204866185124   0.030073793753155408
-1.1274721133981926   -0.46925346551183483   -0.051593799385910855
-1.1274721133981926   -0.46925346551183483   -0.051593799385910855
-1.1274721133981926   -0.46925346551183483   -0.051593799385910855
-1.1274721133981926   -0.46925346551183483   -0.051593799385910855
-0.7706408803113017   -0.7018658949820495   0.006710788279464419
-0.7706408803113017   -0.7018658949820495   0.006710788279464419
-0.7706408803113017   -0.7018658949820495   0.006710788279464419
-0.7706408803113017   -0.7018658949820495   0.006710788279464419
-1.5539880258976086   -0.25831296859099295   -0.030400289947468417
-1.5539880258976086   -0.25831296859099295   -0.030400289947468417
-1.5539880258976086   -0.25831296859099295   -0.030400289947468417
-1.5539880258976086   -0.25831296859099295   -0.030400289947468417
-1.727747489950139   -0.858382670672595   -0.059602476745398134
-1.727747489950139   -0.858382670672595   -0.059602476745398134
-1.727747489950139   -0.858382670672595   -0.059602476745398134
-1.727747489950139   -0.858382670672595   -0.059602476745398134
-0.686004287632955   -0.08175280262236148   0.027852999808883533
-0.686004287632955   -0.08175280262236148   0.027852999808883533
-0.686004287632955   -0.08175280262236148   0.027852999808883533
-0.686004287632955   -0.08175280262236148   0.027852999808883533
-1.1823169255542154   -0.48484353318484735   -0.06608947634912292
-1.1823169255542154   -0.48484353318484735   -0.06608947634912292
-1.1823169255542154   -0.48484353318484735   -0.06608947634912292
-1.1823169255542154   -0.48484353318484735   -0.06608947634912292
-1.4047384144156774   -0.25569936729098375   0.12624157796073854
-1.4047384144156774   -0.25569936729098375   0.12624157796073854
-1.4047384144156774   -0.25569936729098375   0.12624157796073854
-1.4047384144156774   -0.25569936729098375   0.12624157796073854
-2.473372957218301   -0.1850502159340433   -0.04390056900575555
-2.473372957218301   -0.1850502159340433   -0.04390056900575555
-2.473372957218301   -0.1850502159340433   -0.04390056900575555
-2.473372957218301   -0.1850502159340433   -0.04390056900575555
-2.6247885656882666   -0.5180284536253296   0.03464629756161885
-2.6247885656882666   -0.5180284536253296   0.03464629756161885
-2.6247885656882666   -0.5180284536253296   0.03464629756161885
-2.6247885656882666   -0.5180284536253296   0.03464629756161885
-1.4451250211415774   0.02086460418037872   0.012469890241171747
-1.4451250211415774   0.02086460418037872   0.012469890241171747
-1.4451250211415774   0.02086460418037872   0.012469890241171747
-1.4451250211415774   0.02086460418037872   0.012469890241171747
-1.8923798616287193   -0.18196994824615514   0.03802874817267259
-1.8923798616287193   -0.18196994824615514   0.03802874817267259
-1.8923798616287193   -0.18196994824615514   0.03802874817267259
-1.8923798616287193   -0.18196994824615514   0.03802874817267259
-1.4842794253601042   -0.27445282533852994   0.11201529866743927
-1.4842794253601042   -0.27445282533852994   0.11201529866743927
-1.4842794253601042   -0.27445282533852994   0.11201529866743927
-1.4842794253601042   -0.27445282533852994   0.11201529866743927
-2.5790133787713714   -0.21609024140804756   -0.03841598007116531
-2.5790133787713714   -0.21609024140804756   -0.03841598007116531
-2.5790133787713714   -0.21609024140804756   -0.03841598007116531
-2.5790133787713714   -0.21609024140804756   -0.03841598007116531
-2.6890274377699166   -0.5400829591956668   -0.01138735820841761
-2.6890274377699166   -0.5400829591956668   -0.01138735820841761
-2.6890274377699166   -0.5400829591956668   -0.01138735820841761
-2.6890274377699166   -0.5400829591956668   -0.01138735820841761
-1.4904729719982324   0.006018026197806781   0.02284398476061096
-1.4904729719982324   0.006018026197806781   0.02284398476061096
-1.4904729719982324   0.006018026197806781   0.02284398476061096
-1.4904729719982324   0.006018026197806781   0.02284398476061096
-2.0055652527716408   -0.24022596251052555   0.015657875948281625
-2.0055652527716408   -0.24022596251052555   0.015657875948281625
-2.0055652527716408   -0.24022596251052555   0.015657875948281625
-2.0055652527716408   -0.24022596251052555   0.015657875948281625
-1.5353772059390316   -0.2885060607807655   0.09284690203518887
-1.5353772059390316   -0.2885060607807655   0.09284690203518887
-1.5353772059390316   -0.2885060607807655   0.09284690203518887
-1.5353772059390316   -0.2885060607807655   0.09284690203518887
-2.6308218798153353   -0.23225754820330552   -0.028184979427848464
-2.6308218798153353   -0.23225754820330552   -0.028184979427848464
-2.6308218798153353   -0.23225754820330552   -0.028184979427848464
-2.6308218798153353   -0.23225754820330552   -0.028184979427848464
-2.744905712549441   -0.5490136043712229   -0.00016230930667387788
-2.744905712549441   -0.5490136043712229   -0.00016230930667387788
-2.744905712549441   -0.5490136043712229   -0.00016230930667387788
-2.744905712549441   -0.5490136043712229   -0.00016230930667387788
-1.5541549096916163   -0.05937597761443053   0.009353731489043504
-1.5541549096916163   -0.05937597761443053   0.009353731489043504
-1.5541549096916163   -0.05937597761443053   0.009353731489043504
-1.5541549096916163   -0.05937597761443053   0.009353731489043504
-2.029970279992815   -0.2902471866310279   0.02471500890476231
-2.029970279992815   -0.2902471866310279   0.02471500890476231
-2.029970279992815   -0.2902471866310279   0.02471500890476231
-2.029970279992815   -0.2902471866310279   0.02471500890476231
1.6723823688548771   0.07692228149161473   -0.03631075476387152
1.6723823688548771   0.07692228149161473   -0.03631075476387152
1.6723823688548771   0.07692228149161473   -0.03631075476387152
1.6723823688548771   0.07692228149161473   -0.03631075476387152
0.8417618238458598   -0.01696538459406785   0.01786206395214846
0.8417618238458598   -0.01696538459406785   0.01786206395214846
0.8417618238458598   -0.01696538459406785   0.01786206395214846
0.8417618238458598   -0.01696538459406785   0.01786206395214846
0.7882043741948275   -0.12393723469466625   -0.032091841677804954
0.7882043741948275   -0.12393723469466625   -0.032091841677804954
0.7882043741948275   -0.12393723469466625   -0.032091841677804954
0.7882043741948275   -0.12393723469466625   -0.032091841677804954
1.653016293345521   0.12072969428022781   0.020898403605228898
1.653016293345521   0.12072969428022781   0.020898403605228898
1.653016293345521   0.12072969428022781   0.020898403605228898
1.653016293345521   0.12072969428022781   0.020898403605228898
1.1739019649409532   0.0028799311727336074   -0.04534535858192364
1.1739019649409532   0.0028799311727336074   -0.04534535858192364
1.1739019649409532   0.0028799311727336074   -0.04534535858192364
1.1739019649409532   0.0028799311727336074   -0.04534535858192364
1.625900336603424   0.042691657464676847   -0.03664334328969271
1.625900336603424   0.042691657464676847   -0.03664334328969271
1.625900336603424   0.042691657464676847   -0.03664334328969271
1.625900336603424   0.042691657464676847   -0.03664334328969271
0.8138143713628   -0.04740515745323784   0.01942606692062166
0.8138143713628   -0.04740515745323784   0.01942606692062166
0.8138143713628   -0.04740515745323784   0.01942606692062166
0.8138143713628   -0.04740515745323784   0.01942606692062166
0.7593672115249158   -0.13086364307297346   -0.026503089530620284
0.7593672115249158   -0.13086364307297346   -0.026503089530620284
0.7593672115249158   -0.13086364307297346   -0.026503089530620284
0.7593672115249158   -0.13086364307297346   -0.026503089530620284
1.612956980774273   0.11091534129414501   0.03054981678737461
1.612956980774273   0.11091534129414501   0.03054981678737461
1.612956980774273   0.11091534129414501   0.03054981678737461
1.612956980774273   0.11091534129414501   0.03054981678737461
1.1581537195014606   -0.011749691377553384   -0.05413165941330196
1.1581537195014606   -0.011749691377553384   -0.05413165941330196
1.1581537195014606   -0.011749691377553384   -0.05413165941330196
1.1581537195014606   -0.011749691377553384   -0.05413165941330196
1.5856410870348705   0.03389073984335972   -0.029005050458851905
1.5856410870348705   0.03389073984335972   -0.029005050458851905
1.5856410870348705   0.03389073984335972   -0.029005050458851905
1.5856410870348705   0.03389073984335972   -0.029005050458851905
0.7845937816814446   -0.05592836520507133   0.02469448338412119
0.7845937816814446   -0.05592836520507133   0.02469448338412119
0.7845937816814446   -0.05592836520507133   0.02469448338412119
0.7845937816814446   -0.05592836520507133   0.02469448338412119
0.7314376208798742   -0.12895529207279385   -0.018172342211823123
0.7314376208798742   -0.12895529207279385   -0.018172342211823123
0.7314376208798742   -0.12895529207279385   -0.018172342211823123
0.7314376208798742   -0.12895529207279385   -0.018172342211823123
1.5633558946508135   0.10424588712643831   0.03974993351464503
1.5633558946508135   0.10424588712643831   0.03974993351464503
1.5633558946508135   0.10424588712643831   0.03974993351464503
1.5633558946508135   0.10424588712643831   0.03974993351464503
1.1008647933463087   -0.020502516427378797   -0.07110079210346487
1.1008647933463087   -0.020502516427378797   -0.07110079210346487
1.1008647933463087   -0.020502516427378797   -0.07110079210346487
1.1008647933463087   -0.020502516427378797   -0.07110079210346487
0.8463306745454271   0.016183389603890957   0.007557543252026289
0.8463306745454271   0.016183389603890957   0.007557543252026289
0.8463306745454271   0.016183389603890957   0.007557543252026289
0.8463306745454271   0.016183389603890957   0.007557543252026289
0.08142186983146252   -0.05070720963960419   -0.0019237241178519
0.08142186983146252   -0.05070720963960419   -0.0019237241178519
0.08142186983146252   -0.05070720963960419   -0.0019237241178519
0.08142186983146252   -0.05070720963960419   -0.0019237241178519
0.030954165330511395   -0.16394241592443087   -0.03088008838955068
0.030954165330511395   -0.16394241592443087   -0.03088008838955068
0.030954165330511395   -0.16394241592443087   -0.03088008838955068
0.030954165330511395   -0.16394241592443087   -0.03088008838955068
0.8473395341412027   0.09773003369113899   0.041916689668258414
0.8473395341412027   0.09773003369113899   0.041916689668258414
0.8473395341412027   0.09773003369113899   0.041916689668258414
0.8473395341412027   0.09773003369113899   0.041916689668258414
0.4432256879439334   -0.023033285839217293   -0.017571262458155247
0.4432256879439334   -0.023033285839217293   -0.017571262458155247
0.4432256879439334   -0.023033285839217293   -0.017571262458155247
0.4432256879439334   -0.023033285839217293   -0.017571262458155247
0.82263325648435   0.0031604058327301676   0.012954929242407633
0.82263325648435   0.0031604058327301676   0.012954929242407633
0.82263325648435   0.0031604058327301676   0.012954929242407633
0.82263325648435   0.0031604058327301676   0.012954929242407633
0.05659734734593193   -0.06843588370745221   0.0018292894705732865
0.05659734734593193   -0.06843588370745221   0.0018292894705732865
0.05659734734593193   -0.06843588370745221   0.0018292894705732865
0.05659734734593193   -0.06843588370745221   0.0018292894705732865
0.003149270251115499   -0.17177266961076176   -0.021488450050565933
0.003149270251115499   -0.17177266961076176   -0.021488450050565933
0.003149270251115499   -0.17177266961076176   -0.021488450050565933
0.003149270251115499   -0.17177266961076176   -0.021488450050565933
0.8168149496042295   0.0836372864445154   0.04623467134845808
0.8168149496042295   0.0836372864445154   0.04623467134845808
0.8168149496042295   0.0836372864445154   0.04623467134845808
0.8168149496042295   0.0836372864445154   0.04623467134845808
0.4112279203224921   -0.036004316419764135   -0.024878594253130507
0.4112279203224921   -0.036004316419764135   -0.024878594253130507
0.4112279203224921   -0.036004316419764135   -0.024878594253130507
0.4112279203224921   -0.036004316419764135   -0.024878594253130507
0.7934968307106726   -0.005624329036416409   0.018905692361612263
0.7934968307106726   -0.005624329036416409   0.018905692361612263
0.7934968307106726   -0.005624329036416409   0.018905692361612263
0.7934968307106726   -0.005624329036416409   0.018905692361612263
0.026335150036978172   -0.08264329323752445   0.005311572505510103
0.026335150036978172   -0.08264329323752445   0.005311572505510103
0.026335150036978172   -0.08264329323752445   0.005311572505510103
0.026335150036978172   -0.08264329323752445   0.005311572505510103
-0.02670060698634298   -0.17255681192566136   -0.014652631167954993
-0.02670060698634298   -0.17255681192566136   -0.014652631167954993
-0.02670060698634298   -0.17255681192566136   -0.014652631167954993
-0.02670060698634298   -0.17255681192566136   -0.014652631167954993
0.7860179443328317   0.07467416168730062   0.05109982129287308
0.7860179443328317   0.07467416168730062   0.05109982129287308
0.7860179443328317   0.07467416168730062   0.05109982129287308
0.7860179443328317   0.07467416168730062   0.05109982129287308
0.38619159209726694   -0.04117868040642675   -0.0311587630893542
0.38619159209726694   -0.04117868040642675   -0.0311587630893542
0.38619159209726694   -0.04117868040642675   -0.0311587630893542
0.38619159209726694   -0.04117868040642675   -0.0311587630893542
0.08298898665520796   -0.04759225724917146   0.002796907610440571
0.08298898665520796   -0.04759225724917146   0.002796907610440571
0.08298898665520796   -0.04759225724917146   0.002796907610440571
0.08298898665520796   -0.04759225724917146   0.002796907610440571
-0.6535334203970997   -0.07553093565299303   -0.02056295437274683
-0.6535334203970997   -0.07553093565299303   -0.02056295437274683
-0.6535334203970997   -0.07553093565299303   -0.02056295437274683
-0.6535334203970997   -0.07553093565299303   -0.02056295437274683
-0.7096398180920254   -0.21732864736935628   -0.03518501328755255
-0.7096398180920254   -0.21732864736935628   -0.03518501328755255
-0.7096398180920254   -0.21732864736935628   -0.03518501328755255
-0.7096398180920254   -0.21732864736935628   -0.03518501328755255
0.08904661926647928   0.07158091472398825   0.024058850641869987
0.08904661926647928   0.07158091472398825   0.024058850641869987
0.08904661926647928   0.07158091472398825   0.024058850641869987
0.08904661926647928   0.07158091472398825   0.024058850641869987
-0.2986664956905017   -0.06399845055864145   -0.017441039258183022
-0.2986664956905017   -0.06399845055864145   -0.017441039258183022
-0.2986664956905017   -0.06399845055864145   -0.017441039258183022
-0.2986664956905017   -0.06399845055864145   -0.017441039258183022
0.06209644819476487   -0.053138841210858795   0.014027751218144657
0.06209644819476487   -0.053138841210858795   0.014027751218144657
0.06209644819476487   -0.053138841210858795   0.014027751218144657
0.06209644819476487   -0.053138841210858795   0.014027751218144657
-0.6806271246918852   -0.09054636910608357   -0.016903824550124683
-0.6806271246918852   -0.09054636910608357   -0.016903824550124683
-0.6806271246918852   -0.09054636910608357   -0.016903824550124683
-0.6806271246918852   -0.09054636910608357   -0.016903824550124683
-0.7422473074436664   -0.22590472912208492   -0.023302701837120094
-0.7422473074436664   -0.22590472912208492   -0.023302701837120094
-0.7422473074436664   -0.22590472912208492   -0.023302701837120094
-0.7422473074436664   -0.22590472912208492   -0.023302701837120094
0.058541180327667384   0.056494331594183884   0.027204099127247736
0.058541180327667384   0.056494331594183884   0.027204099127247736
0.058541180327667384   0.056494331594183884   0.027204099127247736
0.058541180327667384   0.056494331594183884   0.027204099127247736
-0.3256417695003524   -0.07298280063695027   -0.020920423844648803
-0.3256417695003524   -0.07298280063695027   -0.020920423844648803
-0.3256417695003524   -0.07298280063695027   -0.020920423844648803
-0.3256417695003524   -0.07298280063695027   -0.020920423844648803
0.0332250283561241   -0.062271822851629535   0.019389493715344847
0.0332250283561241   -0.062271822851629535   0.019389493715344847
0.0332250283561241   -0.062271822851629535   0.019389493715344847
0.0332250283561241   -0.062271822851629535   0.019389493715344847
-0.7164984674967362   -0.10670588670088091   -0.013757344523672665
-0.7164984674967362   -0.10670588670088091   -0.013757344523672665
-0.7164984674967362   -0.10670588670088091   -0.013757344523672665
-0.7164984674967362   -0.10670588670088091   -0.013757344523672665
-0.7784284783980929   -0.2321716863318447   -0.020715615086040806
-0.7784284783980929   -0.2321716863318447   -0.020715615086040806
-0.7784284783980929   -0.2321716863318447   -0.020715615086040806
-0.7784284783980929   -0.2321716863318447   -0.020715615086040806
0.02554501932162955   0.0436137361969166   0.030404952249328883
0.02554501932162955   0.0436137361969166   0.030404952249328883
0.02554501932162955   0.0436137361969166   0.030404952249328883
0.02554501932162955   0.0436137361969166   0.030404952249328883
-0.3606878657863033   -0.0837393332918857   -0.02930211127713172
-0.3606878657863033   -0.0837393332918857   -0.02930211127713172
-0.3606878657863033   -0.0837393332918857   -0.02930211127713172
-0.3606878657863033   -0.0837393332918857   -0.02930211127713172
-0.643523183868256   -0.056288958677167975   0.010246251295638638
-0.643523183868256   -0.056288958677167975   0.010246251295638638
-0.643523183868256   -0.056288958677167975   0.010246251295638638
-0.643523183868256   -0.056288958677167975   0.010246251295638638
-1.3708509196408059   -0.08839619149971378   -0.03624064707665682
-1.3708509196408059   -0.08839619149971378   -0.03624064707665682
-1.3708509196408059   -0.08839619149971378   -0.03624064707665682
-1.3708509196408059   -0.08839619149971378   -0.03624064707665682
-1.434629671713216   -0.227723560293548   -0.03514867276794066
-1.434629671713216   -0.227723560293548   -0.03514867276794066
-1.434629671713216   -0.227723560293548   -0.03514867276794066
-1.434629671713216   -0.227723560293548   -0.03514867276794066
-0.6468395482860905   0.05467140099392265   0.00681628737883766
-0.6468395482860905   0.05467140099392265   0.00681628737883766
-0.6468395482860905   0.05467140099392265   0.00681628737883766
-0.6468395482860905   0.05467140099392265   0.00681628737883766
-1.0155244351602384   -0.07575375465883158   -0.014654177302430751
-1.0155244351602384   -0.07575375465883158   -0.014654177302430751
-1.0155244351602384   -0.07575375465883158   -0.014654177302430751
-1.0155244351602384   -0.07575375465883158   -0.014654177302430751
-0.6666634804899629   -0.06218915168719519   0.024557179040598776
-0.6666634804899629   -0.06218915168719519   0.024557179040598776
-0.6666634804899629   -0.06218915168719519   0.024557179040598776
-0.6666634804899629   -0.06218915168719519   0.024557179040598776
-1.4107624751049015   -0.10681974320798346   -0.03671650681194314
-1.4107624751049015   -0.10681974320798346   -0.03671650681194314
-1.4107624751049015   -0.10681974320798346   -0.03671650681194314
-1.4107624751049015   -0.10681974320798346   -0.03671650681194314
-1.4797409943591178   -0.24231890550419422   -0.024677006051965652
-1.4797409943591178   -0.24231890550419422   -0.024677006051965652
-1.4797409943591178   -0.24231890550419422   -0.024677006051965652
-1.4797409943591178   -0.24231890550419422   -0.024677006051965652
-0.6831090646408919   0.038145601477812735   0.00833818157685342
-0.6831090646408919   0.038145601477812735   0.00833818157685342
-0.6831090646408919   0.038145601477812735   0.00833818157685342
-0.6831090646408919   0.038145601477812735   0.00833818157685342
-1.0440479190190048   -0.08383604021477717   -0.014697455257382579
-1.0440479190190048   -0.08383604021477717   -0.014697455257382579
-1.0440479190190048   -0.08383604021477717   -0.014697455257382579
-1.0440479190190048   -0.08383604021477717   -0.014697455257382579
-0.7026817146025924   -0.07687295141105245   0.02549348465721745
-0.7026817146025924   -0.07687295141105245   0.02549348465721745
-0.7026817146025924   -0.07687295141105245   0.02549348465721745
-0.7026817146025924   -0.07687295141105245   0.02549348465721745
-1.457458475937309   -0.1245904841552235   -0.030992835291910423
-1.457458475937309   -0.1245904841552235   -0.030992835291910423
-1.457458475937309   -0.1245904841552235   -0.030992835291910423
-1.457458475937309   -0.1245904841552235   -0.030992835291910423
-1.5307871640127504   -0.2615619610734966   -0.026409916066996574
-1.5307871640127504   -0.2615619610734966   -0.026409916066996574
-1.5307871640127504   -0.2615619610734966   -0.026409916066996574
-1.5307871640127504   -0.2615619610734966   -0.026409916066996574
-0.7223064032351115   0.017750690606816333   0.009972383790191622
-0.7223064032351115   0.017750690606816333   0.009972383790191622
-0.7223064032351115   0.017750690606816333   0.009972383790191622
-0.7223064032351115   0.017750690606816333   0.009972383790191622
-1.0946870720280846   -0.1035676298954237   -0.02389384056713996
-1.0946870720280846   -0.1035676298954237   -0.02389384056713996
-1.0946870720280846   -0.1035676298954237   -0.02389384056713996
-1.0946870720280846   -0.1035676298954237   -0.02389384056713996
-1.3244354846549848   0.06250454970859981   0.04493578664413446
-1.3244354846549848   0.06250454970859981   0.04493578664413446
-1.3244354846549848   0.06250454970859981   0.04493578664413446
-1.3244354846549848   0.06250454970859981   0.04493578664413446
-2.053556372711556   -0.10231428512512014   -0.027599575858544625
-2.053556372711556   -0.10231428512512014   -0.027599575858544625
-2.053556372711556   -0.10231428512512014   -0.027599575858544625
-2.053556372711556   -0.10231428512512014   -0.027599575858544625
-2.1040566079824927   -0.10418869003164949   0.04613500602188472
-2.1040566079824927   -0.10418869003164949   0.04613500602188472
-2.1040566079824927   -0.10418869003164949   0.04613500602188472
-2.1040566079824927   -0.10418869003164949   0.04613500602188472
-1.3757317345241693   0.04262918719760078   -0.011011734313865637
-1.3757317345241693   0.04262918719760078   -0.011011734313865637
-1.3757317345241693   0.04262918719760078   -0.011011734313865637
-1.3757317345241693   0.04262918719760078   -0.011011734313865637
-1.634544353361117   0.0012348222950527843   0.041488276094085785
-1.634544353361117   0.0012348222950527843   0.041488276094085785
-1.634544353361117   0.0012348222950527843   0.041488276094085785
-1.634544353361117   0.0012348222950527843   0.041488276094085785
-1.36141397114514   0.04646174173933759   0.05674452803953602
-1.36141397114514   0.04646174173933759   0.05674452803953602
-1.36141397114514   0.04646174173933759   0.05674452803953602
-1.36141397114514   0.04646174173933759   0.05674452803953602
-2.1174321025434786   -0.10707897575535552   -0.01785218105933775
-2.1174321025434786   -0.10707897575535552   -0.01785218105933775
-2.1174321025434786   -0.10707897575535552   -0.01785218105933775
-2.1174321025434786   -0.10707897575535552   -0.01785218105933775
-2.167805426982529   -0.1214672187891091   0.0627502148103896
-2.167805426982529   -0.1214672187891091   0.0627502148103896
-2.167805426982529   -0.1214672187891091   0.0627502148103896
-2.167805426982529   -0.1214672187891091   0.0627502148103896
-1.4224671734847756   0.030888908884880883   -0.011515716069344803
-1.4224671734847756   0.030888908884880883   -0.011515716069344803
-1.4224671734847756   0.030888908884880883   -0.011515716069344803
-1.4224671734847756   0.030888908884880883   -0.011515716069344803
-1.7167907059887821   -0.01898676756194445   0.02269077146963537
-1.7167907059887821   -0.01898676756194445   0.02269077146963537
-1.7167907059887821   -0.01898676756194445   0.02269077146963537
-1.7167907059887821   -0.01898676756194445   0.02269077146963537
-1.409378754332208   0.028859275412134622   0.0559560131662378
-1.409378754332208   0.028859275412134622   0.0559560131662378
-1.409378754332208   0.028859275412134622   0.0559560131662378
-1.409378754332208   0.028859275412134622   0.0559560131662378
-2.1833587334144315   -0.1219024725956866   -0.014581063542525807
-2.1833587334144315   -0.1219024725956866   -0.014581063542525807
-2.1833587334144315   -0.1219024725956866   -0.014581063542525807
-2.1833587334144315   -0.1219024725956866   -0.014581063542525807
-2.2584340961815292   -0.19120181648158285   0.05450372364325634
-2.2584340961815292   -0.19120181648158285   0.05450372364325634
-2.2584340961815292   -0.19120181648158285   0.05450372364325634
-2.2584340961815292   -0.19120181648158285   0.05450372364325634
-1.4763511259495097   -0.00494868196749132   -0.010843004856803548
-1.4763511259495097   -0.00494868196749132   -0.010843004856803548
-1.4763511259495097   -0.00494868196749132   -0.010843004856803548
-1.4763511259495097   -0.00494868196749132   -0.010843004856803548
-1.75179830513857   -0.044450811865853146   0.006159645676094616
-1.75179830513857   -0.044450811865853146   0.006159645676094616
-1.75179830513857   -0.044450811865853146   0.006159645676094616
-1.75179830513857   -0.044450811865853146   0.006159645676094616
1.3552875779223252   0.07250906017052508   -0.04829146630135119
1.3552875779223252   0.07250906017052508   -0.04829146630135119
1.3552875779223252   0.07250906017052508   -0.04829146630135119
1.3552875779223252   0.07250906017052508   -0.04829146630135119
0.6718454443565667   -0.0007130289258075739   0.01749095891111338
0.6718454443565667   -0.0007130289258075739   0.01749095891111338
0.6718454443565667   -0.0007130289258075739   0.01749095891111338
0.6718454443565667   -0.0007130289258075739   0.01749095891111338
0.614066246673781   -0.10010082363317119   -0.04430413929008742
0.614066246673781   -0.10010082363317119   -0.04430413929008742
0.614066246673781   -0.10010082363317119   -0.04430413929008742
0.614066246673781   -0.10010082363317119   -0.04430413929008742
1.3297765175270502   0.10957899253330919   0.0219368598157798
1.3297765175270502   0.10957899253330919   0.0219368598157798
1.3297765175270502   0.10957899253330919   0.0219368598157798
1.3297765175270502   0.10957899253330919   0.0219368598157798
0.9414203078346913   0.008314253572385327   -0.030983308173505614
0.9414203078346913   0.008314253572385327   -0.030983308173505614
0.9414203078346913   0.008314253572385327   -0.030983308173505614
0.9414203078346913   0.008314253572385327   -0.030983308173505614
1.301559859859083   0.03695436638646252   -0.0465218023771995
1.301559859859083   0.03695436638646252   -0.0465218023771995
1.301559859859083   0.03695436638646252   -0.0465218023771995
1.301559859859083   0.03695436638646252   -0.0465218023771995
0.6410740553291485   -0.028685046498927946   0.019319126852495767
0.6410740553291485   -0.028685046498927946   0.019319126852495767
0.6410740553291485   -0.028685046498927946   0.019319126852495767
0.6410740553291485   -0.028685046498927946   0.019319126852495767
0.5851679090955103   -0.10845507834116688   -0.03851320971042222
0.5851679090955103   -0.10845507834116688   -0.03851320971042222
0.5851679090955103   -0.10845507834116688   -0.03851320971042222
0.5851679090955103   -0.10845507834116688   -0.03851320971042222
1.2865523783231483   0.0980947748816324   0.029998448318667152
1.2865523783231483   0.0980947748816324   0.029998448318667152
1.2865523783231483   0.0980947748816324   0.029998448318667152
1.2865523783231483   0.0980947748816324   0.029998448318667152
0.9188230328327092   -0.006745983219150653   -0.04069073875488655
0.9188230328327092   -0.006745983219150653   -0.04069073875488655
0.9188230328327092   -0.006745983219150653   -0.04069073875488655
0.9188230328327092   -0.006745983219150653   -0.04069073875488655
1.25893847046482   0.02667201054710075   -0.036648326638421186
1.25893847046482   0.02667201054710075   -0.036648326638421186
1.25893847046482   0.02667201054710075   -0.036648326638421186
1.25893847046482   0.02667201054710075   -0.036648326638421186
0.6116967650453621   -0.03811736591510437   0.023793357612769538
0.6116967650453621   -0.03811736591510437   0.023793357612769538
0.6116967650453621   -0.03811736591510437   0.023793357612769538
0.6116967650453621   -0.03811736591510437   0.023793357612769538
0.5587822229004454   -0.1109117343674762   -0.03146450220455936
0.5587822229004454   -0.1109117343674762   -0.03146450220455936
0.5587822229004454   -0.1109117343674762   -0.03146450220455936
0.5587822229004454   -0.1109117343674762   -0.03146450220455936
1.237824098458762   0.08804202776000913   0.037337059155784114
1.237824098458762   0.08804202776000913   0.037337059155784114
1.237824098458762   0.08804202776000913   0.037337059155784114
1.237824098458762   0.08804202776000913   0.037337059155784114
0.8661083490948528   -0.017110621515418922   -0.05525969659696564
0.8661083490948528   -0.017110621515418922   -0.05525969659696564
0.8661083490948528   -0.017110621515418922   -0.05525969659696564
0.8661083490948528   -0.017110621515418922   -0.05525969659696564
0.6834042696548568   0.07082368870332942   0.0037483677734273108
0.6834042696548568   0.07082368870332942   0.0037483677734273108
0.6834042696548568   0.07082368870332942   0.0037483677734273108
0.6834042696548568   0.07082368870332942   0.0037483677734273108
0.023326642406185462   -0.022409497484380567   -0.002794939365706459
0.023326642406185462   -0.022409497484380567   -0.002794939365706459
0.023326642406185462   -0.022409497484380567   -0.002794939365706459
0.023326642406185462   -0.022409497484380567   -0.002794939365706459
-0.020225249548900037   -0.09019646061848567   -0.03015099818970067
-0.020225249548900037   -0.09019646061848567   -0.03015099818970067
-0.020225249548900037   -0.09019646061848567   -0.03015099818970067
-0.020225249548900037   -0.09019646061848567   -0.03015099818970067
0.6702260564483405   0.09923699902908248   0.037157086920446294
0.6702260564483405   0.09923699902908248   0.037157086920446294
0.6702260564483405   0.09923699902908248   0.037157086920446294
0.6702260564483405   0.09923699902908248   0.037157086920446294
0.3338980554833238   0.014136282073231532   -0.003818628973568319
0.3338980554833238   0.014136282073231532   -0.003818628973568319
0.3338980554833238   0.014136282073231532   -0.003818628973568319
0.3338980554833238   0.014136282073231532   -0.003818628973568319
0.6549477694726917   0.05239072753169824   0.007611923539587083
0.6549477694726917   0.05239072753169824   0.007611923539587083
0.6549477694726917   0.05239072753169824   0.007611923539587083
0.6549477694726917   0.05239072753169824   0.007611923539587083
-0.004675593700124605   -0.04307882024796804   0.00047964068365887597
-0.004675593700124605   -0.04307882024796804   0.00047964068365887597
-0.004675593700124605   -0.04307882024796804   0.00047964068365887597
-0.004675593700124605   -0.04307882024796804   0.00047964068365887597
-0.04760032873153415   -0.10370553884689047   -0.026064176772807656
-0.04760032873153415   -0.10370553884689047   -0.026064176772807656
-0.04760032873153415   -0.10370553884689047   -0.026064176772807656
-0.04760032873153415   -0.10370553884689047   -0.026064176772807656
0.6392154034742366   0.08215398171728187   0.0411152021247555
0.6392154034742366   0.08215398171728187   0.0411152021247555
0.6392154034742366   0.08215398171728187   0.0411152021247555
0.6392154034742366   0.08215398171728187   0.0411152021247555
0.3004583248456077   -0.002699661702438294   -0.01338529988462138
0.3004583248456077   -0.002699661702438294   -0.01338529988462138
0.3004583248456077   -0.002699661702438294   -0.01338529988462138
0.3004583248456077   -0.002699661702438294   -0.01338529988462138
0.6245097303239261   0.03823122661404492   0.011509591476440827
0.6245097303239261   0.03823122661404492   0.011509591476440827
0.6245097303239261   0.03823122661404492   0.011509591476440827
0.6245097303239261   0.03823122661404492   0.011509591476440827
-0.03286831222890016   -0.05975644039133517   0.003646807284807013
-0.03286831222890016   -0.05975644039133517   0.003646807284807013
-0.03286831222890016   -0.05975644039133517   0.003646807284807013
-0.03286831222890016   -0.05975644039133517   0.003646807284807013
-0.07469783294739296   -0.11183565741259453   -0.020733496926377968
-0.07469783294739296   -0.11183565741259453   -0.020733496926377968
-0.07469783294739296   -0.11183565741259453   -0.020733496926377968
-0.07469783294739296   -0.11183565741259453   -0.020733496926377968
0.6097213357787282   0.06774798573075483   0.044571342088614435
0.6097213357787282   0.06774798573075483   0.044571342088614435
0.6097213357787282   0.06774798573075483   0.044571342088614435
0.6097213357787282   0.06774798573075483   0.044571342088614435
0.27573498410723596   -0.013466810461197368   -0.020435979749861805
0.27573498410723596   -0.013466810461197368   -0.020435979749861805
0.27573498410723596   -0.013466810461197368   -0.020435979749861805
0.27573498410723596   -0.013466810461197368   -0.020435979749861805
0.045747722847103406   0.07151506411775461   0.015385901236748083
0.045747722847103406   0.07151506411775461   0.015385901236748083
0.045747722847103406   0.07151506411775461   0.015385901236748083
0.045747722847103406   0.07151506411775461   0.015385901236748083
-0.6050796826177137   -0.03918437295502049   -0.020815844524514408
-0.6050796826177137   -0.03918437295502049   -0.020815844524514408
-0.6050796826177137   -0.03918437295502049   -0.020815844524514408
-0.6050796826177137   -0.03918437295502049   -0.020815844524514408
-0.6390578602240133   -0.08267091910832344   -0.01909583902919599
-0.6390578602240133   -0.08267091910832344   -0.01909583902919599
-0.6390578602240133   -0.08267091910832344   -0.01909583902919599
-0.6390578602240133   -0.08267091910832344   -0.01909583902919599
0.023699531038561147   0.08126242189289608   0.01801402223622392
0.023699531038561147   0.08126242189289608   0.01801402223622392
0.023699531038561147   0.08126242189289608   0.01801402223622392
0.023699531038561147   0.08126242189289608   0.01801402223622392
-0.2933044371507725   0.00910560089950023   0.001117708536478395
-0.2933044371507725   0.00910560089950023   0.001117708536478395
-0.2933044371507725   0.00910560089950023   0.001117708536478395
-0.2933044371507725   0.00910560089950023   0.001117708536478395
0.01903716287115242   0.05663347831247333   0.01933112497960263
0.01903716287115242   0.05663347831247333   0.01933112497960263
0.01903716287115242   0.05663347831247333   0.01933112497960263
0.01903716287115242   0.05663347831247333   0.01933112497960263
-0.6336487591191567   -0.0572952425904395   -0.017426010022797367
-0.6336487591191567   -0.0572952425904395   -0.017426010022797367
-0.6336487591191567   -0.0572952425904395   -0.017426010022797367
-0.6336487591191567   -0.0572952425904395   -0.017426010022797367
-0.6684357703615359   -0.09751368160592311   -0.015859016184022627
-0.6684357703615359   -0.09751368160592311   -0.015859016184022627
-0.6684357703615359   -0.09751368160592311   -0.015859016184022627
-0.6684357703615359   -0.09751368160592311   -0.015859016184022627
-0.00453631370103522   0.06368924899977141   0.02186111053302455
-0.00453631370103522   0.06368924899977141   0.02186111053302455
-0.00453631370103522   0.06368924899977141   0.02186111053302455
-0.00453631370103522   0.06368924899977141   0.02186111053302455
-0.32145049299458944   -0.005420705328441841   -0.006072644590475608
-0.32145049299458944   -0.005420705328441841   -0.006072644590475608
-0.32145049299458944   -0.005420705328441841   -0.006072644590475608
-0.32145049299458944   -0.005420705328441841   -0.006072644590475608
-0.00851862932821135   0.04230775509744877   0.023331026299467136
-0.00851862932821135   0.04230775509744877   0.023331026299467136
-0.00851862932821135   0.04230775509744877   0.023331026299467136
-0.00851862932821135   0.04230775509744877   0.023331026299467136
-0.6638121413824867   -0.07549087435171978   -0.014763678542979893
-0.6638121413824867   -0.07549087435171978   -0.014763678542979893
-0.6638121413824867   -0.07549087435171978   -0.014763678542979893
-0.6638121413824867   -0.07549087435171978   -0.014763678542979893
-0.6976147409837179   -0.10919488613562206   -0.010478399108016954
-0.6976147409837179   -0.10919488613562206   -0.010478399108016954
-0.6976147409837179   -0.10919488613562206   -0.010478399108016954
-0.6976147409837179   -0.10919488613562206   -0.010478399108016954
-0.03378884106955044   0.04713484621274643   0.024840958837493057
-0.03378884106955044   0.04713484621274643   0.024840958837493057
-0.03378884106955044   0.04713484621274643   0.024840958837493057
-0.03378884106955044   0.04713484621274643   0.024840958837493057
-0.35173533471113955   -0.02019404712551498   -0.013929917259832864
-0.35173533471113955   -0.02019404712551498   -0.013929917259832864
-0.35173533471113955   -0.02019404712551498   -0.013929917259832864
-0.35173533471113955   -0.02019404712551498   -0.013929917259832864
-0.5705684771683894   0.08451632363625672   0.028039486130844664
-0.5705684771683894   0.08451632363625672   0.028039486130844664
-0.5705684771683894   0.08451632363625672   0.028039486130844664
-0.5705684771683894   0.08451632363625672   0.028039486130844664
-1.2126455128537854   -0.05388352024125306   -0.03410878289449148
-1.2126455128537854   -0.05388352024125306   -0.03410878289449148
-1.2126455128537854   -0.05388352024125306   -0.03410878289449148
-1.2126455128537854   -0.05388352024125306   -0.03410878289449148
-1.2391371114341254   -0.06624489431095312   -0.005467625997567699
-1.2391371114341254   -0.06624489431095312   -0.005467625997567699
-1.2391371114341254   -0.06624489431095312   -0.005467625997567699
-1.2391371114341254   -0.06624489431095312   -0.005467625997567699
-0.6066087377950843   0.06146969581343045   -0.0009908418062978958
-0.6066087377950843   0.06146969581343045   -0.0009908418062978958
-0.6066087377950843   0.06146969581343045   -0.0009908418062978958
-0.6066087377950843   0.06146969581343045   -0.0009908418062978958
-0.9006870689795086   0.009247255916525421   0.006565664545985138
-0.9006870689795086   0.009247255916525421   0.006565664545985138
-0.9006870689795086   0.009247255916525421   0.006565664545985138
-0.9006870689795086   0.009247255916525421   0.006565664545985138
-0.598558640833665   0.06925849397624473   0.03147084483798522
-0.598558640833665   0.06925849397624473   0.03147084483798522
-0.598558640833665   0.06925849397624473   0.03147084483798522
-0.598558640833665   0.06925849397624473   0.03147084483798522
-1.2461730330131002   -0.07301951709132881   -0.033872611112078274
-1.2461730330131002   -0.07301951709132881   -0.033872611112078274
-1.2461730330131002   -0.07301951709132881   -0.033872611112078274
-1.2461730330131002   -0.07301951709132881   -0.033872611112078274
-1.2753164649329107   -0.0829335272116287   -0.004850061578273487
-1.2753164649329107   -0.0829335272116287   -0.004850061578273487
-1.2753164649329107   -0.0829335272116287   -0.004850061578273487
-1.2753164649329107   -0.0829335272116287   -0.004850061578273487
-0.6363340006298659   0.044700133896050986   0.0024360169723589356
-0.6363340006298659   0.044700133896050986   0.0024360169723589356
-0.6363340006298659   0.044700133896050986   0.0024360169723589356
-0.6363340006298659   0.044700133896050986   0.0024360169723589356
-0.9260174541858996   -0.0040406664747456855   0.0006675187148511424
-0.9260174541858996   -0.0040406664747456855   0.0006675187148511424
-0.9260174541858996   -0.0040406664747456855   0.0006675187148511424
-0.9260174541858996   -0.0040406664747456855   0.0006675187148511424
-0.6275171163354794   0.054867057742991415   0.03635351459735346
-0.6275171163354794   0.054867057742991415   0.03635351459735346
-0.6275171163354794   0.054867057742991415   0.03635351459735346
-0.6275171163354794   0.054867057742991415   0.03635351459735346
-1.2820732609128933   -0.09104036274415775   -0.030527205945657186
-1.2820732609128933   -0.09104036274415775   -0.030527205945657186
-1.2820732609128933   -0.09104036274415775   -0.030527205945657186
-1.2820732609128933   -0.09104036274415775   -0.030527205945657186
-1.3086284754450488   -0.10080202944342925   0.0035308557489008227
-1.3086284754450488   -0.10080202944342925   0.0035308557489008227
-1.3086284754450488   -0.10080202944342925   0.0035308557489008227
-1.3086284754450488   -0.10080202944342925   0.0035308557489008227
-0.6678350304672585   0.024746124023544924   0.0044791433151191926
-0.6678350304672585   0.024746124023544924   0.0044791433151191926
-0.6678350304672585   0.024746124023544924   0.0044791433151191926
-0.6678350304672585   0.024746124023544924   0.0044791433151191926
-0.9655565459280677   -0.02269019101794645   -0.007262045576298795
-0.9655565459280677   -0.02269019101794645   -0.007262045576298795
-0.9655565459280677   -0.02269019101794645   -0.007262045576298795
-0.9655565459280677   -0.02269019101794645   -0.007262045576298795
-1.1696284803239407   0.0878414836890078   0.03925137582446074
-1.1696284803239407   0.0878414836890078   0.03925137582446074
-1.1696284803239407   0.0878414836890078   0.03925137582446074
-1.1696284803239407   0.0878414836890078   0.03925137582446074
-1.7900522428868941   -0.08280074871850546   -0.031455572430968914
-1.7900522428868941   -0.08280074871850546   -0.031455572430968914
-1.7900522428868941   -0.08280074871850546   -0.031455572430968914
-1.7900522428868941   -0.08280074871850546   -0.031455572430968914
-1.814622713607984   -0.036267353290573345   0.03339654232907878
-1.814622713607984   -0.036267353290573345   0.03339654232907878
-1.814622713607984   -0.036267353290573345   0.03339654232907878
-1.814622713607984   -0.036267353290573345   0.03339654232907878
-1.2209642188901757   0.03678980205395399   -0.017637859642728043
-1.2209642188901757   0.03678980205395399   -0.017637859642728043
-1.2209642188901757   0.03678980205395399   -0.017637859642728043
-1.2209642188901757   0.03678980205395399   -0.017637859642728043
-1.4325835616068225   0.01827957505008454   0.03291442717697731
-1.4325835616068225   0.01827957505008454   0.03291442717697731
-1.4325835616068225   0.01827957505008454   0.03291442717697731
-1.4325835616068225   0.01827957505008454   0.03291442717697731
-1.1978890587982858   0.08942134814973751   0.045106394720924085
-1.1978890587982858   0.08942134814973751   0.045106394720924085
-1.1978890587982858   0.08942134814973751   0.045106394720924085
-1.1978890587982858   0.08942134814973751   0.045106394720924085
-1.8363358976900601   -0.08753692337655106   -0.02389980799530747
-1.8363358976900601   -0.08753692337655106   -0.02389980799530747
-1.8363358976900601   -0.08753692337655106   -0.02389980799530747
-1.8363358976900601   -0.08753692337655106   -0.02389980799530747
-1.8595579195707967   -0.04499834060540453   0.04613878256518827
-1.8595579195707967   -0.04499834060540453   0.04613878256518827
-1.8595579195707967   -0.04499834060540453   0.04613878256518827
-1.8595579195707967   -0.04499834060540453   0.04613878256518827
-1.2554687844913752   0.027152226172703797   -0.015697412754926074
-1.2554687844913752   0.027152226172703797   -0.015697412754926074
-1.2554687844913752   0.027152226172703797   -0.015697412754926074
-1.2554687844913752   0.027152226172703797   -0.015697412754926074
-1.4943941141633017   0.009017779023846761   0.021151514278104064
-1.4943941141633017   0.009017779023846761   0.021151514278104064
-1.4943941141633017   0.009017779023846761   0.021151514278104064
-1.4943941141633017   0.009017779023846761   0.021151514278104064
-1.2299823736603943   0.08288865464846851   0.05599821292421109
-1.2299823736603943   0.08288865464846851   0.05599821292421109
-1.2299823736603943   0.08288865464846851   0.05599821292421109
-1.2299823736603943   0.08288865464846851   0.05599821292421109
-1.883728582784688   -0.09941902146408454   -0.020293852645555055
-1.883728582784688   -0.09941902146408454   -0.020293852645555055
-1.883728582784688   -0.09941902146408454   -0.020293852645555055
-1.883728582784688   -0.09941902146408454   -0.020293852645555055
-1.9205052105370106   -0.0824342404200123   0.045883287468092324
-1.9205052105370106   -0.0824342404200123   0.045883287468092324
-1.9205052105370106   -0.0824342404200123   0.045883287468092324
-1.9205052105370106   -0.0824342404200123   0.045883287468092324
-1.292471168663568   -0.0017382707001433184   -0.014746369086989133
-1.292471168663568   -0.0017382707001433184   -0.014746369086989133
-1.292471168663568   -0.0017382707001433184   -0.014746369086989133
-1.292471168663568   -0.0017382707001433184   -0.014746369086989133
-1.5124013302060715   -0.004309393022945418   0.01725298237097045
-1.5124013302060715   -0.004309393022945418   0.01725298237097045
-1.5124013302060715   -0.004309393022945418   0.01725298237097045
-1.5124013302060715   -0.004309393022945418   0.01725298237097045
1.0273814844307523   0.05708791483830894   -0.04904036234247988
1.0273814844307523   0.05708791483830894   -0.04904036234247988
1.0273814844307523   0.05708791483830894   -0.04904036234247988
1.0273814844307523   0.05708791483830894   -0.04904036234247988
0.48855343826818715   0.00979260596579537   0.018696108987329502
0.48855343826818715   0.00979260596579537   0.018696108987329502
0.48855343826818715   0.00979260596579537   0.018696108987329502
0.48855343826818715   0.00979260596579537   0.018696108987329502
0.43407008377823747   -0.08326454964946611   -0.046574417349283956
0.43407008377823747   -0.08326454964946611   -0.046574417349283956
0.43407008377823747   -0.08326454964946611   -0.046574417349283956
0.43407008377823747   -0.08326454964946611   -0.046574417349283956
1.0051300140604784   0.09442830961545749   0.02311914125670499
1.0051300140604784   0.09442830961545749   0.02311914125670499
1.0051300140604784   0.09442830961545749   0.02311914125670499
1.0051300140604784   0.09442830961545749   0.02311914125670499
0.7006287898559531   0.009474887471061316   -0.02071814619797325
0.7006287898559531   0.009474887471061316   -0.02071814619797325
0.7006287898559531   0.009474887471061316   -0.02071814619797325
0.7006287898559531   0.009474887471061316   -0.02071814619797325
0.9774409528573976   0.02545411383964591   -0.046351968982879514
0.9774409528573976   0.02545411383964591   -0.046351968982879514
0.9774409528573976   0.02545411383964591   -0.046351968982879514
0.9774409528573976   0.02545411383964591   -0.046351968982879514
0.4612135974425154   -0.014835901412457345   0.020714502735093693
0.4612135974425154   -0.014835901412457345   0.020714502735093693
0.4612135974425154   -0.014835901412457345   0.020714502735093693
0.4612135974425154   -0.014835901412457345   0.020714502735093693
0.408617433989573   -0.09143639715827374   -0.03972246754728825
0.408617433989573   -0.09143639715827374   -0.03972246754728825
0.408617433989573   -0.09143639715827374   -0.03972246754728825
0.408617433989573   -0.09143639715827374   -0.03972246754728825
0.9655536487453649   0.08274823675532367   0.030409108873268517
0.9655536487453649   0.08274823675532367   0.030409108873268517
0.9655536487453649   0.08274823675532367   0.030409108873268517
0.9655536487453649   0.08274823675532367   0.030409108873268517
0.6778475382735153   -0.0046956082329293325   -0.02909048122510147
0.6778475382735153   -0.0046956082329293325   -0.02909048122510147
0.6778475382735153   -0.0046956082329293325   -0.02909048122510147
0.6778475382735153   -0.0046956082329293325   -0.02909048122510147
0.938510322762188   0.015062347706873286   -0.037121631994157085
0.938510322762188   0.015062347706873286   -0.037121631994157085
0.938510322762188   0.015062347706873286   -0.037121631994157085
0.938510322762188   0.015062347706873286   -0.037121631994157085
0.4349717612665292   -0.024439506816045106   0.02505227849526029
0.4349717612665292   -0.024439506816045106   0.02505227849526029
0.4349717612665292   -0.024439506816045106   0.02505227849526029
0.4349717612665292   -0.024439506816045106   0.02505227849526029
0.38567864870823737   -0.09647065887038248   -0.03308092424571075
0.38567864870823737   -0.09647065887038248   -0.03308092424571075
0.38567864870823737   -0.09647065887038248   -0.03308092424571075
0.38567864870823737   -0.09647065887038248   -0.03308092424571075
0.9209242272864797   0.07010230006023402   0.03612647541600773
0.9209242272864797   0.07010230006023402   0.03612647541600773
0.9209242272864797   0.07010230006023402   0.03612647541600773
0.9209242272864797   0.07010230006023402   0.03612647541600773
0.6328062024758137   -0.015403724768758481   -0.041480569363001984
0.6328062024758137   -0.015403724768758481   -0.041480569363001984
0.6328062024758137   -0.015403724768758481   -0.041480569363001984
0.6328062024758137   -0.015403724768758481   -0.041480569363001984
0.4967142830118666   0.07223800520349487   -0.002945066531965645
0.4967142830118666   0.07223800520349487   -0.002945066531965645
0.4967142830118666   0.07223800520349487   -0.002945066531965645
0.4967142830118666   0.07223800520349487   -0.002945066531965645
-0.0324561904716594   -0.007049927429980689   -0.00025570035175413096
-0.0324561904716594   -0.007049927429980689   -0.00025570035175413096
-0.0324561904716594   -0.007049927429980689   -0.00025570035175413096
-0.0324561904716594   -0.007049927429980689   -0.00025570035175413096
-0.07083708009599675   -0.06232937764347907   -0.02961165989796278
-0.07083708009599675   -0.06232937764347907   -0.02961165989796278
-0.07083708009599675   -0.06232937764347907   -0.02961165989796278
-0.07083708009599675   -0.06232937764347907   -0.02961165989796278
0.48379440996148093   0.08583073482052876   0.03295192909693473
0.48379440996148093   0.08583073482052876   0.03295192909693473
0.48379440996148093   0.08583073482052876   0.03295192909693473
0.48379440996148093   0.08583073482052876   0.03295192909693473
0.2159243646585801   0.021178960256029482   0.001540104581875014
0.2159243646585801   0.021178960256029482   0.001540104581875014
0.2159243646585801   0.021178960256029482   0.001540104581875014
0.2159243646585801   0.021178960256029482   0.001540104581875014
0.47076477893158697   0.05220018991269406   0.0014343188553083905
0.47076477893158697   0.05220018991269406   0.0014343188553083905
0.47076477893158697   0.05220018991269406   0.0014343188553083905
0.47076477893158697   0.05220018991269406   0.0014343188553083905
-0.05758438204972746   -0.028475765719265803   0.0027982184091703624
-0.05758438204972746   -0.028475765719265803   0.0027982184091703624
-0.05758438204972746   -0.028475765719265803   0.0027982184091703624
-0.05758438204972746   -0.028475765719265803   0.0027982184091703624
-0.0948114487061509   -0.07777164833055968   -0.024486095934064804
-0.0948114487061509   -0.07777164833055968   -0.024486095934064804
-0.0948114487061509   -0.07777164833055968   -0.024486095934064804
-0.0948114487061509   -0.07777164833055968   -0.024486095934064804
0.45553172330443953   0.06738939473233063   0.036023187136436166
0.45553172330443953   0.06738939473233063   0.036023187136436166
0.45553172330443953   0.06738939473233063   0.036023187136436166
0.45553172330443953   0.06738939473233063   0.036023187136436166
0.18637705374927063   0.002943242447897919   -0.007614980532135348
0.18637705374927063   0.002943242447897919   -0.007614980532135348
0.18637705374927063   0.002943242447897919   -0.007614980532135348
0.18637705374927063   0.002943242447897919   -0.007614980532135348
0.4429339350297061   0.03563281308537003   0.004790827409733436
0.4429339350297061   0.03563281308537003   0.004790827409733436
0.4429339350297061   0.03563281308537003   0.004790827409733436
0.4429339350297061   0.03563281308537003   0.004790827409733436
-0.08239693079162544   -0.04619833704380755   0.006013182351810255
-0.08239693079162544   -0.04619833704380755   0.006013182351810255
-0.08239693079162544   -0.04619833704380755   0.006013182351810255
-0.08239693079162544   -0.04619833704380755   0.006013182351810255
-0.1184721827295527   -0.09073908555837032   -0.019670495848730356
-0.1184721827295527   -0.09073908555837032   -0.019670495848730356
-0.1184721827295527   -0.09073908555837032   -0.019670495848730356
-0.1184721827295527   -0.09073908555837032   -0.019670495848730356
0.4294372687007674   0.05034019625103135   0.03890132059552334
0.4294372687007674   0.05034019625103135   0.03890132059552334
0.4294372687007674   0.05034019625103135   0.03890132059552334
0.4294372687007674   0.05034019625103135   0.03890132059552334
0.16371598091594147   -0.010876429682509764   -0.015241016173254934
0.16371598091594147   -0.010876429682509764   -0.015241016173254934
0.16371598091594147   -0.010876429682509764   -0.015241016173254934
0.16371598091594147   -0.010876429682509764   -0.015241016173254934
-0.01137885987163904   0.08611263795230192   0.011968387266065056
-0.01137885987163904   0.08611263795230192   0.011968387266065056
-0.01137885987163904   0.08611263795230192   0.011968387266065056
-0.01137885987163904   0.08611263795230192   0.011968387266065056
-0.5423711279108713   -0.023544682694356542   -0.017989545651123567
-0.5423711279108713   -0.023544682694356542   -0.017989545651123567
-0.5423711279108713   -0.023544682694356542   -0.017989545651123567
-0.5423711279108713   -0.023544682694356542   -0.017989545651123567
-0.5671070387320007   -0.04331102577054406   -0.01404664631047619
-0.5671070387320007   -0.04331102577054406   -0.01404664631047619
-0.5671070387320007   -0.04331102577054406   -0.01404664631047619
-0.5671070387320007   -0.04331102577054406   -0.01404664631047619
-0.03571202621011533   0.06931759491784505   0.01436663697011981
-0.03571202621011533   0.06931759491784505   0.01436663697011981
-0.03571202621011533   0.06931759491784505   0.01436663697011981
-0.03571202621011533   0.06931759491784505   0.01436663697011981
-0.2884569876896971   0.02229054871159457   0.005657938834856786
-0.2884569876896971   0.02229054871159457   0.005657938834856786
-0.2884569876896971   0.02229054871159457   0.005657938834856786
-0.2884569876896971   0.02229054871159457   0.005657938834856786
-0.03523479323322487   0.06923902662148765   0.016831370150929868
-0.03523479323322487   0.06923902662148765   0.016831370150929868
-0.03523479323322487   0.06923902662148765   0.016831370150929868
-0.03523479323322487   0.06923902662148765   0.016831370150929868
-0.5671215733151447   -0.042769759080444045   -0.014660585916296202
-0.5671215733151447   -0.042769759080444045   -0.014660585916296202
-0.5671215733151447   -0.042769759080444045   -0.014660585916296202
-0.5671215733151447   -0.042769759080444045   -0.014660585916296202
-0.5916639828544088   -0.060023446029021016   -0.009574695457563984
-0.5916639828544088   -0.060023446029021016   -0.009574695457563984
-0.5916639828544088   -0.060023446029021016   -0.009574695457563984
-0.5916639828544088   -0.060023446029021016   -0.009574695457563984
-0.06070722964833234   0.05032879082597129   0.01793456019849665
-0.06070722964833234   0.05032879082597129   0.01793456019849665
-0.06070722964833234   0.05032879082597129   0.01793456019849665
-0.06070722964833234   0.05032879082597129   0.01793456019849665
-0.3132667200575404   0.005800506158628274   -0.0017691590405588924
-0.3132667200575404   0.005800506158628274   -0.0017691590405588924
-0.3132667200575404   0.005800506158628274   -0.0017691590405588924
-0.3132667200575404   0.005800506158628274   -0.0017691590405588924
-0.059734319991853156   0.05241917124698381   0.020708728059880374
-0.059734319991853156   0.05241917124698381   0.020708728059880374
-0.059734319991853156   0.05241917124698381   0.020708728059880374
-0.059734319991853156   0.05241917124698381   0.020708728059880374
-0.5925015410630514   -0.06197847500219164   -0.011807457527598871
-0.5925015410630514   -0.06197847500219164   -0.011807457527598871
-0.5925015410630514   -0.06197847500219164   -0.011807457527598871
-0.5925015410630514   -0.06197847500219164   -0.011807457527598871
-0.61593123590816   -0.07529134274794605   -0.005147591127359812
-0.61593123590816   -0.07529134274794605   -0.005147591127359812
-0.61593123590816   -0.07529134274794605   -0.005147591127359812
-0.61593123590816   -0.07529134274794605   -0.005147591127359812
-0.08580479283442785   0.03196340893042776   0.020963959138096972
-0.08580479283442785   0.03196340893042776   0.020963959138096972
-0.08580479283442785   0.03196340893042776   0.020963959138096972
-0.08580479283442785   0.03196340893042776   0.020963959138096972
-0.33921336238265015   -0.010828213628126263   -0.010040598856825306
-0.33921336238265015   -0.010828213628126263   -0.010040598856825306
-0.33921336238265015   -0.010828213628126263   -0.010040598856825306
-0.33921336238265015   -0.010828213628126263   -0.010040598856825306
-0.5090980065190749   0.09884501110606726   0.02598636750743097
-0.5090980065190749   0.09884501110606726   0.02598636750743097
-0.5090980065190749   0.09884501110606726   0.02598636750743097
-0.5090980065190749   0.09884501110606726   0.02598636750743097
-1.0406408365669282   -0.040395808225706015   -0.032427022866503674
-1.0406408365669282   -0.040395808225706015   -0.032427022866503674
-1.0406408365669282   -0.040395808225706015   -0.032427022866503674
-1.0406408365669282   -0.040395808225706015   -0.032427022866503674
-1.054158126949775   -0.027259306238891556   0.0029135370867828386
-1.054158126949775   -0.027259306238891556   0.0029135370867828386
-1.054158126949775   -0.027259306238891556   0.0029135370867828386
-1.054158126949775   -0.027259306238891556   0.0029135370867828386
-0.5465094366171218   0.04978217445573291   -0.004151835962355861
-0.5465094366171218   0.04978217445573291   -0.004151835962355861
-0.5465094366171218   0.04978217445573291   -0.004151835962355861
-0.5465094366171218   0.04978217445573291   -0.004151835962355861
-0.7824852595393373   0.02123820807364296   0.009587995934677282
-0.7824852595393373   0.02123820807364296   0.009587995934677282
-0.7824852595393373   0.02123820807364296   0.009587995934677282
-0.7824852595393373   0.02123820807364296   0.009587995934677282
-0.5329971153362077   0.0825238147050538   0.030668130192891125
-0.5329971153362077   0.0825238147050538   0.030668130192891125
-0.5329971153362077   0.0825238147050538   0.030668130192891125
-0.5329971153362077   0.0825238147050538   0.030668130192891125
-1.0675458696257856   -0.05987636788330253   -0.03140811464886939
-1.0675458696257856   -0.05987636788330253   -0.03140811464886939
-1.0675458696257856   -0.05987636788330253   -0.03140811464886939
-1.0675458696257856   -0.05987636788330253   -0.03140811464886939
-1.0827541012618733   -0.04415424363909973   0.004584229928612904
-1.0827541012618733   -0.04415424363909973   0.004584229928612904
-1.0827541012618733   -0.04415424363909973   0.004584229928612904
-1.0827541012618733   -0.04415424363909973   0.004584229928612904
-0.571410392794137   0.03219517234232297   -0.0005253635275407759
-0.571410392794137   0.03219517234232297   -0.0005253635275407759
-0.571410392794137   0.03219517234232297   -0.0005253635275407759
-0.571410392794137   0.03219517234232297   -0.0005253635275407759
-0.8034613921359534   0.006531004041169575   0.0026755700976757377
-0.8034613921359534   0.006531004041169575   0.0026755700976757377
-0.8034613921359534   0.006531004041169575   0.0026755700976757377
-0.8034613921359534   0.006531004041169575   0.0026755700976757377
-0.5573335452769341   0.06701985904360142   0.035034187357194976
-0.5573335452769341   0.06701985904360142   0.035034187357194976
-0.5573335452769341   0.06701985904360142   0.035034187357194976
-0.5573335452769341   0.06701985904360142   0.035034187357194976
-1.0961067503116302   -0.07825473187293461   -0.02807852708633557
-1.0961067503116302   -0.07825473187293461   -0.02807852708633557
-1.0961067503116302   -0.07825473187293461   -0.02807852708633557
-1.0961067503116302   -0.07825473187293461   -0.02807852708633557
-1.1086909123062951   -0.062343139314986945   0.009888708461496525
-1.1086909123062951   -0.062343139314986945   0.009888708461496525
-1.1086909123062951   -0.062343139314986945   0.009888708461496525
-1.1086909123062951   -0.062343139314986945   0.009888708461496525
-0.5970091127289296   0.012070799067659482   0.0021008829531957637
-0.5970091127289296   0.012070799067659482   0.0021008829531957637
-0.5970091127289296   0.012070799067659482   0.0021008829531957637
-0.5970091127289296   0.012070799067659482   0.0021008829531957637
-0.8354231933019386   -0.011920554836944874   -0.006103544669739523
-0.8354231933019386   -0.011920554836944874   -0.006103544669739523
-0.8354231933019386   -0.011920554836944874   -0.006103544669739523
-0.8354231933019386   -0.011920554836944874   -0.006103544669739523
-1.0010020120345446   0.08864555854341727   0.03672573302629044
-1.0010020120345446   0.08864555854341727   0.03672573302629044
-1.0010020120345446   0.08864555854341727   0.03672573302629044
-1.0010020120345446   0.08864555854341727   0.03672573302629044
-1.514534134472388   -0.06988729423652568   -0.03571734569166678
-1.514534134472388   -0.06988729423652568   -0.03571734569166678
-1.514534134472388   -0.06988729423652568   -0.03571734569166678
-1.514534134472388   -0.06988729423652568   -0.03571734569166678
-1.5313666727469133   -0.014994560959077696   0.03384277914891242
-1.5313666727469133   -0.014994560959077696   0.03384277914891242
-1.5313666727469133   -0.014994560959077696   0.03384277914891242
-1.5313666727469133   -0.014994560959077696   0.03384277914891242
-1.0484431196048611   0.0251146545011742   -0.020885386928714
-1.0484431196048611   0.0251146545011742   -0.020885386928714
-1.0484431196048611   0.0251146545011742   -0.020885386928714
-1.0484431196048611   0.0251146545011742   -0.020885386928714
-1.217481748933684   0.019922768214579445   0.029822799138048937
-1.217481748933684   0.019922768214579445   0.029822799138048937
-1.217481748933684   0.019922768214579445   0.029822799138048937
-1.217481748933684   0.019922768214579445   0.029822799138048937
-1.0229666043911323   0.08853272134210324   0.04307912229900202
-1.0229666043911323   0.08853272134210324   0.04307912229900202
-1.0229666043911323   0.08853272134210324   0.04307912229900202
-1.0229666043911323   0.08853272134210324   0.04307912229900202
-1.5564138171135298   -0.07798325695289232   -0.028404246690347287
-1.5564138171135298   -0.07798325695289232   -0.028404246690347287
-1.5564138171135298   -0.07798325695289232   -0.028404246690347287
-1.5564138171135298   -0.07798325695289232   -0.028404246690347287
-1.5688032318622158   -0.02390870706392173   0.0423323684327868
-1.5688032318622158   -0.02390870706392173   0.0423323684327868
-1.5688032318622158   -0.02390870706392173   0.0423323684327868
-1.5688032318622158   -0.02390870706392173   0.0423323684327868
-1.0753243387570801   0.015472778093295475   -0.017893979279808625
-1.0753243387570801   0.015472778093295475   -0.017893979279808625
-1.0753243387570801   0.015472778093295475   -0.017893979279808625
-1.0753243387570801   0.015472778093295475   -0.017893979279808625
-1.269788135399365   0.009975790047211441   0.01814499373624444
-1.269788135399365   0.009975790047211441   0.01814499373624444
-1.269788135399365   0.009975790047211441   0.01814499373624444
-1.269788135399365   0.009975790047211441   0.01814499373624444
-1.048299836019832   0.08188813409827966   0.050813178401441936
-1.048299836019832   0.08188813409827966   0.050813178401441936
-1.048299836019832   0.08188813409827966   0.050813178401441936
-1.048299836019832   0.08188813409827966   0.050813178401441936
-1.595118254752224   -0.08961458322166982   -0.023536869859490953
-1.595118254752224   -0.08961458322166982   -0.023536869859490953
-1.595118254752224   -0.08961458322166982   -0.023536869859490953
-1.595118254752224   -0.08961458322166982   -0.023536869859490953
-1.6182129277882362   -0.055623679352480415   0.04156834677605503
-1.6182129277882362   -0.055623679352480415   0.04156834677605503
-1.6182129277882362   -0.055623679352480415   0.04156834677605503
-1.6182129277882362   -0.055623679352480415   0.04156834677605503
-1.1037111184496742   -0.011339172692528016   -0.016216288877862577
-1.1037111184496742   -0.011339172692528016   -0.016216288877862577
-1.1037111184496742   -0.011339172692528016   -0.016216288877862577
-1.1037111184496742   -0.011339172692528016   -0.016216288877862577
-1.2832606168317007   -0.0024008076132516765   0.014252241642723512
-1.2832606168317007   -0.0024008076132516765   0.014252241642723512
-1.2832606168317007   -0.0024008076132516765   0.014252241642723512
-1.2832606168317007   -0.0024008076132516765   0.014252241642723512
0.7057412582141789   0.03996051436499633   -0.04765216896264657
0.7057412582141789   0.03996051436499633   -0.04765216896264657
0.7057412582141789   0.03996051436499633   -0.04765216896264657
0.7057412582141789   0.03996051436499633   -0.04765216896264657
0.30145051185871796   0.019244097722666588   0.020445571639001167
0.30145051185871796   0.019244097722666588   0.020445571639001167
0.30145051185871796   0.019244097722666588   0.020445571639001167
0.30145051185871796   0.019244097722666588   0.020445571639001167
0.2523390705207832   -0.06964037968217149   -0.04443336169174471
0.2523390705207832   -0.06964037968217149   -0.04443336169174471
0.2523390705207832   -0.06964037968217149   -0.04443336169174471
0.2523390705207832   -0.06964037968217149   -0.04443336169174471
0.6891938727815343   0.08016518257241038   0.024841732013619233
0.6891938727815343   0.08016518257241038   0.024841732013619233
0.6891938727815343   0.08016518257241038   0.024841732013619233
0.6891938727815343   0.08016518257241038   0.024841732013619233
0.46138090170681095   0.01022989977084543   -0.012605571157638568
0.46138090170681095   0.01022989977084543   -0.012605571157638568
0.46138090170681095   0.01022989977084543   -0.012605571157638568
0.46138090170681095   0.01022989977084543   -0.012605571157638568
0.6617492138284653   0.012237537734879914   -0.044453917914199934
0.6617492138284653   0.012237537734879914   -0.044453917914199934
0.6617492138284653   0.012237537734879914   -0.044453917914199934
0.6617492138284653   0.012237537734879914   -0.044453917914199934
0.2792680728642469   -0.002228391454241224   0.02279966179764859
0.2792680728642469   -0.002228391454241224   0.02279966179764859
0.2792680728642469   -0.002228391454241224   0.02279966179764859
0.2792680728642469   -0.002228391454241224   0.02279966179764859
0.23142129047563775   -0.07772438786295162   -0.03782165594838087
0.23142129047563775   -0.07772438786295162   -0.03782165594838087
0.23142129047563775   -0.07772438786295162   -0.03782165594838087
0.23142129047563775   -0.07772438786295162   -0.03782165594838087
0.6547777711665579   0.06869437821237864   0.03201930719764665
0.6547777711665579   0.06869437821237864   0.03201930719764665
0.6547777711665579   0.06869437821237864   0.03201930719764665
0.6547777711665579   0.06869437821237864   0.03201930719764665
0.4397602143303676   -0.003105141209070017   -0.020524898726202848
0.4397602143303676   -0.003105141209070017   -0.020524898726202848
0.4397602143303676   -0.003105141209070017   -0.020524898726202848
0.4397602143303676   -0.003105141209070017   -0.020524898726202848
0.6277824976434663   0.0018830402660029444   -0.036145722471441176
0.6277824976434663   0.0018830402660029444   -0.036145722471441176
0.6277824976434663   0.0018830402660029444   -0.036145722471441176
0.6277824976434663   0.0018830402660029444   -0.036145722471441176
0.25765533379432587   -0.011674280120979166   0.027298452903089528
0.25765533379432587   -0.011674280120979166   0.027298452903089528
0.25765533379432587   -0.011674280120979166   0.027298452903089528
0.25765533379432587   -0.011674280120979166   0.027298452903089528
0.21272415109228765   -0.08506758197613318   -0.031522858571605465
0.21272415109228765   -0.08506758197613318   -0.031522858571605465
0.21272415109228765   -0.08506758197613318   -0.031522858571605465
0.21272415109228765   -0.08506758197613318   -0.031522858571605465
0.61459964898259   0.05361401542968705   0.03654800525490395
0.61459964898259   0.05361401542968705   0.03654800525490395
0.61459964898259   0.05361401542968705   0.03654800525490395
0.61459964898259   0.05361401542968705   0.03654800525490395
0.4031682157337298   -0.014046440568099283   -0.03140177268526419
0.4031682157337298   -0.014046440568099283   -0.03140177268526419
0.4031682157337298   -0.014046440568099283   -0.03140177268526419
0.4031682157337298   -0.014046440568099283   -0.03140177268526419
0.3034915730057709   0.058474800296033115   -0.00857982519910603
0.3034915730057709   0.058474800296033115   -0.00857982519910603
0.3034915730057709   0.058474800296033115   -0.00857982519910603
0.3034915730057709   0.058474800296033115   -0.00857982519910603
-0.09316470667517417   0.005041301684807365   0.0027678334874816505
-0.09316470667517417   0.005041301684807365   0.0027678334874816505
-0.09316470667517417   0.005041301684807365   0.0027678334874816505
-0.09316470667517417   0.005041301684807365   0.0027678334874816505
-0.12673951978437178   -0.04834053447259254   -0.027370487622818972
-0.12673951978437178   -0.04834053447259254   -0.027370487622818972
-0.12673951978437178   -0.04834053447259254   -0.027370487622818972
-0.12673951978437178   -0.04834053447259254   -0.027370487622818972
0.2950904920624971   0.07029884849952911   0.02938451783512951
0.2950904920624971   0.07029884849952911   0.02938451783512951
0.2950904920624971   0.07029884849952911   0.02938451783512951
0.2950904920624971   0.07029884849952911   0.02938451783512951
0.09259310570540773   0.02033021039755472   0.0035514337784362136
0.09259310570540773   0.02033021039755472   0.0035514337784362136
0.09259310570540773   0.02033021039755472   0.0035514337784362136
0.09259310570540773   0.02033021039755472   0.0035514337784362136
0.28181547381116434   0.03792184732223049   -0.004613572244238898
0.28181547381116434   0.03792184732223049   -0.004613572244238898
0.28181547381116434   0.03792184732223049   -0.004613572244238898
0.28181547381116434   0.03792184732223049   -0.004613572244238898
-0.11366115467569206   -0.016160186437947338   0.005840989885936404
-0.11366115467569206   -0.016160186437947338   0.005840989885936404
-0.11366115467569206   -0.016160186437947338   0.005840989885936404
-0.11366115467569206   -0.016160186437947338   0.005840989885936404
-0.1461945738212042   -0.06458982862535392   -0.022146632526342844
-0.1461945738212042   -0.06458982862535392   -0.022146632526342844
-0.1461945738212042   -0.06458982862535392   -0.022146632526342844
-0.1461945738212042   -0.06458982862535392   -0.022146632526342844
0.2712293087170069   0.051547050113722126   0.03194699728179332
0.2712293087170069   0.051547050113722126   0.03194699728179332
0.2712293087170069   0.051547050113722126   0.03194699728179332
0.2712293087170069   0.051547050113722126   0.03194699728179332
0.0685995434161099   0.0019520829261348172   -0.005276879830483185
0.0685995434161099   0.0019520829261348172   -0.005276879830483185
0.0685995434161099   0.0019520829261348172   -0.005276879830483185
0.0685995434161099   0.0019520829261348172   -0.005276879830483185
0.25837395477803804   0.020497215949913168   -0.0012799382492461701
0.25837395477803804   0.020497215949913168   -0.0012799382492461701
0.25837395477803804   0.020497215949913168   -0.0012799382492461701
0.25837395477803804   0.020497215949913168   -0.0012799382492461701
-0.1338363137234812   -0.034037088302791764   0.009091927639711903
-0.1338363137234812   -0.034037088302791764   0.009091927639711903
-0.1338363137234812   -0.034037088302791764   0.009091927639711903
-0.1338363137234812   -0.034037088302791764   0.009091927639711903
-0.1653908486204959   -0.0798696646805837   -0.017319866741319183
-0.1653908486204959   -0.0798696646805837   -0.017319866741319183
-0.1653908486204959   -0.0798696646805837   -0.017319866741319183
-0.1653908486204959   -0.0798696646805837   -0.017319866741319183
0.24969670120452578   0.0335256063367764   0.03474670367668053
0.24969670120452578   0.0335256063367764   0.03474670367668053
0.24969670120452578   0.0335256063367764   0.03474670367668053
0.24969670120452578   0.0335256063367764   0.03474670367668053
0.04933812999367638   -0.013302984176288501   -0.013074944849697807
0.04933812999367638   -0.013302984176288501   -0.013074944849697807
0.04933812999367638   -0.013302984176288501   -0.013074944849697807
0.04933812999367638   -0.013302984176288501   -0.013074944849697807
-0.07853698877553217   0.07417466599752635   0.006773058672972707
-0.07853698877553217   0.07417466599752635   0.006773058672972707
-0.07853698877553217   0.07417466599752635   0.006773058672972707
-0.07853698877553217   0.07417466599752635   0.006773058672972707
-0.4819242168021675   -0.012179944294573086   -0.014654681745481714
-0.4819242168021675   -0.012179944294573086   -0.014654681745481714
-0.4819242168021675   -0.012179944294573086   -0.014654681745481714
-0.4819242168021675   -0.012179944294573086   -0.014654681745481714
-0.501120432553716   -0.028795320576107605   -0.010789534156042759
-0.501120432553716   -0.028795320576107605   -0.010789534156042759
-0.501120432553716   -0.028795320576107605   -0.010789534156042759
-0.501120432553716   -0.028795320576107605   -0.010789534156042759
-0.09859847234248666   0.05360116258079663   0.011393052533216923
-0.09859847234248666   0.05360116258079663   0.011393052533216923
-0.09859847234248666   0.05360116258079663   0.011393052533216923
-0.09859847234248666   0.05360116258079663   0.011393052533216923
-0.2893382321859633   0.021361922445902168   0.0057224438378059295
-0.2893382321859633   0.021361922445902168   0.0057224438378059295
-0.2893382321859633   0.021361922445902168   0.0057224438378059295
-0.2893382321859633   0.021361922445902168   0.0057224438378059295
-0.09799787242565235   0.056322117683622414   0.011675097014563256
-0.09799787242565235   0.056322117683622414   0.011675097014563256
-0.09799787242565235   0.056322117683622414   0.011675097014563256
-0.09799787242565235   0.056322117683622414   0.011675097014563256
-0.501776415132412   -0.03157165834079757   -0.01129310928482875
-0.501776415132412   -0.03157165834079757   -0.01129310928482875
-0.501776415132412   -0.03157165834079757   -0.01129310928482875
-0.501776415132412   -0.03157165834079757   -0.01129310928482875
-0.5207767411129623   -0.046499538581883576   -0.006137575376147567
-0.5207767411129623   -0.046499538581883576   -0.006137575376147567
-0.5207767411129623   -0.046499538581883576   -0.006137575376147567
-0.5207767411129623   -0.046499538581883576   -0.006137575376147567
-0.11901400681729131   0.03430326426888404   0.014863109598982743
-0.11901400681729131   0.03430326426888404   0.014863109598982743
-0.11901400681729131   0.03430326426888404   0.014863109598982743
-0.11901400681729131   0.03430326426888404   0.014863109598982743
-0.3095472003053535   0.004123702283053102   -0.001866682609989477
-0.3095472003053535   0.004123702283053102   -0.001866682609989477
-0.3095472003053535   0.004123702283053102   -0.001866682609989477
-0.3095472003053535   0.004123702283053102   -0.001866682609989477
-0.11799265714683957   0.03844951477549935   0.015823607444628948
-0.11799265714683957   0.03844951477549935   0.015823607444628948
-0.11799265714683957   0.03844951477549935   0.015823607444628948
-0.11799265714683957   0.03844951477549935   0.015823607444628948
-0.5221129603290846   -0.05096065863416561   -0.008357551404472243
-0.5221129603290846   -0.05096065863416561   -0.008357551404472243
-0.5221129603290846   -0.05096065863416561   -0.008357551404472243
-0.5221129603290846   -0.05096065863416561   -0.008357551404472243
-0.5401011577569422   -0.06341145109882929   -0.0016139760857046062
-0.5401011577569422   -0.06341145109882929   -0.0016139760857046062
-0.5401011577569422   -0.06341145109882929   -0.0016139760857046062
-0.5401011577569422   -0.06341145109882929   -0.0016139760857046062
-0.13925745085013486   0.015551949629134712   0.017925507800766263
-0.13925745085013486   0.015551949629134712   0.017925507800766263
-0.13925745085013486   0.015551949629134712   0.017925507800766263
-0.13925745085013486   0.015551949629134712   0.017925507800766263
-0.33058931581172246   -0.013133446680040461   -0.010093300686087756
-0.33058931581172246   -0.013133446680040461   -0.010093300686087756
-0.33058931581172246   -0.013133446680040461   -0.010093300686087756
-0.33058931581172246   -0.013133446680040461   -0.010093300686087756
-0.45467160729047756   0.08764093875547357   0.021787482762921112
-0.45467160729047756   0.08764093875547357   0.021787482762921112
-0.45467160729047756   0.08764093875547357   0.021787482762921112
-0.45467160729047756   0.08764093875547357   0.021787482762921112
-0.863831803654701   -0.029313994217900957   -0.029820108918825472
-0.863831803654701   -0.029313994217900957   -0.029820108918825472
-0.863831803654701   -0.029313994217900957   -0.029820108918825472
-0.863831803654701   -0.029313994217900957   -0.029820108918825472
-0.8710435623581403   -0.012895796641583912   0.0069924342920785615
-0.8710435623581403   -0.012895796641583912   0.0069924342920785615
-0.8710435623581403   -0.012895796641583912   0.0069924342920785615
-0.8710435623581403   -0.012895796641583912   0.0069924342920785615
-0.48748594771655407   0.03493217376924991   -0.0063446043155942905
-0.48748594771655407   0.03493217376924991   -0.0063446043155942905
-0.48748594771655407   0.03493217376924991   -0.0063446043155942905
-0.48748594771655407   0.03493217376924991   -0.0063446043155942905
-0.6652859358228859   0.020286192255055985   0.008307647380804126
-0.6652859358228859   0.020286192255055985   0.008307647380804126
-0.6652859358228859   0.020286192255055985   0.008307647380804126
-0.6652859358228859   0.020286192255055985   0.008307647380804126
-0.4737727046929697   0.07049220412279755   0.02666158044878759
-0.4737727046929697   0.07049220412279755   0.02666158044878759
-0.4737727046929697   0.07049220412279755   0.02666158044878759
-0.4737727046929697   0.07049220412279755   0.02666158044878759
-0.8853569226674783   -0.04905594428087934   -0.02841421961531622
-0.8853569226674783   -0.04905594428087934   -0.02841421961531622
-0.8853569226674783   -0.04905594428087934   -0.02841421961531622
-0.8853569226674783   -0.04905594428087934   -0.02841421961531622
-0.8942158742313353   -0.03043147878986696   0.009146862248707893
-0.8942158742313353   -0.03043147878986696   0.009146862248707893
-0.8942158742313353   -0.03043147878986696   0.009146862248707893
-0.8942158742313353   -0.03043147878986696   0.009146862248707893
-0.5073527870884581   0.01714725681030084   -0.0026646006458184504
-0.5073527870884581   0.01714725681030084   -0.0026646006458184504
-0.5073527870884581   0.01714725681030084   -0.0026646006458184504
-0.5073527870884581   0.01714725681030084   -0.0026646006458184504
-0.6822959271337623   0.004657009776165927   0.0006996015084945115
-0.6822959271337623   0.004657009776165927   0.0006996015084945115
-0.6822959271337623   0.004657009776165927   0.0006996015084945115
-0.6822959271337623   0.004657009776165927   0.0006996015084945115
-0.4931462233314773   0.05421347827520369   0.03130199667419508
-0.4931462233314773   0.05421347827520369   0.03130199667419508
-0.4931462233314773   0.05421347827520369   0.03130199667419508
-0.4931462233314773   0.05421347827520369   0.03130199667419508
-0.9084753124670266   -0.06755057473347817   -0.025031232986145034
-0.9084753124670266   -0.06755057473347817   -0.025031232986145034
-0.9084753124670266   -0.06755057473347817   -0.025031232986145034
-0.9084753124670266   -0.06755057473347817   -0.025031232986145034
-0.9148465306181021   -0.049116633807731985   0.014001136465410995
-0.9148465306181021   -0.049116633807731985   0.014001136465410995
-0.9148465306181021   -0.049116633807731985   0.014001136465410995
-0.9148465306181021   -0.049116633807731985   0.014001136465410995
-0.527567289345875   -0.0025831663735073618   0.00022708124430090293
-0.527567289345875   -0.0025831663735073618   0.00022708124430090293
-0.527567289345875   -0.0025831663735073618   0.00022708124430090293
-0.527567289345875   -0.0025831663735073618   0.00022708124430090293
-0.7078376444347712   -0.013490027214110634   -0.008133323411440449
-0.7078376444347712   -0.013490027214110634   -0.008133323411440449
-0.7078376444347712   -0.013490027214110634   -0.008133323411440449
-0.7078376444347712   -0.013490027214110634   -0.008133323411440449
-0.8289101733947554   0.08122981395827472   0.03424423420472685
-0.8289101733947554   0.08122981395827472   0.03424423420472685
-0.8289101733947554   0.08122981395827472   0.03424423420472685
-0.8289101733947554   0.08122981395827472   0.03424423420472685
-1.2231430879115512   -0.05632859434808435   -0.03870650824823943
-1.2231430879115512   -0.05632859434808435   -0.03870650824823943
-1.2231430879115512   -0.05632859434808435   -0.03870650824823943
-1.2231430879115512   -0.05632859434808435   -0.03870650824823943
-1.2349379155413158   -0.001220162408336778   0.033935324460185795
-1.2349379155413158   -0.001220162408336778   0.033935324460185795
-1.2349379155413158   -0.001220162408336778   0.033935324460185795
-1.2349379155413158   -0.001220162408336778   0.033935324460185795
-0.8721208395308249   0.011937807531276795   -0.02322755574421472
-0.8721208395308249   0.011937807531276795   -0.02322755574421472
-0.8721208395308249   0.011937807531276795   -0.02322755574421472
-0.8721208395308249   0.011937807531276795   -0.02322755574421472
-0.9940216217539327   0.018832064572076257   0.02517351711165515
-0.9940216217539327   0.018832064572076257   0.02517351711165515
-0.9940216217539327   0.018832064572076257   0.02517351711165515
-0.9940216217539327   0.018832064572076257   0.02517351711165515
-0.8462207974700344   0.07781524061006878   0.04039522148095518
-0.8462207974700344   0.07781524061006878   0.04039522148095518
-0.8462207974700344   0.07781524061006878   0.04039522148095518
-0.8462207974700344   0.07781524061006878   0.04039522148095518
-1.2613506453601735   -0.06761028324519933   -0.03173820379724681
-1.2613506453601735   -0.06761028324519933   -0.03173820379724681
-1.2613506453601735   -0.06761028324519933   -0.03173820379724681
-1.2613506453601735   -0.06761028324519933   -0.03173820379724681
-1.2676794466216574   -0.010866241524934539   0.042766030493618656
-1.2676794466216574   -0.010866241524934539   0.042766030493618656
-1.2676794466216574   -0.010866241524934539   0.042766030493618656
-1.2676794466216574   -0.010866241524934539   0.042766030493618656
-0.8934799832529117   0.0021854010226455   -0.019790562671697792
-0.8934799832529117   0.0021854010226455   -0.019790562671697792
-0.8934799832529117   0.0021854010226455   -0.019790562671697792
-0.8934799832529117   0.0021854010226455   -0.019790562671697792
-1.038196231339133   0.007746381888637133   0.013198620693409685
-1.038196231339133   0.007746381888637133   0.013198620693409685
-1.038196231339133   0.007746381888637133   0.013198620693409685
-1.038196231339133   0.007746381888637133   0.013198620693409685
-0.8663682201780991   0.07036127367504758   0.04759238004996717
-0.8663682201780991   0.07036127367504758   0.04759238004996717
-0.8663682201780991   0.07036127367504758   0.04759238004996717
-0.8663682201780991   0.07036127367504758   0.04759238004996717
-1.2951613859191662   -0.07941229040003417   -0.02609761711884126
-1.2951613859191662   -0.07941229040003417   -0.02609761711884126
-1.2951613859191662   -0.07941229040003417   -0.02609761711884126
-1.2951613859191662   -0.07941229040003417   -0.02609761711884126
-1.3114806635808072   -0.041069907228496655   0.04289958357342723
-1.3114806635808072   -0.041069907228496655   0.04289958357342723
-1.3114806635808072   -0.041069907228496655   0.04289958357342723
-1.3114806635808072   -0.041069907228496655   0.04289958357342723
-0.9158305978692174   -0.022536382065024174   -0.01749945153289246
-0.9158305978692174   -0.022536382065024174   -0.01749945153289246
-0.9158305978692174   -0.022536382065024174   -0.01749945153289246
-0.9158305978692174   -0.022536382065024174   -0.01749945153289246
-1.0506696802075448   -0.004906934531348522   0.007506950434872213
-1.0506696802075448   -0.004906934531348522   0.007506950434872213
-1.0506696802075448   -0.004906934531348522   0.007506950434872213
-1.0506696802075448   -0.004906934531348522   0.007506950434872213
0.3886411338962775   0.023263268069579034   -0.04664919866399838
0.3886411338962775   0.023263268069579034   -0.04664919866399838
0.3886411338962775   0.023263268069579034   -0.04664919866399838
0.3886411338962775   0.023263268069579034   -0.04664919866399838
0.11311636198827157   0.028014703998742018   0.02230455008521128
0.11311636198827157   0.028014703998742018   0.02230455008521128
0.11311636198827157   0.028014703998742018   0.02230455008521128
0.11311636198827157   0.028014703998742018   0.02230455008521128
0.06969799988498507   -0.056930300489249026   -0.04113981039812857
0.06969799988498507   -0.056930300489249026   -0.04113981039812857
0.06969799988498507   -0.056930300489249026   -0.04113981039812857
0.06969799988498507   -0.056930300489249026   -0.04113981039812857
0.37795495748330216   0.06619627347117056   0.026836200620611237
0.37795495748330216   0.06619627347117056   0.026836200620611237
0.37795495748330216   0.06619627347117056   0.026836200620611237
0.37795495748330216   0.06619627347117056   0.026836200620611237
0.22349374216816573   0.01104203755495061   -0.00516669220224035
0.22349374216816573   0.01104203755495061   -0.00516669220224035
0.22349374216816573   0.01104203755495061   -0.00516669220224035
0.22349374216816573   0.01104203755495061   -0.00516669220224035
0.3505768859986175   -0.001081781544354704   -0.042776101787288474
0.3505768859986175   -0.001081781544354704   -0.042776101787288474
0.3505768859986175   -0.001081781544354704   -0.042776101787288474
0.3505768859986175   -0.001081781544354704   -0.042776101787288474
0.09622172894353785   0.009493412100144122   0.025055122305243302
0.09622172894353785   0.009493412100144122   0.025055122305243302
0.09622172894353785   0.009493412100144122   0.025055122305243302
0.09622172894353785   0.009493412100144122   0.025055122305243302
0.053308452065773185   -0.0649923581891053   -0.0349450557090191
0.053308452065773185   -0.0649923581891053   -0.0349450557090191
0.053308452065773185   -0.0649923581891053   -0.0349450557090191
0.053308452065773185   -0.0649923581891053   -0.0349450557090191
0.34849415182227367   0.055071952512464294   0.03448098212518792
0.34849415182227367   0.055071952512464294   0.03448098212518792
0.34849415182227367   0.055071952512464294   0.03448098212518792
0.34849415182227367   0.055071952512464294   0.03448098212518792
0.20293628711484563   -0.001553442081259869   -0.013335095507183824
0.20293628711484563   -0.001553442081259869   -0.013335095507183824
0.20293628711484563   -0.001553442081259869   -0.013335095507183824
0.20293628711484563   -0.001553442081259869   -0.013335095507183824
0.3212706929141573   -0.011436475715176794   -0.03512788418775539
0.3212706929141573   -0.011436475715176794   -0.03512788418775539
0.3212706929141573   -0.011436475715176794   -0.03512788418775539
0.3212706929141573   -0.011436475715176794   -0.03512788418775539
0.07938727658285842   0.00037143564750365815   0.030085273039799992
0.07938727658285842   0.00037143564750365815   0.030085273039799992
0.07938727658285842   0.00037143564750365815   0.030085273039799992
0.07938727658285842   0.00037143564750365815   0.030085273039799992
0.038655187218986614   -0.07470606463704663   -0.029107933315191698
0.038655187218986614   -0.07470606463704663   -0.029107933315191698
0.038655187218986614   -0.07470606463704663   -0.029107933315191698
0.038655187218986614   -0.07470606463704663   -0.029107933315191698
0.3120097561193796   0.03728340888517073   0.038287425973830294
0.3120097561193796   0.03728340888517073   0.038287425973830294
0.3120097561193796   0.03728340888517073   0.038287425973830294
0.3120097561193796   0.03728340888517073   0.038287425973830294
0.1744911888648189   -0.012765915003856043   -0.023326951645564184
0.1744911888648189   -0.012765915003856043   -0.023326951645564184
0.1744911888648189   -0.012765915003856043   -0.023326951645564184
0.1744911888648189   -0.012765915003856043   -0.023326951645564184
0.10878815853638692   0.04217829616210632   -0.013500059337577277
0.10878815853638692   0.04217829616210632   -0.013500059337577277
0.10878815853638692   0.04217829616210632   -0.013500059337577277
0.10878815853638692   0.04217829616210632   -0.013500059337577277
-0.15756434531642421   0.013557921895311457   0.0054083836271121965
-0.15756434531642421   0.013557921895311457   0.0054083836271121965
-0.15756434531642421   0.013557921895311457   0.0054083836271121965
-0.15756434531642421   0.013557921895311457   0.0054083836271121965
-0.18553395341529064   -0.03650604104433448   -0.02401548440637006
-0.18553395341529064   -0.03650604104433448   -0.02401548440637006
-0.18553395341529064   -0.03650604104433448   -0.02401548440637006
-0.18553395341529064   -0.03650604104433448   -0.02401548440637006
0.10488594477499015   0.052345073099868376   0.02552454046278031
0.10488594477499015   0.052345073099868376   0.02552454046278031
0.10488594477499015   0.052345073099868376   0.02552454046278031
0.10488594477499015   0.052345073099868376   0.02552454046278031
-0.03328664128241288   0.017138022384227784   0.004355942451667276
-0.03328664128241288   0.017138022384227784   0.004355942451667276
-0.03328664128241288   0.017138022384227784   0.004355942451667276
-0.03328664128241288   0.017138022384227784   0.004355942451667276
0.09167879452374704   0.021755314905029483   -0.009921452598597173
0.09167879452374704   0.021755314905029483   -0.009921452598597173
0.09167879452374704   0.021755314905029483   -0.009921452598597173
0.09167879452374704   0.021755314905029483   -0.009921452598597173
-0.17305599695713525   -0.006645476642581905   0.008513733482654301
-0.17305599695713525   -0.006645476642581905   0.008513733482654301
-0.17305599695713525   -0.006645476642581905   0.008513733482654301
-0.17305599695713525   -0.006645476642581905   0.008513733482654301
-0.2001950167285258   -0.052889545290782575   -0.01881165429519756
-0.2001950167285258   -0.052889545290782575   -0.01881165429519756
-0.2001950167285258   -0.052889545290782575   -0.01881165429519756
-0.2001950167285258   -0.052889545290782575   -0.01881165429519756
0.08565022409160689   0.03394108943018124   0.02783035680086453
0.08565022409160689   0.03394108943018124   0.02783035680086453
0.08565022409160689   0.03394108943018124   0.02783035680086453
0.08565022409160689   0.03394108943018124   0.02783035680086453
-0.05140458926756002   -0.0005398444326855812   -0.004115769336304182
-0.05140458926756002   -0.0005398444326855812   -0.004115769336304182
-0.05140458926756002   -0.0005398444326855812   -0.004115769336304182
-0.05140458926756002   -0.0005398444326855812   -0.004115769336304182
0.07283271401777071   0.004179259074907264   -0.006495363213044123
0.07283271401777071   0.004179259074907264   -0.006495363213044123
0.07283271401777071   0.004179259074907264   -0.006495363213044123
0.07283271401777071   0.004179259074907264   -0.006495363213044123
-0.18832144059412714   -0.02407164887494656   0.011738329960959555
-0.18832144059412714   -0.02407164887494656   0.011738329960959555
-0.18832144059412714   -0.02407164887494656   0.011738329960959555
-0.18832144059412714   -0.02407164887494656   0.011738329960959555
-0.21474366482237284   -0.06913357561233444   -0.014108840041975027
-0.21474366482237284   -0.06913357561233444   -0.014108840041975027
-0.21474366482237284   -0.06913357561233444   -0.014108840041975027
-0.21474366482237284   -0.06913357561233444   -0.014108840041975027
0.06880810514199086   0.01587953336721519   0.0310710582955688
0.06880810514199086   0.01587953336721519   0.0310710582955688
0.06880810514199086   0.01587953336721519   0.0310710582955688
0.06880810514199086   0.01587953336721519   0.0310710582955688
-0.06707812005815833   -0.01636006703631363   -0.012113601106137718
-0.06707812005815833   -0.01636006703631363   -0.012113601106137718
-0.06707812005815833   -0.01636006703631363   -0.012113601106137718
-0.06707812005815833   -0.01636006703631363   -0.012113601106137718
-0.14941724327309058   0.05766062492346251   0.0020411908156293124
-0.14941724327309058   0.05766062492346251   0.0020411908156293124
-0.14941724327309058   0.05766062492346251   0.0020411908156293124
-0.14941724327309058   0.05766062492346251   0.0020411908156293124
-0.42462586648505146   -0.005105331234063648   -0.011680977895008382
-0.42462586648505146   -0.005105331234063648   -0.011680977895008382
-0.42462586648505146   -0.005105331234063648   -0.011680977895008382
-0.42462586648505146   -0.005105331234063648   -0.011680977895008382
-0.43783408325017187   -0.017921565981886683   -0.006984979372545112
-0.43783408325017187   -0.017921565981886683   -0.006984979372545112
-0.43783408325017187   -0.017921565981886683   -0.006984979372545112
-0.43783408325017187   -0.017921565981886683   -0.006984979372545112
-0.16491393659617865   0.03445973137729451   0.008118827267557936
-0.16491393659617865   0.03445973137729451   0.008118827267557936
-0.16491393659617865   0.03445973137729451   0.008118827267557936
-0.16491393659617865   0.03445973137729451   0.008118827267557936
-0.2934989406055177   0.016907699699361373   0.004512558588445615
-0.2934989406055177   0.016907699699361373   0.004512558588445615
-0.2934989406055177   0.016907699699361373   0.004512558588445615
-0.2934989406055177   0.016907699699361373   0.004512558588445615
-0.16413085795813295   0.03959572109837188   0.006898230736711981
-0.16413085795813295   0.03959572109837188   0.006898230736711981
-0.16413085795813295   0.03959572109837188   0.006898230736711981
-0.16413085795813295   0.03959572109837188   0.006898230736711981
-0.43925606261955347   -0.02369645643430003   -0.008319985767039934
-0.43925606261955347   -0.02369645643430003   -0.008319985767039934
-0.43925606261955347   -0.02369645643430003   -0.008319985767039934
-0.43925606261955347   -0.02369645643430003   -0.008319985767039934
-0.4524320227681579   -0.03580722986442655   -0.002271345116703542
-0.4524320227681579   -0.03580722986442655   -0.002271345116703542
-0.4524320227681579   -0.03580722986442655   -0.002271345116703542
-0.4524320227681579   -0.03580722986442655   -0.002271345116703542
-0.1803888366475064   0.015794533288347228   0.01153516753076575
-0.1803888366475064   0.015794533288347228   0.01153516753076575
-0.1803888366475064   0.015794533288347228   0.01153516753076575
-0.1803888366475064   0.015794533288347228   0.01153516753076575
-0.30872873768675757   -8.139408546040117e-05   -0.003081240901169933
-0.30872873768675757   -8.139408546040117e-05   -0.003081240901169933
-0.30872873768675757   -8.139408546040117e-05   -0.003081240901169933
-0.30872873768675757   -8.139408546040117e-05   -0.003081240901169933
-0.17933862652439153   0.02148489057883595   0.01109586085585518
-0.17933862652439153   0.02148489057883595   0.01109586085585518
-0.17933862652439153   0.02148489057883595   0.01109586085585518
-0.17933862652439153   0.02148489057883595   0.01109586085585518
-0.45439035494244456   -0.04240570920609361   -0.005464526646469606
-0.45439035494244456   -0.04240570920609361   -0.005464526646469606
-0.45439035494244456   -0.04240570920609361   -0.005464526646469606
-0.45439035494244456   -0.04240570920609361   -0.005464526646469606
-0.4667486757280012   -0.05307282235216927   0.002292872772143375
-0.4667486757280012   -0.05307282235216927   0.002292872772143375
-0.4667486757280012   -0.05307282235216927   0.002292872772143375
-0.4667486757280012   -0.05307282235216927   0.002292872772143375
-0.1956001221489562   -0.002184688093508462   0.01465998580628126
-0.1956001221489562   -0.002184688093508462   0.01465998580628126
-0.1956001221489562   -0.002184688093508462   0.01465998580628126
-0.1956001221489562   -0.002184688093508462   0.01465998580628126
-0.32475399560841967   -0.01711042339538761   -0.011326718039591038
-0.32475399560841967   -0.01711042339538761   -0.011326718039591038
-0.32475399560841967   -0.01711042339538761   -0.011326718039591038
-0.32475399560841967   -0.01711042339538761   -0.011326718039591038
-0.4031921888517441   0.07237863861162257   0.01800344042584222
-0.4031921888517441   0.07237863861162257   0.01800344042584222
-0.4031921888517441   0.07237863861162257   0.01800344042584222
-0.4031921888517441   0.07237863861162257   0.01800344042584222
-0.6858915056741238   -0.02043685098952233   -0.026637986350265937
-0.6858915056741238   -0.02043685098952233   -0.026637986350265937
-0.6858915056741238   -0.02043685098952233   -0.026637986350265937
-0.6858915056741238   -0.02043685098952233   -0.026637986350265937
-0.6871971003331011   -0.0015283435136789203   0.011063961886339322
-0.6871971003331011   -0.0015283435136789203   0.011063961886339322
-0.6871971003331011   -0.0015283435136789203   0.011063961886339322
-0.6871971003331011   -0.0015283435136789203   0.011063961886339322
-0.4309862964039408   0.017720322090579194   -0.008387933213857626
-0.4309862964039408   0.017720322090579194   -0.008387933213857626
-0.4309862964039408   0.017720322090579194   -0.008387933213857626
-0.4309862964039408   0.017720322090579194   -0.008387933213857626
-0.5490002077896957   0.016998548820403844   0.005934891061975207
-0.5490002077896957   0.016998548820403844   0.005934891061975207
-0.5490002077896957   0.016998548820403844   0.005934891061975207
-0.5490002077896957   0.016998548820403844   0.005934891061975207
-0.4173156408699042   0.05481024109256205   0.02287542545434458
-0.4173156408699042   0.05481024109256205   0.02287542545434458
-0.4173156408699042   0.05481024109256205   0.02287542545434458
-0.4173156408699042   0.05481024109256205   0.02287542545434458
-0.7020938811934239   -0.03984438784194333   -0.02510389808701787
-0.7020938811934239   -0.03984438784194333   -0.02510389808701787
-0.7020938811934239   -0.03984438784194333   -0.02510389808701787
-0.7020938811934239   -0.03984438784194333   -0.02510389808701787
-0.7051697787756547   -0.019162856035551956   0.013601826812114106
-0.7051697787756547   -0.019162856035551956   0.013601826812114106
-0.7051697787756547   -0.019162856035551956   0.013601826812114106
-0.7051697787756547   -0.019162856035551956   0.013601826812114106
-0.445660961419563   0.0005320050016869998   -0.004755273239844527
-0.445660961419563   0.0005320050016869998   -0.004755273239844527
-0.445660961419563   0.0005320050016869998   -0.004755273239844527
-0.445660961419563   0.0005320050016869998   -0.004755273239844527
-0.5619377241351697   0.0011686009064883762   -0.0020256273772231645
-0.5619377241351697   0.0011686009064883762   -0.0020256273772231645
-0.5619377241351697   0.0011686009064883762   -0.0020256273772231645
-0.5619377241351697   0.0011686009064883762   -0.0020256273772231645
-0.43162703453955464   0.0383455005680164   0.027600865593869726
-0.43162703453955464   0.0383455005680164   0.027600865593869726
-0.43162703453955464   0.0383455005680164   0.027600865593869726
-0.43162703453955464   0.0383455005680164   0.027600865593869726
-0.719968305444029   -0.05774095139025058   -0.02181271117506631
-0.719968305444029   -0.05774095139025058   -0.02181271117506631
-0.719968305444029   -0.05774095139025058   -0.02181271117506631
-0.719968305444029   -0.05774095139025058   -0.02181271117506631
-0.7206921602284941   -0.037548389913785105   0.01852583442550064
-0.7206921602284941   -0.037548389913785105   0.01852583442550064
-0.7206921602284941   -0.037548389913785105   0.01852583442550064
-0.7206921602284941   -0.037548389913785105   0.01852583442550064
-0.46051994335986385   -0.017855821042174036   -0.0017804666971695873
-0.46051994335986385   -0.017855821042174036   -0.0017804666971695873
-0.46051994335986385   -0.017855821042174036   -0.0017804666971695873
-0.46051994335986385   -0.017855821042174036   -0.0017804666971695873
-0.581196231273998   -0.016088851722720607   -0.01070509894989027
-0.581196231273998   -0.016088851722720607   -0.01070509894989027
-0.581196231273998   -0.016088851722720607   -0.01070509894989027
-0.581196231273998   -0.016088851722720607   -0.01070509894989027
-0.6558488270236394   0.07124939221806112   0.03188916369457999
-0.6558488270236394   0.07124939221806112   0.03188916369457999
-0.6558488270236394   0.07124939221806112   0.03188916369457999
-0.6558488270236394   0.07124939221806112   0.03188916369457999
-0.9232927059066638   -0.042516899504474515   -0.04039798247619628
-0.9232927059066638   -0.042516899504474515   -0.04039798247619628
-0.9232927059066638   -0.042516899504474515   -0.04039798247619628
-0.9232927059066638   -0.042516899504474515   -0.04039798247619628
-0.9300402694675194   0.011703528702934923   0.03352048005077052
-0.9300402694675194   0.011703528702934923   0.03352048005077052
-0.9300402694675194   0.011703528702934923   0.03352048005077052
-0.9300402694675194   0.011703528702934923   0.03352048005077052
-0.6944470079147333   -0.0020435024458604345   -0.02467041708965554
-0.6944470079147333   -0.0020435024458604345   -0.02467041708965554
-0.6944470079147333   -0.0020435024458604345   -0.02467041708965554
-0.6944470079147333   -0.0020435024458604345   -0.02467041708965554
-0.7664756969754383   0.017059856568316295   0.018581979367640073
-0.7664756969754383   0.017059856568316295   0.018581979367640073
-0.7664756969754383   0.017059856568316295   0.018581979367640073
-0.7664756969754383   0.017059856568316295   0.018581979367640073
-0.6685947376860789   0.06483168780885307   0.037715743798910274
-0.6685947376860789   0.06483168780885307   0.037715743798910274
-0.6685947376860789   0.06483168780885307   0.037715743798910274
-0.6685947376860789   0.06483168780885307   0.037715743798910274
-0.95719799721503   -0.05647711907063166   -0.03408751091321514
-0.95719799721503   -0.05647711907063166   -0.03408751091321514
-0.95719799721503   -0.05647711907063166   -0.03408751091321514
-0.95719799721503   -0.05647711907063166   -0.03408751091321514
-0.9580366245607329   0.0017932465601634695   0.04280530632371343
-0.9580366245607329   0.0017932465601634695   0.04280530632371343
-0.9580366245607329   0.0017932465601634695   0.04280530632371343
-0.9580366245607329   0.0017932465601634695   0.04280530632371343
-0.7106177850406064   -0.011634382716791458   -0.02116667783142423
-0.7106177850406064   -0.011634382716791458   -0.02116667783142423
-0.7106177850406064   -0.011634382716791458   -0.02116667783142423
-0.7106177850406064   -0.011634382716791458   -0.02116667783142423
-0.8022815571673598   0.00534250969596009   0.006727514420845279
-0.8022815571673598   0.00534250969596009   0.006727514420845279
-0.8022815571673598   0.00534250969596009   0.006727514420845279
-0.8022815571673598   0.00534250969596009   0.006727514420845279
-0.683671343628428   0.05707622565368159   0.04485492085900697
-0.683671343628428   0.05707622565368159   0.04485492085900697
-0.683671343628428   0.05707622565368159   0.04485492085900697
-0.683671343628428   0.05707622565368159   0.04485492085900697
-0.9862175350969775   -0.06815183093437366   -0.02815416886296406
-0.9862175350969775   -0.06815183093437366   -0.02815416886296406
-0.9862175350969775   -0.06815183093437366   -0.02815416886296406
-0.9862175350969775   -0.06815183093437366   -0.02815416886296406
-0.9967480635990654   -0.026381753978525324   0.04419115462948061
-0.9967480635990654   -0.026381753978525324   0.04419115462948061
-0.9967480635990654   -0.026381753978525324   0.04419115462948061
-0.9967480635990654   -0.026381753978525324   0.04419115462948061
-0.7273061291536365   -0.03363359539589472   -0.01845880471811668
-0.7273061291536365   -0.03363359539589472   -0.01845880471811668
-0.7273061291536365   -0.03363359539589472   -0.01845880471811668
-0.7273061291536365   -0.03363359539589472   -0.01845880471811668
-0.8139205596463029   -0.007126538429030271   -0.0003161401232519706
-0.8139205596463029   -0.007126538429030271   -0.0003161401232519706
-0.8139205596463029   -0.007126538429030271   -0.0003161401232519706
-0.8139205596463029   -0.007126538429030271   -0.0003161401232519706
0.07120337016624635   0.005854709697799436   -0.04658242959747424
0.07120337016624635   0.005854709697799436   -0.04658242959747424
0.07120337016624635   0.005854709697799436   -0.04658242959747424
0.07120337016624635   0.005854709697799436   -0.04658242959747424
-0.07516512124017072   0.03489920015557797   0.02380536609103151
-0.07516512124017072   0.03489920015557797   0.02380536609103151
-0.07516512124017072   0.03489920015557797   0.02380536609103151
-0.07516512124017072   0.03489920015557797   0.02380536609103151
-0.11312934046072058   -0.044893054669405706   -0.0375261421382167
-0.11312934046072058   -0.044893054669405706   -0.0375261421382167
-0.11312934046072058   -0.044893054669405706   -0.0375261421382167
-0.11312934046072058   -0.044893054669405706   -0.0375261421382167
0.06545147114671611   0.04946567191724073   0.029219344664747272
0.06545147114671611   0.04946567191724073   0.029219344664747272
0.06545147114671611   0.04946567191724073   0.029219344664747272
0.06545147114671611   0.04946567191724073   0.029219344664747272
-0.01455056189954713   0.010857549370451846   0.004040177617299213
-0.01455056189954713   0.010857549370451846   0.004040177617299213
-0.01455056189954713   0.010857549370451846   0.004040177617299213
-0.01455056189954713   0.010857549370451846   0.004040177617299213
0.03829546511941507   -0.015434889863866949   -0.041660123690650044
0.03829546511941507   -0.015434889863866949   -0.041660123690650044
0.03829546511941507   -0.015434889863866949   -0.041660123690650044
0.03829546511941507   -0.015434889863866949   -0.041660123690650044
-0.08757545066661948   0.018405390878500662   0.026944861284382525
-0.08757545066661948   0.018405390878500662   0.026944861284382525
-0.08757545066661948   0.018405390878500662   0.026944861284382525
-0.08757545066661948   0.018405390878500662   0.026944861284382525
-0.12564549677604436   -0.05301622362913662   -0.03182024998452926
-0.12564549677604436   -0.05301622362913662   -0.03182024998452926
-0.12564549677604436   -0.05301622362913662   -0.03182024998452926
-0.12564549677604436   -0.05301622362913662   -0.03182024998452926
0.039700851745252064   0.038437305699322286   0.04008787047736443
0.039700851745252064   0.038437305699322286   0.04008787047736443
0.039700851745252064   0.038437305699322286   0.04008787047736443
0.039700851745252064   0.038437305699322286   0.04008787047736443
-0.03484598849947816   -0.001314488260861676   -0.005337124448708649
-0.03484598849947816   -0.001314488260861676   -0.005337124448708649
-0.03484598849947816   -0.001314488260861676   -0.005337124448708649
-0.03484598849947816   -0.001314488260861676   -0.005337124448708649
0.011913606870987362   -0.026018802118127356   -0.034392246076507864
0.011913606870987362   -0.026018802118127356   -0.034392246076507864
0.011913606870987362   -0.026018802118127356   -0.034392246076507864
0.011913606870987362   -0.026018802118127356   -0.034392246076507864
-0.10008289213215144   0.009215243957940239   0.033761305647857696
-0.10008289213215144   0.009215243957940239   0.033761305647857696
-0.10008289213215144   0.009215243957940239   0.033761305647857696
-0.10008289213215144   0.009215243957940239   0.033761305647857696
-0.13710839523698462   -0.06547430861625211   -0.02638301017691973
-0.13710839523698462   -0.06547430861625211   -0.02638301017691973
-0.13710839523698462   -0.06547430861625211   -0.02638301017691973
-0.13710839523698462   -0.06547430861625211   -0.02638301017691973
0.003938331848702368   0.015339031630160475   0.04571609063341873
0.003938331848702368   0.015339031630160475   0.04571609063341873
0.003938331848702368   0.015339031630160475   0.04571609063341873
0.003938331848702368   0.015339031630160475   0.04571609063341873
-0.05670037395791248   -0.013558022547209642   -0.016161060812333268
-0.05670037395791248   -0.013558022547209642   -0.016161060812333268
-0.05670037395791248   -0.013558022547209642   -0.016161060812333268
-0.05670037395791248   -0.013558022547209642   -0.016161060812333268
-0.08598796856583091   0.02309132203638838   -0.018500992418079898
-0.08598796856583091   0.02309132203638838   -0.018500992418079898
-0.08598796856583091   0.02309132203638838   -0.018500992418079898
-0.08598796856583091   0.02309132203638838   -0.018500992418079898
-0.2229335041844132   0.009383800040410582   0.006200688004625218
-0.2229335041844132   0.009383800040410582   0.006200688004625218
-0.2229335041844132   0.009383800040410582   0.006200688004625218
-0.2229335041844132   0.009383800040410582   0.006200688004625218
-0.24253346370063594   -0.026149084972470166   -0.019526841423286336
-0.24253346370063594   -0.026149084972470166   -0.019526841423286336
-0.24253346370063594   -0.026149084972470166   -0.019526841423286336
-0.24253346370063594   -0.026149084972470166   -0.019526841423286336
-0.0884272875679975   0.022431645718035607   0.01865942193795768
-0.0884272875679975   0.022431645718035607   0.01865942193795768
-0.0884272875679975   0.022431645718035607   0.01865942193795768
-0.0884272875679975   0.022431645718035607   0.01865942193795768
-0.15964914886381812   0.006731680114074413   0.0035965681961160493
-0.15964914886381812   0.006731680114074413   0.0035965681961160493
-0.15964914886381812   0.006731680114074413   0.0035965681961160493
-0.15964914886381812   0.006731680114074413   0.0035965681961160493
-0.09900192617998954   0.0034218047796024317   -0.015203930183570517
-0.09900192617998954   0.0034218047796024317   -0.015203930183570517
-0.09900192617998954   0.0034218047796024317   -0.015203930183570517
-0.09900192617998954   0.0034218047796024317   -0.015203930183570517
-0.23327634135061234   -0.008456760296005499   0.009066445650367
-0.23327634135061234   -0.008456760296005499   0.009066445650367
-0.23327634135061234   -0.008456760296005499   0.009066445650367
-0.23327634135061234   -0.008456760296005499   0.009066445650367
-0.25228094391807365   -0.042095466300136615   -0.014421253841044241
-0.25228094391807365   -0.042095466300136615   -0.014421253841044241
-0.25228094391807365   -0.042095466300136615   -0.014421253841044241
-0.25228094391807365   -0.042095466300136615   -0.014421253841044241
-0.10350865862444783   0.0048088130226660725   0.02103890412164994
-0.10350865862444783   0.0048088130226660725   0.02103890412164994
-0.10350865862444783   0.0048088130226660725   0.02103890412164994
-0.10350865862444783   0.0048088130226660725   0.02103890412164994
-0.17196203370041774   -0.009279577578760845   -0.004439789581314672
-0.17196203370041774   -0.009279577578760845   -0.004439789581314672
-0.17196203370041774   -0.009279577578760845   -0.004439789581314672
-0.17196203370041774   -0.009279577578760845   -0.004439789581314672
-0.11370397343550892   -0.01376799401467941   -0.01136086289631007
-0.11370397343550892   -0.01376799401467941   -0.01136086289631007
-0.11370397343550892   -0.01376799401467941   -0.01136086289631007
-0.11370397343550892   -0.01376799401467941   -0.01136086289631007
-0.24350040200888307   -0.0249334321646638   0.012319421569435817
-0.24350040200888307   -0.0249334321646638   0.012319421569435817
-0.24350040200888307   -0.0249334321646638   0.012319421569435817
-0.24350040200888307   -0.0249334321646638   0.012319421569435817
-0.26209266448566293   -0.058494947110313535   -0.009900574464421044
-0.26209266448566293   -0.058494947110313535   -0.009900574464421044
-0.26209266448566293   -0.058494947110313535   -0.009900574464421044
-0.26209266448566293   -0.058494947110313535   -0.009900574464421044
-0.1161233953794024   -0.013035396426734097   0.026103076921472644
-0.1161233953794024   -0.013035396426734097   0.026103076921472644
-0.1161233953794024   -0.013035396426734097   0.026103076921472644
-0.1161233953794024   -0.013035396426734097   0.026103076921472644
-0.18425339747426028   -0.02510323885327904   -0.012609385814352461
-0.18425339747426028   -0.02510323885327904   -0.012609385814352461
-0.18425339747426028   -0.02510323885327904   -0.012609385814352461
-0.18425339747426028   -0.02510323885327904   -0.012609385814352461
-0.21884330589455314   0.037995393634926725   -0.001959914140590515
-0.21884330589455314   0.037995393634926725   -0.001959914140590515
-0.21884330589455314   0.037995393634926725   -0.001959914140590515
-0.21884330589455314   0.037995393634926725   -0.001959914140590515
-0.3693138219302047   -0.01268229375695229   -0.010454505989401779
-0.3693138219302047   -0.01268229375695229   -0.010454505989401779
-0.3693138219302047   -0.01268229375695229   -0.010454505989401779
-0.3693138219302047   -0.01268229375695229   -0.010454505989401779
-0.3732068460865852   -0.00926858071666549   -0.002229823711835454
-0.3732068460865852   -0.00926858071666549   -0.002229823711835454
-0.3732068460865852   -0.00926858071666549   -0.002229823711835454
-0.3732068460865852   -0.00926858071666549   -0.002229823711835454
-0.2323760156064839   0.0022299069690634304   0.002881407105941692
-0.2323760156064839   0.0022299069690634304   0.002881407105941692
-0.2323760156064839   0.0022299069690634304   0.002881407105941692
-0.2323760156064839   0.0022299069690634304   0.002881407105941692
-0.2978092741313055   0.004274566707756222   0.0012423089759104264
-0.2978092741313055   0.004274566707756222   0.0012423089759104264
-0.2978092741313055   0.004274566707756222   0.0012423089759104264
-0.2978092741313055   0.004274566707756222   0.0012423089759104264
-0.22870009228897847   0.02064743409810714   0.0028434965644235054
-0.22870009228897847   0.02064743409810714   0.0028434965644235054
-0.22870009228897847   0.02064743409810714   0.0028434965644235054
-0.22870009228897847   0.02064743409810714   0.0028434965644235054
-0.3781509206306825   -0.02895425907230171   -0.007264518076685456
-0.3781509206306825   -0.02895425907230171   -0.007264518076685456
-0.3781509206306825   -0.02895425907230171   -0.007264518076685456
-0.3781509206306825   -0.02895425907230171   -0.007264518076685456
-0.382348222968044   -0.026400211241551064   0.002520831201811846
-0.382348222968044   -0.026400211241551064   0.002520831201811846
-0.382348222968044   -0.026400211241551064   0.002520831201811846
-0.382348222968044   -0.026400211241551064   0.002520831201811846
-0.24271059014052465   -0.01461324933751905   0.005948298084081698
-0.24271059014052465   -0.01461324933751905   0.005948298084081698
-0.24271059014052465   -0.01461324933751905   0.005948298084081698
-0.24271059014052465   -0.01461324933751905   0.005948298084081698
-0.30771659474966406   -0.011306244688809447   -0.006137989634940187
-0.30771659474966406   -0.011306244688809447   -0.006137989634940187
-0.30771659474966406   -0.011306244688809447   -0.006137989634940187
-0.30771659474966406   -0.011306244688809447   -0.006137989634940187
-0.238924495720246   0.003194560114360187   0.007070960733597226
-0.238924495720246   0.003194560114360187   0.007070960733597226
-0.238924495720246   0.003194560114360187   0.007070960733597226
-0.238924495720246   0.003194560114360187   0.007070960733597226
-0.38766340068075505   -0.045737103985867   -0.004718164617427639
-0.38766340068075505   -0.045737103985867   -0.004718164617427639
-0.38766340068075505   -0.045737103985867   -0.004718164617427639
-0.38766340068075505   -0.045737103985867   -0.004718164617427639
-0.39125049430817865   -0.04283108564821736   0.007078370191959251
-0.39125049430817865   -0.04283108564821736   0.007078370191959251
-0.39125049430817865   -0.04283108564821736   0.007078370191959251
-0.39125049430817865   -0.04283108564821736   0.007078370191959251
-0.25263776953751077   -0.03049973444217904   0.009378687608207184
-0.25263776953751077   -0.03049973444217904   0.009378687608207184
-0.25263776953751077   -0.03049973444217904   0.009378687608207184
-0.25263776953751077   -0.03049973444217904   0.009378687608207184
-0.3183776122820251   -0.026982313803900114   -0.01415775689080565
-0.3183776122820251   -0.026982313803900114   -0.01415775689080565
-0.3183776122820251   -0.026982313803900114   -0.01415775689080565
-0.3183776122820251   -0.026982313803900114   -0.01415775689080565
-0.35066987190543636   0.0549597192581367   0.01512323111935477
-0.35066987190543636   0.0549597192581367   0.01512323111935477
-0.35066987190543636   0.0549597192581367   0.01512323111935477
-0.35066987190543636   0.0549597192581367   0.01512323111935477
-0.5099676562437301   -0.021120990309906565   -0.02344176787715056
-0.5099676562437301   -0.021120990309906565   -0.02344176787715056
-0.5099676562437301   -0.021120990309906565   -0.02344176787715056
-0.5099676562437301   -0.021120990309906565   -0.02344176787715056
-0.50315021369642   0.008088180961975971   0.015615278435574675
-0.50315021369642   0.008088180961975971   0.015615278435574675
-0.50315021369642   0.008088180961975971   0.015615278435574675
-0.50315021369642   0.008088180961975971   0.015615278435574675
-0.3744593719521014   -0.007344897094743147   -0.01041613666133916
-0.3744593719521014   -0.007344897094743147   -0.01041613666133916
-0.3744593719521014   -0.007344897094743147   -0.01041613666133916
-0.3744593719521014   -0.007344897094743147   -0.01041613666133916
-0.4330494848831996   0.008703387264608065   0.002103805078781447
-0.4330494848831996   0.008703387264608065   0.002103805078781447
-0.4330494848831996   0.008703387264608065   0.002103805078781447
-0.4330494848831996   0.008703387264608065   0.002103805078781447
-0.3593786040960188   0.037706673583170106   0.019936131941161325
-0.3593786040960188   0.037706673583170106   0.019936131941161325
-0.3593786040960188   0.037706673583170106   0.019936131941161325
-0.3593786040960188   0.037706673583170106   0.019936131941161325
-0.5200831053429399   -0.03881551350637863   -0.022145485328678022
-0.5200831053429399   -0.03881551350637863   -0.022145485328678022
-0.5200831053429399   -0.03881551350637863   -0.022145485328678022
-0.5200831053429399   -0.03881551350637863   -0.022145485328678022
-0.515398757691613   -0.008774686217084743   0.01844906693831609
-0.515398757691613   -0.008774686217084743   0.01844906693831609
-0.515398757691613   -0.008774686217084743   0.01844906693831609
-0.515398757691613   -0.008774686217084743   0.01844906693831609
-0.383521392935992   -0.022664557630158996   -0.007080672249319027
-0.383521392935992   -0.022664557630158996   -0.007080672249319027
-0.383521392935992   -0.022664557630158996   -0.007080672249319027
-0.383521392935992   -0.022664557630158996   -0.007080672249319027
-0.44136763113625926   -0.006309640738079658   -0.005896252595156158
-0.44136763113625926   -0.006309640738079658   -0.005896252595156158
-0.44136763113625926   -0.006309640738079658   -0.005896252595156158
-0.44136763113625926   -0.006309640738079658   -0.005896252595156158
-0.36827206936765977   0.02188426304372941   0.024617124918452294
-0.36827206936765977   0.02188426304372941   0.024617124918452294
-0.36827206936765977   0.02188426304372941   0.024617124918452294
-0.36827206936765977   0.02188426304372941   0.024617124918452294
-0.5321106433773601   -0.05478606900839275   -0.019098978699119664
-0.5321106433773601   -0.05478606900839275   -0.019098978699119664
-0.5321106433773601   -0.05478606900839275   -0.019098978699119664
-0.5321106433773601   -0.05478606900839275   -0.019098978699119664
-0.5253547960383661   -0.025765689626684615   0.023505043058779745
-0.5253547960383661   -0.025765689626684615   0.023505043058779745
-0.5253547960383661   -0.025765689626684615   0.023505043058779745
-0.5253547960383661   -0.025765689626684615   0.023505043058779745
-0.3926176359921416   -0.038355694161288215   -0.004232729714789298
-0.3926176359921416   -0.038355694161288215   -0.004232729714789298
-0.3926176359921416   -0.038355694161288215   -0.004232729714789298
-0.3926176359921416   -0.038355694161288215   -0.004232729714789298
-0.4538956619750764   -0.021630561997124903   -0.01409865482607724
-0.4538956619750764   -0.021630561997124903   -0.01409865482607724
-0.4538956619750764   -0.021630561997124903   -0.01409865482607724
-0.4538956619750764   -0.021630561997124903   -0.01409865482607724
-0.48315874868631   0.05957153696236864   0.029910242637674955
-0.48315874868631   0.05957153696236864   0.029910242637674955
-0.48315874868631   0.05957153696236864   0.029910242637674955
-0.48315874868631   0.05957153696236864   0.029910242637674955
-0.6222748682738588   -0.031158927939361897   -0.03916774231503367
-0.6222748682738588   -0.031158927939361897   -0.03916774231503367
-0.6222748682738588   -0.031158927939361897   -0.03916774231503367
-0.6222748682738588   -0.031158927939361897   -0.03916774231503367
-0.6227775218361824   0.023818921912026975   0.03297221862119979
-0.6227775218361824   0.023818921912026975   0.03297221862119979
-0.6227775218361824   0.023818921912026975   0.03297221862119979
-0.6227775218361824   0.023818921912026975   0.03297221862119979
-0.516182825099026   -0.01749916169104722   -0.023960435924437893
-0.516182825099026   -0.01749916169104722   -0.023960435924437893
-0.516182825099026   -0.01749916169104722   -0.023960435924437893
-0.516182825099026   -0.01749916169104722   -0.023960435924437893
-0.538382883399023   0.014102425752876388   0.010445730642625311
-0.538382883399023   0.014102425752876388   0.010445730642625311
-0.538382883399023   0.014102425752876388   0.010445730642625311
-0.538382883399023   0.014102425752876388   0.010445730642625311
-0.49069441223017696   0.050697994545614855   0.03528447218314309
-0.49069441223017696   0.050697994545614855   0.03528447218314309
-0.49069441223017696   0.050697994545614855   0.03528447218314309
-0.49069441223017696   0.050697994545614855   0.03528447218314309
-0.6501910055517007   -0.046303305171305084   -0.0339729728730524
-0.6501910055517007   -0.046303305171305084   -0.0339729728730524
-0.6501910055517007   -0.046303305171305084   -0.0339729728730524
-0.6501910055517007   -0.046303305171305084   -0.0339729728730524
-0.6450544128005375   0.014207242973196893   0.04247807837844883
-0.6450544128005375   0.014207242973196893   0.04247807837844883
-0.6450544128005375   0.014207242973196893   0.04247807837844883
-0.6450544128005375   0.014207242973196893   0.04247807837844883
-0.5267921071774836   -0.026306819761515   -0.02098554694661411
-0.5267921071774836   -0.026306819761515   -0.02098554694661411
-0.5267921071774836   -0.026306819761515   -0.02098554694661411
-0.5267921071774836   -0.026306819761515   -0.02098554694661411
-0.564913965492654   0.0024195226541102455   -0.0006621939198558566
-0.564913965492654   0.0024195226541102455   -0.0006621939198558566
-0.564913965492654   0.0024195226541102455   -0.0006621939198558566
-0.564913965492654   0.0024195226541102455   -0.0006621939198558566
-0.5002452459150069   0.04313487382955472   0.04230706577469913
-0.5002452459150069   0.04313487382955472   0.04230706577469913
-0.5002452459150069   0.04313487382955472   0.04230706577469913
-0.5002452459150069   0.04313487382955472   0.04230706577469913
-0.6735615045801694   -0.05719468113502414   -0.028655456411474076
-0.6735615045801694   -0.05719468113502414   -0.028655456411474076
-0.6735615045801694   -0.05719468113502414   -0.028655456411474076
-0.6735615045801694   -0.05719468113502414   -0.028655456411474076
-0.6779600093503831   -0.011090697913515468   0.044909562890526146
-0.6779600093503831   -0.011090697913515468   0.044909562890526146
-0.6779600093503831   -0.011090697913515468   0.044909562890526146
-0.6779600093503831   -0.011090697913515468   0.044909562890526146
-0.5374458110107113   -0.04458910250461   -0.018126618925033432
-0.5374458110107113   -0.04458910250461   -0.018126618925033432
-0.5374458110107113   -0.04458910250461   -0.018126618925033432
-0.5374458110107113   -0.04458910250461   -0.018126618925033432
-0.5750790250021933   -0.009161583554188155   -0.008539841994297855
-0.5750790250021933   -0.009161583554188155   -0.008539841994297855
-0.5750790250021933   -0.009161583554188155   -0.008539841994297855
-0.5750790250021933   -0.009161583554188155   -0.008539841994297855
-0.2616407012392616   -0.017057743647525964   -0.04950377292540161
-0.2616407012392616   -0.017057743647525964   -0.04950377292540161
-0.2616407012392616   -0.017057743647525964   -0.04950377292540161
-0.2616407012392616   -0.017057743647525964   -0.04950377292540161
-0.25983506291253505   0.037854835411561386   0.022255843264655913
-0.25983506291253505   0.037854835411561386   0.022255843264655913
-0.25983506291253505   0.037854835411561386   0.022255843264655913
-0.25983506291253505   0.037854835411561386   0.022255843264655913
-0.29251758957912577   -0.03468854446088764   -0.03358267650005264
-0.29251758957912577   -0.03468854446088764   -0.03358267650005264
-0.29251758957912577   -0.03468854446088764   -0.03358267650005264
-0.29251758957912577   -0.03468854446088764   -0.03358267650005264
-0.26711497335445505   0.01994462671956545   0.03340373986723812
-0.26711497335445505   0.01994462671956545   0.03340373986723812
-0.26711497335445505   0.01994462671956545   0.03340373986723812
-0.26711497335445505   0.01994462671956545   0.03340373986723812
-0.2567055686534904   0.00641645931032013   0.022706675538814704
-0.2567055686534904   0.00641645931032013   0.022706675538814704
-0.2567055686534904   0.00641645931032013   0.022706675538814704
-0.2567055686534904   0.00641645931032013   0.022706675538814704
-0.29337412192885326   -0.03644399240655233   -0.04150338387863151
-0.29337412192885326   -0.03644399240655233   -0.04150338387863151
-0.29337412192885326   -0.03644399240655233   -0.04150338387863151
-0.29337412192885326   -0.03644399240655233   -0.04150338387863151
-0.2695108734459096   0.01844764222404586   0.028314717481094785
-0.2695108734459096   0.01844764222404586   0.028314717481094785
-0.2695108734459096   0.01844764222404586   0.028314717481094785
-0.2695108734459096   0.01844764222404586   0.028314717481094785
-0.30237940354203974   -0.04368304265300968   -0.02843361599700359
-0.30237940354203974   -0.04368304265300968   -0.02843361599700359
-0.30237940354203974   -0.04368304265300968   -0.02843361599700359
-0.30237940354203974   -0.04368304265300968   -0.02843361599700359
-0.29246701102294315   0.0077095650076903915   0.06213999838888986
-0.29246701102294315   0.0077095650076903915   0.06213999838888986
-0.29246701102294315   0.0077095650076903915   0.06213999838888986
-0.29246701102294315   0.0077095650076903915   0.06213999838888986
-0.28004885598957413   -0.00903226103252424   0.009093895608904695
-0.28004885598957413   -0.00903226103252424   0.009093895608904695
-0.28004885598957413   -0.00903226103252424   0.009093895608904695
-0.28004885598957413   -0.00903226103252424   0.009093895608904695
-0.32261319878238753   -0.04851612798484177   -0.03236524741579969
-0.32261319878238753   -0.04851612798484177   -0.03236524741579969
-0.32261319878238753   -0.04851612798484177   -0.03236524741579969
-0.32261319878238753   -0.04851612798484177   -0.03236524741579969
-0.2799448742802671   0.004830991841847994   0.035224995817001815
-0.2799448742802671   0.004830991841847994   0.035224995817001815
-0.2799448742802671   0.004830991841847994   0.035224995817001815
-0.2799448742802671   0.004830991841847994   0.035224995817001815
-0.31045864449769756   -0.06116141717621676   -0.022389177052082834
-0.31045864449769756   -0.06116141717621676   -0.022389177052082834
-0.31045864449769756   -0.06116141717621676   -0.022389177052082834
-0.31045864449769756   -0.06116141717621676   -0.022389177052082834
-0.33186130185927776   -0.032723724555679234   0.058146360082409955
-0.33186130185927776   -0.032723724555679234   0.058146360082409955
-0.33186130185927776   -0.032723724555679234   0.058146360082409955
-0.33186130185927776   -0.032723724555679234   0.058146360082409955
-0.3003308562272325   -0.027290058696487575   -0.012495049267227163
-0.3003308562272325   -0.027290058696487575   -0.012495049267227163
-0.3003308562272325   -0.027290058696487575   -0.012495049267227163
-0.3003308562272325   -0.027290058696487575   -0.012495049267227163
-0.27856663361299827   -0.00807699867620764   -0.025470176149891124
-0.27856663361299827   -0.00807699867620764   -0.025470176149891124
-0.27856663361299827   -0.00807699867620764   -0.025470176149891124
-0.27856663361299827   -0.00807699867620764   -0.025470176149891124
-0.28299721169381153   -0.03479660654076357   -0.0014859280901773977
-0.28299721169381153   -0.03479660654076357   -0.0014859280901773977
-0.28299721169381153   -0.03479660654076357   -0.0014859280901773977
-0.28299721169381153   -0.03479660654076357   -0.0014859280901773977
-0.2851002523566968   -0.023184079119665107   -0.012746237461846551
-0.2851002523566968   -0.023184079119665107   -0.012746237461846551
-0.2851002523566968   -0.023184079119665107   -0.012746237461846551
-0.2851002523566968   -0.023184079119665107   -0.012746237461846551
-0.2883938698417332   -0.04718811422540126   -0.0004645080485762409
-0.2883938698417332   -0.04718811422540126   -0.0004645080485762409
-0.2883938698417332   -0.04718811422540126   -0.0004645080485762409
-0.2883938698417332   -0.04718811422540126   -0.0004645080485762409
-0.2813543803467524   -0.029542174410617766   -0.000967022704971527
-0.2813543803467524   -0.029542174410617766   -0.000967022704971527
-0.2813543803467524   -0.029542174410617766   -0.000967022704971527
-0.2813543803467524   -0.029542174410617766   -0.000967022704971527
-0.2884136915171388   -0.025706554657985964   -0.0220451759930186
-0.2884136915171388   -0.025706554657985964   -0.0220451759930186
-0.2884136915171388   -0.025706554657985964   -0.0220451759930186
-0.2884136915171388   -0.025706554657985964   -0.0220451759930186
-0.28689755673735373   -0.04648276474314112   0.001565926258344973
-0.28689755673735373   -0.04648276474314112   0.001565926258344973
-0.28689755673735373   -0.04648276474314112   0.001565926258344973
-0.28689755673735373   -0.04648276474314112   0.001565926258344973
-0.28991861740210845   -0.03832821985139501   -0.008236301471010149
-0.28991861740210845   -0.03832821985139501   -0.008236301471010149
-0.28991861740210845   -0.03832821985139501   -0.008236301471010149
-0.28991861740210845   -0.03832821985139501   -0.008236301471010149
-0.29890441906100684   -0.06124018013176228   0.006498443886913722
-0.29890441906100684   -0.06124018013176228   0.006498443886913722
-0.29890441906100684   -0.06124018013176228   0.006498443886913722
-0.29890441906100684   -0.06124018013176228   0.006498443886913722
-0.2878688070128605   -0.04178290711740295   -0.007988881480463445
-0.2878688070128605   -0.04178290711740295   -0.007988881480463445
-0.2878688070128605   -0.04178290711740295   -0.007988881480463445
-0.2878688070128605   -0.04178290711740295   -0.007988881480463445
-0.29960741334506136   -0.04189171689900756   -0.016364990766113842
-0.29960741334506136   -0.04189171689900756   -0.016364990766113842
-0.29960741334506136   -0.04189171689900756   -0.016364990766113842
-0.29960741334506136   -0.04189171689900756   -0.016364990766113842
-0.29153896014048886   -0.0600000201065864   0.005333785092275162
-0.29153896014048886   -0.0600000201065864   0.005333785092275162
-0.29153896014048886   -0.0600000201065864   0.005333785092275162
-0.29153896014048886   -0.0600000201065864   0.005333785092275162
-0.2942493567677387   -0.05463535487352028   -0.0037707539241066024
-0.2942493567677387   -0.05463535487352028   -0.0037707539241066024
-0.2942493567677387   -0.05463535487352028   -0.0037707539241066024
-0.2942493567677387   -0.05463535487352028   -0.0037707539241066024
-0.3069531665880078   -0.07906695305578255   0.013043748375927564
-0.3069531665880078   -0.07906695305578255   0.013043748375927564
-0.3069531665880078   -0.07906695305578255   0.013043748375927564
-0.3069531665880078   -0.07906695305578255   0.013043748375927564
-0.29680860389962394   -0.056551835074642134   -0.016912633089647827
-0.29680860389962394   -0.056551835074642134   -0.016912633089647827
-0.29680860389962394   -0.056551835074642134   -0.016912633089647827
-0.29680860389962394   -0.056551835074642134   -0.016912633089647827
-0.2752168940028067   0.0072931698260191025   -0.0046741160019316275
-0.2752168940028067   0.0072931698260191025   -0.0046741160019316275
-0.2752168940028067   0.0072931698260191025   -0.0046741160019316275
-0.2752168940028067   0.0072931698260191025   -0.0046741160019316275
-0.3119303872276641   -0.059226582697299496   -0.014965397846015038
-0.3119303872276641   -0.059226582697299496   -0.014965397846015038
-0.3119303872276641   -0.059226582697299496   -0.014965397846015038
-0.3119303872276641   -0.059226582697299496   -0.014965397846015038
-0.29923344408480024   -0.010935681751639857   0.0039108919807416005
-0.29923344408480024   -0.010935681751639857   0.0039108919807416005
-0.29923344408480024   -0.010935681751639857   0.0039108919807416005
-0.29923344408480024   -0.010935681751639857   0.0039108919807416005
-0.2925422724203724   -0.06392066497712767   -0.009219751922762337
-0.2925422724203724   -0.06392066497712767   -0.009219751922762337
-0.2925422724203724   -0.06392066497712767   -0.009219751922762337
-0.2925422724203724   -0.06392066497712767   -0.009219751922762337
-0.29452441576854427   -0.03270281873114829   -0.006644887531816269
-0.29452441576854427   -0.03270281873114829   -0.006644887531816269
-0.29452441576854427   -0.03270281873114829   -0.006644887531816269
-0.29452441576854427   -0.03270281873114829   -0.006644887531816269
-0.27947635042019864   -0.007773835662226371   -3.6971236794473145e-05
-0.27947635042019864   -0.007773835662226371   -3.6971236794473145e-05
-0.27947635042019864   -0.007773835662226371   -3.6971236794473145e-05
-0.27947635042019864   -0.007773835662226371   -3.6971236794473145e-05
-0.3139499896443549   -0.06873313462592168   -0.011874382942749858
-0.3139499896443549   -0.06873313462592168   -0.011874382942749858
-0.3139499896443549   -0.06873313462592168   -0.011874382942749858
-0.3139499896443549   -0.06873313462592168   -0.011874382942749858
-0.30270687318362943   -0.026124100955749227   0.008390323036035615
-0.30270687318362943   -0.026124100955749227   0.008390323036035615
-0.30270687318362943   -0.026124100955749227   0.008390323036035615
-0.30270687318362943   -0.026124100955749227   0.008390323036035615
-0.29705249309255216   -0.07588782642546608   -0.0063460733491597955
-0.29705249309255216   -0.07588782642546608   -0.0063460733491597955
-0.29705249309255216   -0.07588782642546608   -0.0063460733491597955
-0.29705249309255216   -0.07588782642546608   -0.0063460733491597955
-0.29820966999105586   -0.04426938301694569   -0.01266637364036359
-0.29820966999105586   -0.04426938301694569   -0.01266637364036359
-0.29820966999105586   -0.04426938301694569   -0.01266637364036359
-0.29820966999105586   -0.04426938301694569   -0.01266637364036359
-0.2843548486312761   -0.023234080121781145   0.004488402653533799
-0.2843548486312761   -0.023234080121781145   0.004488402653533799
-0.2843548486312761   -0.023234080121781145   0.004488402653533799
-0.2843548486312761   -0.023234080121781145   0.004488402653533799
-0.31724843201362946   -0.08062176162816023   -0.009819810441553237
-0.31724843201362946   -0.08062176162816023   -0.009819810441553237
-0.31724843201362946   -0.08062176162816023   -0.009819810441553237
-0.31724843201362946   -0.08062176162816023   -0.009819810441553237
-0.3055414459021607   -0.0404015393850599   0.012773339258452742
-0.3055414459021607   -0.0404015393850599   0.012773339258452742
-0.3055414459021607   -0.0404015393850599   0.012773339258452742
-0.3055414459021607   -0.0404015393850599   0.012773339258452742
-0.3004229954412924   -0.08735940351568852   -0.0019148986497060285
-0.3004229954412924   -0.08735940351568852   -0.0019148986497060285
-0.3004229954412924   -0.08735940351568852   -0.0019148986497060285
-0.3004229954412924   -0.08735940351568852   -0.0019148986497060285
-0.3025966560596418   -0.05636443313271588   -0.019281826740937598
-0.3025966560596418   -0.05636443313271588   -0.019281826740937598
-0.3025966560596418   -0.05636443313271588   -0.019281826740937598
-0.3025966560596418   -0.05636443313271588   -0.019281826740937598
-0.2880173202260292   0.03086008446836319   0.014513269996496535
-0.2880173202260292   0.03086008446836319   0.014513269996496535
-0.2880173202260292   0.03086008446836319   0.014513269996496535
-0.2880173202260292   0.03086008446836319   0.014513269996496535
-0.34090385610878593   -0.044247347115770844   -0.020876471827406422
-0.34090385610878593   -0.044247347115770844   -0.020876471827406422
-0.34090385610878593   -0.044247347115770844   -0.020876471827406422
-0.34090385610878593   -0.044247347115770844   -0.020876471827406422
-0.3225839771017169   0.009130460844011812   0.020085258182035784
-0.3225839771017169   0.009130460844011812   0.020085258182035784
-0.3225839771017169   0.009130460844011812   0.020085258182035784
-0.3225839771017169   0.009130460844011812   0.020085258182035784
-0.3102079560535788   -0.049268128785876567   -0.01262922082891349
-0.3102079560535788   -0.049268128785876567   -0.01262922082891349
-0.3102079560535788   -0.049268128785876567   -0.01262922082891349
-0.3102079560535788   -0.049268128785876567   -0.01262922082891349
-0.31539329552853357   -0.013051807654112825   -0.003967947682357873
-0.31539329552853357   -0.013051807654112825   -0.003967947682357873
-0.31539329552853357   -0.013051807654112825   -0.003967947682357873
-0.31539329552853357   -0.013051807654112825   -0.003967947682357873
-0.29097978389739587   0.015235791734743091   0.01900771943138063
-0.29097978389739587   0.015235791734743091   0.01900771943138063
-0.29097978389739587   0.015235791734743091   0.01900771943138063
-0.29097978389739587   0.015235791734743091   0.01900771943138063
-0.344005098763261   -0.05756640918197076   -0.020323480099702272
-0.344005098763261   -0.05756640918197076   -0.020323480099702272
-0.344005098763261   -0.05756640918197076   -0.020323480099702272
-0.344005098763261   -0.05756640918197076   -0.020323480099702272
-0.3285817859306707   -0.0057051307585631456   0.022776855103339003
-0.3285817859306707   -0.0057051307585631456   0.022776855103339003
-0.3285817859306707   -0.0057051307585631456   0.022776855103339003
-0.3285817859306707   -0.0057051307585631456   0.022776855103339003
-0.3132357205993092   -0.060327593991297446   -0.010050421006815826
-0.3132357205993092   -0.060327593991297446   -0.010050421006815826
-0.3132357205993092   -0.060327593991297446   -0.010050421006815826
-0.3132357205993092   -0.060327593991297446   -0.010050421006815826
-0.3184318066990911   -0.02559230222211916   -0.011031057939720252
-0.3184318066990911   -0.02559230222211916   -0.011031057939720252
-0.3184318066990911   -0.02559230222211916   -0.011031057939720252
-0.3184318066990911   -0.02559230222211916   -0.011031057939720252
-0.2942285218544295   0.0012847889843962332   0.02337318974189002
-0.2942285218544295   0.0012847889843962332   0.02337318974189002
-0.2942285218544295   0.0012847889843962332   0.02337318974189002
-0.2942285218544295   0.0012847889843962332   0.02337318974189002
-0.349489051803131   -0.06921758086183641   -0.018247024155688886
-0.349489051803131   -0.06921758086183641   -0.018247024155688886
-0.349489051803131   -0.06921758086183641   -0.018247024155688886
-0.349489051803131   -0.06921758086183641   -0.018247024155688886
-0.33255861448978985   -0.019941266397752448   0.02778038760052251
-0.33255861448978985   -0.019941266397752448   0.02778038760052251
-0.33255861448978985   -0.019941266397752448   0.02778038760052251
-0.33255861448978985   -0.019941266397752448   0.02778038760052251
-0.31584396968160866   -0.07143854447860892   -0.007702274545238946
-0.31584396968160866   -0.07143854447860892   -0.007702274545238946
-0.31584396968160866   -0.07143854447860892   -0.007702274545238946
-0.31584396968160866   -0.07143854447860892   -0.007702274545238946
-0.32373583751955554   -0.03742011821954369   -0.017877548132942896
-0.32373583751955554   -0.03742011821954369   -0.017877548132942896
-0.32373583751955554   -0.03742011821954369   -0.017877548132942896
-0.32373583751955554   -0.03742011821954369   -0.017877548132942896
-0.3132252260190582   0.04428201272974698   0.02898731877571451
-0.3132252260190582   0.04428201272974698   0.02898731877571451
-0.3132252260190582   0.04428201272974698   0.02898731877571451
-0.3132252260190582   0.04428201272974698   0.02898731877571451
-0.3353653958963753   -0.026774016543541827   -0.030233812224150163
-0.3353653958963753   -0.026774016543541827   -0.030233812224150163
-0.3353653958963753   -0.026774016543541827   -0.030233812224150163
-0.3353653958963753   -0.026774016543541827   -0.030233812224150163
-0.32790145697433887   0.031392650234711675   0.03221725557968479
-0.32790145697433887   0.031392650234711675   0.03221725557968479
-0.32790145697433887   0.031392650234711675   0.03221725557968479
-0.32790145697433887   0.031392650234711675   0.03221725557968479
-0.33896564169066185   -0.03421103699837725   -0.01848156692030286
-0.33896564169066185   -0.03421103699837725   -0.01848156692030286
-0.33896564169066185   -0.03421103699837725   -0.01848156692030286
-0.33896564169066185   -0.03421103699837725   -0.01848156692030286
-0.31766173711416545   0.007878711966525787   0.0012804024994178195
-0.31766173711416545   0.007878711966525787   0.0012804024994178195
-0.31766173711416545   0.007878711966525787   0.0012804024994178195
-0.31766173711416545   0.007878711966525787   0.0012804024994178195
-0.3148735429646861   0.034256966552454485   0.03351092315873928
-0.3148735429646861   0.034256966552454485   0.03351092315873928
-0.3148735429646861   0.034256966552454485   0.03351092315873928
-0.3148735429646861   0.034256966552454485   0.03351092315873928
-0.35378293882224177   -0.03886473643804559   -0.02693276698706469
-0.35378293882224177   -0.03886473643804559   -0.02693276698706469
-0.35378293882224177   -0.03886473643804559   -0.02693276698706469
-0.35378293882224177   -0.03886473643804559   -0.02693276698706469
-0.34234145097924906   0.023074938211035928   0.041472586717906046
-0.34234145097924906   0.023074938211035928   0.041472586717906046
-0.34234145097924906   0.023074938211035928   0.041472586717906046
-0.34234145097924906   0.023074938211035928   0.041472586717906046
-0.3435121403093592   -0.04072370081344972   -0.016856346735217867
-0.3435121403093592   -0.04072370081344972   -0.016856346735217867
-0.3435121403093592   -0.04072370081344972   -0.016856346735217867
-0.3435121403093592   -0.04072370081344972   -0.016856346735217867
-0.33322237777046   -0.00219553523080962   -0.007067464690776678
-0.33322237777046   -0.00219553523080962   -0.007067464690776678
-0.33322237777046   -0.00219553523080962   -0.007067464690776678
-0.33322237777046   -0.00219553523080962   -0.007067464690776678
-0.3184598467658797   0.02757752145323003   0.0401038987155011
-0.3184598467658797   0.02757752145323003   0.0401038987155011
-0.3184598467658797   0.02757752145323003   0.0401038987155011
-0.3184598467658797   0.02757752145323003   0.0401038987155011
-0.369721993202678   -0.047554532735590814   -0.02480065345260451
-0.369721993202678   -0.047554532735590814   -0.02480065345260451
-0.369721993202678   -0.047554532735590814   -0.02480065345260451
-0.369721993202678   -0.047554532735590814   -0.02480065345260451
-0.3677631251361571   0.0018347808293448509   0.04431011187020194
-0.3677631251361571   0.0018347808293448509   0.04431011187020194
-0.3677631251361571   0.0018347808293448509   0.04431011187020194
-0.3677631251361571   0.0018347808293448509   0.04431011187020194
-0.3476643443734468   -0.05304246809844057   -0.014647060117072976
-0.3476643443734468   -0.05304246809844057   -0.014647060117072976
-0.3476643443734468   -0.05304246809844057   -0.014647060117072976
-0.3476643443734468   -0.05304246809844057   -0.014647060117072976
-0.3405980712380747   -0.01147257172145634   -0.014588858306335276
-0.3405980712380747   -0.01147257172145634   -0.014588858306335276
-0.3405980712380747   -0.01147257172145634   -0.014588858306335276
-0.3405980712380747   -0.01147257172145634   -0.014588858306335276
-0.6696005285056817   -0.06121446423060725   -0.06332518935304181
-0.6696005285056817   -0.06121446423060725   -0.06332518935304181
-0.6696005285056817   -0.06121446423060725   -0.06332518935304181
-0.6696005285056817   -0.06121446423060725   -0.06332518935304181
-0.42507794825693757   0.036172924188828906   0.014918784266907001
-0.42507794825693757   0.036172924188828906   0.014918784266907001
-0.42507794825693757   0.036172924188828906   0.014918784266907001
-0.42507794825693757   0.036172924188828906   0.014918784266907001
-0.44639612232603254   -0.028247727279449908   -0.028276881156245774
-0.44639612232603254   -0.028247727279449908   -0.028276881156245774
-0.44639612232603254   -0.028247727279449908   -0.028276881156245774
-0.44639612232603254   -0.028247727279449908   -0.028276881156245774
-0.7120472099384361   -0.08035648695172525   0.07090210114837968
-0.7120472099384361   -0.08035648695172525   0.07090210114837968
-0.7120472099384361   -0.08035648695172525   0.07090210114837968
-0.7120472099384361   -0.08035648695172525   0.07090210114837968
-0.5177934022657955   -0.019756358028307122   0.06879520758654652
-0.5177934022657955   -0.019756358028307122   0.06879520758654652
-0.5177934022657955   -0.019756358028307122   0.06879520758654652
-0.5177934022657955   -0.019756358028307122   0.06879520758654652
-0.7374574916950349   -0.09008815319939013   -0.046417641386944555
-0.7374574916950349   -0.09008815319939013   -0.046417641386944555
-0.7374574916950349   -0.09008815319939013   -0.046417641386944555
-0.7374574916950349   -0.09008815319939013   -0.046417641386944555
-0.43886081452780107   -0.03639103499015221   0.01754296554560988
-0.43886081452780107   -0.03639103499015221   0.01754296554560988
-0.43886081452780107   -0.03639103499015221   0.01754296554560988
-0.43886081452780107   -0.03639103499015221   0.01754296554560988
-0.45328703499252143   -0.04094630012355268   -0.020319303297747213
-0.45328703499252143   -0.04094630012355268   -0.020319303297747213
-0.45328703499252143   -0.04094630012355268   -0.020319303297747213
-0.45328703499252143   -0.04094630012355268   -0.020319303297747213
-0.7347719045648159   -0.11226336186758015   0.0017163991856076598
-0.7347719045648159   -0.11226336186758015   0.0017163991856076598
-0.7347719045648159   -0.11226336186758015   0.0017163991856076598
-0.7347719045648159   -0.11226336186758015   0.0017163991856076598
-0.573372266481154   -0.0677385217612625   0.015908048871822848
-0.573372266481154   -0.0677385217612625   0.015908048871822848
-0.573372266481154   -0.0677385217612625   0.015908048871822848
-0.573372266481154   -0.0677385217612625   0.015908048871822848
-0.7405032542260522   -0.10180535459028278   -0.03739835639786551
-0.7405032542260522   -0.10180535459028278   -0.03739835639786551
-0.7405032542260522   -0.10180535459028278   -0.03739835639786551
-0.7405032542260522   -0.10180535459028278   -0.03739835639786551
-0.4529665192025951   -0.05681514127216008   -0.0028478831995127508
-0.4529665192025951   -0.05681514127216008   -0.0028478831995127508
-0.4529665192025951   -0.05681514127216008   -0.0028478831995127508
-0.4529665192025951   -0.05681514127216008   -0.0028478831995127508
-0.4536295793546909   -0.07166904248384826   -0.014811952063022087
-0.4536295793546909   -0.07166904248384826   -0.014811952063022087
-0.4536295793546909   -0.07166904248384826   -0.014811952063022087
-0.4536295793546909   -0.07166904248384826   -0.014811952063022087
-0.7524305441977545   -0.17141695945851482   0.011200060717829051
-0.7524305441977545   -0.17141695945851482   0.011200060717829051
-0.7524305441977545   -0.17141695945851482   0.011200060717829051
-0.7524305441977545   -0.17141695945851482   0.011200060717829051
-0.5728001496124782   -0.09310605939725028   0.0012094637500030276
-0.5728001496124782   -0.09310605939725028   0.0012094637500030276
-0.5728001496124782   -0.09310605939725028   0.0012094637500030276
-0.5728001496124782   -0.09310605939725028   0.0012094637500030276
-0.45900923600318283   -0.07784564319975046   -0.04071908707573588
-0.45900923600318283   -0.07784564319975046   -0.04071908707573588
-0.45900923600318283   -0.07784564319975046   -0.04071908707573588
-0.45900923600318283   -0.07784564319975046   -0.04071908707573588
-0.31563883252778596   -0.20430625294228752   -0.03828895873493285
-0.31563883252778596   -0.20430625294228752   -0.03828895873493285
-0.31563883252778596   -0.20430625294228752   -0.03828895873493285
-0.31563883252778596   -0.20430625294228752   -0.03828895873493285
-0.2772257752225285   -0.045350059988956956   -0.002442331485559386
-0.2772257752225285   -0.045350059988956956   -0.002442331485559386
-0.2772257752225285   -0.045350059988956956   -0.002442331485559386
-0.2772257752225285   -0.045350059988956956   -0.002442331485559386
-0.4880619716086227   -0.216617708006212   -0.04823614684243819
-0.4880619716086227   -0.216617708006212   -0.04823614684243819
-0.4880619716086227   -0.216617708006212   -0.04823614684243819
-0.4880619716086227   -0.216617708006212   -0.04823614684243819
-0.3805236369788986   -0.14435635069569241   -0.011100287777757198
-0.3805236369788986   -0.14435635069569241   -0.011100287777757198
-0.3805236369788986   -0.14435635069569241   -0.011100287777757198
-0.3805236369788986   -0.14435635069569241   -0.011100287777757198
-0.45868163263262285   -0.08728599763966026   -0.030666162328988944
-0.45868163263262285   -0.08728599763966026   -0.030666162328988944
-0.45868163263262285   -0.08728599763966026   -0.030666162328988944
-0.45868163263262285   -0.08728599763966026   -0.030666162328988944
-0.30846425596806204   -0.17653991212504083   -0.027444883077143153
-0.30846425596806204   -0.17653991212504083   -0.027444883077143153
-0.30846425596806204   -0.17653991212504083   -0.027444883077143153
-0.30846425596806204   -0.17653991212504083   -0.027444883077143153
-0.28039725367161084   -0.05875617486170986   0.0004113048477798158
-0.28039725367161084   -0.05875617486170986   0.0004113048477798158
-0.28039725367161084   -0.05875617486170986   0.0004113048477798158
-0.28039725367161084   -0.05875617486170986   0.0004113048477798158
-0.489825276638356   -0.21548757647667213   -0.02846923517380509
-0.489825276638356   -0.21548757647667213   -0.02846923517380509
-0.489825276638356   -0.21548757647667213   -0.02846923517380509
-0.489825276638356   -0.21548757647667213   -0.02846923517380509
-0.3763103242506392   -0.13531276322534747   -0.011793562923197068
-0.3763103242506392   -0.13531276322534747   -0.011793562923197068
-0.3763103242506392   -0.13531276322534747   -0.011793562923197068
-0.3763103242506392   -0.13531276322534747   -0.011793562923197068
-0.46573524167369573   -0.10050613399759854   -0.02300050282957304
-0.46573524167369573   -0.10050613399759854   -0.02300050282957304
-0.46573524167369573   -0.10050613399759854   -0.02300050282957304
-0.46573524167369573   -0.10050613399759854   -0.02300050282957304
-0.3083382919905239   -0.1775886206950365   -0.020461440913459118
-0.3083382919905239   -0.1775886206950365   -0.020461440913459118
-0.3083382919905239   -0.1775886206950365   -0.020461440913459118
-0.3083382919905239   -0.1775886206950365   -0.020461440913459118
-0.28030837910797596   -0.0754487126780653   0.004490162784481982
-0.28030837910797596   -0.0754487126780653   0.004490162784481982
-0.28030837910797596   -0.0754487126780653   0.004490162784481982
-0.28030837910797596   -0.0754487126780653   0.004490162784481982
-0.4886229669899016   -0.2190264901836565   -0.04242144253927335
-0.4886229669899016   -0.2190264901836565   -0.04242144253927335
-0.4886229669899016   -0.2190264901836565   -0.04242144253927335
-0.4886229669899016   -0.2190264901836565   -0.04242144253927335
-0.38200444506792974   -0.14554264325578387   -0.021910169130395393
-0.38200444506792974   -0.14554264325578387   -0.021910169130395393
-0.38200444506792974   -0.14554264325578387   -0.021910169130395393
-0.38200444506792974   -0.14554264325578387   -0.021910169130395393
-0.277848264137554   -0.050121293712739386   -0.003521076013320943
-0.277848264137554   -0.050121293712739386   -0.003521076013320943
-0.277848264137554   -0.050121293712739386   -0.003521076013320943
-0.277848264137554   -0.050121293712739386   -0.003521076013320943
-0.23329104639690254   -0.1563655181694676   -0.026992431894057003
-0.23329104639690254   -0.1563655181694676   -0.026992431894057003
-0.23329104639690254   -0.1563655181694676   -0.026992431894057003
-0.23329104639690254   -0.1563655181694676   -0.026992431894057003
-0.20105728678312013   -0.041634176779847945   0.010727703426384017
-0.20105728678312013   -0.041634176779847945   0.010727703426384017
-0.20105728678312013   -0.041634176779847945   0.010727703426384017
-0.20105728678312013   -0.041634176779847945   0.010727703426384017
-0.30761463800902505   -0.16992819680356366   -0.029808508603436056
-0.30761463800902505   -0.16992819680356366   -0.029808508603436056
-0.30761463800902505   -0.16992819680356366   -0.029808508603436056
-0.30761463800902505   -0.16992819680356366   -0.029808508603436056
-0.25383255259987353   -0.10596490265737324   -0.01244948239880251
-0.25383255259987353   -0.10596490265737324   -0.01244948239880251
-0.25383255259987353   -0.10596490265737324   -0.01244948239880251
-0.25383255259987353   -0.10596490265737324   -0.01244948239880251
-0.27944318257348855   -0.05936065189088568   0.0004812236615690528
-0.27944318257348855   -0.05936065189088568   0.0004812236615690528
-0.27944318257348855   -0.05936065189088568   0.0004812236615690528
-0.27944318257348855   -0.05936065189088568   0.0004812236615690528
-0.23087709876819962   -0.1538500782420697   -0.02615545503679165
-0.23087709876819962   -0.1538500782420697   -0.02615545503679165
-0.23087709876819962   -0.1538500782420697   -0.02615545503679165
-0.23087709876819962   -0.1538500782420697   -0.02615545503679165
-0.2011349223939207   -0.052654214718128714   0.013904414488895657
-0.2011349223939207   -0.052654214718128714   0.013904414488895657
-0.2011349223939207   -0.052654214718128714   0.013904414488895657
-0.2011349223939207   -0.052654214718128714   0.013904414488895657
-0.3085897963074752   -0.17262131206102993   -0.026686271132223674
-0.3085897963074752   -0.17262131206102993   -0.026686271132223674
-0.3085897963074752   -0.17262131206102993   -0.026686271132223674
-0.3085897963074752   -0.17262131206102993   -0.026686271132223674
-0.25338440505964216   -0.1101086398609625   -0.016155642120650716
-0.25338440505964216   -0.1101086398609625   -0.016155642120650716
-0.25338440505964216   -0.1101086398609625   -0.016155642120650716
-0.25338440505964216   -0.1101086398609625   -0.016155642120650716
-0.28179990296409296   -0.07053309752101025   0.005174981044669518
-0.28179990296409296   -0.07053309752101025   0.005174981044669518
-0.28179990296409296   -0.07053309752101025   0.005174981044669518
-0.28179990296409296   -0.07053309752101025   0.005174981044669518
-0.22883147318118274   -0.15564908670202948   -0.02158346746351383
-0.22883147318118274   -0.15564908670202948   -0.02158346746351383
-0.22883147318118274   -0.15564908670202948   -0.02158346746351383
-0.22883147318118274   -0.15564908670202948   -0.02158346746351383
-0.1987735593382288   -0.06317357633469045   0.017364801152220718
-0.1987735593382288   -0.06317357633469045   0.017364801152220718
-0.1987735593382288   -0.06317357633469045   0.017364801152220718
-0.1987735593382288   -0.06317357633469045   0.017364801152220718
-0.3049231512025637   -0.17480976812471816   -0.019222642241803464
-0.3049231512025637   -0.17480976812471816   -0.019222642241803464
-0.3049231512025637   -0.17480976812471816   -0.019222642241803464
-0.3049231512025637   -0.17480976812471816   -0.019222642241803464
-0.25263319598313155   -0.11556977112692862   -0.018729609957523922
-0.25263319598313155   -0.11556977112692862   -0.018729609957523922
-0.25263319598313155   -0.11556977112692862   -0.018729609957523922
-0.25263319598313155   -0.11556977112692862   -0.018729609957523922
-0.1941953085906516   -0.006921829544264291   0.019042568511994516
-0.1941953085906516   -0.006921829544264291   0.019042568511994516
-0.1941953085906516   -0.006921829544264291   0.019042568511994516
-0.1941953085906516   -0.006921829544264291   0.019042568511994516
-0.1838481133861175   -0.08281709944201546   -0.016179401164288666
-0.1838481133861175   -0.08281709944201546   -0.016179401164288666
-0.1838481133861175   -0.08281709944201546   -0.016179401164288666
-0.1838481133861175   -0.08281709944201546   -0.016179401164288666
-0.15853027960887026   -0.011997090366672871   0.022048294822396355
-0.15853027960887026   -0.011997090366672871   0.022048294822396355
-0.15853027960887026   -0.011997090366672871   0.022048294822396355
-0.15853027960887026   -0.011997090366672871   0.022048294822396355
-0.21629739821739422   -0.0956553599171443   -0.011451670607690811
-0.21629739821739422   -0.0956553599171443   -0.011451670607690811
-0.21629739821739422   -0.0956553599171443   -0.011451670607690811
-0.21629739821739422   -0.0956553599171443   -0.011451670607690811
-0.1888441812423978   -0.04888820166749703   -0.0067549861546928845
-0.1888441812423978   -0.04888820166749703   -0.0067549861546928845
-0.1888441812423978   -0.04888820166749703   -0.0067549861546928845
-0.1888441812423978   -0.04888820166749703   -0.0067549861546928845
-0.19431733887438424   -0.01917125662184425   0.02196452281205981
-0.19431733887438424   -0.01917125662184425   0.02196452281205981
-0.19431733887438424   -0.01917125662184425   0.02196452281205981
-0.19431733887438424   -0.01917125662184425   0.02196452281205981
-0.1822662721563833   -0.09023712686647689   -0.01839163141536474
-0.1822662721563833   -0.09023712686647689   -0.01839163141536474
-0.1822662721563833   -0.09023712686647689   -0.01839163141536474
-0.1822662721563833   -0.09023712686647689   -0.01839163141536474
-0.158765731670794   -0.02268330934707727   0.02370101328576982
-0.158765731670794   -0.02268330934707727   0.02370101328576982
-0.158765731670794   -0.02268330934707727   0.02370101328576982
-0.158765731670794   -0.02268330934707727   0.02370101328576982
-0.2162331297093616   -0.10148682602485311   -0.012754010781580786
-0.2162331297093616   -0.10148682602485311   -0.012754010781580786
-0.2162331297093616   -0.10148682602485311   -0.012754010781580786
-0.2162331297093616   -0.10148682602485311   -0.012754010781580786
-0.18802322664450968   -0.057467966715285146   -0.011467428012777451
-0.18802322664450968   -0.057467966715285146   -0.011467428012777451
-0.18802322664450968   -0.057467966715285146   -0.011467428012777451
-0.18802322664450968   -0.057467966715285146   -0.011467428012777451
-0.19429332965987917   -0.0295311657615452   0.02498932920251984
-0.19429332965987917   -0.0295311657615452   0.02498932920251984
-0.19429332965987917   -0.0295311657615452   0.02498932920251984
-0.19429332965987917   -0.0295311657615452   0.02498932920251984
-0.18176894825022435   -0.09570238614033447   -0.018295992818124805
-0.18176894825022435   -0.09570238614033447   -0.018295992818124805
-0.18176894825022435   -0.09570238614033447   -0.018295992818124805
-0.18176894825022435   -0.09570238614033447   -0.018295992818124805
-0.15741432274045067   -0.032718617307798604   0.02746771436765462
-0.15741432274045067   -0.032718617307798604   0.02746771436765462
-0.15741432274045067   -0.032718617307798604   0.02746771436765462
-0.15741432274045067   -0.032718617307798604   0.02746771436765462
-0.21281802395002347   -0.10731678163714047   -0.008714316604304235
-0.21281802395002347   -0.10731678163714047   -0.008714316604304235
-0.21281802395002347   -0.10731678163714047   -0.008714316604304235
-0.21281802395002347   -0.10731678163714047   -0.008714316604304235
-0.18746429990019514   -0.06485071635070178   -0.014746342344905256
-0.18746429990019514   -0.06485071635070178   -0.014746342344905256
-0.18746429990019514   -0.06485071635070178   -0.014746342344905256
-0.18746429990019514   -0.06485071635070178   -0.014746342344905256
-0.15380434976704394   0.021524515520806278   0.02969780196825743
-0.15380434976704394   0.021524515520806278   0.02969780196825743
-0.15380434976704394   0.021524515520806278   0.02969780196825743
-0.15380434976704394   0.021524515520806278   0.02969780196825743
-0.10250599980601541   -0.027269486811234932   -0.009966382716563953
-0.10250599980601541   -0.027269486811234932   -0.009966382716563953
-0.10250599980601541   -0.027269486811234932   -0.009966382716563953
-0.10250599980601541   -0.027269486811234932   -0.009966382716563953
-0.08955775601797203   0.025232663887780244   0.029329051837794787
-0.08955775601797203   0.025232663887780244   0.029329051837794787
-0.08955775601797203   0.025232663887780244   0.029329051837794787
-0.08955775601797203   0.025232663887780244   0.029329051837794787
-0.1699090432899169   -0.04167870557738988   -0.005163908372123566
-0.1699090432899169   -0.04167870557738988   -0.005163908372123566
-0.1699090432899169   -0.04167870557738988   -0.005163908372123566
-0.1699090432899169   -0.04167870557738988   -0.005163908372123566
-0.12716148025952473   -0.0026730032621821026   -0.005346694553225837
-0.12716148025952473   -0.0026730032621821026   -0.005346694553225837
-0.12716148025952473   -0.0026730032621821026   -0.005346694553225837
-0.12716148025952473   -0.0026730032621821026   -0.005346694553225837
-0.15135912660747183   0.013489977745721669   0.03241699171699408
-0.15135912660747183   0.013489977745721669   0.03241699171699408
-0.15135912660747183   0.013489977745721669   0.03241699171699408
-0.15135912660747183   0.013489977745721669   0.03241699171699408
-0.10828828430899792   -0.030116631043911487   -0.008974294685650598
-0.10828828430899792   -0.030116631043911487   -0.008974294685650598
-0.10828828430899792   -0.030116631043911487   -0.008974294685650598
-0.10828828430899792   -0.030116631043911487   -0.008974294685650598
-0.09352986153576631   0.020023107749878533   0.03689541730781515
-0.09352986153576631   0.020023107749878533   0.03689541730781515
-0.09352986153576631   0.020023107749878533   0.03689541730781515
-0.09352986153576631   0.020023107749878533   0.03689541730781515
-0.16916314647877326   -0.04437149099554848   -0.006597879105657149
-0.16916314647877326   -0.04437149099554848   -0.006597879105657149
-0.16916314647877326   -0.04437149099554848   -0.006597879105657149
-0.16916314647877326   -0.04437149099554848   -0.006597879105657149
-0.13097371293333582   -0.0083614492739774   -0.007571931185795127
-0.13097371293333582   -0.0083614492739774   -0.007571931185795127
-0.13097371293333582   -0.0083614492739774   -0.007571931185795127
-0.13097371293333582   -0.0083614492739774   -0.007571931185795127
-0.14973133079482198   0.008868060083510449   0.03732164823504218
-0.14973133079482198   0.008868060083510449   0.03732164823504218
-0.14973133079482198   0.008868060083510449   0.03732164823504218
-0.14973133079482198   0.008868060083510449   0.03732164823504218
-0.11429207146010319   -0.034546837569567654   -0.012345686994423118
-0.11429207146010319   -0.034546837569567654   -0.012345686994423118
-0.11429207146010319   -0.034546837569567654   -0.012345686994423118
-0.11429207146010319   -0.034546837569567654   -0.012345686994423118
-0.10700335138917022   0.00569785293049201   0.03839355204331342
-0.10700335138917022   0.00569785293049201   0.03839355204331342
-0.10700335138917022   0.00569785293049201   0.03839355204331342
-0.10700335138917022   0.00569785293049201   0.03839355204331342
-0.16682934608692335   -0.04679868709592302   -0.005527332576582413
-0.16682934608692335   -0.04679868709592302   -0.005527332576582413
-0.16682934608692335   -0.04679868709592302   -0.005527332576582413
-0.16682934608692335   -0.04679868709592302   -0.005527332576582413
-0.13282158002968436   -0.012484395195975988   -0.01116080342215674
-0.13282158002968436   -0.012484395195975988   -0.01116080342215674
-0.13282158002968436   -0.012484395195975988   -0.01116080342215674
-0.13282158002968436   -0.012484395195975988   -0.01116080342215674
-1.5816910477893553   -0.22450471497638336   -0.13185631202673498
-1.5816910477893553   -0.22450471497638336   -0.13185631202673498
-1.5816910477893553   -0.22450471497638336   -0.13185631202673498
-1.5816910477893553   -0.22450471497638336   -0.13185631202673498
-0.5494357486239901   -0.8686847561810711   -0.10312638863520998
-0.5494357486239901   -0.8686847561810711   -0.10312638863520998
-0.5494357486239901   -0.8686847561810711   -0.10312638863520998
-0.5494357486239901   -0.8686847561810711   -0.10312638863520998
-0.4240325243181099   -0.036828451264536016   0.0005275939639996091
-0.4240325243181099   -0.036828451264536016   0.0005275939639996091
-0.4240325243181099   -0.036828451264536016   0.0005275939639996091
-0.4240325243181099   -0.036828451264536016   0.0005275939639996091
-1.6899839609664198   -1.0201619131963484   -0.5420291748325536
-1.6899839609664198   -1.0201619131963484   -0.5420291748325536
-1.6899839609664198   -1.0201619131963484   -0.5420291748325536
-1.6899839609664198   -1.0201619131963484   -0.5420291748325536
-1.034736932835437   -0.5073825335696758   -0.07394983841809806
-1.034736932835437   -0.5073825335696758   -0.07394983841809806
-1.034736932835437   -0.5073825335696758   -0.07394983841809806
-1.034736932835437   -0.5073825335696758   -0.07394983841809806
-1.469774162823382   -0.28192559768427916   -0.17921649962944505
-1.469774162823382   -0.28192559768427916   -0.17921649962944505
-1.469774162823382   -0.28192559768427916   -0.17921649962944505
-1.469774162823382   -0.28192559768427916   -0.17921649962944505
-0.5935090939234795   -0.7243315382389383   -0.15935216708844302
-0.5935090939234795   -0.7243315382389383   -0.15935216708844302
-0.5935090939234795   -0.7243315382389383   -0.15935216708844302
-0.5935090939234795   -0.7243315382389383   -0.15935216708844302
-0.4327383160916448   -0.04894873912905535   0.016255924405060615
-0.4327383160916448   -0.04894873912905535   0.016255924405060615
-0.4327383160916448   -0.04894873912905535   0.016255924405060615
-0.4327383160916448   -0.04894873912905535   0.016255924405060615
-1.5815419988767632   -0.9105292816645602   -0.4984142561082646
-1.5815419988767632   -0.9105292816645602   -0.4984142561082646
-1.5815419988767632   -0.9105292816645602   -0.4984142561082646
-1.5815419988767632   -0.9105292816645602   -0.4984142561082646
-0.9746765294087391   -0.4576924068966032   0.039320078969655364
-0.9746765294087391   -0.4576924068966032   0.039320078969655364
-0.9746765294087391   -0.4576924068966032   0.039320078969655364
-0.9746765294087391   -0.4576924068966032   0.039320078969655364
-1.3801932957309553   -0.2684424369555741   -0.13375758508822272
-1.3801932957309553   -0.2684424369555741   -0.13375758508822272
-1.3801932957309553   -0.2684424369555741   -0.13375758508822272
-1.3801932957309553   -0.2684424369555741   -0.13375758508822272
-0.5776972448633128   -0.6346458094639027   -0.12284164911842742
-0.5776972448633128   -0.6346458094639027   -0.12284164911842742
-0.5776972448633128   -0.6346458094639027   -0.12284164911842742
-0.5776972448633128   -0.6346458094639027   -0.12284164911842742
-0.49764096523306944   -0.12789896316601948   -0.025999536784379256
-0.49764096523306944   -0.12789896316601948   -0.025999536784379256
-0.49764096523306944   -0.12789896316601948   -0.025999536784379256
-0.49764096523306944   -0.12789896316601948   -0.025999536784379256
-1.4415195815298227   -0.7659334509463993   -0.4414906064952444
-1.4415195815298227   -0.7659334509463993   -0.4414906064952444
-1.4415195815298227   -0.7659334509463993   -0.4414906064952444
-1.4415195815298227   -0.7659334509463993   -0.4414906064952444
-0.9029397742063103   -0.39693210780088073   0.16732108370273457
-0.9029397742063103   -0.39693210780088073   0.16732108370273457
-0.9029397742063103   -0.39693210780088073   0.16732108370273457
-0.9029397742063103   -0.39693210780088073   0.16732108370273457
-0.4058652734033744   -0.22123791926088326   -0.03272084945232274
-0.4058652734033744   -0.22123791926088326   -0.03272084945232274
-0.4058652734033744   -0.22123791926088326   -0.03272084945232274
-0.4058652734033744   -0.22123791926088326   -0.03272084945232274
-0.18814415405974866   -0.27579094120045256   -0.046510302409875054
-0.18814415405974866   -0.27579094120045256   -0.046510302409875054
-0.18814415405974866   -0.27579094120045256   -0.046510302409875054
-0.18814415405974866   -0.27579094120045256   -0.046510302409875054
-0.16565118650117214   -0.14163995562965082   0.004241829932917142
-0.16565118650117214   -0.14163995562965082   0.004241829932917142
-0.16565118650117214   -0.14163995562965082   0.004241829932917142
-0.16565118650117214   -0.14163995562965082   0.004241829932917142
-0.49722473319388005   -0.40276222280534163   0.0005003211259579227
-0.49722473319388005   -0.40276222280534163   0.0005003211259579227
-0.49722473319388005   -0.40276222280534163   0.0005003211259579227
-0.49722473319388005   -0.40276222280534163   0.0005003211259579227
-0.2668545574261638   -0.1952003453581442   0.08567433012667748
-0.2668545574261638   -0.1952003453581442   0.08567433012667748
-0.2668545574261638   -0.1952003453581442   0.08567433012667748
-0.2668545574261638   -0.1952003453581442   0.08567433012667748
-0.46218171119411344   -0.20600315407577768   -0.021043637604777586
-0.46218171119411344   -0.20600315407577768   -0.021043637604777586
-0.46218171119411344   -0.20600315407577768   -0.021043637604777586
-0.46218171119411344   -0.20600315407577768   -0.021043637604777586
-0.21478207066790997   -0.3524868865261865   -0.03056566000423628
-0.21478207066790997   -0.3524868865261865   -0.03056566000423628
-0.21478207066790997   -0.3524868865261865   -0.03056566000423628
-0.21478207066790997   -0.3524868865261865   -0.03056566000423628
-0.17905817667449234   -0.14676192334148183   0.004391930538282712
-0.17905817667449234   -0.14676192334148183   0.004391930538282712
-0.17905817667449234   -0.14676192334148183   0.004391930538282712
-0.17905817667449234   -0.14676192334148183   0.004391930538282712
-0.5216907621537691   -0.3977773766232488   -0.07967766841136306
-0.5216907621537691   -0.3977773766232488   -0.07967766841136306
-0.5216907621537691   -0.3977773766232488   -0.07967766841136306
-0.5216907621537691   -0.3977773766232488   -0.07967766841136306
-0.3184683187723389   -0.2502429120380365   0.03898491262091401
-0.3184683187723389   -0.2502429120380365   0.03898491262091401
-0.3184683187723389   -0.2502429120380365   0.03898491262091401
-0.3184683187723389   -0.2502429120380365   0.03898491262091401
-0.4770886771683858   -0.21511277797454728   -0.039331842133148075
-0.4770886771683858   -0.21511277797454728   -0.039331842133148075
-0.4770886771683858   -0.21511277797454728   -0.039331842133148075
-0.4770886771683858   -0.21511277797454728   -0.039331842133148075
-0.22235331392609214   -0.32811957425640037   -0.03072610480479778
-0.22235331392609214   -0.32811957425640037   -0.03072610480479778
-0.22235331392609214   -0.32811957425640037   -0.03072610480479778
-0.22235331392609214   -0.32811957425640037   -0.03072610480479778
-0.19977722318824764   -0.15147849324819823   0.006472798336363925
-0.19977722318824764   -0.15147849324819823   0.006472798336363925
-0.19977722318824764   -0.15147849324819823   0.006472798336363925
-0.19977722318824764   -0.15147849324819823   0.006472798336363925
-0.5580490308588437   -0.3866299863787662   -0.06930884170050632
-0.5580490308588437   -0.3866299863787662   -0.06930884170050632
-0.5580490308588437   -0.3866299863787662   -0.06930884170050632
-0.5580490308588437   -0.3866299863787662   -0.06930884170050632
-0.3334032461421773   -0.235883658446932   0.04122228378597787
-0.3334032461421773   -0.235883658446932   0.04122228378597787
-0.3334032461421773   -0.235883658446932   0.04122228378597787
-0.3334032461421773   -0.235883658446932   0.04122228378597787
-0.14815121819525737   -0.13200531583991792   0.009668751552046804
-0.14815121819525737   -0.13200531583991792   0.009668751552046804
-0.14815121819525737   -0.13200531583991792   0.009668751552046804
-0.14815121819525737   -0.13200531583991792   0.009668751552046804
-0.09089225618931808   -0.08668151026394345   -0.022739105104766573
-0.09089225618931808   -0.08668151026394345   -0.022739105104766573
-0.09089225618931808   -0.08668151026394345   -0.022739105104766573
-0.09089225618931808   -0.08668151026394345   -0.022739105104766573
-0.08801090681931406   -0.11810250928527438   0.00971619779829934
-0.08801090681931406   -0.11810250928527438   0.00971619779829934
-0.08801090681931406   -0.11810250928527438   0.00971619779829934
-0.08801090681931406   -0.11810250928527438   0.00971619779829934
-0.16392196557824468   -0.11853695384051129   -0.010215067241585876
-0.16392196557824468   -0.11853695384051129   -0.010215067241585876
-0.16392196557824468   -0.11853695384051129   -0.010215067241585876
-0.16392196557824468   -0.11853695384051129   -0.010215067241585876
-0.1036144901494826   -0.095988943331454   0.04299186189668109
-0.1036144901494826   -0.095988943331454   0.04299186189668109
-0.1036144901494826   -0.095988943331454   0.04299186189668109
-0.1036144901494826   -0.095988943331454   0.04299186189668109
-0.16265940621858122   -0.13288607798462004   0.010446853700837172
-0.16265940621858122   -0.13288607798462004   0.010446853700837172
-0.16265940621858122   -0.13288607798462004   0.010446853700837172
-0.16265940621858122   -0.13288607798462004   0.010446853700837172
-0.09072187064697741   -0.10520178960916554   -0.016739341016126293
-0.09072187064697741   -0.10520178960916554   -0.016739341016126293
-0.09072187064697741   -0.10520178960916554   -0.016739341016126293
-0.09072187064697741   -0.10520178960916554   -0.016739341016126293
-0.08905847121156835   -0.12164805790709804   0.008648674541529025
-0.08905847121156835   -0.12164805790709804   0.008648674541529025
-0.08905847121156835   -0.12164805790709804   0.008648674541529025
-0.08905847121156835   -0.12164805790709804   0.008648674541529025
-0.1741517647866358   -0.13824642653430988   0.02040849317039393
-0.1741517647866358   -0.13824642653430988   0.02040849317039393
-0.1741517647866358   -0.13824642653430988   0.02040849317039393
-0.1741517647866358   -0.13824642653430988   0.02040849317039393
-0.11276845437269034   -0.10697628993767914   0.036356471688393316
-0.11276845437269034   -0.10697628993767914   0.036356471688393316
-0.11276845437269034   -0.10697628993767914   0.036356471688393316
-0.11276845437269034   -0.10697628993767914   0.036356471688393316
-0.17532746372356817   -0.13781239743959806   0.014095969391019855
-0.17532746372356817   -0.13781239743959806   0.014095969391019855
-0.17532746372356817   -0.13781239743959806   0.014095969391019855
-0.17532746372356817   -0.13781239743959806   0.014095969391019855
-0.095453941867929   -0.1296532565951015   -0.01532348005227088
-0.095453941867929   -0.1296532565951015   -0.01532348005227088
-0.095453941867929   -0.1296532565951015   -0.01532348005227088
-0.095453941867929   -0.1296532565951015   -0.01532348005227088
-0.09017738548774458   -0.12558401359403926   0.012160364696771949
-0.09017738548774458   -0.12558401359403926   0.012160364696771949
-0.09017738548774458   -0.12558401359403926   0.012160364696771949
-0.09017738548774458   -0.12558401359403926   0.012160364696771949
-0.20384423432800675   -0.1699503138139381   0.00460956320331183
-0.20384423432800675   -0.1699503138139381   0.00460956320331183
-0.20384423432800675   -0.1699503138139381   0.00460956320331183
-0.20384423432800675   -0.1699503138139381   0.00460956320331183
-0.12602442337076572   -0.12190828564082269   0.017090773480221106
-0.12602442337076572   -0.12190828564082269   0.017090773480221106
-0.12602442337076572   -0.12190828564082269   0.017090773480221106
-0.12602442337076572   -0.12190828564082269   0.017090773480221106
-0.07441812443750616   -0.05258767728447189   0.02553772067482142
-0.07441812443750616   -0.05258767728447189   0.02553772067482142
-0.07441812443750616   -0.05258767728447189   0.02553772067482142
-0.07441812443750616   -0.05258767728447189   0.02553772067482142
-0.0523952292481298   -0.0005158993209529936   -0.005119018355880716
-0.0523952292481298   -0.0005158993209529936   -0.005119018355880716
-0.0523952292481298   -0.0005158993209529936   -0.005119018355880716
-0.0523952292481298   -0.0005158993209529936   -0.005119018355880716
-0.049708544421525606   -0.05688007138856861   0.015835918239318986
-0.049708544421525606   -0.05688007138856861   0.015835918239318986
-0.049708544421525606   -0.05688007138856861   0.015835918239318986
-0.049708544421525606   -0.05688007138856861   0.015835918239318986
-0.06907080398551299   -0.010539403922296988   -0.0031463933956762634
-0.06907080398551299   -0.010539403922296988   -0.0031463933956762634
-0.06907080398551299   -0.010539403922296988   -0.0031463933956762634
-0.06907080398551299   -0.010539403922296988   -0.0031463933956762634
-0.05676136841321751   -0.028937810899757777   0.01266629104838608
-0.05676136841321751   -0.028937810899757777   0.01266629104838608
-0.05676136841321751   -0.028937810899757777   0.01266629104838608
-0.05676136841321751   -0.028937810899757777   0.01266629104838608
-0.07351392885403935   -0.05999051354587994   0.02408909188527844
-0.07351392885403935   -0.05999051354587994   0.02408909188527844
-0.07351392885403935   -0.05999051354587994   0.02408909188527844
-0.07351392885403935   -0.05999051354587994   0.02408909188527844
-0.04398072636847037   -0.006144268580456581   -0.006260794303516843
-0.04398072636847037   -0.006144268580456581   -0.006260794303516843
-0.04398072636847037   -0.006144268580456581   -0.006260794303516843
-0.04398072636847037   -0.006144268580456581   -0.006260794303516843
-0.045602151184828625   -0.0618876088887313   0.014611096374495269
-0.045602151184828625   -0.0618876088887313   0.014611096374495269
-0.045602151184828625   -0.0618876088887313   0.014611096374495269
-0.045602151184828625   -0.0618876088887313   0.014611096374495269
-0.0696401750093153   -0.020354381989619946   0.004446479635315286
-0.0696401750093153   -0.020354381989619946   0.004446479635315286
-0.0696401750093153   -0.020354381989619946   0.004446479635315286
-0.0696401750093153   -0.020354381989619946   0.004446479635315286
-0.05213963940931969   -0.03318381618654735   0.01505388352396131
-0.05213963940931969   -0.03318381618654735   0.01505388352396131
-0.05213963940931969   -0.03318381618654735   0.01505388352396131
-0.05213963940931969   -0.03318381618654735   0.01505388352396131
-0.07394753654648722   -0.06497320603666228   0.027528495996498793
-0.07394753654648722   -0.06497320603666228   0.027528495996498793
-0.07394753654648722   -0.06497320603666228   0.027528495996498793
-0.07394753654648722   -0.06497320603666228   0.027528495996498793
-0.04170408846868484   -0.017678083662716948   -0.01010811527080017
-0.04170408846868484   -0.017678083662716948   -0.01010811527080017
-0.04170408846868484   -0.017678083662716948   -0.01010811527080017
-0.04170408846868484   -0.017678083662716948   -0.01010811527080017
-0.03821140921709061   -0.06743895513164669   0.016068201190239516
-0.03821140921709061   -0.06743895513164669   0.016068201190239516
-0.03821140921709061   -0.06743895513164669   0.016068201190239516
-0.03821140921709061   -0.06743895513164669   0.016068201190239516
-0.07517260722359115   -0.0442193298100986   0.005819572233597267
-0.07517260722359115   -0.0442193298100986   0.005819572233597267
-0.07517260722359115   -0.0442193298100986   0.005819572233597267
-0.07517260722359115   -0.0442193298100986   0.005819572233597267
-0.050230192639345486   -0.041854483426071794   0.012964901552200911
-0.050230192639345486   -0.041854483426071794   0.012964901552200911
-0.050230192639345486   -0.041854483426071794   0.012964901552200911
-0.050230192639345486   -0.041854483426071794   0.012964901552200911
-0.047970653265676295   -0.009226290427307328   0.025714252662741167
-0.047970653265676295   -0.009226290427307328   0.025714252662741167
-0.047970653265676295   -0.009226290427307328   0.025714252662741167
-0.047970653265676295   -0.009226290427307328   0.025714252662741167
-0.008561480155575502   0.005515088409811257   -0.0005193772386091803
-0.008561480155575502   0.005515088409811257   -0.0005193772386091803
-0.008561480155575502   0.005515088409811257   -0.0005193772386091803
-0.008561480155575502   0.005515088409811257   -0.0005193772386091803
0.002624554088790792   -0.002954665981557053   0.015922692228332862
0.002624554088790792   -0.002954665981557053   0.015922692228332862
0.002624554088790792   -0.002954665981557053   0.015922692228332862
0.002624554088790792   -0.002954665981557053   0.015922692228332862
-0.041071156000699126   0.0040781773309066655   -0.0019353883760226298
-0.041071156000699126   0.0040781773309066655   -0.0019353883760226298
-0.041071156000699126   0.0040781773309066655   -0.0019353883760226298
-0.041071156000699126   0.0040781773309066655   -0.0019353883760226298
-0.024138095510281884   -0.0018303818169619949   -0.0019775160700897534
-0.024138095510281884   -0.0018303818169619949   -0.0019775160700897534
-0.024138095510281884   -0.0018303818169619949   -0.0019775160700897534
-0.024138095510281884   -0.0018303818169619949   -0.0019775160700897534
-0.03793164500624539   -0.00890197955066592   0.02674232347782503
-0.03793164500624539   -0.00890197955066592   0.02674232347782503
-0.03793164500624539   -0.00890197955066592   0.02674232347782503
-0.03793164500624539   -0.00890197955066592   0.02674232347782503
0.0009144091274834454   0.011454856933162933   -0.007037555492923859
0.0009144091274834454   0.011454856933162933   -0.007037555492923859
0.0009144091274834454   0.011454856933162933   -0.007037555492923859
0.0009144091274834454   0.011454856933162933   -0.007037555492923859
0.008243565406397237   -0.0036453046918133516   0.019626340527847987
0.008243565406397237   -0.0036453046918133516   0.019626340527847987
0.008243565406397237   -0.0036453046918133516   0.019626340527847987
0.008243565406397237   -0.0036453046918133516   0.019626340527847987
-0.036106116809184456   0.0030505650329626342   -0.0028469056689757904
-0.036106116809184456   0.0030505650329626342   -0.0028469056689757904
-0.036106116809184456   0.0030505650329626342   -0.0028469056689757904
-0.036106116809184456   0.0030505650329626342   -0.0028469056689757904
-0.015880703792650035   -0.0004573103547278281   0.0025214354255495347
-0.015880703792650035   -0.0004573103547278281   0.0025214354255495347
-0.015880703792650035   -0.0004573103547278281   0.0025214354255495347
-0.015880703792650035   -0.0004573103547278281   0.0025214354255495347
-0.03239122404072261   -0.009951588371290331   0.028729711577584367
-0.03239122404072261   -0.009951588371290331   0.028729711577584367
-0.03239122404072261   -0.009951588371290331   0.028729711577584367
-0.03239122404072261   -0.009951588371290331   0.028729711577584367
0.005809219130945174   0.010637395205447542   -0.006828090746680884
0.005809219130945174   0.010637395205447542   -0.006828090746680884
0.005809219130945174   0.010637395205447542   -0.006828090746680884
0.005809219130945174   0.010637395205447542   -0.006828090746680884
0.013953507527672139   -0.005723011035706622   0.019068194109904086
0.013953507527672139   -0.005723011035706622   0.019068194109904086
0.013953507527672139   -0.005723011035706622   0.019068194109904086
0.013953507527672139   -0.005723011035706622   0.019068194109904086
-0.02797584762736416   0.0030282536476792937   -0.003221199640456826
-0.02797584762736416   0.0030282536476792937   -0.003221199640456826
-0.02797584762736416   0.0030282536476792937   -0.003221199640456826
-0.02797584762736416   0.0030282536476792937   -0.003221199640456826
-0.008516593277066435   0.00037558710957003103   0.006465820708939651
-0.008516593277066435   0.00037558710957003103   0.006465820708939651
-0.008516593277066435   0.00037558710957003103   0.006465820708939651
-0.008516593277066435   0.00037558710957003103   0.006465820708939651
              </DataArray>   
             <DataArray type="Float64" NumberOfComponents="3" Name="Displacements" format="ascii">   
0.0   0.0   0.0
-0.004405735388641537   -0.0028923810056728665   -0.0014759884374643732
0.0   0.0   0.0
0.0   0.0   0.0
-0.004405735388641537   -0.0028923810056728665   -0.0014759884374643732
-0.002803366843305175   -0.0025996091908329472   -0.0010844378686966096
0.0   0.0   0.0
-0.0027478725150556454   -0.002729954154857297   -0.0009085514639417793
0.0   0.0   0.0
0.0   0.0   0.0
-0.0027478725150556454   -0.002729954154857297   -0.0009085514639417793
0.0   0.0   0.0
0.0   0.0   0.0
-0.0027478725150556454   -0.002729954154857297   -0.0009085514639417793
-0.004610745293984764   -0.003081329016039634   -0.001185049490167663
-0.004405735388641537   -0.0028923810056728665   -0.0014759884374643732
0.0   0.0   0.0
-0.0027478725150556454   -0.002729954154857297   -0.0009085514639417793
-0.004405735388641537   -0.0028923810056728665   -0.0014759884374643732
0.0   0.0   0.0
0.0   0.0   0.0
-0.004610745293984764   -0.003081329016039634   -0.001185049490167663
0.0   0.0   0.0
0.0   0.0   0.0
-0.004610745293984764   -0.003081329016039634   -0.001185049490167663
-0.0027478725150556454   -0.002729954154857297   -0.0009085514639417793
0.0   0.0   0.0
-0.0027555649031177705   -0.002796758471691185   -0.0007329249306886207
0.0   0.0   0.0
0.0   0.0   0.0
-0.0027555649031177705   -0.002796758471691185   -0.0007329249306886207
0.0   0.0   0.0
0.0   0.0   0.0
-0.0027555649031177705   -0.002796758471691185   -0.0007329249306886207
-0.004754695528894096   -0.0031732128617577983   -0.000906297101211271
-0.004610745293984764   -0.003081329016039634   -0.001185049490167663
0.0   0.0   0.0
-0.0027555649031177705   -0.002796758471691185   -0.0007329249306886207
-0.004610745293984764   -0.003081329016039634   -0.001185049490167663
0.0   0.0   0.0
0.0   0.0   0.0
-0.004754695528894096   -0.0031732128617577983   -0.000906297101211271
0.0   0.0   0.0
0.0   0.0   0.0
-0.004754695528894096   -0.0031732128617577983   -0.000906297101211271
-0.0027555649031177705   -0.002796758471691185   -0.0007329249306886207
0.0   0.0   0.0
-0.0027540521511830603   -0.0028139335206446682   -0.0005513328894105618
0.0   0.0   0.0
0.0   0.0   0.0
-0.0027540521511830603   -0.0028139335206446682   -0.0005513328894105618
0.0   0.0   0.0
0.0   0.0   0.0
-0.0027540521511830603   -0.0028139335206446682   -0.0005513328894105618
-0.005064860656327252   -0.0032428209075415545   -0.0005829127153731859
-0.004754695528894096   -0.0031732128617577983   -0.000906297101211271
0.0   0.0   0.0
-0.0027540521511830603   -0.0028139335206446682   -0.0005513328894105618
-0.004754695528894096   -0.0031732128617577983   -0.000906297101211271
0.0   0.0   0.0
0.0   0.0   0.0
-0.002803366843305175   -0.0025996091908329472   -0.0010844378686966096
0.0   0.0   0.0
0.0   0.0   0.0
-0.002803366843305175   -0.0025996091908329472   -0.0010844378686966096
-0.0012767344503460014   -0.00249224565826932   -0.0008248702840582592
0.0   0.0   0.0
-0.0012278894814983234   -0.0025770784245758216   -0.0007418291580788806
0.0   0.0   0.0
0.0   0.0   0.0
-0.0012278894814983234   -0.0025770784245758216   -0.0007418291580788806
0.0   0.0   0.0
0.0   0.0   0.0
-0.0012278894814983234   -0.0025770784245758216   -0.0007418291580788806
-0.0027478725150556454   -0.002729954154857297   -0.0009085514639417793
-0.002803366843305175   -0.0025996091908329472   -0.0010844378686966096
0.0   0.0   0.0
-0.0012278894814983234   -0.0025770784245758216   -0.0007418291580788806
-0.002803366843305175   -0.0025996091908329472   -0.0010844378686966096
0.0   0.0   0.0
0.0   0.0   0.0
-0.0027478725150556454   -0.002729954154857297   -0.0009085514639417793
0.0   0.0   0.0
0.0   0.0   0.0
-0.0027478725150556454   -0.002729954154857297   -0.0009085514639417793
-0.0012278894814983234   -0.0025770784245758216   -0.0007418291580788806
0.0   0.0   0.0
-0.0012004333025696825   -0.002609415903289813   -0.0006609630206729123
0.0   0.0   0.0
0.0   0.0   0.0
-0.0012004333025696825   -0.002609415903289813   -0.0006609630206729123
0.0   0.0   0.0
0.0   0.0   0.0
-0.0012004333025696825   -0.002609415903289813   -0.0006609630206729123
-0.0027555649031177705   -0.002796758471691185   -0.0007329249306886207
-0.0027478725150556454   -0.002729954154857297   -0.0009085514639417793
0.0   0.0   0.0
-0.0012004333025696825   -0.002609415903289813   -0.0006609630206729123
-0.0027478725150556454   -0.002729954154857297   -0.0009085514639417793
0.0   0.0   0.0
0.0   0.0   0.0
-0.0027555649031177705   -0.002796758471691185   -0.0007329249306886207
0.0   0.0   0.0
0.0   0.0   0.0
-0.0027555649031177705   -0.002796758471691185   -0.0007329249306886207
-0.0012004333025696825   -0.002609415903289813   -0.0006609630206729123
0.0   0.0   0.0
-0.001175422868681159   -0.002595930451236989   -0.0005773687986611882
0.0   0.0   0.0
0.0   0.0   0.0
-0.001175422868681159   -0.002595930451236989   -0.0005773687986611882
0.0   0.0   0.0
0.0   0.0   0.0
-0.001175422868681159   -0.002595930451236989   -0.0005773687986611882
-0.0027540521511830603   -0.0028139335206446682   -0.0005513328894105618
-0.0027555649031177705   -0.002796758471691185   -0.0007329249306886207
0.0   0.0   0.0
-0.001175422868681159   -0.002595930451236989   -0.0005773687986611882
-0.0027555649031177705   -0.002796758471691185   -0.0007329249306886207
0.0   0.0   0.0
0.0   0.0   0.0
-0.0012767344503460014   -0.00249224565826932   -0.0008248702840582592
0.0   0.0   0.0
0.0   0.0   0.0
-0.0012767344503460014   -0.00249224565826932   -0.0008248702840582592
0.00016559757602233974   -0.0025060107832014763   -0.0006594923615677734
0.0   0.0   0.0
0.0001968017075195945   -0.0025499712257230785   -0.0006709662280900816
0.0   0.0   0.0
0.0   0.0   0.0
0.0001968017075195945   -0.0025499712257230785   -0.0006709662280900816
0.0   0.0   0.0
0.0   0.0   0.0
0.0001968017075195945   -0.0025499712257230785   -0.0006709662280900816
-0.0012278894814983234   -0.0025770784245758216   -0.0007418291580788806
-0.0012767344503460014   -0.00249224565826932   -0.0008248702840582592
0.0   0.0   0.0
0.0001968017075195945   -0.0025499712257230785   -0.0006709662280900816
-0.0012767344503460014   -0.00249224565826932   -0.0008248702840582592
0.0   0.0   0.0
0.0   0.0   0.0
-0.0012278894814983234   -0.0025770784245758216   -0.0007418291580788806
0.0   0.0   0.0
0.0   0.0   0.0
-0.0012278894814983234   -0.0025770784245758216   -0.0007418291580788806
0.0001968017075195945   -0.0025499712257230785   -0.0006709662280900816
0.0   0.0   0.0
0.0002214375330454922   -0.0025463187224735117   -0.000681336023386142
0.0   0.0   0.0
0.0   0.0   0.0
0.0002214375330454922   -0.0025463187224735117   -0.000681336023386142
0.0   0.0   0.0
0.0   0.0   0.0
0.0002214375330454922   -0.0025463187224735117   -0.000681336023386142
-0.0012004333025696825   -0.002609415903289813   -0.0006609630206729123
-0.0012278894814983234   -0.0025770784245758216   -0.0007418291580788806
0.0   0.0   0.0
0.0002214375330454922   -0.0025463187224735117   -0.000681336023386142
-0.0012278894814983234   -0.0025770784245758216   -0.0007418291580788806
0.0   0.0   0.0
0.0   0.0   0.0
-0.0012004333025696825   -0.002609415903289813   -0.0006609630206729123
0.0   0.0   0.0
0.0   0.0   0.0
-0.0012004333025696825   -0.002609415903289813   -0.0006609630206729123
0.0002214375330454922   -0.0025463187224735117   -0.000681336023386142
0.0   0.0   0.0
0.0002545661997387967   -0.002491149735801764   -0.0006920005248113955
0.0   0.0   0.0
0.0   0.0   0.0
0.0002545661997387967   -0.002491149735801764   -0.0006920005248113955
0.0   0.0   0.0
0.0   0.0   0.0
0.0002545661997387967   -0.002491149735801764   -0.0006920005248113955
-0.001175422868681159   -0.002595930451236989   -0.0005773687986611882
-0.0012004333025696825   -0.002609415903289813   -0.0006609630206729123
0.0   0.0   0.0
0.0002545661997387967   -0.002491149735801764   -0.0006920005248113955
-0.0012004333025696825   -0.002609415903289813   -0.0006609630206729123
0.0   0.0   0.0
0.0   0.0   0.0
0.00016559757602233974   -0.0025060107832014763   -0.0006594923615677734
0.0   0.0   0.0
0.0   0.0   0.0
0.00016559757602233974   -0.0025060107832014763   -0.0006594923615677734
0.0017312757451772697   -0.0026278475406236452   -0.0005777428512299784
0.0   0.0   0.0
0.00173439951339928   -0.0026418103612122074   -0.0006886681745356455
0.0   0.0   0.0
0.0   0.0   0.0
0.00173439951339928   -0.0026418103612122074   -0.0006886681745356455
0.0   0.0   0.0
0.0   0.0   0.0
0.00173439951339928   -0.0026418103612122074   -0.0006886681745356455
0.0001968017075195945   -0.0025499712257230785   -0.0006709662280900816
0.00016559757602233974   -0.0025060107832014763   -0.0006594923615677734
0.0   0.0   0.0
0.00173439951339928   -0.0026418103612122074   -0.0006886681745356455
0.00016559757602233974   -0.0025060107832014763   -0.0006594923615677734
0.0   0.0   0.0
0.0   0.0   0.0
0.0001968017075195945   -0.0025499712257230785   -0.0006709662280900816
0.0   0.0   0.0
0.0   0.0   0.0
0.0001968017075195945   -0.0025499712257230785   -0.0006709662280900816
0.00173439951339928   -0.0026418103612122074   -0.0006886681745356455
0.0   0.0   0.0
0.0017270103434989749   -0.002604086631024619   -0.0007950931852818272
0.0   0.0   0.0
0.0   0.0   0.0
0.0017270103434989749   -0.002604086631024619   -0.0007950931852818272
0.0   0.0   0.0
0.0   0.0   0.0
0.0017270103434989749   -0.002604086631024619   -0.0007950931852818272
0.0002214375330454922   -0.0025463187224735117   -0.000681336023386142
0.0001968017075195945   -0.0025499712257230785   -0.0006709662280900816
0.0   0.0   0.0
0.0017270103434989749   -0.002604086631024619   -0.0007950931852818272
0.0001968017075195945   -0.0025499712257230785   -0.0006709662280900816
0.0   0.0   0.0
0.0   0.0   0.0
0.0002214375330454922   -0.0025463187224735117   -0.000681336023386142
0.0   0.0   0.0
0.0   0.0   0.0
0.0002214375330454922   -0.0025463187224735117   -0.000681336023386142
0.0017270103434989749   -0.002604086631024619   -0.0007950931852818272
0.0   0.0   0.0
0.0017604948222538824   -0.0025031349492000707   -0.0008995013175316211
0.0   0.0   0.0
0.0   0.0   0.0
0.0017604948222538824   -0.0025031349492000707   -0.0008995013175316211
0.0   0.0   0.0
0.0   0.0   0.0
0.0017604948222538824   -0.0025031349492000707   -0.0008995013175316211
0.0002545661997387967   -0.002491149735801764   -0.0006920005248113955
0.0002214375330454922   -0.0025463187224735117   -0.000681336023386142
0.0   0.0   0.0
0.0017604948222538824   -0.0025031349492000707   -0.0008995013175316211
0.0002214375330454922   -0.0025463187224735117   -0.000681336023386142
0.0   0.0   0.0
0.0   0.0   0.0
0.0017312757451772697   -0.0026278475406236452   -0.0005777428512299784
0.0   0.0   0.0
0.0   0.0   0.0
0.0017312757451772697   -0.0026278475406236452   -0.0005777428512299784
0.003908841569843215   -0.0029367214306789753   -0.0005452314576937852
0.0   0.0   0.0
0.0036710918380027974   -0.0029045985456673923   -0.0007967532701712228
0.0   0.0   0.0
0.0   0.0   0.0
0.0036710918380027974   -0.0029045985456673923   -0.0007967532701712228
0.0   0.0   0.0
0.0   0.0   0.0
0.0036710918380027974   -0.0029045985456673923   -0.0007967532701712228
0.00173439951339928   -0.0026418103612122074   -0.0006886681745356455
0.0017312757451772697   -0.0026278475406236452   -0.0005777428512299784
0.0   0.0   0.0
0.0036710918380027974   -0.0029045985456673923   -0.0007967532701712228
0.0017312757451772697   -0.0026278475406236452   -0.0005777428512299784
0.0   0.0   0.0
0.0   0.0   0.0
0.00173439951339928   -0.0026418103612122074   -0.0006886681745356455
0.0   0.0   0.0
0.0   0.0   0.0
0.00173439951339928   -0.0026418103612122074   -0.0006886681745356455
0.0036710918380027974   -0.0029045985456673923   -0.0007967532701712228
0.0   0.0   0.0
0.0035614735515205214   -0.0028442107799779865   -0.001009456961613724
0.0   0.0   0.0
0.0   0.0   0.0
0.0035614735515205214   -0.0028442107799779865   -0.001009456961613724
0.0   0.0   0.0
0.0   0.0   0.0
0.0035614735515205214   -0.0028442107799779865   -0.001009456961613724
0.0017270103434989749   -0.002604086631024619   -0.0007950931852818272
0.00173439951339928   -0.0026418103612122074   -0.0006886681745356455
0.0   0.0   0.0
0.0035614735515205214   -0.0028442107799779865   -0.001009456961613724
0.00173439951339928   -0.0026418103612122074   -0.0006886681745356455
0.0   0.0   0.0
0.0   0.0   0.0
0.0017270103434989749   -0.002604086631024619   -0.0007950931852818272
0.0   0.0   0.0
0.0   0.0   0.0
0.0017270103434989749   -0.002604086631024619   -0.0007950931852818272
0.0035614735515205214   -0.0028442107799779865   -0.001009456961613724
0.0   0.0   0.0
0.0033982554894507852   -0.00268974836247808   -0.0012345653532352821
0.0   0.0   0.0
0.0   0.0   0.0
0.0033982554894507852   -0.00268974836247808   -0.0012345653532352821
0.0   0.0   0.0
0.0   0.0   0.0
0.0033982554894507852   -0.00268974836247808   -0.0012345653532352821
0.0017604948222538824   -0.0025031349492000707   -0.0008995013175316211
0.0017270103434989749   -0.002604086631024619   -0.0007950931852818272
0.0   0.0   0.0
0.0033982554894507852   -0.00268974836247808   -0.0012345653532352821
0.0017270103434989749   -0.002604086631024619   -0.0007950931852818272
0.0   0.0   0.0
-0.004405735388641537   -0.0028923810056728665   -0.0014759884374643732
-0.008227678802220813   -0.008071275122061149   -0.0019886077380303975
-0.002803366843305175   -0.0025996091908329472   -0.0010844378686966096
-0.004610745293984764   -0.003081329016039634   -0.001185049490167663
-0.008227678802220813   -0.008071275122061149   -0.0019886077380303975
-0.005251349594143111   -0.007808014360534898   -0.0016369906820563123
-0.002803366843305175   -0.0025996091908329472   -0.0010844378686966096
-0.005257425653543324   -0.007941350457979442   -0.0014743482817101729
-0.004610745293984764   -0.003081329016039634   -0.001185049490167663
-0.0027478725150556454   -0.002729954154857297   -0.0009085514639417793
-0.005257425653543324   -0.007941350457979442   -0.0014743482817101729
-0.002803366843305175   -0.0025996091908329472   -0.0010844378686966096
-0.004610745293984764   -0.003081329016039634   -0.001185049490167663
-0.005257425653543324   -0.007941350457979442   -0.0014743482817101729
-0.008474015793542181   -0.008257344971834195   -0.0017245219196047048
-0.008227678802220813   -0.008071275122061149   -0.0019886077380303975
-0.004610745293984764   -0.003081329016039634   -0.001185049490167663
-0.005257425653543324   -0.007941350457979442   -0.0014743482817101729
-0.008227678802220813   -0.008071275122061149   -0.0019886077380303975
-0.002803366843305175   -0.0025996091908329472   -0.0010844378686966096
-0.004610745293984764   -0.003081329016039634   -0.001185049490167663
-0.008474015793542181   -0.008257344971834195   -0.0017245219196047048
-0.0027478725150556454   -0.002729954154857297   -0.0009085514639417793
-0.004754695528894096   -0.0031732128617577983   -0.000906297101211271
-0.008474015793542181   -0.008257344971834195   -0.0017245219196047048
-0.005257425653543324   -0.007941350457979442   -0.0014743482817101729
-0.0027478725150556454   -0.002729954154857297   -0.0009085514639417793
-0.005277993929079245   -0.008022645338644503   -0.001318064060999205
-0.004754695528894096   -0.0031732128617577983   -0.000906297101211271
-0.0027555649031177705   -0.002796758471691185   -0.0007329249306886207
-0.005277993929079245   -0.008022645338644503   -0.001318064060999205
-0.0027478725150556454   -0.002729954154857297   -0.0009085514639417793
-0.004754695528894096   -0.0031732128617577983   -0.000906297101211271
-0.005277993929079245   -0.008022645338644503   -0.001318064060999205
-0.008645114803276222   -0.00836244088353039   -0.0014659484860310317
-0.008474015793542181   -0.008257344971834195   -0.0017245219196047048
-0.004754695528894096   -0.0031732128617577983   -0.000906297101211271
-0.005277993929079245   -0.008022645338644503   -0.001318064060999205
-0.008474015793542181   -0.008257344971834195   -0.0017245219196047048
-0.0027478725150556454   -0.002729954154857297   -0.0009085514639417793
-0.004754695528894096   -0.0031732128617577983   -0.000906297101211271
-0.008645114803276222   -0.00836244088353039   -0.0014659484860310317
-0.0027555649031177705   -0.002796758471691185   -0.0007329249306886207
-0.005064860656327252   -0.0032428209075415545   -0.0005829127153731859
-0.008645114803276222   -0.00836244088353039   -0.0014659484860310317
-0.005277993929079245   -0.008022645338644503   -0.001318064060999205
-0.0027555649031177705   -0.002796758471691185   -0.0007329249306886207
-0.005262126620083693   -0.008064852130673246   -0.0011717851589351325
-0.005064860656327252   -0.0032428209075415545   -0.0005829127153731859
-0.0027540521511830603   -0.0028139335206446682   -0.0005513328894105618
-0.005262126620083693   -0.008064852130673246   -0.0011717851589351325
-0.0027555649031177705   -0.002796758471691185   -0.0007329249306886207
-0.005064860656327252   -0.0032428209075415545   -0.0005829127153731859
-0.005262126620083693   -0.008064852130673246   -0.0011717851589351325
-0.008847341154503863   -0.00842358524313534   -0.001230713537204389
-0.008645114803276222   -0.00836244088353039   -0.0014659484860310317
-0.005064860656327252   -0.0032428209075415545   -0.0005829127153731859
-0.005262126620083693   -0.008064852130673246   -0.0011717851589351325
-0.008645114803276222   -0.00836244088353039   -0.0014659484860310317
-0.0027555649031177705   -0.002796758471691185   -0.0007329249306886207
-0.002803366843305175   -0.0025996091908329472   -0.0010844378686966096
-0.005251349594143111   -0.007808014360534898   -0.0016369906820563123
-0.0012767344503460014   -0.00249224565826932   -0.0008248702840582592
-0.0027478725150556454   -0.002729954154857297   -0.0009085514639417793
-0.005251349594143111   -0.007808014360534898   -0.0016369906820563123
-0.0024368330823752535   -0.007685514323015754   -0.0013969790743291542
-0.0012767344503460014   -0.00249224565826932   -0.0008248702840582592
-0.002415681761546954   -0.007770358822222364   -0.001313621323177528
-0.0027478725150556454   -0.002729954154857297   -0.0009085514639417793
-0.0012278894814983234   -0.0025770784245758216   -0.0007418291580788806
-0.002415681761546954   -0.007770358822222364   -0.001313621323177528
-0.0012767344503460014   -0.00249224565826932   -0.0008248702840582592
-0.0027478725150556454   -0.002729954154857297   -0.0009085514639417793
-0.002415681761546954   -0.007770358822222364   -0.001313621323177528
-0.005257425653543324   -0.007941350457979442   -0.0014743482817101729
-0.005251349594143111   -0.007808014360534898   -0.0016369906820563123
-0.0027478725150556454   -0.002729954154857297   -0.0009085514639417793
-0.002415681761546954   -0.007770358822222364   -0.001313621323177528
-0.005251349594143111   -0.007808014360534898   -0.0016369906820563123
-0.0012767344503460014   -0.00249224565826932   -0.0008248702840582592
-0.0027478725150556454   -0.002729954154857297   -0.0009085514639417793
-0.005257425653543324   -0.007941350457979442   -0.0014743482817101729
-0.0012278894814983234   -0.0025770784245758216   -0.0007418291580788806
-0.0027555649031177705   -0.002796758471691185   -0.0007329249306886207
-0.005257425653543324   -0.007941350457979442   -0.0014743482817101729
-0.002415681761546954   -0.007770358822222364   -0.001313621323177528
-0.0012278894814983234   -0.0025770784245758216   -0.0007418291580788806
-0.0023969238649021573   -0.00781151322819978   -0.0012380616754663486
-0.0027555649031177705   -0.002796758471691185   -0.0007329249306886207
-0.0012004333025696825   -0.002609415903289813   -0.0006609630206729123
-0.0023969238649021573   -0.00781151322819978   -0.0012380616754663486
-0.0012278894814983234   -0.0025770784245758216   -0.0007418291580788806
-0.0027555649031177705   -0.002796758471691185   -0.0007329249306886207
-0.0023969238649021573   -0.00781151322819978   -0.0012380616754663486
-0.005277993929079245   -0.008022645338644503   -0.001318064060999205
-0.005257425653543324   -0.007941350457979442   -0.0014743482817101729
-0.0027555649031177705   -0.002796758471691185   -0.0007329249306886207
-0.0023969238649021573   -0.00781151322819978   -0.0012380616754663486
-0.005257425653543324   -0.007941350457979442   -0.0014743482817101729
-0.0012278894814983234   -0.0025770784245758216   -0.0007418291580788806
-0.0027555649031177705   -0.002796758471691185   -0.0007329249306886207
-0.005277993929079245   -0.008022645338644503   -0.001318064060999205
-0.0012004333025696825   -0.002609415903289813   -0.0006609630206729123
-0.0027540521511830603   -0.0028139335206446682   -0.0005513328894105618
-0.005277993929079245   -0.008022645338644503   -0.001318064060999205
-0.0023969238649021573   -0.00781151322819978   -0.0012380616754663486
-0.0012004333025696825   -0.002609415903289813   -0.0006609630206729123
-0.002368991162468444   -0.007810528507064376   -0.0011722849617198199
-0.0027540521511830603   -0.0028139335206446682   -0.0005513328894105618
-0.001175422868681159   -0.002595930451236989   -0.0005773687986611882
-0.002368991162468444   -0.007810528507064376   -0.0011722849617198199
-0.0012004333025696825   -0.002609415903289813   -0.0006609630206729123
-0.0027540521511830603   -0.0028139335206446682   -0.0005513328894105618
-0.002368991162468444   -0.007810528507064376   -0.0011722849617198199
-0.005262126620083693   -0.008064852130673246   -0.0011717851589351325
-0.005277993929079245   -0.008022645338644503   -0.001318064060999205
-0.0027540521511830603   -0.0028139335206446682   -0.0005513328894105618
-0.002368991162468444   -0.007810528507064376   -0.0011722849617198199
-0.005277993929079245   -0.008022645338644503   -0.001318064060999205
-0.0012004333025696825   -0.002609415903289813   -0.0006609630206729123
-0.0012767344503460014   -0.00249224565826932   -0.0008248702840582592
-0.0024368330823752535   -0.007685514323015754   -0.0013969790743291542
0.00016559757602233974   -0.0025060107832014763   -0.0006594923615677734
-0.0012278894814983234   -0.0025770784245758216   -0.0007418291580788806
-0.0024368330823752535   -0.007685514323015754   -0.0013969790743291542
0.0002771333140700984   -0.007689169292154706   -0.00124528085374938
0.00016559757602233974   -0.0025060107832014763   -0.0006594923615677734
0.0003031090060292896   -0.007729334625277142   -0.0012397376804333079
-0.0012278894814983234   -0.0025770784245758216   -0.0007418291580788806
0.0001968017075195945   -0.0025499712257230785   -0.0006709662280900816
0.0003031090060292896   -0.007729334625277142   -0.0012397376804333079
0.00016559757602233974   -0.0025060107832014763   -0.0006594923615677734
-0.0012278894814983234   -0.0025770784245758216   -0.0007418291580788806
0.0003031090060292896   -0.007729334625277142   -0.0012397376804333079
-0.002415681761546954   -0.007770358822222364   -0.001313621323177528
-0.0024368330823752535   -0.007685514323015754   -0.0013969790743291542
-0.0012278894814983234   -0.0025770784245758216   -0.0007418291580788806
0.0003031090060292896   -0.007729334625277142   -0.0012397376804333079
-0.0024368330823752535   -0.007685514323015754   -0.0013969790743291542
0.00016559757602233974   -0.0025060107832014763   -0.0006594923615677734
-0.0012278894814983234   -0.0025770784245758216   -0.0007418291580788806
-0.002415681761546954   -0.007770358822222364   -0.001313621323177528
0.0001968017075195945   -0.0025499712257230785   -0.0006709662280900816
-0.0012004333025696825   -0.002609415903289813   -0.0006609630206729123
-0.002415681761546954   -0.007770358822222364   -0.001313621323177528
0.0003031090060292896   -0.007729334625277142   -0.0012397376804333079
0.0001968017075195945   -0.0025499712257230785   -0.0006709662280900816
0.0003206274615732344   -0.007726833590227398   -0.0012430447422452316
-0.0012004333025696825   -0.002609415903289813   -0.0006609630206729123
0.0002214375330454922   -0.0025463187224735117   -0.000681336023386142
0.0003206274615732344   -0.007726833590227398   -0.0012430447422452316
0.0001968017075195945   -0.0025499712257230785   -0.0006709662280900816
-0.0012004333025696825   -0.002609415903289813   -0.0006609630206729123
0.0003206274615732344   -0.007726833590227398   -0.0012430447422452316
-0.0023969238649021573   -0.00781151322819978   -0.0012380616754663486
-0.002415681761546954   -0.007770358822222364   -0.001313621323177528
-0.0012004333025696825   -0.002609415903289813   -0.0006609630206729123
0.0003206274615732344   -0.007726833590227398   -0.0012430447422452316
-0.002415681761546954   -0.007770358822222364   -0.001313621323177528
0.0001968017075195945   -0.0025499712257230785   -0.0006709662280900816
-0.0012004333025696825   -0.002609415903289813   -0.0006609630206729123
-0.0023969238649021573   -0.00781151322819978   -0.0012380616754663486
0.0002214375330454922   -0.0025463187224735117   -0.000681336023386142
-0.001175422868681159   -0.002595930451236989   -0.0005773687986611882
-0.0023969238649021573   -0.00781151322819978   -0.0012380616754663486
0.0003206274615732344   -0.007726833590227398   -0.0012430447422452316
0.0002214375330454922   -0.0025463187224735117   -0.000681336023386142
0.000339412621294577   -0.007680364833917291   -0.0012553418195794298
-0.001175422868681159   -0.002595930451236989   -0.0005773687986611882
0.0002545661997387967   -0.002491149735801764   -0.0006920005248113955
0.000339412621294577   -0.007680364833917291   -0.0012553418195794298
0.0002214375330454922   -0.0025463187224735117   -0.000681336023386142
-0.001175422868681159   -0.002595930451236989   -0.0005773687986611882
0.000339412621294577   -0.007680364833917291   -0.0012553418195794298
-0.002368991162468444   -0.007810528507064376   -0.0011722849617198199
-0.0023969238649021573   -0.00781151322819978   -0.0012380616754663486
-0.001175422868681159   -0.002595930451236989   -0.0005773687986611882
0.000339412621294577   -0.007680364833917291   -0.0012553418195794298
-0.0023969238649021573   -0.00781151322819978   -0.0012380616754663486
0.0002214375330454922   -0.0025463187224735117   -0.000681336023386142
0.00016559757602233974   -0.0025060107832014763   -0.0006594923615677734
0.0002771333140700984   -0.007689169292154706   -0.00124528085374938
0.0017312757451772697   -0.0026278475406236452   -0.0005777428512299784
0.0001968017075195945   -0.0025499712257230785   -0.0006709662280900816
0.0002771333140700984   -0.007689169292154706   -0.00124528085374938
0.0031532490559523   -0.007814428103407847   -0.0011745900376770634
0.0017312757451772697   -0.0026278475406236452   -0.0005777428512299784
0.0031680330760530495   -0.007813992943277089   -0.0012493839472165753
0.0001968017075195945   -0.0025499712257230785   -0.0006709662280900816
0.00173439951339928   -0.0026418103612122074   -0.0006886681745356455
0.0031680330760530495   -0.007813992943277089   -0.0012493839472165753
0.0017312757451772697   -0.0026278475406236452   -0.0005777428512299784
0.0001968017075195945   -0.0025499712257230785   -0.0006709662280900816
0.0031680330760530495   -0.007813992943277089   -0.0012493839472165753
0.0003031090060292896   -0.007729334625277142   -0.0012397376804333079
0.0002771333140700984   -0.007689169292154706   -0.00124528085374938
0.0001968017075195945   -0.0025499712257230785   -0.0006709662280900816
0.0031680330760530495   -0.007813992943277089   -0.0012493839472165753
0.0002771333140700984   -0.007689169292154706   -0.00124528085374938
0.0017312757451772697   -0.0026278475406236452   -0.0005777428512299784
0.0001968017075195945   -0.0025499712257230785   -0.0006709662280900816
0.0003031090060292896   -0.007729334625277142   -0.0012397376804333079
0.00173439951339928   -0.0026418103612122074   -0.0006886681745356455
0.0002214375330454922   -0.0025463187224735117   -0.000681336023386142
0.0003031090060292896   -0.007729334625277142   -0.0012397376804333079
0.0031680330760530495   -0.007813992943277089   -0.0012493839472165753
0.00173439951339928   -0.0026418103612122074   -0.0006886681745356455
0.0031535615400469616   -0.0077717248783252925   -0.0013341908097924506
0.0002214375330454922   -0.0025463187224735117   -0.000681336023386142
0.0017270103434989749   -0.002604086631024619   -0.0007950931852818272
0.0031535615400469616   -0.0077717248783252925   -0.0013341908097924506
0.00173439951339928   -0.0026418103612122074   -0.0006886681745356455
0.0002214375330454922   -0.0025463187224735117   -0.000681336023386142
0.0031535615400469616   -0.0077717248783252925   -0.0013341908097924506
0.0003206274615732344   -0.007726833590227398   -0.0012430447422452316
0.0003031090060292896   -0.007729334625277142   -0.0012397376804333079
0.0002214375330454922   -0.0025463187224735117   -0.000681336023386142
0.0031535615400469616   -0.0077717248783252925   -0.0013341908097924506
0.0003031090060292896   -0.007729334625277142   -0.0012397376804333079
0.00173439951339928   -0.0026418103612122074   -0.0006886681745356455
0.0002214375330454922   -0.0025463187224735117   -0.000681336023386142
0.0003206274615732344   -0.007726833590227398   -0.0012430447422452316
0.0017270103434989749   -0.002604086631024619   -0.0007950931852818272
0.0002545661997387967   -0.002491149735801764   -0.0006920005248113955
0.0003206274615732344   -0.007726833590227398   -0.0012430447422452316
0.0031535615400469616   -0.0077717248783252925   -0.0013341908097924506
0.0017270103434989749   -0.002604086631024619   -0.0007950931852818272
0.0031453293497052033   -0.007676073146513116   -0.001425872335586006
0.0002545661997387967   -0.002491149735801764   -0.0006920005248113955
0.0017604948222538824   -0.0025031349492000707   -0.0008995013175316211
0.0031453293497052033   -0.007676073146513116   -0.001425872335586006
0.0017270103434989749   -0.002604086631024619   -0.0007950931852818272
0.0002545661997387967   -0.002491149735801764   -0.0006920005248113955
0.0031453293497052033   -0.007676073146513116   -0.001425872335586006
0.000339412621294577   -0.007680364833917291   -0.0012553418195794298
0.0003206274615732344   -0.007726833590227398   -0.0012430447422452316
0.0002545661997387967   -0.002491149735801764   -0.0006920005248113955
0.0031453293497052033   -0.007676073146513116   -0.001425872335586006
0.0003206274615732344   -0.007726833590227398   -0.0012430447422452316
0.0017270103434989749   -0.002604086631024619   -0.0007950931852818272
0.0017312757451772697   -0.0026278475406236452   -0.0005777428512299784
0.0031532490559523   -0.007814428103407847   -0.0011745900376770634
0.003908841569843215   -0.0029367214306789753   -0.0005452314576937852
0.00173439951339928   -0.0026418103612122074   -0.0006886681745356455
0.0031532490559523   -0.007814428103407847   -0.0011745900376770634
0.006624119129272965   -0.008047223290468005   -0.0011557366751850328
0.003908841569843215   -0.0029367214306789753   -0.0005452314576937852
0.0064896148315811905   -0.008025166274309686   -0.0013240273124258794
0.00173439951339928   -0.0026418103612122074   -0.0006886681745356455
0.0036710918380027974   -0.0029045985456673923   -0.0007967532701712228
0.0064896148315811905   -0.008025166274309686   -0.0013240273124258794
0.003908841569843215   -0.0029367214306789753   -0.0005452314576937852
0.00173439951339928   -0.0026418103612122074   -0.0006886681745356455
0.0064896148315811905   -0.008025166274309686   -0.0013240273124258794
0.0031680330760530495   -0.007813992943277089   -0.0012493839472165753
0.0031532490559523   -0.007814428103407847   -0.0011745900376770634
0.00173439951339928   -0.0026418103612122074   -0.0006886681745356455
0.0064896148315811905   -0.008025166274309686   -0.0013240273124258794
0.0031532490559523   -0.007814428103407847   -0.0011745900376770634
0.003908841569843215   -0.0029367214306789753   -0.0005452314576937852
0.00173439951339928   -0.0026418103612122074   -0.0006886681745356455
0.0031680330760530495   -0.007813992943277089   -0.0012493839472165753
0.0036710918380027974   -0.0029045985456673923   -0.0007967532701712228
0.0017270103434989749   -0.002604086631024619   -0.0007950931852818272
0.0031680330760530495   -0.007813992943277089   -0.0012493839472165753
0.0064896148315811905   -0.008025166274309686   -0.0013240273124258794
0.0036710918380027974   -0.0029045985456673923   -0.0007967532701712228
0.006369388415567279   -0.00796001379746136   -0.0015133837620846973
0.0017270103434989749   -0.002604086631024619   -0.0007950931852818272
0.0035614735515205214   -0.0028442107799779865   -0.001009456961613724
0.006369388415567279   -0.00796001379746136   -0.0015133837620846973
0.0036710918380027974   -0.0029045985456673923   -0.0007967532701712228
0.0017270103434989749   -0.002604086631024619   -0.0007950931852818272
0.006369388415567279   -0.00796001379746136   -0.0015133837620846973
0.0031535615400469616   -0.0077717248783252925   -0.0013341908097924506
0.0031680330760530495   -0.007813992943277089   -0.0012493839472165753
0.0017270103434989749   -0.002604086631024619   -0.0007950931852818272
0.006369388415567279   -0.00796001379746136   -0.0015133837620846973
0.0031680330760530495   -0.007813992943277089   -0.0012493839472165753
0.0036710918380027974   -0.0029045985456673923   -0.0007967532701712228
0.0017270103434989749   -0.002604086631024619   -0.0007950931852818272
0.0031535615400469616   -0.0077717248783252925   -0.0013341908097924506
0.0035614735515205214   -0.0028442107799779865   -0.001009456961613724
0.0017604948222538824   -0.0025031349492000707   -0.0008995013175316211
0.0031535615400469616   -0.0077717248783252925   -0.0013341908097924506
0.006369388415567279   -0.00796001379746136   -0.0015133837620846973
0.0035614735515205214   -0.0028442107799779865   -0.001009456961613724
0.006189122369874896   -0.007815117335514508   -0.0017105169883012996
0.0017604948222538824   -0.0025031349492000707   -0.0008995013175316211
0.0033982554894507852   -0.00268974836247808   -0.0012345653532352821
0.006189122369874896   -0.007815117335514508   -0.0017105169883012996
0.0035614735515205214   -0.0028442107799779865   -0.001009456961613724
0.0017604948222538824   -0.0025031349492000707   -0.0008995013175316211
0.006189122369874896   -0.007815117335514508   -0.0017105169883012996
0.0031453293497052033   -0.007676073146513116   -0.001425872335586006
0.0031535615400469616   -0.0077717248783252925   -0.0013341908097924506
0.0017604948222538824   -0.0025031349492000707   -0.0008995013175316211
0.006189122369874896   -0.007815117335514508   -0.0017105169883012996
0.0031535615400469616   -0.0077717248783252925   -0.0013341908097924506
0.0035614735515205214   -0.0028442107799779865   -0.001009456961613724
-0.008227678802220813   -0.008071275122061149   -0.0019886077380303975
-0.011271661545114648   -0.01513329593313802   -0.00226521902132193
-0.005251349594143111   -0.007808014360534898   -0.0016369906820563123
-0.008474015793542181   -0.008257344971834195   -0.0017245219196047048
-0.011271661545114648   -0.01513329593313802   -0.00226521902132193
-0.007247089176390083   -0.014932166642479814   -0.0019801423978748015
-0.005251349594143111   -0.007808014360534898   -0.0016369906820563123
-0.007262808952711785   -0.01504721604172999   -0.0018539909316335336
-0.008474015793542181   -0.008257344971834195   -0.0017245219196047048
-0.005257425653543324   -0.007941350457979442   -0.0014743482817101729
-0.007262808952711785   -0.01504721604172999   -0.0018539909316335336
-0.005251349594143111   -0.007808014360534898   -0.0016369906820563123
-0.008474015793542181   -0.008257344971834195   -0.0017245219196047048
-0.007262808952711785   -0.01504721604172999   -0.0018539909316335336
-0.011471861141002298   -0.01529054027755017   -0.0020683480735605424
-0.011271661545114648   -0.01513329593313802   -0.00226521902132193
-0.008474015793542181   -0.008257344971834195   -0.0017245219196047048
-0.007262808952711785   -0.01504721604172999   -0.0018539909316335336
-0.011271661545114648   -0.01513329593313802   -0.00226521902132193
-0.005251349594143111   -0.007808014360534898   -0.0016369906820563123
-0.008474015793542181   -0.008257344971834195   -0.0017245219196047048
-0.011471861141002298   -0.01529054027755017   -0.0020683480735605424
-0.005257425653543324   -0.007941350457979442   -0.0014743482817101729
-0.008645114803276222   -0.00836244088353039   -0.0014659484860310317
-0.011471861141002298   -0.01529054027755017   -0.0020683480735605424
-0.007262808952711785   -0.01504721604172999   -0.0018539909316335336
-0.005257425653543324   -0.007941350457979442   -0.0014743482817101729
-0.00728134095529134   -0.015127299238571694   -0.0017369754968228816
-0.008645114803276222   -0.00836244088353039   -0.0014659484860310317
-0.005277993929079245   -0.008022645338644503   -0.001318064060999205
-0.00728134095529134   -0.015127299238571694   -0.0017369754968228816
-0.005257425653543324   -0.007941350457979442   -0.0014743482817101729
-0.008645114803276222   -0.00836244088353039   -0.0014659484860310317
-0.00728134095529134   -0.015127299238571694   -0.0017369754968228816
-0.011597991424086636   -0.01538916496513312   -0.0018848686242332105
-0.011471861141002298   -0.01529054027755017   -0.0020683480735605424
-0.008645114803276222   -0.00836244088353039   -0.0014659484860310317
-0.00728134095529134   -0.015127299238571694   -0.0017369754968228816
-0.011471861141002298   -0.01529054027755017   -0.0020683480735605424
-0.005257425653543324   -0.007941350457979442   -0.0014743482817101729
-0.008645114803276222   -0.00836244088353039   -0.0014659484860310317
-0.011597991424086636   -0.01538916496513312   -0.0018848686242332105
-0.005277993929079245   -0.008022645338644503   -0.001318064060999205
-0.008847341154503863   -0.00842358524313534   -0.001230713537204389
-0.011597991424086636   -0.01538916496513312   -0.0018848686242332105
-0.00728134095529134   -0.015127299238571694   -0.0017369754968228816
-0.005277993929079245   -0.008022645338644503   -0.001318064060999205
-0.007267511915052746   -0.015180015624994582   -0.001627149263524024
-0.008847341154503863   -0.00842358524313534   -0.001230713537204389
-0.005262126620083693   -0.008064852130673246   -0.0011717851589351325
-0.007267511915052746   -0.015180015624994582   -0.001627149263524024
-0.005277993929079245   -0.008022645338644503   -0.001318064060999205
-0.008847341154503863   -0.00842358524313534   -0.001230713537204389
-0.007267511915052746   -0.015180015624994582   -0.001627149263524024
-0.011741501985631026   -0.015460141058667652   -0.0017160331738113252
-0.011597991424086636   -0.01538916496513312   -0.0018848686242332105
-0.008847341154503863   -0.00842358524313534   -0.001230713537204389
-0.007267511915052746   -0.015180015624994582   -0.001627149263524024
-0.011597991424086636   -0.01538916496513312   -0.0018848686242332105
-0.005277993929079245   -0.008022645338644503   -0.001318064060999205
-0.005251349594143111   -0.007808014360534898   -0.0016369906820563123
-0.007247089176390083   -0.014932166642479814   -0.0019801423978748015
-0.0024368330823752535   -0.007685514323015754   -0.0013969790743291542
-0.005257425653543324   -0.007941350457979442   -0.0014743482817101729
-0.007247089176390083   -0.014932166642479814   -0.0019801423978748015
-0.0034527350709483307   -0.014831866542154043   -0.0017820935155391077
-0.0024368330823752535   -0.007685514323015754   -0.0013969790743291542
-0.0034439214963983486   -0.01490541523522144   -0.001710779614817729
-0.005257425653543324   -0.007941350457979442   -0.0014743482817101729
-0.002415681761546954   -0.007770358822222364   -0.001313621323177528
-0.0034439214963983486   -0.01490541523522144   -0.001710779614817729
-0.0024368330823752535   -0.007685514323015754   -0.0013969790743291542
-0.005257425653543324   -0.007941350457979442   -0.0014743482817101729
-0.0034439214963983486   -0.01490541523522144   -0.001710779614817729
-0.007262808952711785   -0.01504721604172999   -0.0018539909316335336
-0.007247089176390083   -0.014932166642479814   -0.0019801423978748015
-0.005257425653543324   -0.007941350457979442   -0.0014743482817101729
-0.0034439214963983486   -0.01490541523522144   -0.001710779614817729
-0.007247089176390083   -0.014932166642479814   -0.0019801423978748015
-0.0024368330823752535   -0.007685514323015754   -0.0013969790743291542
-0.005257425653543324   -0.007941350457979442   -0.0014743482817101729
-0.007262808952711785   -0.01504721604172999   -0.0018539909316335336
-0.002415681761546954   -0.007770358822222364   -0.001313621323177528
-0.005277993929079245   -0.008022645338644503   -0.001318064060999205
-0.007262808952711785   -0.01504721604172999   -0.0018539909316335336
-0.0034439214963983486   -0.01490541523522144   -0.001710779614817729
-0.002415681761546954   -0.007770358822222364   -0.001313621323177528
-0.0034331639899156303   -0.014948624883581991   -0.0016481641661971807
-0.005277993929079245   -0.008022645338644503   -0.001318064060999205
-0.0023969238649021573   -0.00781151322819978   -0.0012380616754663486
-0.0034331639899156303   -0.014948624883581991   -0.0016481641661971807
-0.002415681761546954   -0.007770358822222364   -0.001313621323177528
-0.005277993929079245   -0.008022645338644503   -0.001318064060999205
-0.0034331639899156303   -0.014948624883581991   -0.0016481641661971807
-0.00728134095529134   -0.015127299238571694   -0.0017369754968228816
-0.007262808952711785   -0.01504721604172999   -0.0018539909316335336
-0.005277993929079245   -0.008022645338644503   -0.001318064060999205
-0.0034331639899156303   -0.014948624883581991   -0.0016481641661971807
-0.007262808952711785   -0.01504721604172999   -0.0018539909316335336
-0.002415681761546954   -0.007770358822222364   -0.001313621323177528
-0.005277993929079245   -0.008022645338644503   -0.001318064060999205
-0.00728134095529134   -0.015127299238571694   -0.0017369754968228816
-0.0023969238649021573   -0.00781151322819978   -0.0012380616754663486
-0.005262126620083693   -0.008064852130673246   -0.0011717851589351325
-0.00728134095529134   -0.015127299238571694   -0.0017369754968228816
-0.0034331639899156303   -0.014948624883581991   -0.0016481641661971807
-0.0023969238649021573   -0.00781151322819978   -0.0012380616754663486
-0.003415584121250599   -0.014962113171164996   -0.0015942217988622772
-0.005262126620083693   -0.008064852130673246   -0.0011717851589351325
-0.002368991162468444   -0.007810528507064376   -0.0011722849617198199
-0.003415584121250599   -0.014962113171164996   -0.0015942217988622772
-0.0023969238649021573   -0.00781151322819978   -0.0012380616754663486
-0.005262126620083693   -0.008064852130673246   -0.0011717851589351325
-0.003415584121250599   -0.014962113171164996   -0.0015942217988622772
-0.007267511915052746   -0.015180015624994582   -0.001627149263524024
-0.00728134095529134   -0.015127299238571694   -0.0017369754968228816
-0.005262126620083693   -0.008064852130673246   -0.0011717851589351325
-0.003415584121250599   -0.014962113171164996   -0.0015942217988622772
-0.00728134095529134   -0.015127299238571694   -0.0017369754968228816
-0.0023969238649021573   -0.00781151322819978   -0.0012380616754663486
-0.0024368330823752535   -0.007685514323015754   -0.0013969790743291542
-0.0034527350709483307   -0.014831866542154043   -0.0017820935155391077
0.0002771333140700984   -0.007689169292154706   -0.00124528085374938
-0.002415681761546954   -0.007770358822222364   -0.001313621323177528
-0.0034527350709483307   -0.014831866542154043   -0.0017820935155391077
0.00023010890761665203   -0.014826524426642968   -0.0016593505801859513
0.0002771333140700984   -0.007689169292154706   -0.00124528085374938
0.0002461853442845342   -0.014859218331327589   -0.0016425816221016262
-0.002415681761546954   -0.007770358822222364   -0.001313621323177528
0.0003031090060292896   -0.007729334625277142   -0.0012397376804333079
0.0002461853442845342   -0.014859218331327589   -0.0016425816221016262
0.0002771333140700984   -0.007689169292154706   -0.00124528085374938
-0.002415681761546954   -0.007770358822222364   -0.001313621323177528
0.0002461853442845342   -0.014859218331327589   -0.0016425816221016262
-0.0034439214963983486   -0.01490541523522144   -0.001710779614817729
-0.0034527350709483307   -0.014831866542154043   -0.0017820935155391077
-0.002415681761546954   -0.007770358822222364   -0.001313621323177528
0.0002461853442845342   -0.014859218331327589   -0.0016425816221016262
-0.0034527350709483307   -0.014831866542154043   -0.0017820935155391077
0.0002771333140700984   -0.007689169292154706   -0.00124528085374938
-0.002415681761546954   -0.007770358822222364   -0.001313621323177528
-0.0034439214963983486   -0.01490541523522144   -0.001710779614817729
0.0003031090060292896   -0.007729334625277142   -0.0012397376804333079
-0.0023969238649021573   -0.00781151322819978   -0.0012380616754663486
-0.0034439214963983486   -0.01490541523522144   -0.001710779614817729
0.0002461853442845342   -0.014859218331327589   -0.0016425816221016262
0.0003031090060292896   -0.007729334625277142   -0.0012397376804333079
0.0002565511404585454   -0.014861694600511363   -0.001634284516689704
-0.0023969238649021573   -0.00781151322819978   -0.0012380616754663486
0.0003206274615732344   -0.007726833590227398   -0.0012430447422452316
0.0002565511404585454   -0.014861694600511363   -0.001634284516689704
0.0003031090060292896   -0.007729334625277142   -0.0012397376804333079
-0.0023969238649021573   -0.00781151322819978   -0.0012380616754663486
0.0002565511404585454   -0.014861694600511363   -0.001634284516689704
-0.0034331639899156303   -0.014948624883581991   -0.0016481641661971807
-0.0034439214963983486   -0.01490541523522144   -0.001710779614817729
-0.0023969238649021573   -0.00781151322819978   -0.0012380616754663486
0.0002565511404585454   -0.014861694600511363   -0.001634284516689704
-0.0034439214963983486   -0.01490541523522144   -0.001710779614817729
0.0003031090060292896   -0.007729334625277142   -0.0012397376804333079
-0.0023969238649021573   -0.00781151322819978   -0.0012380616754663486
-0.0034331639899156303   -0.014948624883581991   -0.0016481641661971807
0.0003206274615732344   -0.007726833590227398   -0.0012430447422452316
-0.002368991162468444   -0.007810528507064376   -0.0011722849617198199
-0.0034331639899156303   -0.014948624883581991   -0.0016481641661971807
0.0002565511404585454   -0.014861694600511363   -0.001634284516689704
0.0003206274615732344   -0.007726833590227398   -0.0012430447422452316
0.00026409738627978016   -0.01483350296685549   -0.0016349734177791885
-0.002368991162468444   -0.007810528507064376   -0.0011722849617198199
0.000339412621294577   -0.007680364833917291   -0.0012553418195794298
0.00026409738627978016   -0.01483350296685549   -0.0016349734177791885
0.0003206274615732344   -0.007726833590227398   -0.0012430447422452316
-0.002368991162468444   -0.007810528507064376   -0.0011722849617198199
0.00026409738627978016   -0.01483350296685549   -0.0016349734177791885
-0.003415584121250599   -0.014962113171164996   -0.0015942217988622772
-0.0034331639899156303   -0.014948624883581991   -0.0016481641661971807
-0.002368991162468444   -0.007810528507064376   -0.0011722849617198199
0.00026409738627978016   -0.01483350296685549   -0.0016349734177791885
-0.0034331639899156303   -0.014948624883581991   -0.0016481641661971807
0.0003206274615732344   -0.007726833590227398   -0.0012430447422452316
0.0002771333140700984   -0.007689169292154706   -0.00124528085374938
0.00023010890761665203   -0.014826524426642968   -0.0016593505801859513
0.0031532490559523   -0.007814428103407847   -0.0011745900376770634
0.0003031090060292896   -0.007729334625277142   -0.0012397376804333079
0.00023010890761665203   -0.014826524426642968   -0.0016593505801859513
0.0040701884900151575   -0.014910494182725238   -0.001609821855426241
0.0031532490559523   -0.007814428103407847   -0.0011745900376770634
0.004084270062482601   -0.014905734386621091   -0.0016487290966049506
0.0003031090060292896   -0.007729334625277142   -0.0012397376804333079
0.0031680330760530495   -0.007813992943277089   -0.0012493839472165753
0.004084270062482601   -0.014905734386621091   -0.0016487290966049506
0.0031532490559523   -0.007814428103407847   -0.0011745900376770634
0.0003031090060292896   -0.007729334625277142   -0.0012397376804333079
0.004084270062482601   -0.014905734386621091   -0.0016487290966049506
0.0002461853442845342   -0.014859218331327589   -0.0016425816221016262
0.00023010890761665203   -0.014826524426642968   -0.0016593505801859513
0.0003031090060292896   -0.007729334625277142   -0.0012397376804333079
0.004084270062482601   -0.014905734386621091   -0.0016487290966049506
0.00023010890761665203   -0.014826524426642968   -0.0016593505801859513
0.0031532490559523   -0.007814428103407847   -0.0011745900376770634
0.0003031090060292896   -0.007729334625277142   -0.0012397376804333079
0.0002461853442845342   -0.014859218331327589   -0.0016425816221016262
0.0031680330760530495   -0.007813992943277089   -0.0012493839472165753
0.0003206274615732344   -0.007726833590227398   -0.0012430447422452316
0.0002461853442845342   -0.014859218331327589   -0.0016425816221016262
0.004084270062482601   -0.014905734386621091   -0.0016487290966049506
0.0031680330760530495   -0.007813992943277089   -0.0012493839472165753
0.0040741355135504335   -0.014871412010866919   -0.0016954856859200326
0.0003206274615732344   -0.007726833590227398   -0.0012430447422452316
0.0031535615400469616   -0.0077717248783252925   -0.0013341908097924506
0.0040741355135504335   -0.014871412010866919   -0.0016954856859200326
0.0031680330760530495   -0.007813992943277089   -0.0012493839472165753
0.0003206274615732344   -0.007726833590227398   -0.0012430447422452316
0.0040741355135504335   -0.014871412010866919   -0.0016954856859200326
0.0002565511404585454   -0.014861694600511363   -0.001634284516689704
0.0002461853442845342   -0.014859218331327589   -0.0016425816221016262
0.0003206274615732344   -0.007726833590227398   -0.0012430447422452316
0.0040741355135504335   -0.014871412010866919   -0.0016954856859200326
0.0002461853442845342   -0.014859218331327589   -0.0016425816221016262
0.0031680330760530495   -0.007813992943277089   -0.0012493839472165753
0.0003206274615732344   -0.007726833590227398   -0.0012430447422452316
0.0002565511404585454   -0.014861694600511363   -0.001634284516689704
0.0031535615400469616   -0.0077717248783252925   -0.0013341908097924506
0.000339412621294577   -0.007680364833917291   -0.0012553418195794298
0.0002565511404585454   -0.014861694600511363   -0.001634284516689704
0.0040741355135504335   -0.014871412010866919   -0.0016954856859200326
0.0031535615400469616   -0.0077717248783252925   -0.0013341908097924506
0.004058837188247753   -0.014800199044123849   -0.0017510221591047737
0.000339412621294577   -0.007680364833917291   -0.0012553418195794298
0.0031453293497052033   -0.007676073146513116   -0.001425872335586006
0.004058837188247753   -0.014800199044123849   -0.0017510221591047737
0.0031535615400469616   -0.0077717248783252925   -0.0013341908097924506
0.000339412621294577   -0.007680364833917291   -0.0012553418195794298
0.004058837188247753   -0.014800199044123849   -0.0017510221591047737
0.00026409738627978016   -0.01483350296685549   -0.0016349734177791885
0.0002565511404585454   -0.014861694600511363   -0.001634284516689704
0.000339412621294577   -0.007680364833917291   -0.0012553418195794298
0.004058837188247753   -0.014800199044123849   -0.0017510221591047737
0.0002565511404585454   -0.014861694600511363   -0.001634284516689704
0.0031535615400469616   -0.0077717248783252925   -0.0013341908097924506
0.0031532490559523   -0.007814428103407847   -0.0011745900376770634
0.0040701884900151575   -0.014910494182725238   -0.001609821855426241
0.006624119129272965   -0.008047223290468005   -0.0011557366751850328
0.0031680330760530495   -0.007813992943277089   -0.0012493839472165753
0.0040701884900151575   -0.014910494182725238   -0.001609821855426241
0.008443573145057568   -0.015062753678850795   -0.0016109996882133623
0.006624119129272965   -0.008047223290468005   -0.0011557366751850328
0.00837045422938834   -0.015036402496397035   -0.0017127261358403979
0.0031680330760530495   -0.007813992943277089   -0.0012493839472165753
0.0064896148315811905   -0.008025166274309686   -0.0013240273124258794
0.00837045422938834   -0.015036402496397035   -0.0017127261358403979
0.006624119129272965   -0.008047223290468005   -0.0011557366751850328
0.0031680330760530495   -0.007813992943277089   -0.0012493839472165753
0.00837045422938834   -0.015036402496397035   -0.0017127261358403979
0.004084270062482601   -0.014905734386621091   -0.0016487290966049506
0.0040701884900151575   -0.014910494182725238   -0.001609821855426241
0.0031680330760530495   -0.007813992943277089   -0.0012493839472165753
0.00837045422938834   -0.015036402496397035   -0.0017127261358403979
0.0040701884900151575   -0.014910494182725238   -0.001609821855426241
0.006624119129272965   -0.008047223290468005   -0.0011557366751850328
0.0031680330760530495   -0.007813992943277089   -0.0012493839472165753
0.004084270062482601   -0.014905734386621091   -0.0016487290966049506
0.0064896148315811905   -0.008025166274309686   -0.0013240273124258794
0.0031535615400469616   -0.0077717248783252925   -0.0013341908097924506
0.004084270062482601   -0.014905734386621091   -0.0016487290966049506
0.00837045422938834   -0.015036402496397035   -0.0017127261358403979
0.0064896148315811905   -0.008025166274309686   -0.0013240273124258794
0.008297419303369953   -0.014983572377646236   -0.0018286071029786958
0.0031535615400469616   -0.0077717248783252925   -0.0013341908097924506
0.006369388415567279   -0.00796001379746136   -0.0015133837620846973
0.008297419303369953   -0.014983572377646236   -0.0018286071029786958
0.0064896148315811905   -0.008025166274309686   -0.0013240273124258794
0.0031535615400469616   -0.0077717248783252925   -0.0013341908097924506
0.008297419303369953   -0.014983572377646236   -0.0018286071029786958
0.0040741355135504335   -0.014871412010866919   -0.0016954856859200326
0.004084270062482601   -0.014905734386621091   -0.0016487290966049506
0.0031535615400469616   -0.0077717248783252925   -0.0013341908097924506
0.008297419303369953   -0.014983572377646236   -0.0018286071029786958
0.004084270062482601   -0.014905734386621091   -0.0016487290966049506
0.0064896148315811905   -0.008025166274309686   -0.0013240273124258794
0.0031535615400469616   -0.0077717248783252925   -0.0013341908097924506
0.0040741355135504335   -0.014871412010866919   -0.0016954856859200326
0.006369388415567279   -0.00796001379746136   -0.0015133837620846973
0.0031453293497052033   -0.007676073146513116   -0.001425872335586006
0.0040741355135504335   -0.014871412010866919   -0.0016954856859200326
0.008297419303369953   -0.014983572377646236   -0.0018286071029786958
0.006369388415567279   -0.00796001379746136   -0.0015133837620846973
0.008167450668984885   -0.014872832225416903   -0.001958657729841886
0.0031453293497052033   -0.007676073146513116   -0.001425872335586006
0.006189122369874896   -0.007815117335514508   -0.0017105169883012996
0.008167450668984885   -0.014872832225416903   -0.001958657729841886
0.006369388415567279   -0.00796001379746136   -0.0015133837620846973
0.0031453293497052033   -0.007676073146513116   -0.001425872335586006
0.008167450668984885   -0.014872832225416903   -0.001958657729841886
0.004058837188247753   -0.014800199044123849   -0.0017510221591047737
0.0040741355135504335   -0.014871412010866919   -0.0016954856859200326
0.0031453293497052033   -0.007676073146513116   -0.001425872335586006
0.008167450668984885   -0.014872832225416903   -0.001958657729841886
0.0040741355135504335   -0.014871412010866919   -0.0016954856859200326
0.006369388415567279   -0.00796001379746136   -0.0015133837620846973
-0.011271661545114648   -0.01513329593313802   -0.00226521902132193
-0.013458585269918371   -0.0235050626421173   -0.0024160834223271865
-0.007247089176390083   -0.014932166642479814   -0.0019801423978748015
-0.011471861141002298   -0.01529054027755017   -0.0020683480735605424
-0.013458585269918371   -0.0235050626421173   -0.0024160834223271865
-0.008736376873219659   -0.02337714740699022   -0.002183750258397978
-0.007247089176390083   -0.014932166642479814   -0.0019801423978748015
-0.008746671276378789   -0.0234760740901467   -0.002093481794724675
-0.011471861141002298   -0.01529054027755017   -0.0020683480735605424
-0.007262808952711785   -0.01504721604172999   -0.0018539909316335336
-0.008746671276378789   -0.0234760740901467   -0.002093481794724675
-0.007247089176390083   -0.014932166642479814   -0.0019801423978748015
-0.011471861141002298   -0.01529054027755017   -0.0020683480735605424
-0.008746671276378789   -0.0234760740901467   -0.002093481794724675
-0.0135933224031986   -0.023638908589089635   -0.0022854221290880394
-0.013458585269918371   -0.0235050626421173   -0.0024160834223271865
-0.011471861141002298   -0.01529054027755017   -0.0020683480735605424
-0.008746671276378789   -0.0234760740901467   -0.002093481794724675
-0.013458585269918371   -0.0235050626421173   -0.0024160834223271865
-0.007247089176390083   -0.014932166642479814   -0.0019801423978748015
-0.011471861141002298   -0.01529054027755017   -0.0020683480735605424
-0.0135933224031986   -0.023638908589089635   -0.0022854221290880394
-0.007262808952711785   -0.01504721604172999   -0.0018539909316335336
-0.011597991424086636   -0.01538916496513312   -0.0018848686242332105
-0.0135933224031986   -0.023638908589089635   -0.0022854221290880394
-0.008746671276378789   -0.0234760740901467   -0.002093481794724675
-0.007262808952711785   -0.01504721604172999   -0.0018539909316335336
-0.008753947115278209   -0.023554523443546544   -0.0020122124626728278
-0.011597991424086636   -0.01538916496513312   -0.0018848686242332105
-0.00728134095529134   -0.015127299238571694   -0.0017369754968228816
-0.008753947115278209   -0.023554523443546544   -0.0020122124626728278
-0.007262808952711785   -0.01504721604172999   -0.0018539909316335336
-0.011597991424086636   -0.01538916496513312   -0.0018848686242332105
-0.008753947115278209   -0.023554523443546544   -0.0020122124626728278
-0.01367052728554467   -0.02373363297711765   -0.002167308144179178
-0.0135933224031986   -0.023638908589089635   -0.0022854221290880394
-0.011597991424086636   -0.01538916496513312   -0.0018848686242332105
-0.008753947115278209   -0.023554523443546544   -0.0020122124626728278
-0.0135933224031986   -0.023638908589089635   -0.0022854221290880394
-0.007262808952711785   -0.01504721604172999   -0.0018539909316335336
-0.011597991424086636   -0.01538916496513312   -0.0018848686242332105
-0.01367052728554467   -0.02373363297711765   -0.002167308144179178
-0.00728134095529134   -0.015127299238571694   -0.0017369754968228816
-0.011741501985631026   -0.015460141058667652   -0.0017160331738113252
-0.01367052728554467   -0.02373363297711765   -0.002167308144179178
-0.008753947115278209   -0.023554523443546544   -0.0020122124626728278
-0.00728134095529134   -0.015127299238571694   -0.0017369754968228816
-0.008735618434398242   -0.023619003564065846   -0.0019387446081345137
-0.011741501985631026   -0.015460141058667652   -0.0017160331738113252
-0.007267511915052746   -0.015180015624994582   -0.001627149263524024
-0.008735618434398242   -0.023619003564065846   -0.0019387446081345137
-0.00728134095529134   -0.015127299238571694   -0.0017369754968228816
-0.011741501985631026   -0.015460141058667652   -0.0017160331738113252
-0.008735618434398242   -0.023619003564065846   -0.0019387446081345137
-0.013750034123270654   -0.023818586740915852   -0.002063234198226374
-0.01367052728554467   -0.02373363297711765   -0.002167308144179178
-0.011741501985631026   -0.015460141058667652   -0.0017160331738113252
-0.008735618434398242   -0.023619003564065846   -0.0019387446081345137
-0.01367052728554467   -0.02373363297711765   -0.002167308144179178
-0.00728134095529134   -0.015127299238571694   -0.0017369754968228816
-0.007247089176390083   -0.014932166642479814   -0.0019801423978748015
-0.008736376873219659   -0.02337714740699022   -0.002183750258397978
-0.0034527350709483307   -0.014831866542154043   -0.0017820935155391077
-0.007262808952711785   -0.01504721604172999   -0.0018539909316335336
-0.008736376873219659   -0.02337714740699022   -0.002183750258397978
-0.004309612190315344   -0.023310992714369514   -0.0020228804050339685
-0.0034527350709483307   -0.014831866542154043   -0.0017820935155391077
-0.004301216962746307   -0.023373050535467357   -0.0019632563891178547
-0.007262808952711785   -0.01504721604172999   -0.0018539909316335336
-0.0034439214963983486   -0.01490541523522144   -0.001710779614817729
-0.004301216962746307   -0.023373050535467357   -0.0019632563891178547
-0.0034527350709483307   -0.014831866542154043   -0.0017820935155391077
-0.007262808952711785   -0.01504721604172999   -0.0018539909316335336
-0.004301216962746307   -0.023373050535467357   -0.0019632563891178547
-0.008746671276378789   -0.0234760740901467   -0.002093481794724675
-0.008736376873219659   -0.02337714740699022   -0.002183750258397978
-0.007262808952711785   -0.01504721604172999   -0.0018539909316335336
-0.004301216962746307   -0.023373050535467357   -0.0019632563891178547
-0.008736376873219659   -0.02337714740699022   -0.002183750258397978
-0.0034527350709483307   -0.014831866542154043   -0.0017820935155391077
-0.007262808952711785   -0.01504721604172999   -0.0018539909316335336
-0.008746671276378789   -0.0234760740901467   -0.002093481794724675
-0.0034439214963983486   -0.01490541523522144   -0.001710779614817729
-0.00728134095529134   -0.015127299238571694   -0.0017369754968228816
-0.008746671276378789   -0.0234760740901467   -0.002093481794724675
-0.004301216962746307   -0.023373050535467357   -0.0019632563891178547
-0.0034439214963983486   -0.01490541523522144   -0.001710779614817729
-0.004289827854203495   -0.02341794645265829   -0.0019124951047602545
-0.00728134095529134   -0.015127299238571694   -0.0017369754968228816
-0.0034331639899156303   -0.014948624883581991   -0.0016481641661971807
-0.004289827854203495   -0.02341794645265829   -0.0019124951047602545
-0.0034439214963983486   -0.01490541523522144   -0.001710779614817729
-0.00728134095529134   -0.015127299238571694   -0.0017369754968228816
-0.004289827854203495   -0.02341794645265829   -0.0019124951047602545
-0.008753947115278209   -0.023554523443546544   -0.0020122124626728278
-0.008746671276378789   -0.0234760740901467   -0.002093481794724675
-0.00728134095529134   -0.015127299238571694   -0.0017369754968228816
-0.004289827854203495   -0.02341794645265829   -0.0019124951047602545
-0.008746671276378789   -0.0234760740901467   -0.002093481794724675
-0.0034439214963983486   -0.01490541523522144   -0.001710779614817729
-0.00728134095529134   -0.015127299238571694   -0.0017369754968228816
-0.008753947115278209   -0.023554523443546544   -0.0020122124626728278
-0.0034331639899156303   -0.014948624883581991   -0.0016481641661971807
-0.007267511915052746   -0.015180015624994582   -0.001627149263524024
-0.008753947115278209   -0.023554523443546544   -0.0020122124626728278
-0.004289827854203495   -0.02341794645265829   -0.0019124951047602545
-0.0034331639899156303   -0.014948624883581991   -0.0016481641661971807
-0.0042729366604402005   -0.023445975000999396   -0.001870744244093019
-0.007267511915052746   -0.015180015624994582   -0.001627149263524024
-0.003415584121250599   -0.014962113171164996   -0.0015942217988622772
-0.0042729366604402005   -0.023445975000999396   -0.001870744244093019
-0.0034331639899156303   -0.014948624883581991   -0.0016481641661971807
-0.007267511915052746   -0.015180015624994582   -0.001627149263524024
-0.0042729366604402005   -0.023445975000999396   -0.001870744244093019
-0.008735618434398242   -0.023619003564065846   -0.0019387446081345137
-0.008753947115278209   -0.023554523443546544   -0.0020122124626728278
-0.007267511915052746   -0.015180015624994582   -0.001627149263524024
-0.0042729366604402005   -0.023445975000999396   -0.001870744244093019
-0.008753947115278209   -0.023554523443546544   -0.0020122124626728278
-0.0034331639899156303   -0.014948624883581991   -0.0016481641661971807
-0.0034527350709483307   -0.014831866542154043   -0.0017820935155391077
-0.004309612190315344   -0.023310992714369514   -0.0020228804050339685
0.00023010890761665203   -0.014826524426642968   -0.0016593505801859513
-0.0034439214963983486   -0.01490541523522144   -0.001710779614817729
-0.004309612190315344   -0.023310992714369514   -0.0020228804050339685
-3.111057610926171e-06   -0.02329958941374477   -0.0019292435162474514
0.00023010890761665203   -0.014826524426642968   -0.0016593505801859513
1.2519038612997331e-05   -0.02332457283734126   -0.0019005048046891054
-0.0034439214963983486   -0.01490541523522144   -0.001710779614817729
0.0002461853442845342   -0.014859218331327589   -0.0016425816221016262
1.2519038612997331e-05   -0.02332457283734126   -0.0019005048046891054
0.00023010890761665203   -0.014826524426642968   -0.0016593505801859513
-0.0034439214963983486   -0.01490541523522144   -0.001710779614817729
1.2519038612997331e-05   -0.02332457283734126   -0.0019005048046891054
-0.004301216962746307   -0.023373050535467357   -0.0019632563891178547
-0.004309612190315344   -0.023310992714369514   -0.0020228804050339685
-0.0034439214963983486   -0.01490541523522144   -0.001710779614817729
1.2519038612997331e-05   -0.02332457283734126   -0.0019005048046891054
-0.004309612190315344   -0.023310992714369514   -0.0020228804050339685
0.00023010890761665203   -0.014826524426642968   -0.0016593505801859513
-0.0034439214963983486   -0.01490541523522144   -0.001710779614817729
-0.004301216962746307   -0.023373050535467357   -0.0019632563891178547
0.0002461853442845342   -0.014859218331327589   -0.0016425816221016262
-0.0034331639899156303   -0.014948624883581991   -0.0016481641661971807
-0.004301216962746307   -0.023373050535467357   -0.0019632563891178547
1.2519038612997331e-05   -0.02332457283734126   -0.0019005048046891054
0.0002461853442845342   -0.014859218331327589   -0.0016425816221016262
2.3704264011539876e-05   -0.023332275748993284   -0.0018805172835818671
-0.0034331639899156303   -0.014948624883581991   -0.0016481641661971807
0.0002565511404585454   -0.014861694600511363   -0.001634284516689704
2.3704264011539876e-05   -0.023332275748993284   -0.0018805172835818671
0.0002461853442845342   -0.014859218331327589   -0.0016425816221016262
-0.0034331639899156303   -0.014948624883581991   -0.0016481641661971807
2.3704264011539876e-05   -0.023332275748993284   -0.0018805172835818671
-0.004289827854203495   -0.02341794645265829   -0.0019124951047602545
-0.004301216962746307   -0.023373050535467357   -0.0019632563891178547
-0.0034331639899156303   -0.014948624883581991   -0.0016481641661971807
2.3704264011539876e-05   -0.023332275748993284   -0.0018805172835818671
-0.004301216962746307   -0.023373050535467357   -0.0019632563891178547
0.0002461853442845342   -0.014859218331327589   -0.0016425816221016262
-0.0034331639899156303   -0.014948624883581991   -0.0016481641661971807
-0.004289827854203495   -0.02341794645265829   -0.0019124951047602545
0.0002565511404585454   -0.014861694600511363   -0.001634284516689704
-0.003415584121250599   -0.014962113171164996   -0.0015942217988622772
-0.004289827854203495   -0.02341794645265829   -0.0019124951047602545
2.3704264011539876e-05   -0.023332275748993284   -0.0018805172835818671
0.0002565511404585454   -0.014861694600511363   -0.001634284516689704
3.088405171792316e-05   -0.023322461012194838   -0.0018696675479415456
-0.003415584121250599   -0.014962113171164996   -0.0015942217988622772
0.00026409738627978016   -0.01483350296685549   -0.0016349734177791885
3.088405171792316e-05   -0.023322461012194838   -0.0018696675479415456
0.0002565511404585454   -0.014861694600511363   -0.001634284516689704
-0.003415584121250599   -0.014962113171164996   -0.0015942217988622772
3.088405171792316e-05   -0.023322461012194838   -0.0018696675479415456
-0.0042729366604402005   -0.023445975000999396   -0.001870744244093019
-0.004289827854203495   -0.02341794645265829   -0.0019124951047602545
-0.003415584121250599   -0.014962113171164996   -0.0015942217988622772
3.088405171792316e-05   -0.023322461012194838   -0.0018696675479415456
-0.004289827854203495   -0.02341794645265829   -0.0019124951047602545
0.0002565511404585454   -0.014861694600511363   -0.001634284516689704
0.00023010890761665203   -0.014826524426642968   -0.0016593505801859513
-3.111057610926171e-06   -0.02329958941374477   -0.0019292435162474514
0.0040701884900151575   -0.014910494182725238   -0.001609821855426241
0.0002461853442845342   -0.014859218331327589   -0.0016425816221016262
-3.111057610926171e-06   -0.02329958941374477   -0.0019292435162474514
0.004451494549356965   -0.02333825485512534   -0.0019024699937975097
0.0040701884900151575   -0.014910494182725238   -0.001609821855426241
0.00447059171939613   -0.023328312416298874   -0.0019052658378595762
0.0002461853442845342   -0.014859218331327589   -0.0016425816221016262
0.004084270062482601   -0.014905734386621091   -0.0016487290966049506
0.00447059171939613   -0.023328312416298874   -0.0019052658378595762
0.0040701884900151575   -0.014910494182725238   -0.001609821855426241
0.0002461853442845342   -0.014859218331327589   -0.0016425816221016262
0.00447059171939613   -0.023328312416298874   -0.0019052658378595762
1.2519038612997331e-05   -0.02332457283734126   -0.0019005048046891054
-3.111057610926171e-06   -0.02329958941374477   -0.0019292435162474514
0.0002461853442845342   -0.014859218331327589   -0.0016425816221016262
0.00447059171939613   -0.023328312416298874   -0.0019052658378595762
-3.111057610926171e-06   -0.02329958941374477   -0.0019292435162474514
0.0040701884900151575   -0.014910494182725238   -0.001609821855426241
0.0002461853442845342   -0.014859218331327589   -0.0016425816221016262
1.2519038612997331e-05   -0.02332457283734126   -0.0019005048046891054
0.004084270062482601   -0.014905734386621091   -0.0016487290966049506
0.0002565511404585454   -0.014861694600511363   -0.001634284516689704
1.2519038612997331e-05   -0.02332457283734126   -0.0019005048046891054
0.00447059171939613   -0.023328312416298874   -0.0019052658378595762
0.004084270062482601   -0.014905734386621091   -0.0016487290966049506
0.004472292305346031   -0.023302420493677044   -0.0019163411885251384
0.0002565511404585454   -0.014861694600511363   -0.001634284516689704
0.0040741355135504335   -0.014871412010866919   -0.0016954856859200326
0.004472292305346031   -0.023302420493677044   -0.0019163411885251384
0.004084270062482601   -0.014905734386621091   -0.0016487290966049506
0.0002565511404585454   -0.014861694600511363   -0.001634284516689704
0.004472292305346031   -0.023302420493677044   -0.0019163411885251384
2.3704264011539876e-05   -0.023332275748993284   -0.0018805172835818671
1.2519038612997331e-05   -0.02332457283734126   -0.0019005048046891054
0.0002565511404585454   -0.014861694600511363   -0.001634284516689704
0.004472292305346031   -0.023302420493677044   -0.0019163411885251384
1.2519038612997331e-05   -0.02332457283734126   -0.0019005048046891054
0.004084270062482601   -0.014905734386621091   -0.0016487290966049506
0.0002565511404585454   -0.014861694600511363   -0.001634284516689704
2.3704264011539876e-05   -0.023332275748993284   -0.0018805172835818671
0.0040741355135504335   -0.014871412010866919   -0.0016954856859200326
0.00026409738627978016   -0.01483350296685549   -0.0016349734177791885
2.3704264011539876e-05   -0.023332275748993284   -0.0018805172835818671
0.004472292305346031   -0.023302420493677044   -0.0019163411885251384
0.0040741355135504335   -0.014871412010866919   -0.0016954856859200326
0.004462789918418288   -0.023254107046258823   -0.0019360121312294214
0.00026409738627978016   -0.01483350296685549   -0.0016349734177791885
0.004058837188247753   -0.014800199044123849   -0.0017510221591047737
0.004462789918418288   -0.023254107046258823   -0.0019360121312294214
0.0040741355135504335   -0.014871412010866919   -0.0016954856859200326
0.00026409738627978016   -0.01483350296685549   -0.0016349734177791885
0.004462789918418288   -0.023254107046258823   -0.0019360121312294214
3.088405171792316e-05   -0.023322461012194838   -0.0018696675479415456
2.3704264011539876e-05   -0.023332275748993284   -0.0018805172835818671
0.00026409738627978016   -0.01483350296685549   -0.0016349734177791885
0.004462789918418288   -0.023254107046258823   -0.0019360121312294214
2.3704264011539876e-05   -0.023332275748993284   -0.0018805172835818671
0.0040741355135504335   -0.014871412010866919   -0.0016954856859200326
0.0040701884900151575   -0.014910494182725238   -0.001609821855426241
0.004451494549356965   -0.02333825485512534   -0.0019024699937975097
0.008443573145057568   -0.015062753678850795   -0.0016109996882133623
0.004084270062482601   -0.014905734386621091   -0.0016487290966049506
0.004451494549356965   -0.02333825485512534   -0.0019024699937975097
0.009370452874163583   -0.023409273845291147   -0.0019279981752448909
0.008443573145057568   -0.015062753678850795   -0.0016109996882133623
0.009362210621110787   -0.023375668290414126   -0.001964794475944509
0.004084270062482601   -0.014905734386621091   -0.0016487290966049506
0.00837045422938834   -0.015036402496397035   -0.0017127261358403979
0.009362210621110787   -0.023375668290414126   -0.001964794475944509
0.008443573145057568   -0.015062753678850795   -0.0016109996882133623
0.004084270062482601   -0.014905734386621091   -0.0016487290966049506
0.009362210621110787   -0.023375668290414126   -0.001964794475944509
0.00447059171939613   -0.023328312416298874   -0.0019052658378595762
0.004451494549356965   -0.02333825485512534   -0.0019024699937975097
0.004084270062482601   -0.014905734386621091   -0.0016487290966049506
0.009362210621110787   -0.023375668290414126   -0.001964794475944509
0.004451494549356965   -0.02333825485512534   -0.0019024699937975097
0.008443573145057568   -0.015062753678850795   -0.0016109996882133623
0.004084270062482601   -0.014905734386621091   -0.0016487290966049506
0.00447059171939613   -0.023328312416298874   -0.0019052658378595762
0.00837045422938834   -0.015036402496397035   -0.0017127261358403979
0.0040741355135504335   -0.014871412010866919   -0.0016954856859200326
0.00447059171939613   -0.023328312416298874   -0.0019052658378595762
0.009362210621110787   -0.023375668290414126   -0.001964794475944509
0.00837045422938834   -0.015036402496397035   -0.0017127261358403979
0.009339122545244447   -0.023333446410647853   -0.0020150253002172666
0.0040741355135504335   -0.014871412010866919   -0.0016954856859200326
0.008297419303369953   -0.014983572377646236   -0.0018286071029786958
0.009339122545244447   -0.023333446410647853   -0.0020150253002172666
0.00837045422938834   -0.015036402496397035   -0.0017127261358403979
0.0040741355135504335   -0.014871412010866919   -0.0016954856859200326
0.009339122545244447   -0.023333446410647853   -0.0020150253002172666
0.004472292305346031   -0.023302420493677044   -0.0019163411885251384
0.00447059171939613   -0.023328312416298874   -0.0019052658378595762
0.0040741355135504335   -0.014871412010866919   -0.0016954856859200326
0.009339122545244447   -0.023333446410647853   -0.0020150253002172666
0.00447059171939613   -0.023328312416298874   -0.0019052658378595762
0.00837045422938834   -0.015036402496397035   -0.0017127261358403979
0.0040741355135504335   -0.014871412010866919   -0.0016954856859200326
0.004472292305346031   -0.023302420493677044   -0.0019163411885251384
0.008297419303369953   -0.014983572377646236   -0.0018286071029786958
0.004058837188247753   -0.014800199044123849   -0.0017510221591047737
0.004472292305346031   -0.023302420493677044   -0.0019163411885251384
0.009339122545244447   -0.023333446410647853   -0.0020150253002172666
0.008297419303369953   -0.014983572377646236   -0.0018286071029786958
0.009275545124411085   -0.02325304264813965   -0.0020785931991193505
0.004058837188247753   -0.014800199044123849   -0.0017510221591047737
0.008167450668984885   -0.014872832225416903   -0.001958657729841886
0.009275545124411085   -0.02325304264813965   -0.0020785931991193505
0.008297419303369953   -0.014983572377646236   -0.0018286071029786958
0.004058837188247753   -0.014800199044123849   -0.0017510221591047737
0.009275545124411085   -0.02325304264813965   -0.0020785931991193505
0.004462789918418288   -0.023254107046258823   -0.0019360121312294214
0.004472292305346031   -0.023302420493677044   -0.0019163411885251384
0.004058837188247753   -0.014800199044123849   -0.0017510221591047737
0.009275545124411085   -0.02325304264813965   -0.0020785931991193505
0.004472292305346031   -0.023302420493677044   -0.0019163411885251384
0.008297419303369953   -0.014983572377646236   -0.0018286071029786958
-0.013458585269918371   -0.0235050626421173   -0.0024160834223271865
-0.014781849440581035   -0.03261589194935854   -0.002460645009955889
-0.008736376873219659   -0.02337714740699022   -0.002183750258397978
-0.0135933224031986   -0.023638908589089635   -0.0022854221290880394
-0.014781849440581035   -0.03261589194935854   -0.002460645009955889
-0.0097138283876828   -0.032563813251346226   -0.002275670919781756
-0.008736376873219659   -0.02337714740699022   -0.002183750258397978
-0.009709767639789289   -0.03264815773865604   -0.0022203246180869884
-0.0135933224031986   -0.023638908589089635   -0.0022854221290880394
-0.008746671276378789   -0.0234760740901467   -0.002093481794724675
-0.009709767639789289   -0.03264815773865604   -0.0022203246180869884
-0.008736376873219659   -0.02337714740699022   -0.002183750258397978
-0.0135933224031986   -0.023638908589089635   -0.0022854221290880394
-0.009709767639789289   -0.03264815773865604   -0.0022203246180869884
-0.014844637202981669   -0.032729284697106585   -0.0023933280904008926
-0.014781849440581035   -0.03261589194935854   -0.002460645009955889
-0.0135933224031986   -0.023638908589089635   -0.0022854221290880394
-0.009709767639789289   -0.03264815773865604   -0.0022203246180869884
-0.014781849440581035   -0.03261589194935854   -0.002460645009955889
-0.008736376873219659   -0.02337714740699022   -0.002183750258397978
-0.0135933224031986   -0.023638908589089635   -0.0022854221290880394
-0.014844637202981669   -0.032729284697106585   -0.0023933280904008926
-0.008746671276378789   -0.0234760740901467   -0.002093481794724675
-0.01367052728554467   -0.02373363297711765   -0.002167308144179178
-0.014844637202981669   -0.032729284697106585   -0.0023933280904008926
-0.009709767639789289   -0.03264815773865604   -0.0022203246180869884
-0.008746671276378789   -0.0234760740901467   -0.002093481794724675
-0.00969654880131624   -0.032725993735188245   -0.002174169222039658
-0.01367052728554467   -0.02373363297711765   -0.002167308144179178
-0.008753947115278209   -0.023554523443546544   -0.0020122124626728278
-0.00969654880131624   -0.032725993735188245   -0.002174169222039658
-0.008746671276378789   -0.0234760740901467   -0.002093481794724675
-0.01367052728554467   -0.02373363297711765   -0.002167308144179178
-0.00969654880131624   -0.032725993735188245   -0.002174169222039658
-0.014864469736748763   -0.03282180476649207   -0.002339239055586715
-0.014844637202981669   -0.032729284697106585   -0.0023933280904008926
-0.01367052728554467   -0.02373363297711765   -0.002167308144179178
-0.00969654880131624   -0.032725993735188245   -0.002174169222039658
-0.014844637202981669   -0.032729284697106585   -0.0023933280904008926
-0.008746671276378789   -0.0234760740901467   -0.002093481794724675
-0.01367052728554467   -0.02373363297711765   -0.002167308144179178
-0.014864469736748763   -0.03282180476649207   -0.002339239055586715
-0.008753947115278209   -0.023554523443546544   -0.0020122124626728278
-0.013750034123270654   -0.023818586740915852   -0.002063234198226374
-0.014864469736748763   -0.03282180476649207   -0.002339239055586715
-0.00969654880131624   -0.032725993735188245   -0.002174169222039658
-0.008753947115278209   -0.023554523443546544   -0.0020122124626728278
-0.009664274527572644   -0.03280325701250989   -0.0021365582965979773
-0.013750034123270654   -0.023818586740915852   -0.002063234198226374
-0.008735618434398242   -0.023619003564065846   -0.0019387446081345137
-0.009664274527572644   -0.03280325701250989   -0.0021365582965979773
-0.008753947115278209   -0.023554523443546544   -0.0020122124626728278
-0.013750034123270654   -0.023818586740915852   -0.002063234198226374
-0.009664274527572644   -0.03280325701250989   -0.0021365582965979773
-0.01487092578060774   -0.03292233193822366   -0.002299516752763554
-0.014864469736748763   -0.03282180476649207   -0.002339239055586715
-0.013750034123270654   -0.023818586740915852   -0.002063234198226374
-0.009664274527572644   -0.03280325701250989   -0.0021365582965979773
-0.014864469736748763   -0.03282180476649207   -0.002339239055586715
-0.008753947115278209   -0.023554523443546544   -0.0020122124626728278
-0.008736376873219659   -0.02337714740699022   -0.002183750258397978
-0.0097138283876828   -0.032563813251346226   -0.002275670919781756
-0.004309612190315344   -0.023310992714369514   -0.0020228804050339685
-0.008746671276378789   -0.0234760740901467   -0.002093481794724675
-0.0097138283876828   -0.032563813251346226   -0.002275670919781756
-0.005006038431262978   -0.03253387388601894   -0.0021497494674873386
-0.004309612190315344   -0.023310992714369514   -0.0020228804050339685
-0.004988258780027121   -0.03258490596488148   -0.002101460334895562
-0.008746671276378789   -0.0234760740901467   -0.002093481794724675
-0.004301216962746307   -0.023373050535467357   -0.0019632563891178547
-0.004988258780027121   -0.03258490596488148   -0.002101460334895562
-0.004309612190315344   -0.023310992714369514   -0.0020228804050339685
-0.008746671276378789   -0.0234760740901467   -0.002093481794724675
-0.004988258780027121   -0.03258490596488148   -0.002101460334895562
-0.009709767639789289   -0.03264815773865604   -0.0022203246180869884
-0.0097138283876828   -0.032563813251346226   -0.002275670919781756
-0.008746671276378789   -0.0234760740901467   -0.002093481794724675
-0.004988258780027121   -0.03258490596488148   -0.002101460334895562
-0.0097138283876828   -0.032563813251346226   -0.002275670919781756
-0.004309612190315344   -0.023310992714369514   -0.0020228804050339685
-0.008746671276378789   -0.0234760740901467   -0.002093481794724675
-0.009709767639789289   -0.03264815773865604   -0.0022203246180869884
-0.004301216962746307   -0.023373050535467357   -0.0019632563891178547
-0.008753947115278209   -0.023554523443546544   -0.0020122124626728278
-0.009709767639789289   -0.03264815773865604   -0.0022203246180869884
-0.004988258780027121   -0.03258490596488148   -0.002101460334895562
-0.004301216962746307   -0.023373050535467357   -0.0019632563891178547
-0.004966503407961896   -0.03263176041542727   -0.002062368448740006
-0.008753947115278209   -0.023554523443546544   -0.0020122124626728278
-0.004289827854203495   -0.02341794645265829   -0.0019124951047602545
-0.004966503407961896   -0.03263176041542727   -0.002062368448740006
-0.004301216962746307   -0.023373050535467357   -0.0019632563891178547
-0.008753947115278209   -0.023554523443546544   -0.0020122124626728278
-0.004966503407961896   -0.03263176041542727   -0.002062368448740006
-0.00969654880131624   -0.032725993735188245   -0.002174169222039658
-0.009709767639789289   -0.03264815773865604   -0.0022203246180869884
-0.008753947115278209   -0.023554523443546544   -0.0020122124626728278
-0.004966503407961896   -0.03263176041542727   -0.002062368448740006
-0.009709767639789289   -0.03264815773865604   -0.0022203246180869884
-0.004301216962746307   -0.023373050535467357   -0.0019632563891178547
-0.008753947115278209   -0.023554523443546544   -0.0020122124626728278
-0.00969654880131624   -0.032725993735188245   -0.002174169222039658
-0.004289827854203495   -0.02341794645265829   -0.0019124951047602545
-0.008735618434398242   -0.023619003564065846   -0.0019387446081345137
-0.00969654880131624   -0.032725993735188245   -0.002174169222039658
-0.004966503407961896   -0.03263176041542727   -0.002062368448740006
-0.004289827854203495   -0.02341794645265829   -0.0019124951047602545
-0.004940399088813745   -0.0326745917630391   -0.0020326960823977237
-0.008735618434398242   -0.023619003564065846   -0.0019387446081345137
-0.0042729366604402005   -0.023445975000999396   -0.001870744244093019
-0.004940399088813745   -0.0326745917630391   -0.0020326960823977237
-0.004289827854203495   -0.02341794645265829   -0.0019124951047602545
-0.008735618434398242   -0.023619003564065846   -0.0019387446081345137
-0.004940399088813745   -0.0326745917630391   -0.0020326960823977237
-0.009664274527572644   -0.03280325701250989   -0.0021365582965979773
-0.00969654880131624   -0.032725993735188245   -0.002174169222039658
-0.008735618434398242   -0.023619003564065846   -0.0019387446081345137
-0.004940399088813745   -0.0326745917630391   -0.0020326960823977237
-0.00969654880131624   -0.032725993735188245   -0.002174169222039658
-0.004289827854203495   -0.02341794645265829   -0.0019124951047602545
-0.004309612190315344   -0.023310992714369514   -0.0020228804050339685
-0.005006038431262978   -0.03253387388601894   -0.0021497494674873386
-3.111057610926171e-06   -0.02329958941374477   -0.0019292435162474514
-0.004301216962746307   -0.023373050535467357   -0.0019632563891178547
-0.005006038431262978   -0.03253387388601894   -0.0021497494674873386
-0.00042565062497029683   -0.03251668842942187   -0.002084678962395416
-3.111057610926171e-06   -0.02329958941374477   -0.0019292435162474514
-0.0004008782997391862   -0.032533784210278936   -0.002043932309284986
-0.004301216962746307   -0.023373050535467357   -0.0019632563891178547
1.2519038612997331e-05   -0.02332457283734126   -0.0019005048046891054
-0.0004008782997391862   -0.032533784210278936   -0.002043932309284986
-3.111057610926171e-06   -0.02329958941374477   -0.0019292435162474514
-0.004301216962746307   -0.023373050535467357   -0.0019632563891178547
-0.0004008782997391862   -0.032533784210278936   -0.002043932309284986
-0.004988258780027121   -0.03258490596488148   -0.002101460334895562
-0.005006038431262978   -0.03253387388601894   -0.0021497494674873386
-0.004301216962746307   -0.023373050535467357   -0.0019632563891178547
-0.0004008782997391862   -0.032533784210278936   -0.002043932309284986
-0.005006038431262978   -0.03253387388601894   -0.0021497494674873386
-3.111057610926171e-06   -0.02329958941374477   -0.0019292435162474514
-0.004301216962746307   -0.023373050535467357   -0.0019632563891178547
-0.004988258780027121   -0.03258490596488148   -0.002101460334895562
1.2519038612997331e-05   -0.02332457283734126   -0.0019005048046891054
-0.004289827854203495   -0.02341794645265829   -0.0019124951047602545
-0.004988258780027121   -0.03258490596488148   -0.002101460334895562
-0.0004008782997391862   -0.032533784210278936   -0.002043932309284986
1.2519038612997331e-05   -0.02332457283734126   -0.0019005048046891054
-0.0003794006289981453   -0.03254640538553176   -0.0020123045700638107
-0.004289827854203495   -0.02341794645265829   -0.0019124951047602545
2.3704264011539876e-05   -0.023332275748993284   -0.0018805172835818671
-0.0003794006289981453   -0.03254640538553176   -0.0020123045700638107
1.2519038612997331e-05   -0.02332457283734126   -0.0019005048046891054
-0.004289827854203495   -0.02341794645265829   -0.0019124951047602545
-0.0003794006289981453   -0.03254640538553176   -0.0020123045700638107
-0.004966503407961896   -0.03263176041542727   -0.002062368448740006
-0.004988258780027121   -0.03258490596488148   -0.002101460334895562
-0.004289827854203495   -0.02341794645265829   -0.0019124951047602545
-0.0003794006289981453   -0.03254640538553176   -0.0020123045700638107
-0.004988258780027121   -0.03258490596488148   -0.002101460334895562
1.2519038612997331e-05   -0.02332457283734126   -0.0019005048046891054
-0.004289827854203495   -0.02341794645265829   -0.0019124951047602545
-0.004966503407961896   -0.03263176041542727   -0.002062368448740006
2.3704264011539876e-05   -0.023332275748993284   -0.0018805172835818671
-0.0042729366604402005   -0.023445975000999396   -0.001870744244093019
-0.004966503407961896   -0.03263176041542727   -0.002062368448740006
-0.0003794006289981453   -0.03254640538553176   -0.0020123045700638107
2.3704264011539876e-05   -0.023332275748993284   -0.0018805172835818671
-0.0003629758100196445   -0.03255448645163063   -0.001990127570723652
-0.0042729366604402005   -0.023445975000999396   -0.001870744244093019
3.088405171792316e-05   -0.023322461012194838   -0.0018696675479415456
-0.0003629758100196445   -0.03255448645163063   -0.001990127570723652
2.3704264011539876e-05   -0.023332275748993284   -0.0018805172835818671
-0.0042729366604402005   -0.023445975000999396   -0.001870744244093019
-0.0003629758100196445   -0.03255448645163063   -0.001990127570723652
-0.004940399088813745   -0.0326745917630391   -0.0020326960823977237
-0.004966503407961896   -0.03263176041542727   -0.002062368448740006
-0.0042729366604402005   -0.023445975000999396   -0.001870744244093019
-0.0003629758100196445   -0.03255448645163063   -0.001990127570723652
-0.004966503407961896   -0.03263176041542727   -0.002062368448740006
2.3704264011539876e-05   -0.023332275748993284   -0.0018805172835818671
-3.111057610926171e-06   -0.02329958941374477   -0.0019292435162474514
-0.00042565062497029683   -0.03251668842942187   -0.002084678962395416
0.004451494549356965   -0.02333825485512534   -0.0019024699937975097
1.2519038612997331e-05   -0.02332457283734126   -0.0019005048046891054
-0.00042565062497029683   -0.03251668842942187   -0.002084678962395416
0.004294489799892434   -0.03250929457441778   -0.0020810408440568914
0.004451494549356965   -0.02333825485512534   -0.0019024699937975097
0.0043272629921330226   -0.032493512091175916   -0.0020482138212607253
1.2519038612997331e-05   -0.02332457283734126   -0.0019005048046891054
0.00447059171939613   -0.023328312416298874   -0.0019052658378595762
0.0043272629921330226   -0.032493512091175916   -0.0020482138212607253
0.004451494549356965   -0.02333825485512534   -0.0019024699937975097
1.2519038612997331e-05   -0.02332457283734126   -0.0019005048046891054
0.0043272629921330226   -0.032493512091175916   -0.0020482138212607253
-0.0004008782997391862   -0.032533784210278936   -0.002043932309284986
-0.00042565062497029683   -0.03251668842942187   -0.002084678962395416
1.2519038612997331e-05   -0.02332457283734126   -0.0019005048046891054
0.0043272629921330226   -0.032493512091175916   -0.0020482138212607253
-0.00042565062497029683   -0.03251668842942187   -0.002084678962395416
0.004451494549356965   -0.02333825485512534   -0.0019024699937975097
1.2519038612997331e-05   -0.02332457283734126   -0.0019005048046891054
-0.0004008782997391862   -0.032533784210278936   -0.002043932309284986
0.00447059171939613   -0.023328312416298874   -0.0019052658378595762
2.3704264011539876e-05   -0.023332275748993284   -0.0018805172835818671
-0.0004008782997391862   -0.032533784210278936   -0.002043932309284986
0.0043272629921330226   -0.032493512091175916   -0.0020482138212607253
0.00447059171939613   -0.023328312416298874   -0.0019052658378595762
0.004349295014859232   -0.03247515575652958   -0.002024243574548632
2.3704264011539876e-05   -0.023332275748993284   -0.0018805172835818671
0.004472292305346031   -0.023302420493677044   -0.0019163411885251384
0.004349295014859232   -0.03247515575652958   -0.002024243574548632
0.00447059171939613   -0.023328312416298874   -0.0019052658378595762
2.3704264011539876e-05   -0.023332275748993284   -0.0018805172835818671
0.004349295014859232   -0.03247515575652958   -0.002024243574548632
-0.0003794006289981453   -0.03254640538553176   -0.0020123045700638107
-0.0004008782997391862   -0.032533784210278936   -0.002043932309284986
2.3704264011539876e-05   -0.023332275748993284   -0.0018805172835818671
0.004349295014859232   -0.03247515575652958   -0.002024243574548632
-0.0004008782997391862   -0.032533784210278936   -0.002043932309284986
0.00447059171939613   -0.023328312416298874   -0.0019052658378595762
2.3704264011539876e-05   -0.023332275748993284   -0.0018805172835818671
-0.0003794006289981453   -0.03254640538553176   -0.0020123045700638107
0.004472292305346031   -0.023302420493677044   -0.0019163411885251384
3.088405171792316e-05   -0.023322461012194838   -0.0018696675479415456
-0.0003794006289981453   -0.03254640538553176   -0.0020123045700638107
0.004349295014859232   -0.03247515575652958   -0.002024243574548632
0.004472292305346031   -0.023302420493677044   -0.0019163411885251384
0.004353983516742729   -0.03244821627127886   -0.0020089490521957923
3.088405171792316e-05   -0.023322461012194838   -0.0018696675479415456
0.004462789918418288   -0.023254107046258823   -0.0019360121312294214
0.004353983516742729   -0.03244821627127886   -0.0020089490521957923
0.004472292305346031   -0.023302420493677044   -0.0019163411885251384
3.088405171792316e-05   -0.023322461012194838   -0.0018696675479415456
0.004353983516742729   -0.03244821627127886   -0.0020089490521957923
-0.0003629758100196445   -0.03255448645163063   -0.001990127570723652
-0.0003794006289981453   -0.03254640538553176   -0.0020123045700638107
3.088405171792316e-05   -0.023322461012194838   -0.0018696675479415456
0.004353983516742729   -0.03244821627127886   -0.0020089490521957923
-0.0003794006289981453   -0.03254640538553176   -0.0020123045700638107
0.004472292305346031   -0.023302420493677044   -0.0019163411885251384
0.004451494549356965   -0.02333825485512534   -0.0019024699937975097
0.004294489799892434   -0.03250929457441778   -0.0020810408440568914
0.009370452874163583   -0.023409273845291147   -0.0019279981752448909
0.00447059171939613   -0.023328312416298874   -0.0019052658378595762
0.004294489799892434   -0.03250929457441778   -0.0020810408440568914
0.00940951838217012   -0.03249898795258761   -0.0021327130337895073
0.009370452874163583   -0.023409273845291147   -0.0019279981752448909
0.009473609264259952   -0.03245721219870452   -0.002105725170638237
0.00447059171939613   -0.023328312416298874   -0.0019052658378595762
0.009362210621110787   -0.023375668290414126   -0.001964794475944509
0.009473609264259952   -0.03245721219870452   -0.002105725170638237
0.009370452874163583   -0.023409273845291147   -0.0019279981752448909
0.00447059171939613   -0.023328312416298874   -0.0019052658378595762
0.009473609264259952   -0.03245721219870452   -0.002105725170638237
0.0043272629921330226   -0.032493512091175916   -0.0020482138212607253
0.004294489799892434   -0.03250929457441778   -0.0020810408440568914
0.00447059171939613   -0.023328312416298874   -0.0019052658378595762
0.009473609264259952   -0.03245721219870452   -0.002105725170638237
0.004294489799892434   -0.03250929457441778   -0.0020810408440568914
0.009370452874163583   -0.023409273845291147   -0.0019279981752448909
0.00447059171939613   -0.023328312416298874   -0.0019052658378595762
0.0043272629921330226   -0.032493512091175916   -0.0020482138212607253
0.009362210621110787   -0.023375668290414126   -0.001964794475944509
0.004472292305346031   -0.023302420493677044   -0.0019163411885251384
0.0043272629921330226   -0.032493512091175916   -0.0020482138212607253
0.009473609264259952   -0.03245721219870452   -0.002105725170638237
0.009362210621110787   -0.023375668290414126   -0.001964794475944509
0.00950763915478391   -0.032424240595218985   -0.002092197268915854
0.004472292305346031   -0.023302420493677044   -0.0019163411885251384
0.009339122545244447   -0.023333446410647853   -0.0020150253002172666
0.00950763915478391   -0.032424240595218985   -0.002092197268915854
0.009362210621110787   -0.023375668290414126   -0.001964794475944509
0.004472292305346031   -0.023302420493677044   -0.0019163411885251384
0.00950763915478391   -0.032424240595218985   -0.002092197268915854
0.004349295014859232   -0.03247515575652958   -0.002024243574548632
0.0043272629921330226   -0.032493512091175916   -0.0020482138212607253
0.004472292305346031   -0.023302420493677044   -0.0019163411885251384
0.00950763915478391   -0.032424240595218985   -0.002092197268915854
0.0043272629921330226   -0.032493512091175916   -0.0020482138212607253
0.009362210621110787   -0.023375668290414126   -0.001964794475944509
0.004472292305346031   -0.023302420493677044   -0.0019163411885251384
0.004349295014859232   -0.03247515575652958   -0.002024243574548632
0.009339122545244447   -0.023333446410647853   -0.0020150253002172666
0.004462789918418288   -0.023254107046258823   -0.0019360121312294214
0.004349295014859232   -0.03247515575652958   -0.002024243574548632
0.00950763915478391   -0.032424240595218985   -0.002092197268915854
0.009339122545244447   -0.023333446410647853   -0.0020150253002172666
0.009516157132033095   -0.03237139816647528   -0.0020923587973002036
0.004462789918418288   -0.023254107046258823   -0.0019360121312294214
0.009275545124411085   -0.02325304264813965   -0.0020785931991193505
0.009516157132033095   -0.03237139816647528   -0.0020923587973002036
0.009339122545244447   -0.023333446410647853   -0.0020150253002172666
0.004462789918418288   -0.023254107046258823   -0.0019360121312294214
0.009516157132033095   -0.03237139816647528   -0.0020923587973002036
0.004353983516742729   -0.03244821627127886   -0.0020089490521957923
0.004349295014859232   -0.03247515575652958   -0.002024243574548632
0.004462789918418288   -0.023254107046258823   -0.0019360121312294214
0.009516157132033095   -0.03237139816647528   -0.0020923587973002036
0.004349295014859232   -0.03247515575652958   -0.002024243574548632
0.009339122545244447   -0.023333446410647853   -0.0020150253002172666
-0.014781849440581035   -0.03261589194935854   -0.002460645009955889
-0.015242193015822622   -0.04188894279632393   -0.002419389423352718
-0.0097138283876828   -0.032563813251346226   -0.002275670919781756
-0.014844637202981669   -0.032729284697106585   -0.0023933280904008926
-0.015242193015822622   -0.04188894279632393   -0.002419389423352718
-0.010180990830857963   -0.04191322190996087   -0.002282693990669011
-0.0097138283876828   -0.032563813251346226   -0.002275670919781756
-0.010153567433699044   -0.04198270435653031   -0.0022617176054056374
-0.014844637202981669   -0.032729284697106585   -0.0023933280904008926
-0.009709767639789289   -0.03264815773865604   -0.0022203246180869884
-0.010153567433699044   -0.04198270435653031   -0.0022617176054056374
-0.0097138283876828   -0.032563813251346226   -0.002275670919781756
-0.014844637202981669   -0.032729284697106585   -0.0023933280904008926
-0.010153567433699044   -0.04198270435653031   -0.0022617176054056374
-0.015224449196112407   -0.041981916699490876   -0.00241511118897403
-0.015242193015822622   -0.04188894279632393   -0.002419389423352718
-0.014844637202981669   -0.032729284697106585   -0.0023933280904008926
-0.010153567433699044   -0.04198270435653031   -0.0022617176054056374
-0.015242193015822622   -0.04188894279632393   -0.002419389423352718
-0.0097138283876828   -0.032563813251346226   -0.002275670919781756
-0.014844637202981669   -0.032729284697106585   -0.0023933280904008926
-0.015224449196112407   -0.041981916699490876   -0.00241511118897403
-0.009709767639789289   -0.03264815773865604   -0.0022203246180869884
-0.014864469736748763   -0.03282180476649207   -0.002339239055586715
-0.015224449196112407   -0.041981916699490876   -0.00241511118897403
-0.010153567433699044   -0.04198270435653031   -0.0022617176054056374
-0.009709767639789289   -0.03264815773865604   -0.0022203246180869884
-0.010110870318296767   -0.042059722892682526   -0.002250207616377371
-0.014864469736748763   -0.03282180476649207   -0.002339239055586715
-0.00969654880131624   -0.032725993735188245   -0.002174169222039658
-0.010110870318296767   -0.042059722892682526   -0.002250207616377371
-0.009709767639789289   -0.03264815773865604   -0.0022203246180869884
-0.014864469736748763   -0.03282180476649207   -0.002339239055586715
-0.010110870318296767   -0.042059722892682526   -0.002250207616377371
-0.015177707733944694   -0.04207223259820304   -0.0024249785599032474
-0.015224449196112407   -0.041981916699490876   -0.00241511118897403
-0.014864469736748763   -0.03282180476649207   -0.002339239055586715
-0.010110870318296767   -0.042059722892682526   -0.002250207616377371
-0.015224449196112407   -0.041981916699490876   -0.00241511118897403
-0.009709767639789289   -0.03264815773865604   -0.0022203246180869884
-0.014864469736748763   -0.03282180476649207   -0.002339239055586715
-0.015177707733944694   -0.04207223259820304   -0.0024249785599032474
-0.00969654880131624   -0.032725993735188245   -0.002174169222039658
-0.01487092578060774   -0.03292233193822366   -0.002299516752763554
-0.015177707733944694   -0.04207223259820304   -0.0024249785599032474
-0.010110870318296767   -0.042059722892682526   -0.002250207616377371
-0.00969654880131624   -0.032725993735188245   -0.002174169222039658
-0.010055621825929199   -0.042149583104199785   -0.002248007984127015
-0.01487092578060774   -0.03292233193822366   -0.002299516752763554
-0.009664274527572644   -0.03280325701250989   -0.0021365582965979773
-0.010055621825929199   -0.042149583104199785   -0.002248007984127015
-0.00969654880131624   -0.032725993735188245   -0.002174169222039658
-0.01487092578060774   -0.03292233193822366   -0.002299516752763554
-0.010055621825929199   -0.042149583104199785   -0.002248007984127015
-0.015101966245692747   -0.042188610558552365   -0.0024497098688493744
-0.015177707733944694   -0.04207223259820304   -0.0024249785599032474
-0.01487092578060774   -0.03292233193822366   -0.002299516752763554
-0.010055621825929199   -0.042149583104199785   -0.002248007984127015
-0.015177707733944694   -0.04207223259820304   -0.0024249785599032474
-0.00969654880131624   -0.032725993735188245   -0.002174169222039658
-0.0097138283876828   -0.032563813251346226   -0.002275670919781756
-0.010180990830857963   -0.04191322190996087   -0.002282693990669011
-0.005006038431262978   -0.03253387388601894   -0.0021497494674873386
-0.009709767639789289   -0.03264815773865604   -0.0022203246180869884
-0.010180990830857963   -0.04191322190996087   -0.002282693990669011
-0.005544793713589724   -0.041918453425308956   -0.002191846521181616
-0.005006038431262978   -0.03253387388601894   -0.0021497494674873386
-0.005508152152454392   -0.04195829004307376   -0.0021545556442367567
-0.009709767639789289   -0.03264815773865604   -0.0022203246180869884
-0.004988258780027121   -0.03258490596488148   -0.002101460334895562
-0.005508152152454392   -0.04195829004307376   -0.0021545556442367567
-0.005006038431262978   -0.03253387388601894   -0.0021497494674873386
-0.009709767639789289   -0.03264815773865604   -0.0022203246180869884
-0.005508152152454392   -0.04195829004307376   -0.0021545556442367567
-0.010153567433699044   -0.04198270435653031   -0.0022617176054056374
-0.010180990830857963   -0.04191322190996087   -0.002282693990669011
-0.009709767639789289   -0.03264815773865604   -0.0022203246180869884
-0.005508152152454392   -0.04195829004307376   -0.0021545556442367567
-0.010180990830857963   -0.04191322190996087   -0.002282693990669011
-0.005006038431262978   -0.03253387388601894   -0.0021497494674873386
-0.009709767639789289   -0.03264815773865604   -0.0022203246180869884
-0.010153567433699044   -0.04198270435653031   -0.0022617176054056374
-0.004988258780027121   -0.03258490596488148   -0.002101460334895562
-0.00969654880131624   -0.032725993735188245   -0.002174169222039658
-0.010153567433699044   -0.04198270435653031   -0.0022617176054056374
-0.005508152152454392   -0.04195829004307376   -0.0021545556442367567
-0.004988258780027121   -0.03258490596488148   -0.002101460334895562
-0.005466778248357814   -0.042006760623040984   -0.0021267660007510875
-0.00969654880131624   -0.032725993735188245   -0.002174169222039658
-0.004966503407961896   -0.03263176041542727   -0.002062368448740006
-0.005466778248357814   -0.042006760623040984   -0.0021267660007510875
-0.004988258780027121   -0.03258490596488148   -0.002101460334895562
-0.00969654880131624   -0.032725993735188245   -0.002174169222039658
-0.005466778248357814   -0.042006760623040984   -0.0021267660007510875
-0.010110870318296767   -0.042059722892682526   -0.002250207616377371
-0.010153567433699044   -0.04198270435653031   -0.0022617176054056374
-0.00969654880131624   -0.032725993735188245   -0.002174169222039658
-0.005466778248357814   -0.042006760623040984   -0.0021267660007510875
-0.010153567433699044   -0.04198270435653031   -0.0022617176054056374
-0.004988258780027121   -0.03258490596488148   -0.002101460334895562
-0.00969654880131624   -0.032725993735188245   -0.002174169222039658
-0.010110870318296767   -0.042059722892682526   -0.002250207616377371
-0.004966503407961896   -0.03263176041542727   -0.002062368448740006
-0.009664274527572644   -0.03280325701250989   -0.0021365582965979773
-0.010110870318296767   -0.042059722892682526   -0.002250207616377371
-0.005466778248357814   -0.042006760623040984   -0.0021267660007510875
-0.004966503407961896   -0.03263176041542727   -0.002062368448740006
-0.005422201937758276   -0.042064016351342215   -0.0021087870650917263
-0.009664274527572644   -0.03280325701250989   -0.0021365582965979773
-0.004940399088813745   -0.0326745917630391   -0.0020326960823977237
-0.005422201937758276   -0.042064016351342215   -0.0021087870650917263
-0.004966503407961896   -0.03263176041542727   -0.002062368448740006
-0.009664274527572644   -0.03280325701250989   -0.0021365582965979773
-0.005422201937758276   -0.042064016351342215   -0.0021087870650917263
-0.010055621825929199   -0.042149583104199785   -0.002248007984127015
-0.010110870318296767   -0.042059722892682526   -0.002250207616377371
-0.009664274527572644   -0.03280325701250989   -0.0021365582965979773
-0.005422201937758276   -0.042064016351342215   -0.0021087870650917263
-0.010110870318296767   -0.042059722892682526   -0.002250207616377371
-0.004966503407961896   -0.03263176041542727   -0.002062368448740006
-0.005006038431262978   -0.03253387388601894   -0.0021497494674873386
-0.005544793713589724   -0.041918453425308956   -0.002191846521181616
-0.00042565062497029683   -0.03251668842942187   -0.002084678962395416
-0.004988258780027121   -0.03258490596488148   -0.002101460334895562
-0.005544793713589724   -0.041918453425308956   -0.002191846521181616
-0.0010397268631602502   -0.04189382985368831   -0.0021547812539785987
-0.00042565062497029683   -0.03251668842942187   -0.002084678962395416
-0.0009964212533191072   -0.041903017779219044   -0.002101988372694544
-0.004988258780027121   -0.03258490596488148   -0.002101460334895562
-0.0004008782997391862   -0.032533784210278936   -0.002043932309284986
-0.0009964212533191072   -0.041903017779219044   -0.002101988372694544
-0.00042565062497029683   -0.03251668842942187   -0.002084678962395416
-0.004988258780027121   -0.03258490596488148   -0.002101460334895562
-0.0009964212533191072   -0.041903017779219044   -0.002101988372694544
-0.005508152152454392   -0.04195829004307376   -0.0021545556442367567
-0.005544793713589724   -0.041918453425308956   -0.002191846521181616
-0.004988258780027121   -0.03258490596488148   -0.002101460334895562
-0.0009964212533191072   -0.041903017779219044   -0.002101988372694544
-0.005544793713589724   -0.041918453425308956   -0.002191846521181616
-0.00042565062497029683   -0.03251668842942187   -0.002084678962395416
-0.004988258780027121   -0.03258490596488148   -0.002101460334895562
-0.005508152152454392   -0.04195829004307376   -0.0021545556442367567
-0.0004008782997391862   -0.032533784210278936   -0.002043932309284986
-0.004966503407961896   -0.03263176041542727   -0.002062368448740006
-0.005508152152454392   -0.04195829004307376   -0.0021545556442367567
-0.0009964212533191072   -0.041903017779219044   -0.002101988372694544
-0.0004008782997391862   -0.032533784210278936   -0.002043932309284986
-0.0009554454150513939   -0.04192016706549095   -0.0020586306834245536
-0.004966503407961896   -0.03263176041542727   -0.002062368448740006
-0.0003794006289981453   -0.03254640538553176   -0.0020123045700638107
-0.0009554454150513939   -0.04192016706549095   -0.0020586306834245536
-0.0004008782997391862   -0.032533784210278936   -0.002043932309284986
-0.004966503407961896   -0.03263176041542727   -0.002062368448740006
-0.0009554454150513939   -0.04192016706549095   -0.0020586306834245536
-0.005466778248357814   -0.042006760623040984   -0.0021267660007510875
-0.005508152152454392   -0.04195829004307376   -0.0021545556442367567
-0.004966503407961896   -0.03263176041542727   -0.002062368448740006
-0.0009554454150513939   -0.04192016706549095   -0.0020586306834245536
-0.005508152152454392   -0.04195829004307376   -0.0021545556442367567
-0.0004008782997391862   -0.032533784210278936   -0.002043932309284986
-0.004966503407961896   -0.03263176041542727   -0.002062368448740006
-0.005466778248357814   -0.042006760623040984   -0.0021267660007510875
-0.0003794006289981453   -0.03254640538553176   -0.0020123045700638107
-0.004940399088813745   -0.0326745917630391   -0.0020326960823977237
-0.005466778248357814   -0.042006760623040984   -0.0021267660007510875
-0.0009554454150513939   -0.04192016706549095   -0.0020586306834245536
-0.0003794006289981453   -0.03254640538553176   -0.0020123045700638107
-0.0009206325725658938   -0.0419456674687357   -0.0020250370874556876
-0.004940399088813745   -0.0326745917630391   -0.0020326960823977237
-0.0003629758100196445   -0.03255448645163063   -0.001990127570723652
-0.0009206325725658938   -0.0419456674687357   -0.0020250370874556876
-0.0003794006289981453   -0.03254640538553176   -0.0020123045700638107
-0.004940399088813745   -0.0326745917630391   -0.0020326960823977237
-0.0009206325725658938   -0.0419456674687357   -0.0020250370874556876
-0.005422201937758276   -0.042064016351342215   -0.0021087870650917263
-0.005466778248357814   -0.042006760623040984   -0.0021267660007510875
-0.004940399088813745   -0.0326745917630391   -0.0020326960823977237
-0.0009206325725658938   -0.0419456674687357   -0.0020250370874556876
-0.005466778248357814   -0.042006760623040984   -0.0021267660007510875
-0.0003794006289981453   -0.03254640538553176   -0.0020123045700638107
-0.00042565062497029683   -0.03251668842942187   -0.002084678962395416
-0.0010397268631602502   -0.04189382985368831   -0.0021547812539785987
0.004294489799892434   -0.03250929457441778   -0.0020810408440568914
-0.0004008782997391862   -0.032533784210278936   -0.002043932309284986
-0.0010397268631602502   -0.04189382985368831   -0.0021547812539785987
0.0036008311116783507   -0.041839116514068644   -0.002173280195280188
0.004294489799892434   -0.03250929457441778   -0.0020810408440568914
0.003656039734684863   -0.04181754843150142   -0.0021052555784319637
-0.0004008782997391862   -0.032533784210278936   -0.002043932309284986
0.0043272629921330226   -0.032493512091175916   -0.0020482138212607253
0.003656039734684863   -0.04181754843150142   -0.0021052555784319637
0.004294489799892434   -0.03250929457441778   -0.0020810408440568914
-0.0004008782997391862   -0.032533784210278936   -0.002043932309284986
0.003656039734684863   -0.04181754843150142   -0.0021052555784319637
-0.0009964212533191072   -0.041903017779219044   -0.002101988372694544
-0.0010397268631602502   -0.04189382985368831   -0.0021547812539785987
-0.0004008782997391862   -0.032533784210278936   -0.002043932309284986
0.003656039734684863   -0.04181754843150142   -0.0021052555784319637
-0.0010397268631602502   -0.04189382985368831   -0.0021547812539785987
0.004294489799892434   -0.03250929457441778   -0.0020810408440568914
-0.0004008782997391862   -0.032533784210278936   -0.002043932309284986
-0.0009964212533191072   -0.041903017779219044   -0.002101988372694544
0.0043272629921330226   -0.032493512091175916   -0.0020482138212607253
-0.0003794006289981453   -0.03254640538553176   -0.0020123045700638107
-0.0009964212533191072   -0.041903017779219044   -0.002101988372694544
0.003656039734684863   -0.04181754843150142   -0.0021052555784319637
0.0043272629921330226   -0.032493512091175916   -0.0020482138212607253
0.003707089568967213   -0.04180632943817636   -0.002046637171831097
-0.0003794006289981453   -0.03254640538553176   -0.0020123045700638107
0.004349295014859232   -0.03247515575652958   -0.002024243574548632
0.003707089568967213   -0.04180632943817636   -0.002046637171831097
0.0043272629921330226   -0.032493512091175916   -0.0020482138212607253
-0.0003794006289981453   -0.03254640538553176   -0.0020123045700638107
0.003707089568967213   -0.04180632943817636   -0.002046637171831097
-0.0009554454150513939   -0.04192016706549095   -0.0020586306834245536
-0.0009964212533191072   -0.041903017779219044   -0.002101988372694544
-0.0003794006289981453   -0.03254640538553176   -0.0020123045700638107
0.003707089568967213   -0.04180632943817636   -0.002046637171831097
-0.0009964212533191072   -0.041903017779219044   -0.002101988372694544
0.0043272629921330226   -0.032493512091175916   -0.0020482138212607253
-0.0003794006289981453   -0.03254640538553176   -0.0020123045700638107
-0.0009554454150513939   -0.04192016706549095   -0.0020586306834245536
0.004349295014859232   -0.03247515575652958   -0.002024243574548632
-0.0003629758100196445   -0.03255448645163063   -0.001990127570723652
-0.0009554454150513939   -0.04192016706549095   -0.0020586306834245536
0.003707089568967213   -0.04180632943817636   -0.002046637171831097
0.004349295014859232   -0.03247515575652958   -0.002024243574548632
0.0037345680974214986   -0.04180004497447192   -0.0019968108784403616
-0.0003629758100196445   -0.03255448645163063   -0.001990127570723652
0.004353983516742729   -0.03244821627127886   -0.0020089490521957923
0.0037345680974214986   -0.04180004497447192   -0.0019968108784403616
0.004349295014859232   -0.03247515575652958   -0.002024243574548632
-0.0003629758100196445   -0.03255448645163063   -0.001990127570723652
0.0037345680974214986   -0.04180004497447192   -0.0019968108784403616
-0.0009206325725658938   -0.0419456674687357   -0.0020250370874556876
-0.0009554454150513939   -0.04192016706549095   -0.0020586306834245536
-0.0003629758100196445   -0.03255448645163063   -0.001990127570723652
0.0037345680974214986   -0.04180004497447192   -0.0019968108784403616
-0.0009554454150513939   -0.04192016706549095   -0.0020586306834245536
0.004349295014859232   -0.03247515575652958   -0.002024243574548632
0.004294489799892434   -0.03250929457441778   -0.0020810408440568914
0.0036008311116783507   -0.041839116514068644   -0.002173280195280188
0.00940951838217012   -0.03249898795258761   -0.0021327130337895073
0.0043272629921330226   -0.032493512091175916   -0.0020482138212607253
0.0036008311116783507   -0.041839116514068644   -0.002173280195280188
0.008568971156373109   -0.04174714591579741   -0.0022502796176795173
0.00940951838217012   -0.03249898795258761   -0.0021327130337895073
0.008712903464256927   -0.04169768818670955   -0.002160948431176041
0.0043272629921330226   -0.032493512091175916   -0.0020482138212607253
0.009473609264259952   -0.03245721219870452   -0.002105725170638237
0.008712903464256927   -0.04169768818670955   -0.002160948431176041
0.00940951838217012   -0.03249898795258761   -0.0021327130337895073
0.0043272629921330226   -0.032493512091175916   -0.0020482138212607253
0.008712903464256927   -0.04169768818670955   -0.002160948431176041
0.003656039734684863   -0.04181754843150142   -0.0021052555784319637
0.0036008311116783507   -0.041839116514068644   -0.002173280195280188
0.0043272629921330226   -0.032493512091175916   -0.0020482138212607253
0.008712903464256927   -0.04169768818670955   -0.002160948431176041
0.0036008311116783507   -0.041839116514068644   -0.002173280195280188
0.00940951838217012   -0.03249898795258761   -0.0021327130337895073
0.0043272629921330226   -0.032493512091175916   -0.0020482138212607253
0.003656039734684863   -0.04181754843150142   -0.0021052555784319637
0.009473609264259952   -0.03245721219870452   -0.002105725170638237
0.004349295014859232   -0.03247515575652958   -0.002024243574548632
0.003656039734684863   -0.04181754843150142   -0.0021052555784319637
0.008712903464256927   -0.04169768818670955   -0.002160948431176041
0.009473609264259952   -0.03245721219870452   -0.002105725170638237
0.008811873167841175   -0.041673699916293036   -0.002085015867657394
0.004349295014859232   -0.03247515575652958   -0.002024243574548632
0.00950763915478391   -0.032424240595218985   -0.002092197268915854
0.008811873167841175   -0.041673699916293036   -0.002085015867657394
0.009473609264259952   -0.03245721219870452   -0.002105725170638237
0.004349295014859232   -0.03247515575652958   -0.002024243574548632
0.008811873167841175   -0.041673699916293036   -0.002085015867657394
0.003707089568967213   -0.04180632943817636   -0.002046637171831097
0.003656039734684863   -0.04181754843150142   -0.0021052555784319637
0.004349295014859232   -0.03247515575652958   -0.002024243574548632
0.008811873167841175   -0.041673699916293036   -0.002085015867657394
0.003656039734684863   -0.04181754843150142   -0.0021052555784319637
0.009473609264259952   -0.03245721219870452   -0.002105725170638237
0.004349295014859232   -0.03247515575652958   -0.002024243574548632
0.003707089568967213   -0.04180632943817636   -0.002046637171831097
0.00950763915478391   -0.032424240595218985   -0.002092197268915854
0.004353983516742729   -0.03244821627127886   -0.0020089490521957923
0.003707089568967213   -0.04180632943817636   -0.002046637171831097
0.008811873167841175   -0.041673699916293036   -0.002085015867657394
0.00950763915478391   -0.032424240595218985   -0.002092197268915854
0.008899842614699012   -0.04164764694480454   -0.002023038873140679
0.004353983516742729   -0.03244821627127886   -0.0020089490521957923
0.009516157132033095   -0.03237139816647528   -0.0020923587973002036
0.008899842614699012   -0.04164764694480454   -0.002023038873140679
0.00950763915478391   -0.032424240595218985   -0.002092197268915854
0.004353983516742729   -0.03244821627127886   -0.0020089490521957923
0.008899842614699012   -0.04164764694480454   -0.002023038873140679
0.0037345680974214986   -0.04180004497447192   -0.0019968108784403616
0.003707089568967213   -0.04180632943817636   -0.002046637171831097
0.004353983516742729   -0.03244821627127886   -0.0020089490521957923
0.008899842614699012   -0.04164764694480454   -0.002023038873140679
0.003707089568967213   -0.04180632943817636   -0.002046637171831097
0.00950763915478391   -0.032424240595218985   -0.002092197268915854
-0.015242193015822622   -0.04188894279632393   -0.002419389423352718
-0.01483302429791692   -0.0507420905022538   -0.002313423804481535
-0.010180990830857963   -0.04191322190996087   -0.002282693990669011
-0.015224449196112407   -0.041981916699490876   -0.00241511118897403
-0.01483302429791692   -0.0507420905022538   -0.002313423804481535
-0.010138892036851255   -0.050844053288642777   -0.002231148434529307
-0.010180990830857963   -0.04191322190996087   -0.002282693990669011
-0.010079447847336736   -0.05089590549926246   -0.00224361285350525
-0.015224449196112407   -0.041981916699490876   -0.00241511118897403
-0.010153567433699044   -0.04198270435653031   -0.0022617176054056374
-0.010079447847336736   -0.05089590549926246   -0.00224361285350525
-0.010180990830857963   -0.04191322190996087   -0.002282693990669011
-0.015224449196112407   -0.041981916699490876   -0.00241511118897403
-0.010079447847336736   -0.05089590549926246   -0.00224361285350525
-0.014725707037922697   -0.05081210470055421   -0.002372281003725286
-0.01483302429791692   -0.0507420905022538   -0.002313423804481535
-0.015224449196112407   -0.041981916699490876   -0.00241511118897403
-0.010079447847336736   -0.05089590549926246   -0.00224361285350525
-0.01483302429791692   -0.0507420905022538   -0.002313423804481535
-0.010180990830857963   -0.04191322190996087   -0.002282693990669011
-0.015224449196112407   -0.041981916699490876   -0.00241511118897403
-0.014725707037922697   -0.05081210470055421   -0.002372281003725286
-0.010153567433699044   -0.04198270435653031   -0.0022617176054056374
-0.015177707733944694   -0.04207223259820304   -0.0024249785599032474
-0.014725707037922697   -0.05081210470055421   -0.002372281003725286
-0.010079447847336736   -0.05089590549926246   -0.00224361285350525
-0.010153567433699044   -0.04198270435653031   -0.0022617176054056374
-0.00999899663582778   -0.05096976793474136   -0.0022657773437031376
-0.015177707733944694   -0.04207223259820304   -0.0024249785599032474
-0.010110870318296767   -0.042059722892682526   -0.002250207616377371
-0.00999899663582778   -0.05096976793474136   -0.0022657773437031376
-0.010153567433699044   -0.04198270435653031   -0.0022617176054056374
-0.015177707733944694   -0.04207223259820304   -0.0024249785599032474
-0.00999899663582778   -0.05096976793474136   -0.0022657773437031376
-0.014603275852510837   -0.050898085115307745   -0.0024463926673693637
-0.014725707037922697   -0.05081210470055421   -0.002372281003725286
-0.015177707733944694   -0.04207223259820304   -0.0024249785599032474
-0.00999899663582778   -0.05096976793474136   -0.0022657773437031376
-0.014725707037922697   -0.05081210470055421   -0.002372281003725286
-0.010153567433699044   -0.04198270435653031   -0.0022617176054056374
-0.015177707733944694   -0.04207223259820304   -0.0024249785599032474
-0.014603275852510837   -0.050898085115307745   -0.0024463926673693637
-0.010110870318296767   -0.042059722892682526   -0.002250207616377371
-0.015101966245692747   -0.042188610558552365   -0.0024497098688493744
-0.014603275852510837   -0.050898085115307745   -0.0024463926673693637
-0.00999899663582778   -0.05096976793474136   -0.0022657773437031376
-0.010110870318296767   -0.042059722892682526   -0.002250207616377371
-0.00991268700959344   -0.0510701483004934   -0.0022979258515744786
-0.015101966245692747   -0.042188610558552365   -0.0024497098688493744
-0.010055621825929199   -0.042149583104199785   -0.002248007984127015
-0.00991268700959344   -0.0510701483004934   -0.0022979258515744786
-0.010110870318296767   -0.042059722892682526   -0.002250207616377371
-0.015101966245692747   -0.042188610558552365   -0.0024497098688493744
-0.00991268700959344   -0.0510701483004934   -0.0022979258515744786
-0.014436609982951614   -0.05102899029266142   -0.0025360435980429875
-0.014603275852510837   -0.050898085115307745   -0.0024463926673693637
-0.015101966245692747   -0.042188610558552365   -0.0024497098688493744
-0.00991268700959344   -0.0510701483004934   -0.0022979258515744786
-0.014603275852510837   -0.050898085115307745   -0.0024463926673693637
-0.010110870318296767   -0.042059722892682526   -0.002250207616377371
-0.010180990830857963   -0.04191322190996087   -0.002282693990669011
-0.010138892036851255   -0.050844053288642777   -0.002231148434529307
-0.005544793713589724   -0.041918453425308956   -0.002191846521181616
-0.010153567433699044   -0.04198270435653031   -0.0022617176054056374
-0.010138892036851255   -0.050844053288642777   -0.002231148434529307
-0.005930766619367046   -0.05088434474768487   -0.0021785018034943203
-0.005544793713589724   -0.041918453425308956   -0.002191846521181616
-0.005866050874257506   -0.05091128583532687   -0.002151346434791358
-0.010153567433699044   -0.04198270435653031   -0.0022617176054056374
-0.005508152152454392   -0.04195829004307376   -0.0021545556442367567
-0.005866050874257506   -0.05091128583532687   -0.002151346434791358
-0.005544793713589724   -0.041918453425308956   -0.002191846521181616
-0.010153567433699044   -0.04198270435653031   -0.0022617176054056374
-0.005866050874257506   -0.05091128583532687   -0.002151346434791358
-0.010079447847336736   -0.05089590549926246   -0.00224361285350525
-0.010138892036851255   -0.050844053288642777   -0.002231148434529307
-0.010153567433699044   -0.04198270435653031   -0.0022617176054056374
-0.005866050874257506   -0.05091128583532687   -0.002151346434791358
-0.010138892036851255   -0.050844053288642777   -0.002231148434529307
-0.005544793713589724   -0.041918453425308956   -0.002191846521181616
-0.010153567433699044   -0.04198270435653031   -0.0022617176054056374
-0.010079447847336736   -0.05089590549926246   -0.00224361285350525
-0.005508152152454392   -0.04195829004307376   -0.0021545556442367567
-0.010110870318296767   -0.042059722892682526   -0.002250207616377371
-0.010079447847336736   -0.05089590549926246   -0.00224361285350525
-0.005866050874257506   -0.05091128583532687   -0.002151346434791358
-0.005508152152454392   -0.04195829004307376   -0.0021545556442367567
-0.00579644209099613   -0.05095938620714701   -0.002133772550712514
-0.010110870318296767   -0.042059722892682526   -0.002250207616377371
-0.005466778248357814   -0.042006760623040984   -0.0021267660007510875
-0.00579644209099613   -0.05095938620714701   -0.002133772550712514
-0.005508152152454392   -0.04195829004307376   -0.0021545556442367567
-0.010110870318296767   -0.042059722892682526   -0.002250207616377371
-0.00579644209099613   -0.05095938620714701   -0.002133772550712514
-0.00999899663582778   -0.05096976793474136   -0.0022657773437031376
-0.010079447847336736   -0.05089590549926246   -0.00224361285350525
-0.010110870318296767   -0.042059722892682526   -0.002250207616377371
-0.00579644209099613   -0.05095938620714701   -0.002133772550712514
-0.010079447847336736   -0.05089590549926246   -0.00224361285350525
-0.005508152152454392   -0.04195829004307376   -0.0021545556442367567
-0.010110870318296767   -0.042059722892682526   -0.002250207616377371
-0.00999899663582778   -0.05096976793474136   -0.0022657773437031376
-0.005466778248357814   -0.042006760623040984   -0.0021267660007510875
-0.010055621825929199   -0.042149583104199785   -0.002248007984127015
-0.00999899663582778   -0.05096976793474136   -0.0022657773437031376
-0.00579644209099613   -0.05095938620714701   -0.002133772550712514
-0.005466778248357814   -0.042006760623040984   -0.0021267660007510875
-0.005724892873372512   -0.05102925249605302   -0.0021262501402201047
-0.010055621825929199   -0.042149583104199785   -0.002248007984127015
-0.005422201937758276   -0.042064016351342215   -0.0021087870650917263
-0.005724892873372512   -0.05102925249605302   -0.0021262501402201047
-0.005466778248357814   -0.042006760623040984   -0.0021267660007510875
-0.010055621825929199   -0.042149583104199785   -0.002248007984127015
-0.005724892873372512   -0.05102925249605302   -0.0021262501402201047
-0.00991268700959344   -0.0510701483004934   -0.0022979258515744786
-0.00999899663582778   -0.05096976793474136   -0.0022657773437031376
-0.010055621825929199   -0.042149583104199785   -0.002248007984127015
-0.005724892873372512   -0.05102925249605302   -0.0021262501402201047
-0.00999899663582778   -0.05096976793474136   -0.0022657773437031376
-0.005466778248357814   -0.042006760623040984   -0.0021267660007510875
-0.005544793713589724   -0.041918453425308956   -0.002191846521181616
-0.005930766619367046   -0.05088434474768487   -0.0021785018034943203
-0.0010397268631602502   -0.04189382985368831   -0.0021547812539785987
-0.005508152152454392   -0.04195829004307376   -0.0021545556442367567
-0.005930766619367046   -0.05088434474768487   -0.0021785018034943203
-0.0018500291350541406   -0.05085330733803972   -0.0021698803731718054
-0.0010397268631602502   -0.04189382985368831   -0.0021547812539785987
-0.0017784529908936796   -0.05085388510321622   -0.0021044642113413046
-0.005508152152454392   -0.04195829004307376   -0.0021545556442367567
-0.0009964212533191072   -0.041903017779219044   -0.002101988372694544
-0.0017784529908936796   -0.05085388510321622   -0.0021044642113413046
-0.0010397268631602502   -0.04189382985368831   -0.0021547812539785987
-0.005508152152454392   -0.04195829004307376   -0.0021545556442367567
-0.0017784529908936796   -0.05085388510321622   -0.0021044642113413046
-0.005866050874257506   -0.05091128583532687   -0.002151346434791358
-0.005930766619367046   -0.05088434474768487   -0.0021785018034943203
-0.005508152152454392   -0.04195829004307376   -0.0021545556442367567
-0.0017784529908936796   -0.05085388510321622   -0.0021044642113413046
-0.005930766619367046   -0.05088434474768487   -0.0021785018034943203
-0.0010397268631602502   -0.04189382985368831   -0.0021547812539785987
-0.005508152152454392   -0.04195829004307376   -0.0021545556442367567
-0.005866050874257506   -0.05091128583532687   -0.002151346434791358
-0.0009964212533191072   -0.041903017779219044   -0.002101988372694544
-0.005466778248357814   -0.042006760623040984   -0.0021267660007510875
-0.005866050874257506   -0.05091128583532687   -0.002151346434791358
-0.0017784529908936796   -0.05085388510321622   -0.0021044642113413046
-0.0009964212533191072   -0.041903017779219044   -0.002101988372694544
-0.0017087479024108603   -0.0508740771068044   -0.002048654185594739
-0.005466778248357814   -0.042006760623040984   -0.0021267660007510875
-0.0009554454150513939   -0.04192016706549095   -0.0020586306834245536
-0.0017087479024108603   -0.0508740771068044   -0.002048654185594739
-0.0009964212533191072   -0.041903017779219044   -0.002101988372694544
-0.005466778248357814   -0.042006760623040984   -0.0021267660007510875
-0.0017087479024108603   -0.0508740771068044   -0.002048654185594739
-0.00579644209099613   -0.05095938620714701   -0.002133772550712514
-0.005866050874257506   -0.05091128583532687   -0.002151346434791358
-0.005466778248357814   -0.042006760623040984   -0.0021267660007510875
-0.0017087479024108603   -0.0508740771068044   -0.002048654185594739
-0.005866050874257506   -0.05091128583532687   -0.002151346434791358
-0.0009964212533191072   -0.041903017779219044   -0.002101988372694544
-0.005466778248357814   -0.042006760623040984   -0.0021267660007510875
-0.00579644209099613   -0.05095938620714701   -0.002133772550712514
-0.0009554454150513939   -0.04192016706549095   -0.0020586306834245536
-0.005422201937758276   -0.042064016351342215   -0.0021087870650917263
-0.00579644209099613   -0.05095938620714701   -0.002133772550712514
-0.0017087479024108603   -0.0508740771068044   -0.002048654185594739
-0.0009554454150513939   -0.04192016706549095   -0.0020586306834245536
-0.0016465408639081418   -0.050915552294229414   -0.0020027838169100805
-0.005422201937758276   -0.042064016351342215   -0.0021087870650917263
-0.0009206325725658938   -0.0419456674687357   -0.0020250370874556876
-0.0016465408639081418   -0.050915552294229414   -0.0020027838169100805
-0.0009554454150513939   -0.04192016706549095   -0.0020586306834245536
-0.005422201937758276   -0.042064016351342215   -0.0021087870650917263
-0.0016465408639081418   -0.050915552294229414   -0.0020027838169100805
-0.005724892873372512   -0.05102925249605302   -0.0021262501402201047
-0.00579644209099613   -0.05095938620714701   -0.002133772550712514
-0.005422201937758276   -0.042064016351342215   -0.0021087870650917263
-0.0016465408639081418   -0.050915552294229414   -0.0020027838169100805
-0.00579644209099613   -0.05095938620714701   -0.002133772550712514
-0.0009554454150513939   -0.04192016706549095   -0.0020586306834245536
-0.0010397268631602502   -0.04189382985368831   -0.0021547812539785987
-0.0018500291350541406   -0.05085330733803972   -0.0021698803731718054
0.0036008311116783507   -0.041839116514068644   -0.002173280195280188
-0.0009964212533191072   -0.041903017779219044   -0.002101988372694544
-0.0018500291350541406   -0.05085330733803972   -0.0021698803731718054
0.002371149455651592   -0.050753021471272426   -0.002208738346476859
0.0036008311116783507   -0.041839116514068644   -0.002173280195280188
0.002458667908441858   -0.05072545840271364   -0.0021054172356295173
-0.0009964212533191072   -0.041903017779219044   -0.002101988372694544
0.003656039734684863   -0.04181754843150142   -0.0021052555784319637
0.002458667908441858   -0.05072545840271364   -0.0021054172356295173
0.0036008311116783507   -0.041839116514068644   -0.002173280195280188
-0.0009964212533191072   -0.041903017779219044   -0.002101988372694544
0.002458667908441858   -0.05072545840271364   -0.0021054172356295173
-0.0017784529908936796   -0.05085388510321622   -0.0021044642113413046
-0.0018500291350541406   -0.05085330733803972   -0.0021698803731718054
-0.0009964212533191072   -0.041903017779219044   -0.002101988372694544
0.002458667908441858   -0.05072545840271364   -0.0021054172356295173
-0.0018500291350541406   -0.05085330733803972   -0.0021698803731718054
0.0036008311116783507   -0.041839116514068644   -0.002173280195280188
-0.0009964212533191072   -0.041903017779219044   -0.002101988372694544
-0.0017784529908936796   -0.05085388510321622   -0.0021044642113413046
0.003656039734684863   -0.04181754843150142   -0.0021052555784319637
-0.0009554454150513939   -0.04192016706549095   -0.0020586306834245536
-0.0017784529908936796   -0.05085388510321622   -0.0021044642113413046
0.002458667908441858   -0.05072545840271364   -0.0021054172356295173
0.003656039734684863   -0.04181754843150142   -0.0021052555784319637
0.00254842479412928   -0.05072030608966428   -0.0020123163232375653
-0.0009554454150513939   -0.04192016706549095   -0.0020586306834245536
0.003707089568967213   -0.04180632943817636   -0.002046637171831097
0.00254842479412928   -0.05072030608966428   -0.0020123163232375653
0.003656039734684863   -0.04181754843150142   -0.0021052555784319637
-0.0009554454150513939   -0.04192016706549095   -0.0020586306834245536
0.00254842479412928   -0.05072030608966428   -0.0020123163232375653
-0.0017087479024108603   -0.0508740771068044   -0.002048654185594739
-0.0017784529908936796   -0.05085388510321622   -0.0021044642113413046
-0.0009554454150513939   -0.04192016706549095   -0.0020586306834245536
0.00254842479412928   -0.05072030608966428   -0.0020123163232375653
-0.0017784529908936796   -0.05085388510321622   -0.0021044642113413046
0.003656039734684863   -0.04181754843150142   -0.0021052555784319637
-0.0009554454150513939   -0.04192016706549095   -0.0020586306834245536
-0.0017087479024108603   -0.0508740771068044   -0.002048654185594739
0.003707089568967213   -0.04180632943817636   -0.002046637171831097
-0.0009206325725658938   -0.0419456674687357   -0.0020250370874556876
-0.0017087479024108603   -0.0508740771068044   -0.002048654185594739
0.00254842479412928   -0.05072030608966428   -0.0020123163232375653
0.003707089568967213   -0.04180632943817636   -0.002046637171831097
0.0026081454603709996   -0.05073343294566194   -0.0019280874861651086
-0.0009206325725658938   -0.0419456674687357   -0.0020250370874556876
0.0037345680974214986   -0.04180004497447192   -0.0019968108784403616
0.0026081454603709996   -0.05073343294566194   -0.0019280874861651086
0.003707089568967213   -0.04180632943817636   -0.002046637171831097
-0.0009206325725658938   -0.0419456674687357   -0.0020250370874556876
0.0026081454603709996   -0.05073343294566194   -0.0019280874861651086
-0.0016465408639081418   -0.050915552294229414   -0.0020027838169100805
-0.0017087479024108603   -0.0508740771068044   -0.002048654185594739
-0.0009206325725658938   -0.0419456674687357   -0.0020250370874556876
0.0026081454603709996   -0.05073343294566194   -0.0019280874861651086
-0.0017087479024108603   -0.0508740771068044   -0.002048654185594739
0.003707089568967213   -0.04180632943817636   -0.002046637171831097
0.0036008311116783507   -0.041839116514068644   -0.002173280195280188
0.002371149455651592   -0.050753021471272426   -0.002208738346476859
0.008568971156373109   -0.04174714591579741   -0.0022502796176795173
0.003656039734684863   -0.04181754843150142   -0.0021052555784319637
0.002371149455651592   -0.050753021471272426   -0.002208738346476859
0.006861214656892678   -0.050580594078520134   -0.0023088798985254322
0.008568971156373109   -0.04174714591579741   -0.0022502796176795173
0.007094078519008778   -0.05052380822410186   -0.002158513686110363
0.003656039734684863   -0.04181754843150142   -0.0021052555784319637
0.008712903464256927   -0.04169768818670955   -0.002160948431176041
0.007094078519008778   -0.05052380822410186   -0.002158513686110363
0.008568971156373109   -0.04174714591579741   -0.0022502796176795173
0.003656039734684863   -0.04181754843150142   -0.0021052555784319637
0.007094078519008778   -0.05052380822410186   -0.002158513686110363
0.002458667908441858   -0.05072545840271364   -0.0021054172356295173
0.002371149455651592   -0.050753021471272426   -0.002208738346476859
0.003656039734684863   -0.04181754843150142   -0.0021052555784319637
0.007094078519008778   -0.05052380822410186   -0.002158513686110363
0.002371149455651592   -0.050753021471272426   -0.002208738346476859
0.008568971156373109   -0.04174714591579741   -0.0022502796176795173
0.003656039734684863   -0.04181754843150142   -0.0021052555784319637
0.002458667908441858   -0.05072545840271364   -0.0021054172356295173
0.008712903464256927   -0.04169768818670955   -0.002160948431176041
0.003707089568967213   -0.04180632943817636   -0.002046637171831097
0.002458667908441858   -0.05072545840271364   -0.0021054172356295173
0.007094078519008778   -0.05052380822410186   -0.002158513686110363
0.008712903464256927   -0.04169768818670955   -0.002160948431176041
0.007266549997418553   -0.050508182877616645   -0.0020217414951110555
0.003707089568967213   -0.04180632943817636   -0.002046637171831097
0.008811873167841175   -0.041673699916293036   -0.002085015867657394
0.007266549997418553   -0.050508182877616645   -0.0020217414951110555
0.008712903464256927   -0.04169768818670955   -0.002160948431176041
0.003707089568967213   -0.04180632943817636   -0.002046637171831097
0.007266549997418553   -0.050508182877616645   -0.0020217414951110555
0.00254842479412928   -0.05072030608966428   -0.0020123163232375653
0.002458667908441858   -0.05072545840271364   -0.0021054172356295173
0.003707089568967213   -0.04180632943817636   -0.002046637171831097
0.007266549997418553   -0.050508182877616645   -0.0020217414951110555
0.002458667908441858   -0.05072545840271364   -0.0021054172356295173
0.008712903464256927   -0.04169768818670955   -0.002160948431176041
0.003707089568967213   -0.04180632943817636   -0.002046637171831097
0.00254842479412928   -0.05072030608966428   -0.0020123163232375653
0.008811873167841175   -0.041673699916293036   -0.002085015867657394
0.0037345680974214986   -0.04180004497447192   -0.0019968108784403616
0.00254842479412928   -0.05072030608966428   -0.0020123163232375653
0.007266549997418553   -0.050508182877616645   -0.0020217414951110555
0.008811873167841175   -0.041673699916293036   -0.002085015867657394
0.007441471546733694   -0.05050804708446025   -0.0018991846340595069
0.0037345680974214986   -0.04180004497447192   -0.0019968108784403616
0.008899842614699012   -0.04164764694480454   -0.002023038873140679
0.007441471546733694   -0.05050804708446025   -0.0018991846340595069
0.008811873167841175   -0.041673699916293036   -0.002085015867657394
0.0037345680974214986   -0.04180004497447192   -0.0019968108784403616
0.007441471546733694   -0.05050804708446025   -0.0018991846340595069
0.0026081454603709996   -0.05073343294566194   -0.0019280874861651086
0.00254842479412928   -0.05072030608966428   -0.0020123163232375653
0.0037345680974214986   -0.04180004497447192   -0.0019968108784403616
0.007441471546733694   -0.05050804708446025   -0.0018991846340595069
0.00254842479412928   -0.05072030608966428   -0.0020123163232375653
0.008811873167841175   -0.041673699916293036   -0.002085015867657394
-0.01483302429791692   -0.0507420905022538   -0.002313423804481535
-0.013537210965961369   -0.05857448429967585   -0.00215754779245294
-0.010138892036851255   -0.050844053288642777   -0.002231148434529307
-0.014725707037922697   -0.05081210470055421   -0.002372281003725286
-0.013537210965961369   -0.05857448429967585   -0.00215754779245294
-0.009586803497908577   -0.058758336907480266   -0.0021443199508824817
-0.010138892036851255   -0.050844053288642777   -0.002231148434529307
-0.009488310155939513   -0.05878492295907669   -0.00218780794650919
-0.014725707037922697   -0.05081210470055421   -0.002372281003725286
-0.010079447847336736   -0.05089590549926246   -0.00224361285350525
-0.009488310155939513   -0.05878492295907669   -0.00218780794650919
-0.010138892036851255   -0.050844053288642777   -0.002231148434529307
-0.014725707037922697   -0.05081210470055421   -0.002372281003725286
-0.009488310155939513   -0.05878492295907669   -0.00218780794650919
-0.01333199529529983   -0.058613930669391474   -0.0022793251710964023
-0.013537210965961369   -0.05857448429967585   -0.00215754779245294
-0.014725707037922697   -0.05081210470055421   -0.002372281003725286
-0.009488310155939513   -0.05878492295907669   -0.00218780794650919
-0.013537210965961369   -0.05857448429967585   -0.00215754779245294
-0.010138892036851255   -0.050844053288642777   -0.002231148434529307
-0.014725707037922697   -0.05081210470055421   -0.002372281003725286
-0.01333199529529983   -0.058613930669391474   -0.0022793251710964023
-0.010079447847336736   -0.05089590549926246   -0.00224361285350525
-0.014603275852510837   -0.050898085115307745   -0.0024463926673693637
-0.01333199529529983   -0.058613930669391474   -0.0022793251710964023
-0.009488310155939513   -0.05878492295907669   -0.00218780794650919
-0.010079447847336736   -0.05089590549926246   -0.00224361285350525
-0.009364597102031157   -0.05884864825637973   -0.0022411344306940808
-0.014603275852510837   -0.050898085115307745   -0.0024463926673693637
-0.00999899663582778   -0.05096976793474136   -0.0022657773437031376
-0.009364597102031157   -0.05884864825637973   -0.0022411344306940808
-0.010079447847336736   -0.05089590549926246   -0.00224361285350525
-0.014603275852510837   -0.050898085115307745   -0.0024463926673693637
-0.009364597102031157   -0.05884864825637973   -0.0022411344306940808
-0.013127339147633183   -0.05868871811507093   -0.002417122062040935
-0.01333199529529983   -0.058613930669391474   -0.0022793251710964023
-0.014603275852510837   -0.050898085115307745   -0.0024463926673693637
-0.009364597102031157   -0.05884864825637973   -0.0022411344306940808
-0.01333199529529983   -0.058613930669391474   -0.0022793251710964023
-0.010079447847336736   -0.05089590549926246   -0.00224361285350525
-0.014603275852510837   -0.050898085115307745   -0.0024463926673693637
-0.013127339147633183   -0.05868871811507093   -0.002417122062040935
-0.00999899663582778   -0.05096976793474136   -0.0022657773437031376
-0.014436609982951614   -0.05102899029266142   -0.0025360435980429875
-0.013127339147633183   -0.05868871811507093   -0.002417122062040935
-0.009364597102031157   -0.05884864825637973   -0.0022411344306940808
-0.00999899663582778   -0.05096976793474136   -0.0022657773437031376
-0.009242539009774524   -0.058953132963566815   -0.002304206913910686
-0.014436609982951614   -0.05102899029266142   -0.0025360435980429875
-0.00991268700959344   -0.0510701483004934   -0.0022979258515744786
-0.009242539009774524   -0.058953132963566815   -0.002304206913910686
-0.00999899663582778   -0.05096976793474136   -0.0022657773437031376
-0.014436609982951614   -0.05102899029266142   -0.0025360435980429875
-0.009242539009774524   -0.058953132963566815   -0.002304206913910686
-0.012865198741118473   -0.05882817479873598   -0.002570646262541382
-0.013127339147633183   -0.05868871811507093   -0.002417122062040935
-0.014436609982951614   -0.05102899029266142   -0.0025360435980429875
-0.009242539009774524   -0.058953132963566815   -0.002304206913910686
-0.013127339147633183   -0.05868871811507093   -0.002417122062040935
-0.00999899663582778   -0.05096976793474136   -0.0022657773437031376
-0.010138892036851255   -0.050844053288642777   -0.002231148434529307
-0.009586803497908577   -0.058758336907480266   -0.0021443199508824817
-0.005930766619367046   -0.05088434474768487   -0.0021785018034943203
-0.010079447847336736   -0.05089590549926246   -0.00224361285350525
-0.009586803497908577   -0.058758336907480266   -0.0021443199508824817
-0.006165773784790814   -0.05884438533815106   -0.0021390931154688384
-0.005930766619367046   -0.05088434474768487   -0.0021785018034943203
-0.006064734411702063   -0.058853092598172965   -0.0021196149425981273
-0.010079447847336736   -0.05089590549926246   -0.00224361285350525
-0.005866050874257506   -0.05091128583532687   -0.002151346434791358
-0.006064734411702063   -0.058853092598172965   -0.0021196149425981273
-0.005930766619367046   -0.05088434474768487   -0.0021785018034943203
-0.010079447847336736   -0.05089590549926246   -0.00224361285350525
-0.006064734411702063   -0.058853092598172965   -0.0021196149425981273
-0.009488310155939513   -0.05878492295907669   -0.00218780794650919
-0.009586803497908577   -0.058758336907480266   -0.0021443199508824817
-0.010079447847336736   -0.05089590549926246   -0.00224361285350525
-0.006064734411702063   -0.058853092598172965   -0.0021196149425981273
-0.009586803497908577   -0.058758336907480266   -0.0021443199508824817
-0.005930766619367046   -0.05088434474768487   -0.0021785018034943203
-0.010079447847336736   -0.05089590549926246   -0.00224361285350525
-0.009488310155939513   -0.05878492295907669   -0.00218780794650919
-0.005866050874257506   -0.05091128583532687   -0.002151346434791358
-0.00999899663582778   -0.05096976793474136   -0.0022657773437031376
-0.009488310155939513   -0.05878492295907669   -0.00218780794650919
-0.006064734411702063   -0.058853092598172965   -0.0021196149425981273
-0.005866050874257506   -0.05091128583532687   -0.002151346434791358
-0.005960444371345299   -0.05889496504883452   -0.0021096838934610658
-0.00999899663582778   -0.05096976793474136   -0.0022657773437031376
-0.00579644209099613   -0.05095938620714701   -0.002133772550712514
-0.005960444371345299   -0.05889496504883452   -0.0021096838934610658
-0.005866050874257506   -0.05091128583532687   -0.002151346434791358
-0.00999899663582778   -0.05096976793474136   -0.0022657773437031376
-0.005960444371345299   -0.05889496504883452   -0.0021096838934610658
-0.009364597102031157   -0.05884864825637973   -0.0022411344306940808
-0.009488310155939513   -0.05878492295907669   -0.00218780794650919
-0.00999899663582778   -0.05096976793474136   -0.0022657773437031376
-0.005960444371345299   -0.05889496504883452   -0.0021096838934610658
-0.009488310155939513   -0.05878492295907669   -0.00218780794650919
-0.005866050874257506   -0.05091128583532687   -0.002151346434791358
-0.00999899663582778   -0.05096976793474136   -0.0022657773437031376
-0.009364597102031157   -0.05884864825637973   -0.0022411344306940808
-0.00579644209099613   -0.05095938620714701   -0.002133772550712514
-0.00991268700959344   -0.0510701483004934   -0.0022979258515744786
-0.009364597102031157   -0.05884864825637973   -0.0022411344306940808
-0.005960444371345299   -0.05889496504883452   -0.0021096838934610658
-0.00579644209099613   -0.05095938620714701   -0.002133772550712514
-0.005856322072914587   -0.05897195033425863   -0.00210917973318099
-0.00991268700959344   -0.0510701483004934   -0.0022979258515744786
-0.005724892873372512   -0.05102925249605302   -0.0021262501402201047
-0.005856322072914587   -0.05897195033425863   -0.00210917973318099
-0.00579644209099613   -0.05095938620714701   -0.002133772550712514
-0.00991268700959344   -0.0510701483004934   -0.0022979258515744786
-0.005856322072914587   -0.05897195033425863   -0.00210917973318099
-0.009242539009774524   -0.058953132963566815   -0.002304206913910686
-0.009364597102031157   -0.05884864825637973   -0.0022411344306940808
-0.00991268700959344   -0.0510701483004934   -0.0022979258515744786
-0.005856322072914587   -0.05897195033425863   -0.00210917973318099
-0.009364597102031157   -0.05884864825637973   -0.0022411344306940808
-0.00579644209099613   -0.05095938620714701   -0.002133772550712514
-0.005930766619367046   -0.05088434474768487   -0.0021785018034943203
-0.006165773784790814   -0.05884438533815106   -0.0021390931154688384
-0.0018500291350541406   -0.05085330733803972   -0.0021698803731718054
-0.005866050874257506   -0.05091128583532687   -0.002151346434791358
-0.006165773784790814   -0.05884438533815106   -0.0021390931154688384
-0.002858267599090782   -0.05882862243520838   -0.0021636908817721785
-0.0018500291350541406   -0.05085330733803972   -0.0021698803731718054
-0.002747595655867039   -0.05881724477921949   -0.002083454354692235
-0.005866050874257506   -0.05091128583532687   -0.002151346434791358
-0.0017784529908936796   -0.05085388510321622   -0.0021044642113413046
-0.002747595655867039   -0.05881724477921949   -0.002083454354692235
-0.0018500291350541406   -0.05085330733803972   -0.0021698803731718054
-0.005866050874257506   -0.05091128583532687   -0.002151346434791358
-0.002747595655867039   -0.05881724477921949   -0.002083454354692235
-0.006064734411702063   -0.058853092598172965   -0.0021196149425981273
-0.006165773784790814   -0.05884438533815106   -0.0021390931154688384
-0.005866050874257506   -0.05091128583532687   -0.002151346434791358
-0.002747595655867039   -0.05881724477921949   -0.002083454354692235
-0.006165773784790814   -0.05884438533815106   -0.0021390931154688384
-0.0018500291350541406   -0.05085330733803972   -0.0021698803731718054
-0.005866050874257506   -0.05091128583532687   -0.002151346434791358
-0.006064734411702063   -0.058853092598172965   -0.0021196149425981273
-0.0017784529908936796   -0.05085388510321622   -0.0021044642113413046
-0.00579644209099613   -0.05095938620714701   -0.002133772550712514
-0.006064734411702063   -0.058853092598172965   -0.0021196149425981273
-0.002747595655867039   -0.05881724477921949   -0.002083454354692235
-0.0017784529908936796   -0.05085388510321622   -0.0021044642113413046
-0.002640179621751917   -0.05883586481897415   -0.0020133949214711194
-0.00579644209099613   -0.05095938620714701   -0.002133772550712514
-0.0017087479024108603   -0.0508740771068044   -0.002048654185594739
-0.002640179621751917   -0.05883586481897415   -0.0020133949214711194
-0.0017784529908936796   -0.05085388510321622   -0.0021044642113413046
-0.00579644209099613   -0.05095938620714701   -0.002133772550712514
-0.002640179621751917   -0.05883586481897415   -0.0020133949214711194
-0.005960444371345299   -0.05889496504883452   -0.0021096838934610658
-0.006064734411702063   -0.058853092598172965   -0.0021196149425981273
-0.00579644209099613   -0.05095938620714701   -0.002133772550712514
-0.002640179621751917   -0.05883586481897415   -0.0020133949214711194
-0.006064734411702063   -0.058853092598172965   -0.0021196149425981273
-0.0017784529908936796   -0.05085388510321622   -0.0021044642113413046
-0.00579644209099613   -0.05095938620714701   -0.002133772550712514
-0.005960444371345299   -0.05889496504883452   -0.0021096838934610658
-0.0017087479024108603   -0.0508740771068044   -0.002048654185594739
-0.005724892873372512   -0.05102925249605302   -0.0021262501402201047
-0.005960444371345299   -0.05889496504883452   -0.0021096838934610658
-0.002640179621751917   -0.05883586481897415   -0.0020133949214711194
-0.0017087479024108603   -0.0508740771068044   -0.002048654185594739
-0.0025431260408071183   -0.058888820705968466   -0.0019526323917436385
-0.005724892873372512   -0.05102925249605302   -0.0021262501402201047
-0.0016465408639081418   -0.050915552294229414   -0.0020027838169100805
-0.0025431260408071183   -0.058888820705968466   -0.0019526323917436385
-0.0017087479024108603   -0.0508740771068044   -0.002048654185594739
-0.005724892873372512   -0.05102925249605302   -0.0021262501402201047
-0.0025431260408071183   -0.058888820705968466   -0.0019526323917436385
-0.005856322072914587   -0.05897195033425863   -0.00210917973318099
-0.005960444371345299   -0.05889496504883452   -0.0021096838934610658
-0.005724892873372512   -0.05102925249605302   -0.0021262501402201047
-0.0025431260408071183   -0.058888820705968466   -0.0019526323917436385
-0.005960444371345299   -0.05889496504883452   -0.0021096838934610658
-0.0017087479024108603   -0.0508740771068044   -0.002048654185594739
-0.0018500291350541406   -0.05085330733803972   -0.0021698803731718054
-0.002858267599090782   -0.05882862243520838   -0.0021636908817721785
0.002371149455651592   -0.050753021471272426   -0.002208738346476859
-0.0017784529908936796   -0.05085388510321622   -0.0021044642113413046
-0.002858267599090782   -0.05882862243520838   -0.0021636908817721785
0.000603902774096664   -0.05870740319692957   -0.0022234913009241304
0.002371149455651592   -0.050753021471272426   -0.002208738346476859
0.000738550279181557   -0.05867052785402216   -0.0020827008367583426
-0.0017784529908936796   -0.05085388510321622   -0.0021044642113413046
0.002458667908441858   -0.05072545840271364   -0.0021054172356295173
0.000738550279181557   -0.05867052785402216   -0.0020827008367583426
0.002371149455651592   -0.050753021471272426   -0.002208738346476859
-0.0017784529908936796   -0.05085388510321622   -0.0021044642113413046
0.000738550279181557   -0.05867052785402216   -0.0020827008367583426
-0.002747595655867039   -0.05881724477921949   -0.002083454354692235
-0.002858267599090782   -0.05882862243520838   -0.0021636908817721785
-0.0017784529908936796   -0.05085388510321622   -0.0021044642113413046
0.000738550279181557   -0.05867052785402216   -0.0020827008367583426
-0.002858267599090782   -0.05882862243520838   -0.0021636908817721785
0.002371149455651592   -0.050753021471272426   -0.002208738346476859
-0.0017784529908936796   -0.05085388510321622   -0.0021044642113413046
-0.002747595655867039   -0.05881724477921949   -0.002083454354692235
0.002458667908441858   -0.05072545840271364   -0.0021054172356295173
-0.0017087479024108603   -0.0508740771068044   -0.002048654185594739
-0.002747595655867039   -0.05881724477921949   -0.002083454354692235
0.000738550279181557   -0.05867052785402216   -0.0020827008367583426
0.002458667908441858   -0.05072545840271364   -0.0021054172356295173
0.0008804717432538093   -0.05866719051629245   -0.001954809144906369
-0.0017087479024108603   -0.0508740771068044   -0.002048654185594739
0.00254842479412928   -0.05072030608966428   -0.0020123163232375653
0.0008804717432538093   -0.05866719051629245   -0.001954809144906369
0.002458667908441858   -0.05072545840271364   -0.0021054172356295173
-0.0017087479024108603   -0.0508740771068044   -0.002048654185594739
0.0008804717432538093   -0.05866719051629245   -0.001954809144906369
-0.002640179621751917   -0.05883586481897415   -0.0020133949214711194
-0.002747595655867039   -0.05881724477921949   -0.002083454354692235
-0.0017087479024108603   -0.0508740771068044   -0.002048654185594739
0.0008804717432538093   -0.05866719051629245   -0.001954809144906369
-0.002747595655867039   -0.05881724477921949   -0.002083454354692235
0.002458667908441858   -0.05072545840271364   -0.0021054172356295173
-0.0017087479024108603   -0.0508740771068044   -0.002048654185594739
-0.002640179621751917   -0.05883586481897415   -0.0020133949214711194
0.00254842479412928   -0.05072030608966428   -0.0020123163232375653
-0.0016465408639081418   -0.050915552294229414   -0.0020027838169100805
-0.002640179621751917   -0.05883586481897415   -0.0020133949214711194
0.0008804717432538093   -0.05866719051629245   -0.001954809144906369
0.00254842479412928   -0.05072030608966428   -0.0020123163232375653
0.000984267682355304   -0.058695861642236655   -0.0018357980280383982
-0.0016465408639081418   -0.050915552294229414   -0.0020027838169100805
0.0026081454603709996   -0.05073343294566194   -0.0019280874861651086
0.000984267682355304   -0.058695861642236655   -0.0018357980280383982
0.00254842479412928   -0.05072030608966428   -0.0020123163232375653
-0.0016465408639081418   -0.050915552294229414   -0.0020027838169100805
0.000984267682355304   -0.058695861642236655   -0.0018357980280383982
-0.0025431260408071183   -0.058888820705968466   -0.0019526323917436385
-0.002640179621751917   -0.05883586481897415   -0.0020133949214711194
-0.0016465408639081418   -0.050915552294229414   -0.0020027838169100805
0.000984267682355304   -0.058695861642236655   -0.0018357980280383982
-0.002640179621751917   -0.05883586481897415   -0.0020133949214711194
0.00254842479412928   -0.05072030608966428   -0.0020123163232375653
0.002371149455651592   -0.050753021471272426   -0.002208738346476859
0.000603902774096664   -0.05870740319692957   -0.0022234913009241304
0.006861214656892678   -0.050580594078520134   -0.0023088798985254322
0.002458667908441858   -0.05072545840271364   -0.0021054172356295173
0.000603902774096664   -0.05870740319692957   -0.0022234913009241304
0.004294353991750643   -0.058469243822116955   -0.002351235254262275
0.006861214656892678   -0.050580594078520134   -0.0023088798985254322
0.004635566641399473   -0.05839848907479159   -0.00213574913138371
0.002458667908441858   -0.05072545840271364   -0.0021054172356295173
0.007094078519008778   -0.05052380822410186   -0.002158513686110363
0.004635566641399473   -0.05839848907479159   -0.00213574913138371
0.006861214656892678   -0.050580594078520134   -0.0023088798985254322
0.002458667908441858   -0.05072545840271364   -0.0021054172356295173
0.004635566641399473   -0.05839848907479159   -0.00213574913138371
0.000738550279181557   -0.05867052785402216   -0.0020827008367583426
0.000603902774096664   -0.05870740319692957   -0.0022234913009241304
0.002458667908441858   -0.05072545840271364   -0.0021054172356295173
0.004635566641399473   -0.05839848907479159   -0.00213574913138371
0.000603902774096664   -0.05870740319692957   -0.0022234913009241304
0.006861214656892678   -0.050580594078520134   -0.0023088798985254322
0.002458667908441858   -0.05072545840271364   -0.0021054172356295173
0.000738550279181557   -0.05867052785402216   -0.0020827008367583426
0.007094078519008778   -0.05052380822410186   -0.002158513686110363
0.00254842479412928   -0.05072030608966428   -0.0020123163232375653
0.000738550279181557   -0.05867052785402216   -0.0020827008367583426
0.004635566641399473   -0.05839848907479159   -0.00213574913138371
0.007094078519008778   -0.05052380822410186   -0.002158513686110363
0.004897195401976247   -0.05838623673274775   -0.001936259441462587
0.00254842479412928   -0.05072030608966428   -0.0020123163232375653
0.007266549997418553   -0.050508182877616645   -0.0020217414951110555
0.004897195401976247   -0.05838623673274775   -0.001936259441462587
0.007094078519008778   -0.05052380822410186   -0.002158513686110363
0.00254842479412928   -0.05072030608966428   -0.0020123163232375653
0.004897195401976247   -0.05838623673274775   -0.001936259441462587
0.0008804717432538093   -0.05866719051629245   -0.001954809144906369
0.000738550279181557   -0.05867052785402216   -0.0020827008367583426
0.00254842479412928   -0.05072030608966428   -0.0020123163232375653
0.004897195401976247   -0.05838623673274775   -0.001936259441462587
0.000738550279181557   -0.05867052785402216   -0.0020827008367583426
0.007094078519008778   -0.05052380822410186   -0.002158513686110363
0.00254842479412928   -0.05072030608966428   -0.0020123163232375653
0.0008804717432538093   -0.05866719051629245   -0.001954809144906369
0.007266549997418553   -0.050508182877616645   -0.0020217414951110555
0.0026081454603709996   -0.05073343294566194   -0.0019280874861651086
0.0008804717432538093   -0.05866719051629245   -0.001954809144906369
0.004897195401976247   -0.05838623673274775   -0.001936259441462587
0.007266549997418553   -0.050508182877616645   -0.0020217414951110555
0.005168328196070961   -0.058407247980991325   -0.0017543947263358446
0.0026081454603709996   -0.05073343294566194   -0.0019280874861651086
0.007441471546733694   -0.05050804708446025   -0.0018991846340595069
0.005168328196070961   -0.058407247980991325   -0.0017543947263358446
0.007266549997418553   -0.050508182877616645   -0.0020217414951110555
0.0026081454603709996   -0.05073343294566194   -0.0019280874861651086
0.005168328196070961   -0.058407247980991325   -0.0017543947263358446
0.000984267682355304   -0.058695861642236655   -0.0018357980280383982
0.0008804717432538093   -0.05866719051629245   -0.001954809144906369
0.0026081454603709996   -0.05073343294566194   -0.0019280874861651086
0.005168328196070961   -0.058407247980991325   -0.0017543947263358446
0.0008804717432538093   -0.05866719051629245   -0.001954809144906369
0.007266549997418553   -0.050508182877616645   -0.0020217414951110555
-0.013537210965961369   -0.05857448429967585   -0.00215754779245294
-0.011339366297530013   -0.06472189741339394   -0.0019576604889975924
-0.009586803497908577   -0.058758336907480266   -0.0021443199508824817
-0.01333199529529983   -0.058613930669391474   -0.0022793251710964023
-0.011339366297530013   -0.06472189741339394   -0.0019576604889975924
-0.008527822073386428   -0.06499405126594665   -0.002039271284745809
-0.009586803497908577   -0.058758336907480266   -0.0021443199508824817
-0.008386057594236978   -0.06498006494761176   -0.0021061928900139785
-0.01333199529529983   -0.058613930669391474   -0.0022793251710964023
-0.009488310155939513   -0.05878492295907669   -0.00218780794650919
-0.008386057594236978   -0.06498006494761176   -0.0021061928900139785
-0.009586803497908577   -0.058758336907480266   -0.0021443199508824817
-0.01333199529529983   -0.058613930669391474   -0.0022793251710964023
-0.008386057594236978   -0.06498006494761176   -0.0021061928900139785
-0.011033618697736565   -0.0647142577000215   -0.0021380913097350813
-0.011339366297530013   -0.06472189741339394   -0.0019576604889975924
-0.01333199529529983   -0.058613930669391474   -0.0022793251710964023
-0.008386057594236978   -0.06498006494761176   -0.0021061928900139785
-0.011339366297530013   -0.06472189741339394   -0.0019576604889975924
-0.009586803497908577   -0.058758336907480266   -0.0021443199508824817
-0.01333199529529983   -0.058613930669391474   -0.0022793251710964023
-0.011033618697736565   -0.0647142577000215   -0.0021380913097350813
-0.009488310155939513   -0.05878492295907669   -0.00218780794650919
-0.013127339147633183   -0.05868871811507093   -0.002417122062040935
-0.011033618697736565   -0.0647142577000215   -0.0021380913097350813
-0.008386057594236978   -0.06498006494761176   -0.0021061928900139785
-0.009488310155939513   -0.05878492295907669   -0.00218780794650919
-0.008219297092992212   -0.06501929306136434   -0.00218316193433592
-0.013127339147633183   -0.05868871811507093   -0.002417122062040935
-0.009364597102031157   -0.05884864825637973   -0.0022411344306940808
-0.008219297092992212   -0.06501929306136434   -0.00218316193433592
-0.009488310155939513   -0.05878492295907669   -0.00218780794650919
-0.013127339147633183   -0.05868871811507093   -0.002417122062040935
-0.008219297092992212   -0.06501929306136434   -0.00218316193433592
-0.010751808053964303   -0.06476271696800985   -0.002332674229922843
-0.011033618697736565   -0.0647142577000215   -0.0021380913097350813
-0.013127339147633183   -0.05868871811507093   -0.002417122062040935
-0.008219297092992212   -0.06501929306136434   -0.00218316193433592
-0.011033618697736565   -0.0647142577000215   -0.0021380913097350813
-0.009488310155939513   -0.05878492295907669   -0.00218780794650919
-0.013127339147633183   -0.05868871811507093   -0.002417122062040935
-0.010751808053964303   -0.06476271696800985   -0.002332674229922843
-0.009364597102031157   -0.05884864825637973   -0.0022411344306940808
-0.012865198741118473   -0.05882817479873598   -0.002570646262541382
-0.010751808053964303   -0.06476271696800985   -0.002332674229922843
-0.008219297092992212   -0.06501929306136434   -0.00218316193433592
-0.009364597102031157   -0.05884864825637973   -0.0022411344306940808
-0.008068013890681167   -0.06511263292879134   -0.0022695362643378684
-0.012865198741118473   -0.05882817479873598   -0.002570646262541382
-0.009242539009774524   -0.058953132963566815   -0.002304206913910686
-0.008068013890681167   -0.06511263292879134   -0.0022695362643378684
-0.009364597102031157   -0.05884864825637973   -0.0022411344306940808
-0.012865198741118473   -0.05882817479873598   -0.002570646262541382
-0.008068013890681167   -0.06511263292879134   -0.0022695362643378684
-0.010408077570450928   -0.06489205150736435   -0.002540578210263493
-0.010751808053964303   -0.06476271696800985   -0.002332674229922843
-0.012865198741118473   -0.05882817479873598   -0.002570646262541382
-0.008068013890681167   -0.06511263292879134   -0.0022695362643378684
-0.010751808053964303   -0.06476271696800985   -0.002332674229922843
-0.009364597102031157   -0.05884864825637973   -0.0022411344306940808
-0.009586803497908577   -0.058758336907480266   -0.0021443199508824817
-0.008527822073386428   -0.06499405126594665   -0.002039271284745809
-0.006165773784790814   -0.05884438533815106   -0.0021390931154688384
-0.009488310155939513   -0.05878492295907669   -0.00218780794650919
-0.008527822073386428   -0.06499405126594665   -0.002039271284745809
-0.0062301881756573405   -0.06517030744071488   -0.002103144704531743
-0.006165773784790814   -0.05884438533815106   -0.0021390931154688384
-0.006084738234263859   -0.06514786763359584   -0.0020826774796199187
-0.009488310155939513   -0.05878492295907669   -0.00218780794650919
-0.006064734411702063   -0.058853092598172965   -0.0021196149425981273
-0.006084738234263859   -0.06514786763359584   -0.0020826774796199187
-0.006165773784790814   -0.05884438533815106   -0.0021390931154688384
-0.009488310155939513   -0.05878492295907669   -0.00218780794650919
-0.006084738234263859   -0.06514786763359584   -0.0020826774796199187
-0.008386057594236978   -0.06498006494761176   -0.0021061928900139785
-0.008527822073386428   -0.06499405126594665   -0.002039271284745809
-0.009488310155939513   -0.05878492295907669   -0.00218780794650919
-0.006084738234263859   -0.06514786763359584   -0.0020826774796199187
-0.008527822073386428   -0.06499405126594665   -0.002039271284745809
-0.006165773784790814   -0.05884438533815106   -0.0021390931154688384
-0.009488310155939513   -0.05878492295907669   -0.00218780794650919
-0.008386057594236978   -0.06498006494761176   -0.0021061928900139785
-0.006064734411702063   -0.058853092598172965   -0.0021196149425981273
-0.009364597102031157   -0.05884864825637973   -0.0022411344306940808
-0.008386057594236978   -0.06498006494761176   -0.0021061928900139785
-0.006084738234263859   -0.06514786763359584   -0.0020826774796199187
-0.006064734411702063   -0.058853092598172965   -0.0021196149425981273
-0.005941321032011309   -0.06517136848650933   -0.002071970607510298
-0.009364597102031157   -0.05884864825637973   -0.0022411344306940808
-0.005960444371345299   -0.05889496504883452   -0.0021096838934610658
-0.005941321032011309   -0.06517136848650933   -0.002071970607510298
-0.006064734411702063   -0.058853092598172965   -0.0021196149425981273
-0.009364597102031157   -0.05884864825637973   -0.0022411344306940808
-0.005941321032011309   -0.06517136848650933   -0.002071970607510298
-0.008219297092992212   -0.06501929306136434   -0.00218316193433592
-0.008386057594236978   -0.06498006494761176   -0.0021061928900139785
-0.009364597102031157   -0.05884864825637973   -0.0022411344306940808
-0.005941321032011309   -0.06517136848650933   -0.002071970607510298
-0.008386057594236978   -0.06498006494761176   -0.0021061928900139785
-0.006064734411702063   -0.058853092598172965   -0.0021196149425981273
-0.009364597102031157   -0.05884864825637973   -0.0022411344306940808
-0.008219297092992212   -0.06501929306136434   -0.00218316193433592
-0.005960444371345299   -0.05889496504883452   -0.0021096838934610658
-0.009242539009774524   -0.058953132963566815   -0.002304206913910686
-0.008219297092992212   -0.06501929306136434   -0.00218316193433592
-0.005941321032011309   -0.06517136848650933   -0.002071970607510298
-0.005960444371345299   -0.05889496504883452   -0.0021096838934610658
-0.005809346106689771   -0.0652423311444773   -0.002073066438118494
-0.009242539009774524   -0.058953132963566815   -0.002304206913910686
-0.005856322072914587   -0.05897195033425863   -0.00210917973318099
-0.005809346106689771   -0.0652423311444773   -0.002073066438118494
-0.005960444371345299   -0.05889496504883452   -0.0021096838934610658
-0.009242539009774524   -0.058953132963566815   -0.002304206913910686
-0.005809346106689771   -0.0652423311444773   -0.002073066438118494
-0.008068013890681167   -0.06511263292879134   -0.0022695362643378684
-0.008219297092992212   -0.06501929306136434   -0.00218316193433592
-0.009242539009774524   -0.058953132963566815   -0.002304206913910686
-0.005809346106689771   -0.0652423311444773   -0.002073066438118494
-0.008219297092992212   -0.06501929306136434   -0.00218316193433592
-0.005960444371345299   -0.05889496504883452   -0.0021096838934610658
-0.006165773784790814   -0.05884438533815106   -0.0021390931154688384
-0.0062301881756573405   -0.06517030744071488   -0.002103144704531743
-0.002858267599090782   -0.05882862243520838   -0.0021636908817721785
-0.006064734411702063   -0.058853092598172965   -0.0021196149425981273
-0.0062301881756573405   -0.06517030744071488   -0.002103144704531743
-0.0040294835603771765   -0.06526268988992587   -0.002178672229683796
-0.002858267599090782   -0.05882862243520838   -0.0021636908817721785
-0.0038655247386338984   -0.06523028496149895   -0.002075783190446892
-0.006064734411702063   -0.058853092598172965   -0.0021196149425981273
-0.002747595655867039   -0.05881724477921949   -0.002083454354692235
-0.0038655247386338984   -0.06523028496149895   -0.002075783190446892
-0.002858267599090782   -0.05882862243520838   -0.0021636908817721785
-0.006064734411702063   -0.058853092598172965   -0.0021196149425981273
-0.0038655247386338984   -0.06523028496149895   -0.002075783190446892
-0.006084738234263859   -0.06514786763359584   -0.0020826774796199187
-0.0062301881756573405   -0.06517030744071488   -0.002103144704531743
-0.006064734411702063   -0.058853092598172965   -0.0021196149425981273
-0.0038655247386338984   -0.06523028496149895   -0.002075783190446892
-0.0062301881756573405   -0.06517030744071488   -0.002103144704531743
-0.002858267599090782   -0.05882862243520838   -0.0021636908817721785
-0.006064734411702063   -0.058853092598172965   -0.0021196149425981273
-0.006084738234263859   -0.06514786763359584   -0.0020826774796199187
-0.002747595655867039   -0.05881724477921949   -0.002083454354692235
-0.005960444371345299   -0.05889496504883452   -0.0021096838934610658
-0.006084738234263859   -0.06514786763359584   -0.0020826774796199187
-0.0038655247386338984   -0.06523028496149895   -0.002075783190446892
-0.002747595655867039   -0.05881724477921949   -0.002083454354692235
-0.003709221023813399   -0.06523828871417625   -0.0019815267304283644
-0.005960444371345299   -0.05889496504883452   -0.0021096838934610658
-0.002640179621751917   -0.05883586481897415   -0.0020133949214711194
-0.003709221023813399   -0.06523828871417625   -0.0019815267304283644
-0.002747595655867039   -0.05881724477921949   -0.002083454354692235
-0.005960444371345299   -0.05889496504883452   -0.0021096838934610658
-0.003709221023813399   -0.06523828871417625   -0.0019815267304283644
-0.005941321032011309   -0.06517136848650933   -0.002071970607510298
-0.006084738234263859   -0.06514786763359584   -0.0020826774796199187
-0.005960444371345299   -0.05889496504883452   -0.0021096838934610658
-0.003709221023813399   -0.06523828871417625   -0.0019815267304283644
-0.006084738234263859   -0.06514786763359584   -0.0020826774796199187
-0.002747595655867039   -0.05881724477921949   -0.002083454354692235
-0.005960444371345299   -0.05889496504883452   -0.0021096838934610658
-0.005941321032011309   -0.06517136848650933   -0.002071970607510298
-0.002640179621751917   -0.05883586481897415   -0.0020133949214711194
-0.005856322072914587   -0.05897195033425863   -0.00210917973318099
-0.005941321032011309   -0.06517136848650933   -0.002071970607510298
-0.003709221023813399   -0.06523828871417625   -0.0019815267304283644
-0.002640179621751917   -0.05883586481897415   -0.0020133949214711194
-0.003579206977288847   -0.06529455332255146   -0.0019012850753701803
-0.005856322072914587   -0.05897195033425863   -0.00210917973318099
-0.0025431260408071183   -0.058888820705968466   -0.0019526323917436385
-0.003579206977288847   -0.06529455332255146   -0.0019012850753701803
-0.002640179621751917   -0.05883586481897415   -0.0020133949214711194
-0.005856322072914587   -0.05897195033425863   -0.00210917973318099
-0.003579206977288847   -0.06529455332255146   -0.0019012850753701803
-0.005809346106689771   -0.0652423311444773   -0.002073066438118494
-0.005941321032011309   -0.06517136848650933   -0.002071970607510298
-0.005856322072914587   -0.05897195033425863   -0.00210917973318099
-0.003579206977288847   -0.06529455332255146   -0.0019012850753701803
-0.005941321032011309   -0.06517136848650933   -0.002071970607510298
-0.002640179621751917   -0.05883586481897415   -0.0020133949214711194
-0.002858267599090782   -0.05882862243520838   -0.0021636908817721785
-0.0040294835603771765   -0.06526268988992587   -0.002178672229683796
0.000603902774096664   -0.05870740319692957   -0.0022234913009241304
-0.002747595655867039   -0.05881724477921949   -0.002083454354692235
-0.0040294835603771765   -0.06526268988992587   -0.002178672229683796
-0.0016895842502629246   -0.06523887876022051   -0.0022676799724589353
0.000603902774096664   -0.05870740319692957   -0.0022234913009241304
-0.0014790738689831949   -0.065188069375663   -0.0020859282865306954
-0.002747595655867039   -0.05881724477921949   -0.002083454354692235
0.000738550279181557   -0.05867052785402216   -0.0020827008367583426
-0.0014790738689831949   -0.065188069375663   -0.0020859282865306954
0.000603902774096664   -0.05870740319692957   -0.0022234913009241304
-0.002747595655867039   -0.05881724477921949   -0.002083454354692235
-0.0014790738689831949   -0.065188069375663   -0.0020859282865306954
-0.0038655247386338984   -0.06523028496149895   -0.002075783190446892
-0.0040294835603771765   -0.06526268988992587   -0.002178672229683796
-0.002747595655867039   -0.05881724477921949   -0.002083454354692235
-0.0014790738689831949   -0.065188069375663   -0.0020859282865306954
-0.0040294835603771765   -0.06526268988992587   -0.002178672229683796
0.000603902774096664   -0.05870740319692957   -0.0022234913009241304
-0.002747595655867039   -0.05881724477921949   -0.002083454354692235
-0.0038655247386338984   -0.06523028496149895   -0.002075783190446892
0.000738550279181557   -0.05867052785402216   -0.0020827008367583426
-0.002640179621751917   -0.05883586481897415   -0.0020133949214711194
-0.0038655247386338984   -0.06523028496149895   -0.002075783190446892
-0.0014790738689831949   -0.065188069375663   -0.0020859282865306954
0.000738550279181557   -0.05867052785402216   -0.0020827008367583426
-0.0012638035538104927   -0.06517913294135487   -0.0019134084847080997
-0.002640179621751917   -0.05883586481897415   -0.0020133949214711194
0.0008804717432538093   -0.05866719051629245   -0.001954809144906369
-0.0012638035538104927   -0.06517913294135487   -0.0019134084847080997
0.000738550279181557   -0.05867052785402216   -0.0020827008367583426
-0.002640179621751917   -0.05883586481897415   -0.0020133949214711194
-0.0012638035538104927   -0.06517913294135487   -0.0019134084847080997
-0.003709221023813399   -0.06523828871417625   -0.0019815267304283644
-0.0038655247386338984   -0.06523028496149895   -0.002075783190446892
-0.002640179621751917   -0.05883586481897415   -0.0020133949214711194
-0.0012638035538104927   -0.06517913294135487   -0.0019134084847080997
-0.0038655247386338984   -0.06523028496149895   -0.002075783190446892
0.000738550279181557   -0.05867052785402216   -0.0020827008367583426
-0.002640179621751917   -0.05883586481897415   -0.0020133949214711194
-0.003709221023813399   -0.06523828871417625   -0.0019815267304283644
0.0008804717432538093   -0.05866719051629245   -0.001954809144906369
-0.0025431260408071183   -0.058888820705968466   -0.0019526323917436385
-0.003709221023813399   -0.06523828871417625   -0.0019815267304283644
-0.0012638035538104927   -0.06517913294135487   -0.0019134084847080997
0.0008804717432538093   -0.05866719051629245   -0.001954809144906369
-0.0011043857688929097   -0.06522107281443258   -0.0017566993584716359
-0.0025431260408071183   -0.058888820705968466   -0.0019526323917436385
0.000984267682355304   -0.058695861642236655   -0.0018357980280383982
-0.0011043857688929097   -0.06522107281443258   -0.0017566993584716359
0.0008804717432538093   -0.05866719051629245   -0.001954809144906369
-0.0025431260408071183   -0.058888820705968466   -0.0019526323917436385
-0.0011043857688929097   -0.06522107281443258   -0.0017566993584716359
-0.003579206977288847   -0.06529455332255146   -0.0019012850753701803
-0.003709221023813399   -0.06523828871417625   -0.0019815267304283644
-0.0025431260408071183   -0.058888820705968466   -0.0019526323917436385
-0.0011043857688929097   -0.06522107281443258   -0.0017566993584716359
-0.003709221023813399   -0.06523828871417625   -0.0019815267304283644
0.0008804717432538093   -0.05866719051629245   -0.001954809144906369
0.000603902774096664   -0.05870740319692957   -0.0022234913009241304
-0.0016895842502629246   -0.06523887876022051   -0.0022676799724589353
0.004294353991750643   -0.058469243822116955   -0.002351235254262275
0.000738550279181557   -0.05867052785402216   -0.0020827008367583426
-0.0016895842502629246   -0.06523887876022051   -0.0022676799724589353
0.0008282227477010355   -0.06501396693218206   -0.002449942763111565
0.004294353991750643   -0.058469243822116955   -0.002351235254262275
0.0013191958562295358   -0.06490344622720894   -0.002152659319620941
0.000738550279181557   -0.05867052785402216   -0.0020827008367583426
0.004635566641399473   -0.05839848907479159   -0.00213574913138371
0.0013191958562295358   -0.06490344622720894   -0.002152659319620941
0.004294353991750643   -0.058469243822116955   -0.002351235254262275
0.000738550279181557   -0.05867052785402216   -0.0020827008367583426
0.0013191958562295358   -0.06490344622720894   -0.002152659319620941
-0.0014790738689831949   -0.065188069375663   -0.0020859282865306954
-0.0016895842502629246   -0.06523887876022051   -0.0022676799724589353
0.000738550279181557   -0.05867052785402216   -0.0020827008367583426
0.0013191958562295358   -0.06490344622720894   -0.002152659319620941
-0.0016895842502629246   -0.06523887876022051   -0.0022676799724589353
0.004294353991750643   -0.058469243822116955   -0.002351235254262275
0.000738550279181557   -0.05867052785402216   -0.0020827008367583426
-0.0014790738689831949   -0.065188069375663   -0.0020859282865306954
0.004635566641399473   -0.05839848907479159   -0.00213574913138371
0.0008804717432538093   -0.05866719051629245   -0.001954809144906369
-0.0014790738689831949   -0.065188069375663   -0.0020859282865306954
0.0013191958562295358   -0.06490344622720894   -0.002152659319620941
0.004635566641399473   -0.05839848907479159   -0.00213574913138371
0.0017050195152533045   -0.06488108578864964   -0.001873499294917388
0.0008804717432538093   -0.05866719051629245   -0.001954809144906369
0.004897195401976247   -0.05838623673274775   -0.001936259441462587
0.0017050195152533045   -0.06488108578864964   -0.001873499294917388
0.004635566641399473   -0.05839848907479159   -0.00213574913138371
0.0008804717432538093   -0.05866719051629245   -0.001954809144906369
0.0017050195152533045   -0.06488108578864964   -0.001873499294917388
-0.0012638035538104927   -0.06517913294135487   -0.0019134084847080997
-0.0014790738689831949   -0.065188069375663   -0.0020859282865306954
0.0008804717432538093   -0.05866719051629245   -0.001954809144906369
0.0017050195152533045   -0.06488108578864964   -0.001873499294917388
-0.0014790738689831949   -0.065188069375663   -0.0020859282865306954
0.004635566641399473   -0.05839848907479159   -0.00213574913138371
0.0008804717432538093   -0.05866719051629245   -0.001954809144906369
-0.0012638035538104927   -0.06517913294135487   -0.0019134084847080997
0.004897195401976247   -0.05838623673274775   -0.001936259441462587
0.000984267682355304   -0.058695861642236655   -0.0018357980280383982
-0.0012638035538104927   -0.06517913294135487   -0.0019134084847080997
0.0017050195152533045   -0.06488108578864964   -0.001873499294917388
0.004897195401976247   -0.05838623673274775   -0.001936259441462587
0.0021060587722921318   -0.0649000005547412   -0.0016185135277789117
0.000984267682355304   -0.058695861642236655   -0.0018357980280383982
0.005168328196070961   -0.058407247980991325   -0.0017543947263358446
0.0021060587722921318   -0.0649000005547412   -0.0016185135277789117
0.004897195401976247   -0.05838623673274775   -0.001936259441462587
0.000984267682355304   -0.058695861642236655   -0.0018357980280383982
0.0021060587722921318   -0.0649000005547412   -0.0016185135277789117
-0.0011043857688929097   -0.06522107281443258   -0.0017566993584716359
-0.0012638035538104927   -0.06517913294135487   -0.0019134084847080997
0.000984267682355304   -0.058695861642236655   -0.0018357980280383982
0.0021060587722921318   -0.0649000005547412   -0.0016185135277789117
-0.0012638035538104927   -0.06517913294135487   -0.0019134084847080997
0.004897195401976247   -0.05838623673274775   -0.001936259441462587
-0.011339366297530013   -0.06472189741339394   -0.0019576604889975924
-0.008318778828644792   -0.06837665588594578   -0.0017228558298440504
-0.008527822073386428   -0.06499405126594665   -0.002039271284745809
-0.011033618697736565   -0.0647142577000215   -0.0021380913097350813
-0.008318778828644792   -0.06837665588594578   -0.0017228558298440504
-0.0070096938925978194   -0.06872077798044224   -0.0019295469152602986
-0.008527822073386428   -0.06499405126594665   -0.002039271284745809
-0.006830903333792158   -0.06865285498517026   -0.002000779941293265
-0.011033618697736565   -0.0647142577000215   -0.0021380913097350813
-0.008386057594236978   -0.06498006494761176   -0.0021061928900139785
-0.006830903333792158   -0.06865285498517026   -0.002000779941293265
-0.008527822073386428   -0.06499405126594665   -0.002039271284745809
-0.011033618697736565   -0.0647142577000215   -0.0021380913097350813
-0.006830903333792158   -0.06865285498517026   -0.002000779941293265
-0.007937847702267941   -0.06830012389971743   -0.001939305506571866
-0.008318778828644792   -0.06837665588594578   -0.0017228558298440504
-0.011033618697736565   -0.0647142577000215   -0.0021380913097350813
-0.006830903333792158   -0.06865285498517026   -0.002000779941293265
-0.008318778828644792   -0.06837665588594578   -0.0017228558298440504
-0.008527822073386428   -0.06499405126594665   -0.002039271284745809
-0.011033618697736565   -0.0647142577000215   -0.0021380913097350813
-0.007937847702267941   -0.06830012389971743   -0.001939305506571866
-0.008386057594236978   -0.06498006494761176   -0.0021061928900139785
-0.010751808053964303   -0.06476271696800985   -0.002332674229922843
-0.007937847702267941   -0.06830012389971743   -0.001939305506571866
-0.006830903333792158   -0.06865285498517026   -0.002000779941293265
-0.008386057594236978   -0.06498006494761176   -0.0021061928900139785
-0.0066328482192834414   -0.06865631095544321   -0.002072736626897169
-0.010751808053964303   -0.06476271696800985   -0.002332674229922843
-0.008219297092992212   -0.06501929306136434   -0.00218316193433592
-0.0066328482192834414   -0.06865631095544321   -0.002072736626897169
-0.008386057594236978   -0.06498006494761176   -0.0021061928900139785
-0.010751808053964303   -0.06476271696800985   -0.002332674229922843
-0.0066328482192834414   -0.06865631095544321   -0.002072736626897169
-0.007609188672598677   -0.06830678316752956   -0.0021549303207978304
-0.007937847702267941   -0.06830012389971743   -0.001939305506571866
-0.010751808053964303   -0.06476271696800985   -0.002332674229922843
-0.0066328482192834414   -0.06865631095544321   -0.002072736626897169
-0.007937847702267941   -0.06830012389971743   -0.001939305506571866
-0.008386057594236978   -0.06498006494761176   -0.0021061928900139785
-0.010751808053964303   -0.06476271696800985   -0.002332674229922843
-0.007609188672598677   -0.06830678316752956   -0.0021549303207978304
-0.008219297092992212   -0.06501929306136434   -0.00218316193433592
-0.010408077570450928   -0.06489205150736435   -0.002540578210263493
-0.007609188672598677   -0.06830678316752956   -0.0021549303207978304
-0.0066328482192834414   -0.06865631095544321   -0.002072736626897169
-0.008219297092992212   -0.06501929306136434   -0.00218316193433592
-0.006448879086751664   -0.06873148203120596   -0.0021457180186810493
-0.010408077570450928   -0.06489205150736435   -0.002540578210263493
-0.008068013890681167   -0.06511263292879134   -0.0022695362643378684
-0.006448879086751664   -0.06873148203120596   -0.0021457180186810493
-0.008219297092992212   -0.06501929306136434   -0.00218316193433592
-0.010408077570450928   -0.06489205150736435   -0.002540578210263493
-0.006448879086751664   -0.06873148203120596   -0.0021457180186810493
-0.007219327858296883   -0.06840142133465224   -0.002375196833586107
-0.007609188672598677   -0.06830678316752956   -0.0021549303207978304
-0.010408077570450928   -0.06489205150736435   -0.002540578210263493
-0.006448879086751664   -0.06873148203120596   -0.0021457180186810493
-0.007609188672598677   -0.06830678316752956   -0.0021549303207978304
-0.008219297092992212   -0.06501929306136434   -0.00218316193433592
-0.008527822073386428   -0.06499405126594665   -0.002039271284745809
-0.0070096938925978194   -0.06872077798044224   -0.0019295469152602986
-0.0062301881756573405   -0.06517030744071488   -0.002103144704531743
-0.008386057594236978   -0.06498006494761176   -0.0021061928900139785
-0.0070096938925978194   -0.06872077798044224   -0.0019295469152602986
-0.006050585549105737   -0.06906576193140478   -0.002112194415555981
-0.0062301881756573405   -0.06517030744071488   -0.002103144704531743
-0.005861988093764086   -0.06899605036610243   -0.002062396542076306
-0.008386057594236978   -0.06498006494761176   -0.0021061928900139785
-0.006084738234263859   -0.06514786763359584   -0.0020826774796199187
-0.005861988093764086   -0.06899605036610243   -0.002062396542076306
-0.0062301881756573405   -0.06517030744071488   -0.002103144704531743
-0.008386057594236978   -0.06498006494761176   -0.0021061928900139785
-0.005861988093764086   -0.06899605036610243   -0.002062396542076306
-0.006830903333792158   -0.06865285498517026   -0.002000779941293265
-0.0070096938925978194   -0.06872077798044224   -0.0019295469152602986
-0.008386057594236978   -0.06498006494761176   -0.0021061928900139785
-0.005861988093764086   -0.06899605036610243   -0.002062396542076306
-0.0070096938925978194   -0.06872077798044224   -0.0019295469152602986
-0.0062301881756573405   -0.06517030744071488   -0.002103144704531743
-0.008386057594236978   -0.06498006494761176   -0.0021061928900139785
-0.006830903333792158   -0.06865285498517026   -0.002000779941293265
-0.006084738234263859   -0.06514786763359584   -0.0020826774796199187
-0.008219297092992212   -0.06501929306136434   -0.00218316193433592
-0.006830903333792158   -0.06865285498517026   -0.002000779941293265
-0.005861988093764086   -0.06899605036610243   -0.002062396542076306
-0.006084738234263859   -0.06514786763359584   -0.0020826774796199187
-0.005679623930818022   -0.06899487426185884   -0.0020119821646021126
-0.008219297092992212   -0.06501929306136434   -0.00218316193433592
-0.005941321032011309   -0.06517136848650933   -0.002071970607510298
-0.005679623930818022   -0.06899487426185884   -0.0020119821646021126
-0.006084738234263859   -0.06514786763359584   -0.0020826774796199187
-0.008219297092992212   -0.06501929306136434   -0.00218316193433592
-0.005679623930818022   -0.06899487426185884   -0.0020119821646021126
-0.0066328482192834414   -0.06865631095544321   -0.002072736626897169
-0.006830903333792158   -0.06865285498517026   -0.002000779941293265
-0.008219297092992212   -0.06501929306136434   -0.00218316193433592
-0.005679623930818022   -0.06899487426185884   -0.0020119821646021126
-0.006830903333792158   -0.06865285498517026   -0.002000779941293265
-0.006084738234263859   -0.06514786763359584   -0.0020826774796199187
-0.008219297092992212   -0.06501929306136434   -0.00218316193433592
-0.0066328482192834414   -0.06865631095544321   -0.002072736626897169
-0.005941321032011309   -0.06517136848650933   -0.002071970607510298
-0.008068013890681167   -0.06511263292879134   -0.0022695362643378684
-0.0066328482192834414   -0.06865631095544321   -0.002072736626897169
-0.005679623930818022   -0.06899487426185884   -0.0020119821646021126
-0.005941321032011309   -0.06517136848650933   -0.002071970607510298
-0.005489516383797444   -0.06906080759497728   -0.0019635655470681282
-0.008068013890681167   -0.06511263292879134   -0.0022695362643378684
-0.005809346106689771   -0.0652423311444773   -0.002073066438118494
-0.005489516383797444   -0.06906080759497728   -0.0019635655470681282
-0.005941321032011309   -0.06517136848650933   -0.002071970607510298
-0.008068013890681167   -0.06511263292879134   -0.0022695362643378684
-0.005489516383797444   -0.06906080759497728   -0.0019635655470681282
-0.006448879086751664   -0.06873148203120596   -0.0021457180186810493
-0.0066328482192834414   -0.06865631095544321   -0.002072736626897169
-0.008068013890681167   -0.06511263292879134   -0.0022695362643378684
-0.005489516383797444   -0.06906080759497728   -0.0019635655470681282
-0.0066328482192834414   -0.06865631095544321   -0.002072736626897169
-0.005941321032011309   -0.06517136848650933   -0.002071970607510298
-0.0062301881756573405   -0.06517030744071488   -0.002103144704531743
-0.006050585549105737   -0.06906576193140478   -0.002112194415555981
-0.0040294835603771765   -0.06526268988992587   -0.002178672229683796
-0.006084738234263859   -0.06514786763359584   -0.0020826774796199187
-0.006050585549105737   -0.06906576193140478   -0.002112194415555981
-0.005174544465779433   -0.06948167396482587   -0.0023133849529915684
-0.0040294835603771765   -0.06526268988992587   -0.002178672229683796
-0.00494336938806257   -0.06942113360210869   -0.002135775297011211
-0.006084738234263859   -0.06514786763359584   -0.0020826774796199187
-0.0038655247386338984   -0.06523028496149895   -0.002075783190446892
-0.00494336938806257   -0.06942113360210869   -0.002135775297011211
-0.0040294835603771765   -0.06526268988992587   -0.002178672229683796
-0.006084738234263859   -0.06514786763359584   -0.0020826774796199187
-0.00494336938806257   -0.06942113360210869   -0.002135775297011211
-0.005861988093764086   -0.06899605036610243   -0.002062396542076306
-0.006050585549105737   -0.06906576193140478   -0.002112194415555981
-0.006084738234263859   -0.06514786763359584   -0.0020826774796199187
-0.00494336938806257   -0.06942113360210869   -0.002135775297011211
-0.006050585549105737   -0.06906576193140478   -0.002112194415555981
-0.0040294835603771765   -0.06526268988992587   -0.002178672229683796
-0.006084738234263859   -0.06514786763359584   -0.0020826774796199187
-0.005861988093764086   -0.06899605036610243   -0.002062396542076306
-0.0038655247386338984   -0.06523028496149895   -0.002075783190446892
-0.005941321032011309   -0.06517136848650933   -0.002071970607510298
-0.005861988093764086   -0.06899605036610243   -0.002062396542076306
-0.00494336938806257   -0.06942113360210869   -0.002135775297011211
-0.0038655247386338984   -0.06523028496149895   -0.002075783190446892
-0.004729137325176404   -0.06941793652659822   -0.0019587491829271587
-0.005941321032011309   -0.06517136848650933   -0.002071970607510298
-0.003709221023813399   -0.06523828871417625   -0.0019815267304283644
-0.004729137325176404   -0.06941793652659822   -0.0019587491829271587
-0.0038655247386338984   -0.06523028496149895   -0.002075783190446892
-0.005941321032011309   -0.06517136848650933   -0.002071970607510298
-0.004729137325176404   -0.06941793652659822   -0.0019587491829271587
-0.005679623930818022   -0.06899487426185884   -0.0020119821646021126
-0.005861988093764086   -0.06899605036610243   -0.002062396542076306
-0.005941321032011309   -0.06517136848650933   -0.002071970607510298
-0.004729137325176404   -0.06941793652659822   -0.0019587491829271587
-0.005861988093764086   -0.06899605036610243   -0.002062396542076306
-0.0038655247386338984   -0.06523028496149895   -0.002075783190446892
-0.005941321032011309   -0.06517136848650933   -0.002071970607510298
-0.005679623930818022   -0.06899487426185884   -0.0020119821646021126
-0.003709221023813399   -0.06523828871417625   -0.0019815267304283644
-0.005809346106689771   -0.0652423311444773   -0.002073066438118494
-0.005679623930818022   -0.06899487426185884   -0.0020119821646021126
-0.004729137325176404   -0.06941793652659822   -0.0019587491829271587
-0.003709221023813399   -0.06523828871417625   -0.0019815267304283644
-0.004499171490221059   -0.0694689971618373   -0.0017813568723628861
-0.005809346106689771   -0.0652423311444773   -0.002073066438118494
-0.003579206977288847   -0.06529455332255146   -0.0019012850753701803
-0.004499171490221059   -0.0694689971618373   -0.0017813568723628861
-0.003709221023813399   -0.06523828871417625   -0.0019815267304283644
-0.005809346106689771   -0.0652423311444773   -0.002073066438118494
-0.004499171490221059   -0.0694689971618373   -0.0017813568723628861
-0.005489516383797444   -0.06906080759497728   -0.0019635655470681282
-0.005679623930818022   -0.06899487426185884   -0.0020119821646021126
-0.005809346106689771   -0.0652423311444773   -0.002073066438118494
-0.004499171490221059   -0.0694689971618373   -0.0017813568723628861
-0.005679623930818022   -0.06899487426185884   -0.0020119821646021126
-0.003709221023813399   -0.06523828871417625   -0.0019815267304283644
-0.0040294835603771765   -0.06526268988992587   -0.002178672229683796
-0.005174544465779433   -0.06948167396482587   -0.0023133849529915684
-0.0016895842502629246   -0.06523887876022051   -0.0022676799724589353
-0.0038655247386338984   -0.06523028496149895   -0.002075783190446892
-0.005174544465779433   -0.06948167396482587   -0.0023133849529915684
-0.004312365230469884   -0.07   -0.002468157506661906
-0.0016895842502629246   -0.06523887876022051   -0.0022676799724589353
-0.004021547570074505   -0.07   -0.0021982345771553854
-0.0038655247386338984   -0.06523028496149895   -0.002075783190446892
-0.0014790738689831949   -0.065188069375663   -0.0020859282865306954
-0.004021547570074505   -0.07   -0.0021982345771553854
-0.0016895842502629246   -0.06523887876022051   -0.0022676799724589353
-0.0038655247386338984   -0.06523028496149895   -0.002075783190446892
-0.004021547570074505   -0.07   -0.0021982345771553854
-0.00494336938806257   -0.06942113360210869   -0.002135775297011211
-0.005174544465779433   -0.06948167396482587   -0.0023133849529915684
-0.0038655247386338984   -0.06523028496149895   -0.002075783190446892
-0.004021547570074505   -0.07   -0.0021982345771553854
-0.005174544465779433   -0.06948167396482587   -0.0023133849529915684
-0.0016895842502629246   -0.06523887876022051   -0.0022676799724589353
-0.0038655247386338984   -0.06523028496149895   -0.002075783190446892
-0.00494336938806257   -0.06942113360210869   -0.002135775297011211
-0.0014790738689831949   -0.065188069375663   -0.0020859282865306954
-0.003709221023813399   -0.06523828871417625   -0.0019815267304283644
-0.00494336938806257   -0.06942113360210869   -0.002135775297011211
-0.004021547570074505   -0.07   -0.0021982345771553854
-0.0014790738689831949   -0.065188069375663   -0.0020859282865306954
-0.0037292991985117007   -0.07   -0.0019251122280345573
-0.003709221023813399   -0.06523828871417625   -0.0019815267304283644
-0.0012638035538104927   -0.06517913294135487   -0.0019134084847080997
-0.0037292991985117007   -0.07   -0.0019251122280345573
-0.0014790738689831949   -0.065188069375663   -0.0020859282865306954
-0.003709221023813399   -0.06523828871417625   -0.0019815267304283644
-0.0037292991985117007   -0.07   -0.0019251122280345573
-0.004729137325176404   -0.06941793652659822   -0.0019587491829271587
-0.00494336938806257   -0.06942113360210869   -0.002135775297011211
-0.003709221023813399   -0.06523828871417625   -0.0019815267304283644
-0.0037292991985117007   -0.07   -0.0019251122280345573
-0.00494336938806257   -0.06942113360210869   -0.002135775297011211
-0.0014790738689831949   -0.065188069375663   -0.0020859282865306954
-0.003709221023813399   -0.06523828871417625   -0.0019815267304283644
-0.004729137325176404   -0.06941793652659822   -0.0019587491829271587
-0.0012638035538104927   -0.06517913294135487   -0.0019134084847080997
-0.003579206977288847   -0.06529455332255146   -0.0019012850753701803
-0.004729137325176404   -0.06941793652659822   -0.0019587491829271587
-0.0037292991985117007   -0.07   -0.0019251122280345573
-0.0012638035538104927   -0.06517913294135487   -0.0019134084847080997
-0.0034436802325625766   -0.07   -0.0016556048338183334
-0.003579206977288847   -0.06529455332255146   -0.0019012850753701803
-0.0011043857688929097   -0.06522107281443258   -0.0017566993584716359
-0.0034436802325625766   -0.07   -0.0016556048338183334
-0.0012638035538104927   -0.06517913294135487   -0.0019134084847080997
-0.003579206977288847   -0.06529455332255146   -0.0019012850753701803
-0.0034436802325625766   -0.07   -0.0016556048338183334
-0.004499171490221059   -0.0694689971618373   -0.0017813568723628861
-0.004729137325176404   -0.06941793652659822   -0.0019587491829271587
-0.003579206977288847   -0.06529455332255146   -0.0019012850753701803
-0.0034436802325625766   -0.07   -0.0016556048338183334
-0.004729137325176404   -0.06941793652659822   -0.0019587491829271587
-0.0012638035538104927   -0.06517913294135487   -0.0019134084847080997
-0.0016895842502629246   -0.06523887876022051   -0.0022676799724589353
-0.004312365230469884   -0.07   -0.002468157506661906
0.0008282227477010355   -0.06501396693218206   -0.002449942763111565
-0.0014790738689831949   -0.065188069375663   -0.0020859282865306954
-0.004312365230469884   -0.07   -0.002468157506661906
-0.0036864266087223902   -0.07   -0.0026556009105879394
0.0008282227477010355   -0.06501396693218206   -0.002449942763111565
-0.003077983952219036   -0.07   -0.0022650180475582934
-0.0014790738689831949   -0.065188069375663   -0.0020859282865306954
0.0013191958562295358   -0.06490344622720894   -0.002152659319620941
-0.003077983952219036   -0.07   -0.0022650180475582934
0.0008282227477010355   -0.06501396693218206   -0.002449942763111565
-0.0014790738689831949   -0.065188069375663   -0.0020859282865306954
-0.003077983952219036   -0.07   -0.0022650180475582934
-0.004021547570074505   -0.07   -0.0021982345771553854
-0.004312365230469884   -0.07   -0.002468157506661906
-0.0014790738689831949   -0.065188069375663   -0.0020859282865306954
-0.003077983952219036   -0.07   -0.0022650180475582934
-0.004312365230469884   -0.07   -0.002468157506661906
0.0008282227477010355   -0.06501396693218206   -0.002449942763111565
-0.0014790738689831949   -0.065188069375663   -0.0020859282865306954
-0.004021547570074505   -0.07   -0.0021982345771553854
0.0013191958562295358   -0.06490344622720894   -0.002152659319620941
-0.0012638035538104927   -0.06517913294135487   -0.0019134084847080997
-0.004021547570074505   -0.07   -0.0021982345771553854
-0.003077983952219036   -0.07   -0.0022650180475582934
0.0013191958562295358   -0.06490344622720894   -0.002152659319620941
-0.0025927638078707097   -0.07   -0.0018913815804294948
-0.0012638035538104927   -0.06517913294135487   -0.0019134084847080997
0.0017050195152533045   -0.06488108578864964   -0.001873499294917388
-0.0025927638078707097   -0.07   -0.0018913815804294948
0.0013191958562295358   -0.06490344622720894   -0.002152659319620941
-0.0012638035538104927   -0.06517913294135487   -0.0019134084847080997
-0.0025927638078707097   -0.07   -0.0018913815804294948
-0.0037292991985117007   -0.07   -0.0019251122280345573
-0.004021547570074505   -0.07   -0.0021982345771553854
-0.0012638035538104927   -0.06517913294135487   -0.0019134084847080997
-0.0025927638078707097   -0.07   -0.0018913815804294948
-0.004021547570074505   -0.07   -0.0021982345771553854
0.0013191958562295358   -0.06490344622720894   -0.002152659319620941
-0.0012638035538104927   -0.06517913294135487   -0.0019134084847080997
-0.0037292991985117007   -0.07   -0.0019251122280345573
0.0017050195152533045   -0.06488108578864964   -0.001873499294917388
-0.0011043857688929097   -0.06522107281443258   -0.0017566993584716359
-0.0037292991985117007   -0.07   -0.0019251122280345573
-0.0025927638078707097   -0.07   -0.0018913815804294948
0.0017050195152533045   -0.06488108578864964   -0.001873499294917388
-0.001993384744556464   -0.07   -0.0015035008065322863
-0.0011043857688929097   -0.06522107281443258   -0.0017566993584716359
0.0021060587722921318   -0.0649000005547412   -0.0016185135277789117
-0.001993384744556464   -0.07   -0.0015035008065322863
0.0017050195152533045   -0.06488108578864964   -0.001873499294917388
-0.0011043857688929097   -0.06522107281443258   -0.0017566993584716359
-0.001993384744556464   -0.07   -0.0015035008065322863
-0.0034436802325625766   -0.07   -0.0016556048338183334
-0.0037292991985117007   -0.07   -0.0019251122280345573
-0.0011043857688929097   -0.06522107281443258   -0.0017566993584716359
-0.001993384744556464   -0.07   -0.0015035008065322863
-0.0037292991985117007   -0.07   -0.0019251122280345573
0.0017050195152533045   -0.06488108578864964   -0.001873499294917388
-0.008318778828644792   -0.06837665588594578   -0.0017228558298440504
-0.00497700191127579   -0.06856422469994772   -0.0014746835628464874
-0.0070096938925978194   -0.06872077798044224   -0.0019295469152602986
-0.007937847702267941   -0.06830012389971743   -0.001939305506571866
-0.00497700191127579   -0.06856422469994772   -0.0014746835628464874
-0.005276193786132142   -0.06882955195223739   -0.0017408251928398997
-0.0070096938925978194   -0.06872077798044224   -0.0019295469152602986
-0.005140946988626931   -0.06873677831960932   -0.00183796610542991
-0.007937847702267941   -0.06830012389971743   -0.001939305506571866
-0.006830903333792158   -0.06865285498517026   -0.002000779941293265
-0.005140946988626931   -0.06873677831960932   -0.00183796610542991
-0.0070096938925978194   -0.06872077798044224   -0.0019295469152602986
-0.007937847702267941   -0.06830012389971743   -0.001939305506571866
-0.005140946988626931   -0.06873677831960932   -0.00183796610542991
-0.004631719509295191   -0.06844508954802127   -0.0017021109390733247
-0.00497700191127579   -0.06856422469994772   -0.0014746835628464874
-0.007937847702267941   -0.06830012389971743   -0.001939305506571866
-0.005140946988626931   -0.06873677831960932   -0.00183796610542991
-0.00497700191127579   -0.06856422469994772   -0.0014746835628464874
-0.0070096938925978194   -0.06872077798044224   -0.0019295469152602986
-0.007937847702267941   -0.06830012389971743   -0.001939305506571866
-0.004631719509295191   -0.06844508954802127   -0.0017021109390733247
-0.006830903333792158   -0.06865285498517026   -0.002000779941293265
-0.007609188672598677   -0.06830678316752956   -0.0021549303207978304
-0.004631719509295191   -0.06844508954802127   -0.0017021109390733247
-0.005140946988626931   -0.06873677831960932   -0.00183796610542991
-0.006830903333792158   -0.06865285498517026   -0.002000779941293265
-0.0049822889694233164   -0.06870262998257927   -0.0019276032098003509
-0.007609188672598677   -0.06830678316752956   -0.0021549303207978304
-0.0066328482192834414   -0.06865631095544321   -0.002072736626897169
-0.0049822889694233164   -0.06870262998257927   -0.0019276032098003509
-0.006830903333792158   -0.06865285498517026   -0.002000779941293265
-0.007609188672598677   -0.06830678316752956   -0.0021549303207978304
-0.0049822889694233164   -0.06870262998257927   -0.0019276032098003509
-0.004344313694164373   -0.06840852772024163   -0.0019202273949645574
-0.004631719509295191   -0.06844508954802127   -0.0017021109390733247
-0.007609188672598677   -0.06830678316752956   -0.0021549303207978304
-0.0049822889694233164   -0.06870262998257927   -0.0019276032098003509
-0.004631719509295191   -0.06844508954802127   -0.0017021109390733247
-0.006830903333792158   -0.06865285498517026   -0.002000779941293265
-0.007609188672598677   -0.06830678316752956   -0.0021549303207978304
-0.004344313694164373   -0.06840852772024163   -0.0019202273949645574
-0.0066328482192834414   -0.06865631095544321   -0.002072736626897169
-0.007219327858296883   -0.06840142133465224   -0.002375196833586107
-0.004344313694164373   -0.06840852772024163   -0.0019202273949645574
-0.0049822889694233164   -0.06870262998257927   -0.0019276032098003509
-0.0066328482192834414   -0.06865631095544321   -0.002072736626897169
-0.004846388788532352   -0.06872760504852024   -0.0020092691744489017
-0.007219327858296883   -0.06840142133465224   -0.002375196833586107
-0.006448879086751664   -0.06873148203120596   -0.0021457180186810493
-0.004846388788532352   -0.06872760504852024   -0.0020092691744489017
-0.0066328482192834414   -0.06865631095544321   -0.002072736626897169
-0.007219327858296883   -0.06840142133465224   -0.002375196833586107
-0.004846388788532352   -0.06872760504852024   -0.0020092691744489017
-0.004019091628485753   -0.0684396810049092   -0.0021280668624760403
-0.004344313694164373   -0.06840852772024163   -0.0019202273949645574
-0.007219327858296883   -0.06840142133465224   -0.002375196833586107
-0.004846388788532352   -0.06872760504852024   -0.0020092691744489017
-0.004344313694164373   -0.06840852772024163   -0.0019202273949645574
-0.0066328482192834414   -0.06865631095544321   -0.002072736626897169
-0.0070096938925978194   -0.06872077798044224   -0.0019295469152602986
-0.005276193786132142   -0.06882955195223739   -0.0017408251928398997
-0.006050585549105737   -0.06906576193140478   -0.002112194415555981
-0.006830903333792158   -0.06865285498517026   -0.002000779941293265
-0.005276193786132142   -0.06882955195223739   -0.0017408251928398997
-0.005682273548332288   -0.0689934327868193   -0.0019535956655783223
-0.006050585549105737   -0.06906576193140478   -0.002112194415555981
-0.00556258851577537   -0.06891058457188419   -0.0019561177140298928
-0.006830903333792158   -0.06865285498517026   -0.002000779941293265
-0.005861988093764086   -0.06899605036610243   -0.002062396542076306
-0.00556258851577537   -0.06891058457188419   -0.0019561177140298928
-0.006050585549105737   -0.06906576193140478   -0.002112194415555981
-0.006830903333792158   -0.06865285498517026   -0.002000779941293265
-0.00556258851577537   -0.06891058457188419   -0.0019561177140298928
-0.005140946988626931   -0.06873677831960932   -0.00183796610542991
-0.005276193786132142   -0.06882955195223739   -0.0017408251928398997
-0.006830903333792158   -0.06865285498517026   -0.002000779941293265
-0.00556258851577537   -0.06891058457188419   -0.0019561177140298928
-0.005276193786132142   -0.06882955195223739   -0.0017408251928398997
-0.006050585549105737   -0.06906576193140478   -0.002112194415555981
-0.006830903333792158   -0.06865285498517026   -0.002000779941293265
-0.005140946988626931   -0.06873677831960932   -0.00183796610542991
-0.005861988093764086   -0.06899605036610243   -0.002062396542076306
-0.0066328482192834414   -0.06865631095544321   -0.002072736626897169
-0.005140946988626931   -0.06873677831960932   -0.00183796610542991
-0.00556258851577537   -0.06891058457188419   -0.0019561177140298928
-0.005861988093764086   -0.06899605036610243   -0.002062396542076306
-0.005429376925438477   -0.06888083298644945   -0.0019489114538288543
-0.0066328482192834414   -0.06865631095544321   -0.002072736626897169
-0.005679623930818022   -0.06899487426185884   -0.0020119821646021126
-0.005429376925438477   -0.06888083298644945   -0.0019489114538288543
-0.005861988093764086   -0.06899605036610243   -0.002062396542076306
-0.0066328482192834414   -0.06865631095544321   -0.002072736626897169
-0.005429376925438477   -0.06888083298644945   -0.0019489114538288543
-0.0049822889694233164   -0.06870262998257927   -0.0019276032098003509
-0.005140946988626931   -0.06873677831960932   -0.00183796610542991
-0.0066328482192834414   -0.06865631095544321   -0.002072736626897169
-0.005429376925438477   -0.06888083298644945   -0.0019489114538288543
-0.005140946988626931   -0.06873677831960932   -0.00183796610542991
-0.005861988093764086   -0.06899605036610243   -0.002062396542076306
-0.0066328482192834414   -0.06865631095544321   -0.002072736626897169
-0.0049822889694233164   -0.06870262998257927   -0.0019276032098003509
-0.005679623930818022   -0.06899487426185884   -0.0020119821646021126
-0.006448879086751664   -0.06873148203120596   -0.0021457180186810493
-0.0049822889694233164   -0.06870262998257927   -0.0019276032098003509
-0.005429376925438477   -0.06888083298644945   -0.0019489114538288543
-0.005679623930818022   -0.06899487426185884   -0.0020119821646021126
-0.005293942606888799   -0.06890175999300235   -0.0019340711401572136
-0.006448879086751664   -0.06873148203120596   -0.0021457180186810493
-0.005489516383797444   -0.06906080759497728   -0.0019635655470681282
-0.005293942606888799   -0.06890175999300235   -0.0019340711401572136
-0.005679623930818022   -0.06899487426185884   -0.0020119821646021126
-0.006448879086751664   -0.06873148203120596   -0.0021457180186810493
-0.005293942606888799   -0.06890175999300235   -0.0019340711401572136
-0.004846388788532352   -0.06872760504852024   -0.0020092691744489017
-0.0049822889694233164   -0.06870262998257927   -0.0019276032098003509
-0.006448879086751664   -0.06873148203120596   -0.0021457180186810493
-0.005293942606888799   -0.06890175999300235   -0.0019340711401572136
-0.0049822889694233164   -0.06870262998257927   -0.0019276032098003509
-0.005679623930818022   -0.06899487426185884   -0.0020119821646021126
-0.006050585549105737   -0.06906576193140478   -0.002112194415555981
-0.005682273548332288   -0.0689934327868193   -0.0019535956655783223
-0.005174544465779433   -0.06948167396482587   -0.0023133849529915684
-0.005861988093764086   -0.06899605036610243   -0.002062396542076306
-0.005682273548332288   -0.0689934327868193   -0.0019535956655783223
-0.006117734652566069   -0.06906207176501962   -0.00216303581788174
-0.005174544465779433   -0.06948167396482587   -0.0023133849529915684
-0.005993753093642691   -0.06898305490519879   -0.0020745736978554008
-0.005861988093764086   -0.06899605036610243   -0.002062396542076306
-0.00494336938806257   -0.06942113360210869   -0.002135775297011211
-0.005993753093642691   -0.06898305490519879   -0.0020745736978554008
-0.005174544465779433   -0.06948167396482587   -0.0023133849529915684
-0.005861988093764086   -0.06899605036610243   -0.002062396542076306
-0.005993753093642691   -0.06898305490519879   -0.0020745736978554008
-0.00556258851577537   -0.06891058457188419   -0.0019561177140298928
-0.005682273548332288   -0.0689934327868193   -0.0019535956655783223
-0.005861988093764086   -0.06899605036610243   -0.002062396542076306
-0.005993753093642691   -0.06898305490519879   -0.0020745736978554008
-0.005682273548332288   -0.0689934327868193   -0.0019535956655783223
-0.005174544465779433   -0.06948167396482587   -0.0023133849529915684
-0.005861988093764086   -0.06899605036610243   -0.002062396542076306
-0.00556258851577537   -0.06891058457188419   -0.0019561177140298928
-0.00494336938806257   -0.06942113360210869   -0.002135775297011211
-0.005679623930818022   -0.06899487426185884   -0.0020119821646021126
-0.00556258851577537   -0.06891058457188419   -0.0019561177140298928
-0.005993753093642691   -0.06898305490519879   -0.0020745736978554008
-0.00494336938806257   -0.06942113360210869   -0.002135775297011211
-0.005845055803923373   -0.06895800054185502   -0.0019742629172452533
-0.005679623930818022   -0.06899487426185884   -0.0020119821646021126
-0.004729137325176404   -0.06941793652659822   -0.0019587491829271587
-0.005845055803923373   -0.06895800054185502   -0.0019742629172452533
-0.00494336938806257   -0.06942113360210869   -0.002135775297011211
-0.005679623930818022   -0.06899487426185884   -0.0020119821646021126
-0.005845055803923373   -0.06895800054185502   -0.0019742629172452533
-0.005429376925438477   -0.06888083298644945   -0.0019489114538288543
-0.00556258851577537   -0.06891058457188419   -0.0019561177140298928
-0.005679623930818022   -0.06899487426185884   -0.0020119821646021126
-0.005845055803923373   -0.06895800054185502   -0.0019742629172452533
-0.00556258851577537   -0.06891058457188419   -0.0019561177140298928
-0.00494336938806257   -0.06942113360210869   -0.002135775297011211
-0.005679623930818022   -0.06899487426185884   -0.0020119821646021126
-0.005429376925438477   -0.06888083298644945   -0.0019489114538288543
-0.004729137325176404   -0.06941793652659822   -0.0019587491829271587
-0.005489516383797444   -0.06906080759497728   -0.0019635655470681282
-0.005429376925438477   -0.06888083298644945   -0.0019489114538288543
-0.005845055803923373   -0.06895800054185502   -0.0019742629172452533
-0.004729137325176404   -0.06941793652659822   -0.0019587491829271587
-0.005692147333101374   -0.06897844854526562   -0.0018674287488942838
-0.005489516383797444   -0.06906080759497728   -0.0019635655470681282
-0.004499171490221059   -0.0694689971618373   -0.0017813568723628861
-0.005692147333101374   -0.06897844854526562   -0.0018674287488942838
-0.004729137325176404   -0.06941793652659822   -0.0019587491829271587
-0.005489516383797444   -0.06906080759497728   -0.0019635655470681282
-0.005692147333101374   -0.06897844854526562   -0.0018674287488942838
-0.005293942606888799   -0.06890175999300235   -0.0019340711401572136
-0.005429376925438477   -0.06888083298644945   -0.0019489114538288543
-0.005489516383797444   -0.06906080759497728   -0.0019635655470681282
-0.005692147333101374   -0.06897844854526562   -0.0018674287488942838
-0.005429376925438477   -0.06888083298644945   -0.0019489114538288543
-0.004729137325176404   -0.06941793652659822   -0.0019587491829271587
-0.005174544465779433   -0.06948167396482587   -0.0023133849529915684
-0.006117734652566069   -0.06906207176501962   -0.00216303581788174
-0.004312365230469884   -0.07   -0.002468157506661906
-0.00494336938806257   -0.06942113360210869   -0.002135775297011211
-0.006117734652566069   -0.06906207176501962   -0.00216303581788174
-0.006748490418720115   -0.0689874783786196   -0.0023620887238633244
-0.004312365230469884   -0.07   -0.002468157506661906
-0.006586550962346392   -0.06891284418936557   -0.0021869874437494188
-0.00494336938806257   -0.06942113360210869   -0.002135775297011211
-0.004021547570074505   -0.07   -0.0021982345771553854
-0.006586550962346392   -0.06891284418936557   -0.0021869874437494188
-0.004312365230469884   -0.07   -0.002468157506661906
-0.00494336938806257   -0.06942113360210869   -0.002135775297011211
-0.006586550962346392   -0.06891284418936557   -0.0021869874437494188
-0.005993753093642691   -0.06898305490519879   -0.0020745736978554008
-0.006117734652566069   -0.06906207176501962   -0.00216303581788174
-0.00494336938806257   -0.06942113360210869   -0.002135775297011211
-0.006586550962346392   -0.06891284418936557   -0.0021869874437494188
-0.006117734652566069   -0.06906207176501962   -0.00216303581788174
-0.004312365230469884   -0.07   -0.002468157506661906
-0.00494336938806257   -0.06942113360210869   -0.002135775297011211
-0.005993753093642691   -0.06898305490519879   -0.0020745736978554008
-0.004021547570074505   -0.07   -0.0021982345771553854
-0.004729137325176404   -0.06941793652659822   -0.0019587491829271587
-0.005993753093642691   -0.06898305490519879   -0.0020745736978554008
-0.006586550962346392   -0.06891284418936557   -0.0021869874437494188
-0.004021547570074505   -0.07   -0.0021982345771553854
-0.0063728422624514825   -0.06889591782675465   -0.0019986865168232135
-0.004729137325176404   -0.06941793652659822   -0.0019587491829271587
-0.0037292991985117007   -0.07   -0.0019251122280345573
-0.0063728422624514825   -0.06889591782675465   -0.0019986865168232135
-0.004021547570074505   -0.07   -0.0021982345771553854
-0.004729137325176404   -0.06941793652659822   -0.0019587491829271587
-0.0063728422624514825   -0.06889591782675465   -0.0019986865168232135
-0.005845055803923373   -0.06895800054185502   -0.0019742629172452533
-0.005993753093642691   -0.06898305490519879   -0.0020745736978554008
-0.004729137325176404   -0.06941793652659822   -0.0019587491829271587
-0.0063728422624514825   -0.06889591782675465   -0.0019986865168232135
-0.005993753093642691   -0.06898305490519879   -0.0020745736978554008
-0.004021547570074505   -0.07   -0.0021982345771553854
-0.004729137325176404   -0.06941793652659822   -0.0019587491829271587
-0.005845055803923373   -0.06895800054185502   -0.0019742629172452533
-0.0037292991985117007   -0.07   -0.0019251122280345573
-0.004499171490221059   -0.0694689971618373   -0.0017813568723628861
-0.005845055803923373   -0.06895800054185502   -0.0019742629172452533
-0.0063728422624514825   -0.06889591782675465   -0.0019986865168232135
-0.0037292991985117007   -0.07   -0.0019251122280345573
-0.006171861258121831   -0.06892557491811814   -0.0018031270887017457
-0.004499171490221059   -0.0694689971618373   -0.0017813568723628861
-0.0034436802325625766   -0.07   -0.0016556048338183334
-0.006171861258121831   -0.06892557491811814   -0.0018031270887017457
-0.0037292991985117007   -0.07   -0.0019251122280345573
-0.004499171490221059   -0.0694689971618373   -0.0017813568723628861
-0.006171861258121831   -0.06892557491811814   -0.0018031270887017457
-0.005692147333101374   -0.06897844854526562   -0.0018674287488942838
-0.005845055803923373   -0.06895800054185502   -0.0019742629172452533
-0.004499171490221059   -0.0694689971618373   -0.0017813568723628861
-0.006171861258121831   -0.06892557491811814   -0.0018031270887017457
-0.005845055803923373   -0.06895800054185502   -0.0019742629172452533
-0.0037292991985117007   -0.07   -0.0019251122280345573
-0.004312365230469884   -0.07   -0.002468157506661906
-0.006748490418720115   -0.0689874783786196   -0.0023620887238633244
-0.0036864266087223902   -0.07   -0.0026556009105879394
-0.004021547570074505   -0.07   -0.0021982345771553854
-0.006748490418720115   -0.0689874783786196   -0.0023620887238633244
-0.007975442156832543   -0.06864994711786614   -0.002573275225334403
-0.0036864266087223902   -0.07   -0.0026556009105879394
-0.007544613165073329   -0.06858698309711066   -0.0022860054575931108
-0.004021547570074505   -0.07   -0.0021982345771553854
-0.003077983952219036   -0.07   -0.0022650180475582934
-0.007544613165073329   -0.06858698309711066   -0.0022860054575931108
-0.0036864266087223902   -0.07   -0.0026556009105879394
-0.004021547570074505   -0.07   -0.0021982345771553854
-0.007544613165073329   -0.06858698309711066   -0.0022860054575931108
-0.006586550962346392   -0.06891284418936557   -0.0021869874437494188
-0.006748490418720115   -0.0689874783786196   -0.0023620887238633244
-0.004021547570074505   -0.07   -0.0021982345771553854
-0.007544613165073329   -0.06858698309711066   -0.0022860054575931108
-0.006748490418720115   -0.0689874783786196   -0.0023620887238633244
-0.0036864266087223902   -0.07   -0.0026556009105879394
-0.004021547570074505   -0.07   -0.0021982345771553854
-0.006586550962346392   -0.06891284418936557   -0.0021869874437494188
-0.003077983952219036   -0.07   -0.0022650180475582934
-0.0037292991985117007   -0.07   -0.0019251122280345573
-0.006586550962346392   -0.06891284418936557   -0.0021869874437494188
-0.007544613165073329   -0.06858698309711066   -0.0022860054575931108
-0.003077983952219036   -0.07   -0.0022650180475582934
-0.007148829840183616   -0.06857838020451579   -0.001979406668450167
-0.0037292991985117007   -0.07   -0.0019251122280345573
-0.0025927638078707097   -0.07   -0.0018913815804294948
-0.007148829840183616   -0.06857838020451579   -0.001979406668450167
-0.003077983952219036   -0.07   -0.0022650180475582934
-0.0037292991985117007   -0.07   -0.0019251122280345573
-0.007148829840183616   -0.06857838020451579   -0.001979406668450167
-0.0063728422624514825   -0.06889591782675465   -0.0019986865168232135
-0.006586550962346392   -0.06891284418936557   -0.0021869874437494188
-0.0037292991985117007   -0.07   -0.0019251122280345573
-0.007148829840183616   -0.06857838020451579   -0.001979406668450167
-0.006586550962346392   -0.06891284418936557   -0.0021869874437494188
-0.003077983952219036   -0.07   -0.0022650180475582934
-0.0037292991985117007   -0.07   -0.0019251122280345573
-0.0063728422624514825   -0.06889591782675465   -0.0019986865168232135
-0.0025927638078707097   -0.07   -0.0018913815804294948
-0.0034436802325625766   -0.07   -0.0016556048338183334
-0.0063728422624514825   -0.06889591782675465   -0.0019986865168232135
-0.007148829840183616   -0.06857838020451579   -0.001979406668450167
-0.0025927638078707097   -0.07   -0.0018913815804294948
-0.006648986387337147   -0.06866099796614704   -0.0016587759816563629
-0.0034436802325625766   -0.07   -0.0016556048338183334
-0.001993384744556464   -0.07   -0.0015035008065322863
-0.006648986387337147   -0.06866099796614704   -0.0016587759816563629
-0.0025927638078707097   -0.07   -0.0018913815804294948
-0.0034436802325625766   -0.07   -0.0016556048338183334
-0.006648986387337147   -0.06866099796614704   -0.0016587759816563629
-0.006171861258121831   -0.06892557491811814   -0.0018031270887017457
-0.0063728422624514825   -0.06889591782675465   -0.0019986865168232135
-0.0034436802325625766   -0.07   -0.0016556048338183334
-0.006648986387337147   -0.06866099796614704   -0.0016587759816563629
-0.0063728422624514825   -0.06889591782675465   -0.0019986865168232135
-0.0025927638078707097   -0.07   -0.0018913815804294948
-0.00497700191127579   -0.06856422469994772   -0.0014746835628464874
-0.00203661310648899   -0.06597900098270332   -0.0012740564975105412
-0.005276193786132142   -0.06882955195223739   -0.0017408251928398997
-0.004631719509295191   -0.06844508954802127   -0.0017021109390733247
-0.00203661310648899   -0.06597900098270332   -0.0012740564975105412
-0.003789298931053973   -0.06617923790371427   -0.0015567673659479713
-0.005276193786132142   -0.06882955195223739   -0.0017408251928398997
-0.003693225805818939   -0.06606697262110006   -0.0016433970620010983
-0.004631719509295191   -0.06844508954802127   -0.0017021109390733247
-0.005140946988626931   -0.06873677831960932   -0.00183796610542991
-0.003693225805818939   -0.06606697262110006   -0.0016433970620010983
-0.005276193786132142   -0.06882955195223739   -0.0017408251928398997
-0.004631719509295191   -0.06844508954802127   -0.0017021109390733247
-0.003693225805818939   -0.06606697262110006   -0.0016433970620010983
-0.0017612412870894841   -0.06584006105384574   -0.0014706706282054296
-0.00203661310648899   -0.06597900098270332   -0.0012740564975105412
-0.004631719509295191   -0.06844508954802127   -0.0017021109390733247
-0.003693225805818939   -0.06606697262110006   -0.0016433970620010983
-0.00203661310648899   -0.06597900098270332   -0.0012740564975105412
-0.005276193786132142   -0.06882955195223739   -0.0017408251928398997
-0.004631719509295191   -0.06844508954802127   -0.0017021109390733247
-0.0017612412870894841   -0.06584006105384574   -0.0014706706282054296
-0.005140946988626931   -0.06873677831960932   -0.00183796610542991
-0.004344313694164373   -0.06840852772024163   -0.0019202273949645574
-0.0017612412870894841   -0.06584006105384574   -0.0014706706282054296
-0.003693225805818939   -0.06606697262110006   -0.0016433970620010983
-0.005140946988626931   -0.06873677831960932   -0.00183796610542991
-0.0035850441672225478   -0.06600485802351379   -0.0017222284965483837
-0.004344313694164373   -0.06840852772024163   -0.0019202273949645574
-0.0049822889694233164   -0.06870262998257927   -0.0019276032098003509
-0.0035850441672225478   -0.06600485802351379   -0.0017222284965483837
-0.005140946988626931   -0.06873677831960932   -0.00183796610542991
-0.004344313694164373   -0.06840852772024163   -0.0019202273949645574
-0.0035850441672225478   -0.06600485802351379   -0.0017222284965483837
-0.001544554066676795   -0.06577398945296448   -0.001655726368856966
-0.0017612412870894841   -0.06584006105384574   -0.0014706706282054296
-0.004344313694164373   -0.06840852772024163   -0.0019202273949645574
-0.0035850441672225478   -0.06600485802351379   -0.0017222284965483837
-0.0017612412870894841   -0.06584006105384574   -0.0014706706282054296
-0.005140946988626931   -0.06873677831960932   -0.00183796610542991
-0.004344313694164373   -0.06840852772024163   -0.0019202273949645574
-0.001544554066676795   -0.06577398945296448   -0.001655726368856966
-0.0049822889694233164   -0.06870262998257927   -0.0019276032098003509
-0.004019091628485753   -0.0684396810049092   -0.0021280668624760403
-0.001544554066676795   -0.06577398945296448   -0.001655726368856966
-0.0035850441672225478   -0.06600485802351379   -0.0017222284965483837
-0.0049822889694233164   -0.06870262998257927   -0.0019276032098003509
-0.0035021076087853576   -0.06599115775446608   -0.0017935115353653174
-0.004019091628485753   -0.0684396810049092   -0.0021280668624760403
-0.004846388788532352   -0.06872760504852024   -0.0020092691744489017
-0.0035021076087853576   -0.06599115775446608   -0.0017935115353653174
-0.0049822889694233164   -0.06870262998257927   -0.0019276032098003509
-0.004019091628485753   -0.0684396810049092   -0.0021280668624760403
-0.0035021076087853576   -0.06599115775446608   -0.0017935115353653174
-0.0013078606558309823   -0.0657617846677099   -0.001828736040730232
-0.001544554066676795   -0.06577398945296448   -0.001655726368856966
-0.004019091628485753   -0.0684396810049092   -0.0021280668624760403
-0.0035021076087853576   -0.06599115775446608   -0.0017935115353653174
-0.001544554066676795   -0.06577398945296448   -0.001655726368856966
-0.0049822889694233164   -0.06870262998257927   -0.0019276032098003509
-0.005276193786132142   -0.06882955195223739   -0.0017408251928398997
-0.003789298931053973   -0.06617923790371427   -0.0015567673659479713
-0.005682273548332288   -0.0689934327868193   -0.0019535956655783223
-0.005140946988626931   -0.06873677831960932   -0.00183796610542991
-0.003789298931053973   -0.06617923790371427   -0.0015567673659479713
-0.005519821151542617   -0.06624984586002063   -0.001787327921150551
-0.005682273548332288   -0.0689934327868193   -0.0019535956655783223
-0.005439057303419702   -0.06615190676711147   -0.0017920786020434979
-0.005140946988626931   -0.06873677831960932   -0.00183796610542991
-0.00556258851577537   -0.06891058457188419   -0.0019561177140298928
-0.005439057303419702   -0.06615190676711147   -0.0017920786020434979
-0.005682273548332288   -0.0689934327868193   -0.0019535956655783223
-0.005140946988626931   -0.06873677831960932   -0.00183796610542991
-0.005439057303419702   -0.06615190676711147   -0.0017920786020434979
-0.003693225805818939   -0.06606697262110006   -0.0016433970620010983
-0.003789298931053973   -0.06617923790371427   -0.0015567673659479713
-0.005140946988626931   -0.06873677831960932   -0.00183796610542991
-0.005439057303419702   -0.06615190676711147   -0.0017920786020434979
-0.003789298931053973   -0.06617923790371427   -0.0015567673659479713
-0.005682273548332288   -0.0689934327868193   -0.0019535956655783223
-0.005140946988626931   -0.06873677831960932   -0.00183796610542991
-0.003693225805818939   -0.06606697262110006   -0.0016433970620010983
-0.00556258851577537   -0.06891058457188419   -0.0019561177140298928
-0.0049822889694233164   -0.06870262998257927   -0.0019276032098003509
-0.003693225805818939   -0.06606697262110006   -0.0016433970620010983
-0.005439057303419702   -0.06615190676711147   -0.0017920786020434979
-0.00556258851577537   -0.06891058457188419   -0.0019561177140298928
-0.005355522695432504   -0.0660991753073435   -0.0017896068725129458
-0.0049822889694233164   -0.06870262998257927   -0.0019276032098003509
-0.005429376925438477   -0.06888083298644945   -0.0019489114538288543
-0.005355522695432504   -0.0660991753073435   -0.0017896068725129458
-0.00556258851577537   -0.06891058457188419   -0.0019561177140298928
-0.0049822889694233164   -0.06870262998257927   -0.0019276032098003509
-0.005355522695432504   -0.0660991753073435   -0.0017896068725129458
-0.0035850441672225478   -0.06600485802351379   -0.0017222284965483837
-0.003693225805818939   -0.06606697262110006   -0.0016433970620010983
-0.0049822889694233164   -0.06870262998257927   -0.0019276032098003509
-0.005355522695432504   -0.0660991753073435   -0.0017896068725129458
-0.003693225805818939   -0.06606697262110006   -0.0016433970620010983
-0.00556258851577537   -0.06891058457188419   -0.0019561177140298928
-0.0049822889694233164   -0.06870262998257927   -0.0019276032098003509
-0.0035850441672225478   -0.06600485802351379   -0.0017222284965483837
-0.005429376925438477   -0.06888083298644945   -0.0019489114538288543
-0.004846388788532352   -0.06872760504852024   -0.0020092691744489017
-0.0035850441672225478   -0.06600485802351379   -0.0017222284965483837
-0.005355522695432504   -0.0660991753073435   -0.0017896068725129458
-0.005429376925438477   -0.06888083298644945   -0.0019489114538288543
-0.005274965077502968   -0.0660894786641175   -0.0017798464478099897
-0.004846388788532352   -0.06872760504852024   -0.0020092691744489017
-0.005293942606888799   -0.06890175999300235   -0.0019340711401572136
-0.005274965077502968   -0.0660894786641175   -0.0017798464478099897
-0.005429376925438477   -0.06888083298644945   -0.0019489114538288543
-0.004846388788532352   -0.06872760504852024   -0.0020092691744489017
-0.005274965077502968   -0.0660894786641175   -0.0017798464478099897
-0.0035021076087853576   -0.06599115775446608   -0.0017935115353653174
-0.0035850441672225478   -0.06600485802351379   -0.0017222284965483837
-0.004846388788532352   -0.06872760504852024   -0.0020092691744489017
-0.005274965077502968   -0.0660894786641175   -0.0017798464478099897
-0.0035850441672225478   -0.06600485802351379   -0.0017222284965483837
-0.005429376925438477   -0.06888083298644945   -0.0019489114538288543
-0.005682273548332288   -0.0689934327868193   -0.0019535956655783223
-0.005519821151542617   -0.06624984586002063   -0.001787327921150551
-0.006117734652566069   -0.06906207176501962   -0.00216303581788174
-0.00556258851577537   -0.06891058457188419   -0.0019561177140298928
-0.005519821151542617   -0.06624984586002063   -0.001787327921150551
-0.0072384319006083865   -0.06618699603037294   -0.002003118826447618
-0.006117734652566069   -0.06906207176501962   -0.00216303581788174
-0.007158306249050189   -0.0661000058970666   -0.0019293556245410979
-0.00556258851577537   -0.06891058457188419   -0.0019561177140298928
-0.005993753093642691   -0.06898305490519879   -0.0020745736978554008
-0.007158306249050189   -0.0661000058970666   -0.0019293556245410979
-0.006117734652566069   -0.06906207176501962   -0.00216303581788174
-0.00556258851577537   -0.06891058457188419   -0.0019561177140298928
-0.007158306249050189   -0.0661000058970666   -0.0019293556245410979
-0.005439057303419702   -0.06615190676711147   -0.0017920786020434979
-0.005519821151542617   -0.06624984586002063   -0.001787327921150551
-0.00556258851577537   -0.06891058457188419   -0.0019561177140298928
-0.007158306249050189   -0.0661000058970666   -0.0019293556245410979
-0.005519821151542617   -0.06624984586002063   -0.001787327921150551
-0.006117734652566069   -0.06906207176501962   -0.00216303581788174
-0.00556258851577537   -0.06891058457188419   -0.0019561177140298928
-0.005439057303419702   -0.06615190676711147   -0.0017920786020434979
-0.005993753093642691   -0.06898305490519879   -0.0020745736978554008
-0.005429376925438477   -0.06888083298644945   -0.0019489114538288543
-0.005439057303419702   -0.06615190676711147   -0.0017920786020434979
-0.007158306249050189   -0.0661000058970666   -0.0019293556245410979
-0.005993753093642691   -0.06898305490519879   -0.0020745736978554008
-0.0070683876435909095   -0.06605746653451325   -0.001848477606749891
-0.005429376925438477   -0.06888083298644945   -0.0019489114538288543
-0.005845055803923373   -0.06895800054185502   -0.0019742629172452533
-0.0070683876435909095   -0.06605746653451325   -0.001848477606749891
-0.005993753093642691   -0.06898305490519879   -0.0020745736978554008
-0.005429376925438477   -0.06888083298644945   -0.0019489114538288543
-0.0070683876435909095   -0.06605746653451325   -0.001848477606749891
-0.005355522695432504   -0.0660991753073435   -0.0017896068725129458
-0.005439057303419702   -0.06615190676711147   -0.0017920786020434979
-0.005429376925438477   -0.06888083298644945   -0.0019489114538288543
-0.0070683876435909095   -0.06605746653451325   -0.001848477606749891
-0.005439057303419702   -0.06615190676711147   -0.0017920786020434979
-0.005993753093642691   -0.06898305490519879   -0.0020745736978554008
-0.005429376925438477   -0.06888083298644945   -0.0019489114538288543
-0.005355522695432504   -0.0660991753073435   -0.0017896068725129458
-0.005845055803923373   -0.06895800054185502   -0.0019742629172452533
-0.005293942606888799   -0.06890175999300235   -0.0019340711401572136
-0.005355522695432504   -0.0660991753073435   -0.0017896068725129458
-0.0070683876435909095   -0.06605746653451325   -0.001848477606749891
-0.005845055803923373   -0.06895800054185502   -0.0019742629172452533
-0.006978103195494509   -0.06605510720629129   -0.0017596180506157032
-0.005293942606888799   -0.06890175999300235   -0.0019340711401572136
-0.005692147333101374   -0.06897844854526562   -0.0018674287488942838
-0.006978103195494509   -0.06605510720629129   -0.0017596180506157032
-0.005845055803923373   -0.06895800054185502   -0.0019742629172452533
-0.005293942606888799   -0.06890175999300235   -0.0019340711401572136
-0.006978103195494509   -0.06605510720629129   -0.0017596180506157032
-0.005274965077502968   -0.0660894786641175   -0.0017798464478099897
-0.005355522695432504   -0.0660991753073435   -0.0017896068725129458
-0.005293942606888799   -0.06890175999300235   -0.0019340711401572136
-0.006978103195494509   -0.06605510720629129   -0.0017596180506157032
-0.005355522695432504   -0.0660991753073435   -0.0017896068725129458
-0.005845055803923373   -0.06895800054185502   -0.0019742629172452533
-0.006117734652566069   -0.06906207176501962   -0.00216303581788174
-0.0072384319006083865   -0.06618699603037294   -0.002003118826447618
-0.006748490418720115   -0.0689874783786196   -0.0023620887238633244
-0.005993753093642691   -0.06898305490519879   -0.0020745736978554008
-0.0072384319006083865   -0.06618699603037294   -0.002003118826447618
-0.009126447224242261   -0.06598237894007919   -0.0022013557922839783
-0.006748490418720115   -0.0689874783786196   -0.0023620887238633244
-0.009028344646270272   -0.06590635637073228   -0.0020508205890145746
-0.005993753093642691   -0.06898305490519879   -0.0020745736978554008
-0.006586550962346392   -0.06891284418936557   -0.0021869874437494188
-0.009028344646270272   -0.06590635637073228   -0.0020508205890145746
-0.006748490418720115   -0.0689874783786196   -0.0023620887238633244
-0.005993753093642691   -0.06898305490519879   -0.0020745736978554008
-0.009028344646270272   -0.06590635637073228   -0.0020508205890145746
-0.007158306249050189   -0.0661000058970666   -0.0019293556245410979
-0.0072384319006083865   -0.06618699603037294   -0.002003118826447618
-0.005993753093642691   -0.06898305490519879   -0.0020745736978554008
-0.009028344646270272   -0.06590635637073228   -0.0020508205890145746
-0.0072384319006083865   -0.06618699603037294   -0.002003118826447618
-0.006748490418720115   -0.0689874783786196   -0.0023620887238633244
-0.005993753093642691   -0.06898305490519879   -0.0020745736978554008
-0.007158306249050189   -0.0661000058970666   -0.0019293556245410979
-0.006586550962346392   -0.06891284418936557   -0.0021869874437494188
-0.005845055803923373   -0.06895800054185502   -0.0019742629172452533
-0.007158306249050189   -0.0661000058970666   -0.0019293556245410979
-0.009028344646270272   -0.06590635637073228   -0.0020508205890145746
-0.006586550962346392   -0.06891284418936557   -0.0021869874437494188
-0.008892880799638556   -0.06587396853653733   -0.00189369459558075
-0.005845055803923373   -0.06895800054185502   -0.0019742629172452533
-0.0063728422624514825   -0.06889591782675465   -0.0019986865168232135
-0.008892880799638556   -0.06587396853653733   -0.00189369459558075
-0.006586550962346392   -0.06891284418936557   -0.0021869874437494188
-0.005845055803923373   -0.06895800054185502   -0.0019742629172452533
-0.008892880799638556   -0.06587396853653733   -0.00189369459558075
-0.0070683876435909095   -0.06605746653451325   -0.001848477606749891
-0.007158306249050189   -0.0661000058970666   -0.0019293556245410979
-0.005845055803923373   -0.06895800054185502   -0.0019742629172452533
-0.008892880799638556   -0.06587396853653733   -0.00189369459558075
-0.007158306249050189   -0.0661000058970666   -0.0019293556245410979
-0.006586550962346392   -0.06891284418936557   -0.0021869874437494188
-0.005845055803923373   -0.06895800054185502   -0.0019742629172452533
-0.0070683876435909095   -0.06605746653451325   -0.001848477606749891
-0.0063728422624514825   -0.06889591782675465   -0.0019986865168232135
-0.005692147333101374   -0.06897844854526562   -0.0018674287488942838
-0.0070683876435909095   -0.06605746653451325   -0.001848477606749891
-0.008892880799638556   -0.06587396853653733   -0.00189369459558075
-0.0063728422624514825   -0.06889591782675465   -0.0019986865168232135
-0.008774675372228986   -0.06588526533933461   -0.0017256045150586088
-0.005692147333101374   -0.06897844854526562   -0.0018674287488942838
-0.006171861258121831   -0.06892557491811814   -0.0018031270887017457
-0.008774675372228986   -0.06588526533933461   -0.0017256045150586088
-0.0063728422624514825   -0.06889591782675465   -0.0019986865168232135
-0.005692147333101374   -0.06897844854526562   -0.0018674287488942838
-0.008774675372228986   -0.06588526533933461   -0.0017256045150586088
-0.006978103195494509   -0.06605510720629129   -0.0017596180506157032
-0.0070683876435909095   -0.06605746653451325   -0.001848477606749891
-0.005692147333101374   -0.06897844854526562   -0.0018674287488942838
-0.008774675372228986   -0.06588526533933461   -0.0017256045150586088
-0.0070683876435909095   -0.06605746653451325   -0.001848477606749891
-0.0063728422624514825   -0.06889591782675465   -0.0019986865168232135
-0.006748490418720115   -0.0689874783786196   -0.0023620887238633244
-0.009126447224242261   -0.06598237894007919   -0.0022013557922839783
-0.007975442156832543   -0.06864994711786614   -0.002573275225334403
-0.006586550962346392   -0.06891284418936557   -0.0021869874437494188
-0.009126447224242261   -0.06598237894007919   -0.0022013557922839783
-0.011557727670109623   -0.0656496048362747   -0.002391691978518078
-0.007975442156832543   -0.06864994711786614   -0.002573275225334403
-0.011241513997547787   -0.06556715720363135   -0.002154015561728448
-0.006586550962346392   -0.06891284418936557   -0.0021869874437494188
-0.007544613165073329   -0.06858698309711066   -0.0022860054575931108
-0.011241513997547787   -0.06556715720363135   -0.002154015561728448
-0.007975442156832543   -0.06864994711786614   -0.002573275225334403
-0.006586550962346392   -0.06891284418936557   -0.0021869874437494188
-0.011241513997547787   -0.06556715720363135   -0.002154015561728448
-0.009028344646270272   -0.06590635637073228   -0.0020508205890145746
-0.009126447224242261   -0.06598237894007919   -0.0022013557922839783
-0.006586550962346392   -0.06891284418936557   -0.0021869874437494188
-0.011241513997547787   -0.06556715720363135   -0.002154015561728448
-0.009126447224242261   -0.06598237894007919   -0.0022013557922839783
-0.007975442156832543   -0.06864994711786614   -0.002573275225334403
-0.006586550962346392   -0.06891284418936557   -0.0021869874437494188
-0.009028344646270272   -0.06590635637073228   -0.0020508205890145746
-0.007544613165073329   -0.06858698309711066   -0.0022860054575931108
-0.0063728422624514825   -0.06889591782675465   -0.0019986865168232135
-0.009028344646270272   -0.06590635637073228   -0.0020508205890145746
-0.011241513997547787   -0.06556715720363135   -0.002154015561728448
-0.007544613165073329   -0.06858698309711066   -0.0022860054575931108
-0.010958126706238015   -0.06553719946926273   -0.0019025137745668289
-0.0063728422624514825   -0.06889591782675465   -0.0019986865168232135
-0.007148829840183616   -0.06857838020451579   -0.001979406668450167
-0.010958126706238015   -0.06553719946926273   -0.0019025137745668289
-0.007544613165073329   -0.06858698309711066   -0.0022860054575931108
-0.0063728422624514825   -0.06889591782675465   -0.0019986865168232135
-0.010958126706238015   -0.06553719946926273   -0.0019025137745668289
-0.008892880799638556   -0.06587396853653733   -0.00189369459558075
-0.009028344646270272   -0.06590635637073228   -0.0020508205890145746
-0.0063728422624514825   -0.06889591782675465   -0.0019986865168232135
-0.010958126706238015   -0.06553719946926273   -0.0019025137745668289
-0.009028344646270272   -0.06590635637073228   -0.0020508205890145746
-0.007544613165073329   -0.06858698309711066   -0.0022860054575931108
-0.0063728422624514825   -0.06889591782675465   -0.0019986865168232135
-0.008892880799638556   -0.06587396853653733   -0.00189369459558075
-0.007148829840183616   -0.06857838020451579   -0.001979406668450167
-0.006171861258121831   -0.06892557491811814   -0.0018031270887017457
-0.008892880799638556   -0.06587396853653733   -0.00189369459558075
-0.010958126706238015   -0.06553719946926273   -0.0019025137745668289
-0.007148829840183616   -0.06857838020451579   -0.001979406668450167
-0.010590849421990626   -0.06557520511580764   -0.0016395743295376784
-0.006171861258121831   -0.06892557491811814   -0.0018031270887017457
-0.006648986387337147   -0.06866099796614704   -0.0016587759816563629
-0.010590849421990626   -0.06557520511580764   -0.0016395743295376784
-0.007148829840183616   -0.06857838020451579   -0.001979406668450167
-0.006171861258121831   -0.06892557491811814   -0.0018031270887017457
-0.010590849421990626   -0.06557520511580764   -0.0016395743295376784
-0.008774675372228986   -0.06588526533933461   -0.0017256045150586088
-0.008892880799638556   -0.06587396853653733   -0.00189369459558075
-0.006171861258121831   -0.06892557491811814   -0.0018031270887017457
-0.010590849421990626   -0.06557520511580764   -0.0016395743295376784
-0.008892880799638556   -0.06587396853653733   -0.00189369459558075
-0.007148829840183616   -0.06857838020451579   -0.001979406668450167
-0.00203661310648899   -0.06597900098270332   -0.0012740564975105412
0.0003493304609111664   -0.06121773731155482   -0.0010537638600287696
-0.003789298931053973   -0.06617923790371427   -0.0015567673659479713
-0.0017612412870894841   -0.06584006105384574   -0.0014706706282054296
0.0003493304609111664   -0.06121773731155482   -0.0010537638600287696
-0.002608221442786297   -0.061364642233370376   -0.0013313358137517618
-0.003789298931053973   -0.06617923790371427   -0.0015567673659479713
-0.002557276619849974   -0.061246984093544614   -0.0014000846501328208
-0.0017612412870894841   -0.06584006105384574   -0.0014706706282054296
-0.003693225805818939   -0.06606697262110006   -0.0016433970620010983
-0.002557276619849974   -0.061246984093544614   -0.0014000846501328208
-0.003789298931053973   -0.06617923790371427   -0.0015567673659479713
-0.0017612412870894841   -0.06584006105384574   -0.0014706706282054296
-0.002557276619849974   -0.061246984093544614   -0.0014000846501328208
0.0005417151564745276   -0.061076563228242224   -0.0012103800215106848
0.0003493304609111664   -0.06121773731155482   -0.0010537638600287696
-0.0017612412870894841   -0.06584006105384574   -0.0014706706282054296
-0.002557276619849974   -0.061246984093544614   -0.0014000846501328208
0.0003493304609111664   -0.06121773731155482   -0.0010537638600287696
-0.003789298931053973   -0.06617923790371427   -0.0015567673659479713
-0.0017612412870894841   -0.06584006105384574   -0.0014706706282054296
0.0005417151564745276   -0.061076563228242224   -0.0012103800215106848
-0.003693225805818939   -0.06606697262110006   -0.0016433970620010983
-0.001544554066676795   -0.06577398945296448   -0.001655726368856966
0.0005417151564745276   -0.061076563228242224   -0.0012103800215106848
-0.002557276619849974   -0.061246984093544614   -0.0014000846501328208
-0.003693225805818939   -0.06606697262110006   -0.0016433970620010983
-0.002499246346187516   -0.061170235414243844   -0.001460837697785087
-0.001544554066676795   -0.06577398945296448   -0.001655726368856966
-0.0035850441672225478   -0.06600485802351379   -0.0017222284965483837
-0.002499246346187516   -0.061170235414243844   -0.001460837697785087
-0.003693225805818939   -0.06606697262110006   -0.0016433970620010983
-0.001544554066676795   -0.06577398945296448   -0.001655726368856966
-0.002499246346187516   -0.061170235414243844   -0.001460837697785087
0.0006832440493710611   -0.06099509542437098   -0.0013558046282964847
0.0005417151564745276   -0.061076563228242224   -0.0012103800215106848
-0.001544554066676795   -0.06577398945296448   -0.001655726368856966
-0.002499246346187516   -0.061170235414243844   -0.001460837697785087
0.0005417151564745276   -0.061076563228242224   -0.0012103800215106848
-0.003693225805818939   -0.06606697262110006   -0.0016433970620010983
-0.001544554066676795   -0.06577398945296448   -0.001655726368856966
0.0006832440493710611   -0.06099509542437098   -0.0013558046282964847
-0.0035850441672225478   -0.06600485802351379   -0.0017222284965483837
-0.0013078606558309823   -0.0657617846677099   -0.001828736040730232
0.0006832440493710611   -0.06099509542437098   -0.0013558046282964847
-0.002499246346187516   -0.061170235414243844   -0.001460837697785087
-0.0035850441672225478   -0.06600485802351379   -0.0017222284965483837
-0.002464550240914591   -0.06113212175481804   -0.0015143845306550999
-0.0013078606558309823   -0.0657617846677099   -0.001828736040730232
-0.0035021076087853576   -0.06599115775446608   -0.0017935115353653174
-0.002464550240914591   -0.06113212175481804   -0.0015143845306550999
-0.0035850441672225478   -0.06600485802351379   -0.0017222284965483837
-0.0013078606558309823   -0.0657617846677099   -0.001828736040730232
-0.002464550240914591   -0.06113212175481804   -0.0015143845306550999
0.000834804151723084   -0.06095510033740155   -0.0014899837602681983
0.0006832440493710611   -0.06099509542437098   -0.0013558046282964847
-0.0013078606558309823   -0.0657617846677099   -0.001828736040730232
-0.002464550240914591   -0.06113212175481804   -0.0015143845306550999
0.0006832440493710611   -0.06099509542437098   -0.0013558046282964847
-0.0035850441672225478   -0.06600485802351379   -0.0017222284965483837
-0.003789298931053973   -0.06617923790371427   -0.0015567673659479713
-0.002608221442786297   -0.061364642233370376   -0.0013313358137517618
-0.005519821151542617   -0.06624984586002063   -0.001787327921150551
-0.003693225805818939   -0.06606697262110006   -0.0016433970620010983
-0.002608221442786297   -0.061364642233370376   -0.0013313358137517618
-0.005469701840983955   -0.06139275089565922   -0.0015599973116642838
-0.005519821151542617   -0.06624984586002063   -0.001787327921150551
-0.005432265356047375   -0.061291761086100814   -0.001561751356628988
-0.003693225805818939   -0.06606697262110006   -0.0016433970620010983
-0.005439057303419702   -0.06615190676711147   -0.0017920786020434979
-0.005432265356047375   -0.061291761086100814   -0.001561751356628988
-0.005519821151542617   -0.06624984586002063   -0.001787327921150551
-0.003693225805818939   -0.06606697262110006   -0.0016433970620010983
-0.005432265356047375   -0.061291761086100814   -0.001561751356628988
-0.002557276619849974   -0.061246984093544614   -0.0014000846501328208
-0.002608221442786297   -0.061364642233370376   -0.0013313358137517618
-0.003693225805818939   -0.06606697262110006   -0.0016433970620010983
-0.005432265356047375   -0.061291761086100814   -0.001561751356628988
-0.002608221442786297   -0.061364642233370376   -0.0013313358137517618
-0.005519821151542617   -0.06624984586002063   -0.001787327921150551
-0.003693225805818939   -0.06606697262110006   -0.0016433970620010983
-0.002557276619849974   -0.061246984093544614   -0.0014000846501328208
-0.005439057303419702   -0.06615190676711147   -0.0017920786020434979
-0.0035850441672225478   -0.06600485802351379   -0.0017222284965483837
-0.002557276619849974   -0.061246984093544614   -0.0014000846501328208
-0.005432265356047375   -0.061291761086100814   -0.001561751356628988
-0.005439057303419702   -0.06615190676711147   -0.0017920786020434979
-0.0053937671929724235   -0.0612273860920557   -0.0015558440989886597
-0.0035850441672225478   -0.06600485802351379   -0.0017222284965483837
-0.005355522695432504   -0.0660991753073435   -0.0017896068725129458
-0.0053937671929724235   -0.0612273860920557   -0.0015558440989886597
-0.005439057303419702   -0.06615190676711147   -0.0017920786020434979
-0.0035850441672225478   -0.06600485802351379   -0.0017222284965483837
-0.0053937671929724235   -0.0612273860920557   -0.0015558440989886597
-0.002499246346187516   -0.061170235414243844   -0.001460837697785087
-0.002557276619849974   -0.061246984093544614   -0.0014000846501328208
-0.0035850441672225478   -0.06600485802351379   -0.0017222284965483837
-0.0053937671929724235   -0.0612273860920557   -0.0015558440989886597
-0.002557276619849974   -0.061246984093544614   -0.0014000846501328208
-0.005439057303419702   -0.06615190676711147   -0.0017920786020434979
-0.0035850441672225478   -0.06600485802351379   -0.0017222284965483837
-0.002499246346187516   -0.061170235414243844   -0.001460837697785087
-0.005355522695432504   -0.0660991753073435   -0.0017896068725129458
-0.0035021076087853576   -0.06599115775446608   -0.0017935115353653174
-0.002499246346187516   -0.061170235414243844   -0.001460837697785087
-0.0053937671929724235   -0.0612273860920557   -0.0015558440989886597
-0.005355522695432504   -0.0660991753073435   -0.0017896068725129458
-0.00536009582322664   -0.06119902339776085   -0.0015427865266630684
-0.0035021076087853576   -0.06599115775446608   -0.0017935115353653174
-0.005274965077502968   -0.0660894786641175   -0.0017798464478099897
-0.00536009582322664   -0.06119902339776085   -0.0015427865266630684
-0.005355522695432504   -0.0660991753073435   -0.0017896068725129458
-0.0035021076087853576   -0.06599115775446608   -0.0017935115353653174
-0.00536009582322664   -0.06119902339776085   -0.0015427865266630684
-0.002464550240914591   -0.06113212175481804   -0.0015143845306550999
-0.002499246346187516   -0.061170235414243844   -0.001460837697785087
-0.0035021076087853576   -0.06599115775446608   -0.0017935115353653174
-0.00536009582322664   -0.06119902339776085   -0.0015427865266630684
-0.002499246346187516   -0.061170235414243844   -0.001460837697785087
-0.005355522695432504   -0.0660991753073435   -0.0017896068725129458
-0.005519821151542617   -0.06624984586002063   -0.001787327921150551
-0.005469701840983955   -0.06139275089565922   -0.0015599973116642838
-0.0072384319006083865   -0.06618699603037294   -0.002003118826447618
-0.005439057303419702   -0.06615190676711147   -0.0017920786020434979
-0.005469701840983955   -0.06139275089565922   -0.0015599973116642838
-0.008286275785982606   -0.061301590401871144   -0.0017663979689403516
-0.0072384319006083865   -0.06618699603037294   -0.002003118826447618
-0.008251423755404446   -0.061214461038852114   -0.001702771957992158
-0.005439057303419702   -0.06615190676711147   -0.0017920786020434979
-0.007158306249050189   -0.0661000058970666   -0.0019293556245410979
-0.008251423755404446   -0.061214461038852114   -0.001702771957992158
-0.0072384319006083865   -0.06618699603037294   -0.002003118826447618
-0.005439057303419702   -0.06615190676711147   -0.0017920786020434979
-0.008251423755404446   -0.061214461038852114   -0.001702771957992158
-0.005432265356047375   -0.061291761086100814   -0.001561751356628988
-0.005469701840983955   -0.06139275089565922   -0.0015599973116642838
-0.005439057303419702   -0.06615190676711147   -0.0017920786020434979
-0.008251423755404446   -0.061214461038852114   -0.001702771957992158
-0.005469701840983955   -0.06139275089565922   -0.0015599973116642838
-0.0072384319006083865   -0.06618699603037294   -0.002003118826447618
-0.005439057303419702   -0.06615190676711147   -0.0017920786020434979
-0.005432265356047375   -0.061291761086100814   -0.001561751356628988
-0.007158306249050189   -0.0661000058970666   -0.0019293556245410979
-0.005355522695432504   -0.0660991753073435   -0.0017896068725129458
-0.005432265356047375   -0.061291761086100814   -0.001561751356628988
-0.008251423755404446   -0.061214461038852114   -0.001702771957992158
-0.007158306249050189   -0.0661000058970666   -0.0019293556245410979
-0.008209308546070675   -0.061163544088910775   -0.001631651351208223
-0.005355522695432504   -0.0660991753073435   -0.0017896068725129458
-0.0070683876435909095   -0.06605746653451325   -0.001848477606749891
-0.008209308546070675   -0.061163544088910775   -0.001631651351208223
-0.007158306249050189   -0.0661000058970666   -0.0019293556245410979
-0.005355522695432504   -0.0660991753073435   -0.0017896068725129458
-0.008209308546070675   -0.061163544088910775   -0.001631651351208223
-0.0053937671929724235   -0.0612273860920557   -0.0015558440989886597
-0.005432265356047375   -0.061291761086100814   -0.001561751356628988
-0.005355522695432504   -0.0660991753073435   -0.0017896068725129458
-0.008209308546070675   -0.061163544088910775   -0.001631651351208223
-0.005432265356047375   -0.061291761086100814   -0.001561751356628988
-0.007158306249050189   -0.0661000058970666   -0.0019293556245410979
-0.005355522695432504   -0.0660991753073435   -0.0017896068725129458
-0.0053937671929724235   -0.0612273860920557   -0.0015558440989886597
-0.0070683876435909095   -0.06605746653451325   -0.001848477606749891
-0.005274965077502968   -0.0660894786641175   -0.0017798464478099897
-0.0053937671929724235   -0.0612273860920557   -0.0015558440989886597
-0.008209308546070675   -0.061163544088910775   -0.001631651351208223
-0.0070683876435909095   -0.06605746653451325   -0.001848477606749891
-0.008168350693612866   -0.061147160052185776   -0.0015532668255286814
-0.005274965077502968   -0.0660894786641175   -0.0017798464478099897
-0.006978103195494509   -0.06605510720629129   -0.0017596180506157032
-0.008168350693612866   -0.061147160052185776   -0.0015532668255286814
-0.0070683876435909095   -0.06605746653451325   -0.001848477606749891
-0.005274965077502968   -0.0660894786641175   -0.0017798464478099897
-0.008168350693612866   -0.061147160052185776   -0.0015532668255286814
-0.00536009582322664   -0.06119902339776085   -0.0015427865266630684
-0.0053937671929724235   -0.0612273860920557   -0.0015558440989886597
-0.005274965077502968   -0.0660894786641175   -0.0017798464478099897
-0.008168350693612866   -0.061147160052185776   -0.0015532668255286814
-0.0053937671929724235   -0.0612273860920557   -0.0015558440989886597
-0.0070683876435909095   -0.06605746653451325   -0.001848477606749891
-0.0072384319006083865   -0.06618699603037294   -0.002003118826447618
-0.008286275785982606   -0.061301590401871144   -0.0017663979689403516
-0.009126447224242261   -0.06598237894007919   -0.0022013557922839783
-0.007158306249050189   -0.0661000058970666   -0.0019293556245410979
-0.008286275785982606   -0.061301590401871144   -0.0017663979689403516
-0.011237837775879425   -0.06109438120868203   -0.0019497584249090023
-0.009126447224242261   -0.06598237894007919   -0.0022013557922839783
-0.01119229271583285   -0.06102047911828634   -0.0018206671270735984
-0.007158306249050189   -0.0661000058970666   -0.0019293556245410979
-0.009028344646270272   -0.06590635637073228   -0.0020508205890145746
-0.01119229271583285   -0.06102047911828634   -0.0018206671270735984
-0.009126447224242261   -0.06598237894007919   -0.0022013557922839783
-0.007158306249050189   -0.0661000058970666   -0.0019293556245410979
-0.01119229271583285   -0.06102047911828634   -0.0018206671270735984
-0.008251423755404446   -0.061214461038852114   -0.001702771957992158
-0.008286275785982606   -0.061301590401871144   -0.0017663979689403516
-0.007158306249050189   -0.0661000058970666   -0.0019293556245410979
-0.01119229271583285   -0.06102047911828634   -0.0018206671270735984
-0.008286275785982606   -0.061301590401871144   -0.0017663979689403516
-0.009126447224242261   -0.06598237894007919   -0.0022013557922839783
-0.007158306249050189   -0.0661000058970666   -0.0019293556245410979
-0.008251423755404446   -0.061214461038852114   -0.001702771957992158
-0.009028344646270272   -0.06590635637073228   -0.0020508205890145746
-0.0070683876435909095   -0.06605746653451325   -0.001848477606749891
-0.008251423755404446   -0.061214461038852114   -0.001702771957992158
-0.01119229271583285   -0.06102047911828634   -0.0018206671270735984
-0.009028344646270272   -0.06590635637073228   -0.0020508205890145746
-0.011115071165672   -0.0609817634557367   -0.0016852337354900837
-0.0070683876435909095   -0.06605746653451325   -0.001848477606749891
-0.008892880799638556   -0.06587396853653733   -0.00189369459558075
-0.011115071165672   -0.0609817634557367   -0.0016852337354900837
-0.009028344646270272   -0.06590635637073228   -0.0020508205890145746
-0.0070683876435909095   -0.06605746653451325   -0.001848477606749891
-0.011115071165672   -0.0609817634557367   -0.0016852337354900837
-0.008209308546070675   -0.061163544088910775   -0.001631651351208223
-0.008251423755404446   -0.061214461038852114   -0.001702771957992158
-0.0070683876435909095   -0.06605746653451325   -0.001848477606749891
-0.011115071165672   -0.0609817634557367   -0.0016852337354900837
-0.008251423755404446   -0.061214461038852114   -0.001702771957992158
-0.009028344646270272   -0.06590635637073228   -0.0020508205890145746
-0.0070683876435909095   -0.06605746653451325   -0.001848477606749891
-0.008209308546070675   -0.061163544088910775   -0.001631651351208223
-0.008892880799638556   -0.06587396853653733   -0.00189369459558075
-0.006978103195494509   -0.06605510720629129   -0.0017596180506157032
-0.008209308546070675   -0.061163544088910775   -0.001631651351208223
-0.011115071165672   -0.0609817634557367   -0.0016852337354900837
-0.008892880799638556   -0.06587396853653733   -0.00189369459558075
-0.011052368377010154   -0.06098028658774693   -0.001541479013001419
-0.006978103195494509   -0.06605510720629129   -0.0017596180506157032
-0.008774675372228986   -0.06588526533933461   -0.0017256045150586088
-0.011052368377010154   -0.06098028658774693   -0.001541479013001419
-0.008892880799638556   -0.06587396853653733   -0.00189369459558075
-0.006978103195494509   -0.06605510720629129   -0.0017596180506157032
-0.011052368377010154   -0.06098028658774693   -0.001541479013001419
-0.008168350693612866   -0.061147160052185776   -0.0015532668255286814
-0.008209308546070675   -0.061163544088910775   -0.001631651351208223
-0.006978103195494509   -0.06605510720629129   -0.0017596180506157032
-0.011052368377010154   -0.06098028658774693   -0.001541479013001419
-0.008209308546070675   -0.061163544088910775   -0.001631651351208223
-0.008892880799638556   -0.06587396853653733   -0.00189369459558075
-0.009126447224242261   -0.06598237894007919   -0.0022013557922839783
-0.011237837775879425   -0.06109438120868203   -0.0019497584249090023
-0.011557727670109623   -0.0656496048362747   -0.002391691978518078
-0.009028344646270272   -0.06590635637073228   -0.0020508205890145746
-0.011237837775879425   -0.06109438120868203   -0.0019497584249090023
-0.014679990883284534   -0.06079597045142578   -0.0021207620740788568
-0.011557727670109623   -0.0656496048362747   -0.002391691978518078
-0.014446546773900596   -0.06071887818073101   -0.0019186919763815003
-0.009028344646270272   -0.06590635637073228   -0.0020508205890145746
-0.011241513997547787   -0.06556715720363135   -0.002154015561728448
-0.014446546773900596   -0.06071887818073101   -0.0019186919763815003
-0.011557727670109623   -0.0656496048362747   -0.002391691978518078
-0.009028344646270272   -0.06590635637073228   -0.0020508205890145746
-0.014446546773900596   -0.06071887818073101   -0.0019186919763815003
-0.01119229271583285   -0.06102047911828634   -0.0018206671270735984
-0.011237837775879425   -0.06109438120868203   -0.0019497584249090023
-0.009028344646270272   -0.06590635637073228   -0.0020508205890145746
-0.014446546773900596   -0.06071887818073101   -0.0019186919763815003
-0.011237837775879425   -0.06109438120868203   -0.0019497584249090023
-0.011557727670109623   -0.0656496048362747   -0.002391691978518078
-0.009028344646270272   -0.06590635637073228   -0.0020508205890145746
-0.01119229271583285   -0.06102047911828634   -0.0018206671270735984
-0.011241513997547787   -0.06556715720363135   -0.002154015561728448
-0.008892880799638556   -0.06587396853653733   -0.00189369459558075
-0.01119229271583285   -0.06102047911828634   -0.0018206671270735984
-0.014446546773900596   -0.06071887818073101   -0.0019186919763815003
-0.011241513997547787   -0.06556715720363135   -0.002154015561728448
-0.014243967709705783   -0.06068347497627879   -0.0017061626735440356
-0.008892880799638556   -0.06587396853653733   -0.00189369459558075
-0.010958126706238015   -0.06553719946926273   -0.0019025137745668289
-0.014243967709705783   -0.06068347497627879   -0.0017061626735440356
-0.011241513997547787   -0.06556715720363135   -0.002154015561728448
-0.008892880799638556   -0.06587396853653733   -0.00189369459558075
-0.014243967709705783   -0.06068347497627879   -0.0017061626735440356
-0.011115071165672   -0.0609817634557367   -0.0016852337354900837
-0.01119229271583285   -0.06102047911828634   -0.0018206671270735984
-0.008892880799638556   -0.06587396853653733   -0.00189369459558075
-0.014243967709705783   -0.06068347497627879   -0.0017061626735440356
-0.01119229271583285   -0.06102047911828634   -0.0018206671270735984
-0.011241513997547787   -0.06556715720363135   -0.002154015561728448
-0.008892880799638556   -0.06587396853653733   -0.00189369459558075
-0.011115071165672   -0.0609817634557367   -0.0016852337354900837
-0.010958126706238015   -0.06553719946926273   -0.0019025137745668289
-0.008774675372228986   -0.06588526533933461   -0.0017256045150586088
-0.011115071165672   -0.0609817634557367   -0.0016852337354900837
-0.014243967709705783   -0.06068347497627879   -0.0017061626735440356
-0.010958126706238015   -0.06553719946926273   -0.0019025137745668289
-0.013971052637444036   -0.06070498068295899   -0.0014845280044013978
-0.008774675372228986   -0.06588526533933461   -0.0017256045150586088
-0.010590849421990626   -0.06557520511580764   -0.0016395743295376784
-0.013971052637444036   -0.06070498068295899   -0.0014845280044013978
-0.010958126706238015   -0.06553719946926273   -0.0019025137745668289
-0.008774675372228986   -0.06588526533933461   -0.0017256045150586088
-0.013971052637444036   -0.06070498068295899   -0.0014845280044013978
-0.011052368377010154   -0.06098028658774693   -0.001541479013001419
-0.011115071165672   -0.0609817634557367   -0.0016852337354900837
-0.008774675372228986   -0.06588526533933461   -0.0017256045150586088
-0.013971052637444036   -0.06070498068295899   -0.0014845280044013978
-0.011115071165672   -0.0609817634557367   -0.0016852337354900837
-0.010958126706238015   -0.06553719946926273   -0.0019025137745668289
0.0003493304609111664   -0.06121773731155482   -0.0010537638600287696
0.0021616484360553094   -0.0547513746148062   -0.0008029657472613025
-0.002608221442786297   -0.061364642233370376   -0.0013313358137517618
0.0005417151564745276   -0.061076563228242224   -0.0012103800215106848
0.0021616484360553094   -0.0547513746148062   -0.0008029657472613025
-0.0017551195076669305   -0.054848537834048576   -0.0010679172188117361
-0.002608221442786297   -0.061364642233370376   -0.0013313358137517618
-0.0017444888509842715   -0.054731508842032525   -0.0011156045567737307
0.0005417151564745276   -0.061076563228242224   -0.0012103800215106848
-0.002557276619849974   -0.061246984093544614   -0.0014000846501328208
-0.0017444888509842715   -0.054731508842032525   -0.0011156045567737307
-0.002608221442786297   -0.061364642233370376   -0.0013313358137517618
0.0005417151564745276   -0.061076563228242224   -0.0012103800215106848
-0.0017444888509842715   -0.054731508842032525   -0.0011156045567737307
0.00227602703613185   -0.05461360616911948   -0.0009188624041979822
0.0021616484360553094   -0.0547513746148062   -0.0008029657472613025
0.0005417151564745276   -0.061076563228242224   -0.0012103800215106848
-0.0017444888509842715   -0.054731508842032525   -0.0011156045567737307
0.0021616484360553094   -0.0547513746148062   -0.0008029657472613025
-0.002608221442786297   -0.061364642233370376   -0.0013313358137517618
0.0005417151564745276   -0.061076563228242224   -0.0012103800215106848
0.00227602703613185   -0.05461360616911948   -0.0009188624041979822
-0.002557276619849974   -0.061246984093544614   -0.0014000846501328208
0.0006832440493710611   -0.06099509542437098   -0.0013558046282964847
0.00227602703613185   -0.05461360616911948   -0.0009188624041979822
-0.0017444888509842715   -0.054731508842032525   -0.0011156045567737307
-0.002557276619849974   -0.061246984093544614   -0.0014000846501328208
-0.0017309615282887782   -0.05464676418470057   -0.0011559820811971218
0.0006832440493710611   -0.06099509542437098   -0.0013558046282964847
-0.002499246346187516   -0.061170235414243844   -0.001460837697785087
-0.0017309615282887782   -0.05464676418470057   -0.0011559820811971218
-0.002557276619849974   -0.061246984093544614   -0.0014000846501328208
0.0006832440493710611   -0.06099509542437098   -0.0013558046282964847
-0.0017309615282887782   -0.05464676418470057   -0.0011559820811971218
0.0023491842960488792   -0.05452332498176587   -0.0010244285221172218
0.00227602703613185   -0.05461360616911948   -0.0009188624041979822
0.0006832440493710611   -0.06099509542437098   -0.0013558046282964847
-0.0017309615282887782   -0.05464676418470057   -0.0011559820811971218
0.00227602703613185   -0.05461360616911948   -0.0009188624041979822
-0.002557276619849974   -0.061246984093544614   -0.0014000846501328208
0.0006832440493710611   -0.06099509542437098   -0.0013558046282964847
0.0023491842960488792   -0.05452332498176587   -0.0010244285221172218
-0.002499246346187516   -0.061170235414243844   -0.001460837697785087
0.000834804151723084   -0.06095510033740155   -0.0014899837602681983
0.0023491842960488792   -0.05452332498176587   -0.0010244285221172218
-0.0017309615282887782   -0.05464676418470057   -0.0011559820811971218
-0.002499246346187516   -0.061170235414243844   -0.001460837697785087
-0.0017373612562300393   -0.05459158676299705   -0.001189582889439075
0.000834804151723084   -0.06095510033740155   -0.0014899837602681983
-0.002464550240914591   -0.06113212175481804   -0.0015143845306550999
-0.0017373612562300393   -0.05459158676299705   -0.001189582889439075
-0.002499246346187516   -0.061170235414243844   -0.001460837697785087
0.000834804151723084   -0.06095510033740155   -0.0014899837602681983
-0.0017373612562300393   -0.05459158676299705   -0.001189582889439075
0.0024243420884567063   -0.05446299187909571   -0.0011198813077787854
0.0023491842960488792   -0.05452332498176587   -0.0010244285221172218
0.000834804151723084   -0.06095510033740155   -0.0014899837602681983
-0.0017373612562300393   -0.05459158676299705   -0.001189582889439075
0.0023491842960488792   -0.05452332498176587   -0.0010244285221172218
-0.002499246346187516   -0.061170235414243844   -0.001460837697785087
-0.002608221442786297   -0.061364642233370376   -0.0013313358137517618
-0.0017551195076669305   -0.054848537834048576   -0.0010679172188117361
-0.005469701840983955   -0.06139275089565922   -0.0015599973116642838
-0.002557276619849974   -0.061246984093544614   -0.0014000846501328208
-0.0017551195076669305   -0.054848537834048576   -0.0010679172188117361
-0.00552446343977426   -0.054849075872139   -0.001286373251385994
-0.005469701840983955   -0.06139275089565922   -0.0015599973116642838
-0.005524931208675835   -0.05475007972506202   -0.0012818705875293544
-0.002557276619849974   -0.061246984093544614   -0.0014000846501328208
-0.005432265356047375   -0.061291761086100814   -0.001561751356628988
-0.005524931208675835   -0.05475007972506202   -0.0012818705875293544
-0.005469701840983955   -0.06139275089565922   -0.0015599973116642838
-0.002557276619849974   -0.061246984093544614   -0.0014000846501328208
-0.005524931208675835   -0.05475007972506202   -0.0012818705875293544
-0.0017444888509842715   -0.054731508842032525   -0.0011156045567737307
-0.0017551195076669305   -0.054848537834048576   -0.0010679172188117361
-0.002557276619849974   -0.061246984093544614   -0.0014000846501328208
-0.005524931208675835   -0.05475007972506202   -0.0012818705875293544
-0.0017551195076669305   -0.054848537834048576   -0.0010679172188117361
-0.005469701840983955   -0.06139275089565922   -0.0015599973116642838
-0.002557276619849974   -0.061246984093544614   -0.0014000846501328208
-0.0017444888509842715   -0.054731508842032525   -0.0011156045567737307
-0.005432265356047375   -0.061291761086100814   -0.001561751356628988
-0.002499246346187516   -0.061170235414243844   -0.001460837697785087
-0.0017444888509842715   -0.054731508842032525   -0.0011156045567737307
-0.005524931208675835   -0.05475007972506202   -0.0012818705875293544
-0.005432265356047375   -0.061291761086100814   -0.001561751356628988
-0.005525145107907452   -0.054679543252568956   -0.001270085989200162
-0.002499246346187516   -0.061170235414243844   -0.001460837697785087
-0.0053937671929724235   -0.0612273860920557   -0.0015558440989886597
-0.005525145107907452   -0.054679543252568956   -0.001270085989200162
-0.005432265356047375   -0.061291761086100814   -0.001561751356628988
-0.002499246346187516   -0.061170235414243844   -0.001460837697785087
-0.005525145107907452   -0.054679543252568956   -0.001270085989200162
-0.0017309615282887782   -0.05464676418470057   -0.0011559820811971218
-0.0017444888509842715   -0.054731508842032525   -0.0011156045567737307
-0.002499246346187516   -0.061170235414243844   -0.001460837697785087
-0.005525145107907452   -0.054679543252568956   -0.001270085989200162
-0.0017444888509842715   -0.054731508842032525   -0.0011156045567737307
-0.005432265356047375   -0.061291761086100814   -0.001561751356628988
-0.002499246346187516   -0.061170235414243844   -0.001460837697785087
-0.0017309615282887782   -0.05464676418470057   -0.0011559820811971218
-0.0053937671929724235   -0.0612273860920557   -0.0015558440989886597
-0.002464550240914591   -0.06113212175481804   -0.0015143845306550999
-0.0017309615282887782   -0.05464676418470057   -0.0011559820811971218
-0.005525145107907452   -0.054679543252568956   -0.001270085989200162
-0.0053937671929724235   -0.0612273860920557   -0.0015558440989886597
-0.005530396647339949   -0.05463751699791743   -0.001251397982180788
-0.002464550240914591   -0.06113212175481804   -0.0015143845306550999
-0.00536009582322664   -0.06119902339776085   -0.0015427865266630684
-0.005530396647339949   -0.05463751699791743   -0.001251397982180788
-0.0053937671929724235   -0.0612273860920557   -0.0015558440989886597
-0.002464550240914591   -0.06113212175481804   -0.0015143845306550999
-0.005530396647339949   -0.05463751699791743   -0.001251397982180788
-0.0017373612562300393   -0.05459158676299705   -0.001189582889439075
-0.0017309615282887782   -0.05464676418470057   -0.0011559820811971218
-0.002464550240914591   -0.06113212175481804   -0.0015143845306550999
-0.005530396647339949   -0.05463751699791743   -0.001251397982180788
-0.0017309615282887782   -0.05464676418470057   -0.0011559820811971218
-0.0053937671929724235   -0.0612273860920557   -0.0015558440989886597
-0.005469701840983955   -0.06139275089565922   -0.0015599973116642838
-0.00552446343977426   -0.054849075872139   -0.001286373251385994
-0.008286275785982606   -0.061301590401871144   -0.0017663979689403516
-0.005432265356047375   -0.061291761086100814   -0.001561751356628988
-0.00552446343977426   -0.054849075872139   -0.001286373251385994
-0.009229852256374434   -0.05475523051664284   -0.001477716661818071
-0.008286275785982606   -0.061301590401871144   -0.0017663979689403516
-0.009233111925573698   -0.05467207265145865   -0.0014216544613057495
-0.005432265356047375   -0.061291761086100814   -0.001561751356628988
-0.008251423755404446   -0.061214461038852114   -0.001702771957992158
-0.009233111925573698   -0.05467207265145865   -0.0014216544613057495
-0.008286275785982606   -0.061301590401871144   -0.0017663979689403516
-0.005432265356047375   -0.061291761086100814   -0.001561751356628988
-0.009233111925573698   -0.05467207265145865   -0.0014216544613057495
-0.005524931208675835   -0.05475007972506202   -0.0012818705875293544
-0.00552446343977426   -0.054849075872139   -0.001286373251385994
-0.005432265356047375   -0.061291761086100814   -0.001561751356628988
-0.009233111925573698   -0.05467207265145865   -0.0014216544613057495
-0.00552446343977426   -0.054849075872139   -0.001286373251385994
-0.008286275785982606   -0.061301590401871144   -0.0017663979689403516
-0.005432265356047375   -0.061291761086100814   -0.001561751356628988
-0.005524931208675835   -0.05475007972506202   -0.0012818705875293544
-0.008251423755404446   -0.061214461038852114   -0.001702771957992158
-0.0053937671929724235   -0.0612273860920557   -0.0015558440989886597
-0.005524931208675835   -0.05475007972506202   -0.0012818705875293544
-0.009233111925573698   -0.05467207265145865   -0.0014216544613057495
-0.008251423755404446   -0.061214461038852114   -0.001702771957992158
-0.009230058289104408   -0.05461712276700435   -0.0013584520581474328
-0.0053937671929724235   -0.0612273860920557   -0.0015558440989886597
-0.008209308546070675   -0.061163544088910775   -0.001631651351208223
-0.009230058289104408   -0.05461712276700435   -0.0013584520581474328
-0.008251423755404446   -0.061214461038852114   -0.001702771957992158
-0.0053937671929724235   -0.0612273860920557   -0.0015558440989886597
-0.009230058289104408   -0.05461712276700435   -0.0013584520581474328
-0.005525145107907452   -0.054679543252568956   -0.001270085989200162
-0.005524931208675835   -0.05475007972506202   -0.0012818705875293544
-0.0053937671929724235   -0.0612273860920557   -0.0015558440989886597
-0.009230058289104408   -0.05461712276700435   -0.0013584520581474328
-0.005524931208675835   -0.05475007972506202   -0.0012818705875293544
-0.008251423755404446   -0.061214461038852114   -0.001702771957992158
-0.0053937671929724235   -0.0612273860920557   -0.0015558440989886597
-0.005525145107907452   -0.054679543252568956   -0.001270085989200162
-0.008209308546070675   -0.061163544088910775   -0.001631651351208223
-0.00536009582322664   -0.06119902339776085   -0.0015427865266630684
-0.005525145107907452   -0.054679543252568956   -0.001270085989200162
-0.009230058289104408   -0.05461712276700435   -0.0013584520581474328
-0.008209308546070675   -0.061163544088910775   -0.001631651351208223
-0.009228144773353325   -0.05458988635233118   -0.0012883174611595354
-0.00536009582322664   -0.06119902339776085   -0.0015427865266630684
-0.008168350693612866   -0.061147160052185776   -0.0015532668255286814
-0.009228144773353325   -0.05458988635233118   -0.0012883174611595354
-0.008209308546070675   -0.061163544088910775   -0.001631651351208223
-0.00536009582322664   -0.06119902339776085   -0.0015427865266630684
-0.009228144773353325   -0.05458988635233118   -0.0012883174611595354
-0.005530396647339949   -0.05463751699791743   -0.001251397982180788
-0.005525145107907452   -0.054679543252568956   -0.001270085989200162
-0.00536009582322664   -0.06119902339776085   -0.0015427865266630684
-0.009228144773353325   -0.05458988635233118   -0.0012883174611595354
-0.005525145107907452   -0.054679543252568956   -0.001270085989200162
-0.008209308546070675   -0.061163544088910775   -0.001631651351208223
-0.008286275785982606   -0.061301590401871144   -0.0017663979689403516
-0.009229852256374434   -0.05475523051664284   -0.001477716661818071
-0.011237837775879425   -0.06109438120868203   -0.0019497584249090023
-0.008251423755404446   -0.061214461038852114   -0.001702771957992158
-0.009229852256374434   -0.05475523051664284   -0.001477716661818071
-0.01305069337720184   -0.05457054737495275   -0.0016423153157999273
-0.011237837775879425   -0.06109438120868203   -0.0019497584249090023
-0.013046160159506617   -0.05450255205537565   -0.001534081919986015
-0.008251423755404446   -0.061214461038852114   -0.001702771957992158
-0.01119229271583285   -0.06102047911828634   -0.0018206671270735984
-0.013046160159506617   -0.05450255205537565   -0.001534081919986015
-0.011237837775879425   -0.06109438120868203   -0.0019497584249090023
-0.008251423755404446   -0.061214461038852114   -0.001702771957992158
-0.013046160159506617   -0.05450255205537565   -0.001534081919986015
-0.009233111925573698   -0.05467207265145865   -0.0014216544613057495
-0.009229852256374434   -0.05475523051664284   -0.001477716661818071
-0.008251423755404446   -0.061214461038852114   -0.001702771957992158
-0.013046160159506617   -0.05450255205537565   -0.001534081919986015
-0.009229852256374434   -0.05475523051664284   -0.001477716661818071
-0.011237837775879425   -0.06109438120868203   -0.0019497584249090023
-0.008251423755404446   -0.061214461038852114   -0.001702771957992158
-0.009233111925573698   -0.05467207265145865   -0.0014216544613057495
-0.01119229271583285   -0.06102047911828634   -0.0018206671270735984
-0.008209308546070675   -0.061163544088910775   -0.001631651351208223
-0.009233111925573698   -0.05467207265145865   -0.0014216544613057495
-0.013046160159506617   -0.05450255205537565   -0.001534081919986015
-0.01119229271583285   -0.06102047911828634   -0.0018206671270735984
-0.01301408194044192   -0.054461735144806483   -0.0014197849041715578
-0.008209308546070675   -0.061163544088910775   -0.001631651351208223
-0.011115071165672   -0.0609817634557367   -0.0016852337354900837
-0.01301408194044192   -0.054461735144806483   -0.0014197849041715578
-0.01119229271583285   -0.06102047911828634   -0.0018206671270735984
-0.008209308546070675   -0.061163544088910775   -0.001631651351208223
-0.01301408194044192   -0.054461735144806483   -0.0014197849041715578
-0.009230058289104408   -0.05461712276700435   -0.0013584520581474328
-0.009233111925573698   -0.05467207265145865   -0.0014216544613057495
-0.008209308546070675   -0.061163544088910775   -0.001631651351208223
-0.01301408194044192   -0.054461735144806483   -0.0014197849041715578
-0.009233111925573698   -0.05467207265145865   -0.0014216544613057495
-0.01119229271583285   -0.06102047911828634   -0.0018206671270735984
-0.008209308546070675   -0.061163544088910775   -0.001631651351208223
-0.009230058289104408   -0.05461712276700435   -0.0013584520581474328
-0.011115071165672   -0.0609817634557367   -0.0016852337354900837
-0.008168350693612866   -0.061147160052185776   -0.0015532668255286814
-0.009230058289104408   -0.05461712276700435   -0.0013584520581474328
-0.01301408194044192   -0.054461735144806483   -0.0014197849041715578
-0.011115071165672   -0.0609817634557367   -0.0016852337354900837
-0.012992651108698485   -0.054450961498950116   -0.0012979982319980727
-0.008168350693612866   -0.061147160052185776   -0.0015532668255286814
-0.011052368377010154   -0.06098028658774693   -0.001541479013001419
-0.012992651108698485   -0.054450961498950116   -0.0012979982319980727
-0.011115071165672   -0.0609817634557367   -0.0016852337354900837
-0.008168350693612866   -0.061147160052185776   -0.0015532668255286814
-0.012992651108698485   -0.054450961498950116   -0.0012979982319980727
-0.009228144773353325   -0.05458988635233118   -0.0012883174611595354
-0.009230058289104408   -0.05461712276700435   -0.0013584520581474328
-0.008168350693612866   -0.061147160052185776   -0.0015532668255286814
-0.012992651108698485   -0.054450961498950116   -0.0012979982319980727
-0.009230058289104408   -0.05461712276700435   -0.0013584520581474328
-0.011115071165672   -0.0609817634557367   -0.0016852337354900837
-0.011237837775879425   -0.06109438120868203   -0.0019497584249090023
-0.01305069337720184   -0.05457054737495275   -0.0016423153157999273
-0.014679990883284534   -0.06079597045142578   -0.0021207620740788568
-0.01119229271583285   -0.06102047911828634   -0.0018206671270735984
-0.01305069337720184   -0.05457054737495275   -0.0016423153157999273
-0.017318530117360065   -0.05431595762039839   -0.0017907599385922149
-0.014679990883284534   -0.06079597045142578   -0.0021207620740788568
-0.017158801749845617   -0.05424921598914821   -0.0016251728125320757
-0.01119229271583285   -0.06102047911828634   -0.0018206671270735984
-0.014446546773900596   -0.06071887818073101   -0.0019186919763815003
-0.017158801749845617   -0.05424921598914821   -0.0016251728125320757
-0.014679990883284534   -0.06079597045142578   -0.0021207620740788568
-0.01119229271583285   -0.06102047911828634   -0.0018206671270735984
-0.017158801749845617   -0.05424921598914821   -0.0016251728125320757
-0.013046160159506617   -0.05450255205537565   -0.001534081919986015
-0.01305069337720184   -0.05457054737495275   -0.0016423153157999273
-0.01119229271583285   -0.06102047911828634   -0.0018206671270735984
-0.017158801749845617   -0.05424921598914821   -0.0016251728125320757
-0.01305069337720184   -0.05457054737495275   -0.0016423153157999273
-0.014679990883284534   -0.06079597045142578   -0.0021207620740788568
-0.01119229271583285   -0.06102047911828634   -0.0018206671270735984
-0.013046160159506617   -0.05450255205537565   -0.001534081919986015
-0.014446546773900596   -0.06071887818073101   -0.0019186919763815003
-0.011115071165672   -0.0609817634557367   -0.0016852337354900837
-0.013046160159506617   -0.05450255205537565   -0.001534081919986015
-0.017158801749845617   -0.05424921598914821   -0.0016251728125320757
-0.014446546773900596   -0.06071887818073101   -0.0019186919763815003
-0.017022214996165134   -0.0542135551712722   -0.0014493923837199808
-0.011115071165672   -0.0609817634557367   -0.0016852337354900837
-0.014243967709705783   -0.06068347497627879   -0.0017061626735440356
-0.017022214996165134   -0.0542135551712722   -0.0014493923837199808
-0.014446546773900596   -0.06071887818073101   -0.0019186919763815003
-0.011115071165672   -0.0609817634557367   -0.0016852337354900837
-0.017022214996165134   -0.0542135551712722   -0.0014493923837199808
-0.01301408194044192   -0.054461735144806483   -0.0014197849041715578
-0.013046160159506617   -0.05450255205537565   -0.001534081919986015
-0.011115071165672   -0.0609817634557367   -0.0016852337354900837
-0.017022214996165134   -0.0542135551712722   -0.0014493923837199808
-0.013046160159506617   -0.05450255205537565   -0.001534081919986015
-0.014446546773900596   -0.06071887818073101   -0.0019186919763815003
-0.011115071165672   -0.0609817634557367   -0.0016852337354900837
-0.01301408194044192   -0.054461735144806483   -0.0014197849041715578
-0.014243967709705783   -0.06068347497627879   -0.0017061626735440356
-0.011052368377010154   -0.06098028658774693   -0.001541479013001419
-0.01301408194044192   -0.054461735144806483   -0.0014197849041715578
-0.017022214996165134   -0.0542135551712722   -0.0014493923837199808
-0.014243967709705783   -0.06068347497627879   -0.0017061626735440356
-0.016825119530152435   -0.05422554138364307   -0.00126481659000073
-0.011052368377010154   -0.06098028658774693   -0.001541479013001419
-0.013971052637444036   -0.06070498068295899   -0.0014845280044013978
-0.016825119530152435   -0.05422554138364307   -0.00126481659000073
-0.014243967709705783   -0.06068347497627879   -0.0017061626735440356
-0.011052368377010154   -0.06098028658774693   -0.001541479013001419
-0.016825119530152435   -0.05422554138364307   -0.00126481659000073
-0.012992651108698485   -0.054450961498950116   -0.0012979982319980727
-0.01301408194044192   -0.054461735144806483   -0.0014197849041715578
-0.011052368377010154   -0.06098028658774693   -0.001541479013001419
-0.016825119530152435   -0.05422554138364307   -0.00126481659000073
-0.01301408194044192   -0.054461735144806483   -0.0014197849041715578
-0.014243967709705783   -0.06068347497627879   -0.0017061626735440356
0.0021616484360553094   -0.0547513746148062   -0.0008029657472613025
0.003411259017563632   -0.046971440620093424   -0.000534926095362594
-0.0017551195076669305   -0.054848537834048576   -0.0010679172188117361
0.00227602703613185   -0.05461360616911948   -0.0009188624041979822
0.003411259017563632   -0.046971440620093424   -0.000534926095362594
-0.0012365460483270275   -0.04701928703596997   -0.000784194168297351
-0.0017551195076669305   -0.054848537834048576   -0.0010679172188117361
-0.0012583513619461692   -0.04690511354810923   -0.000809926412276901
0.00227602703613185   -0.05461360616911948   -0.0009188624041979822
-0.0017444888509842715   -0.054731508842032525   -0.0011156045567737307
-0.0012583513619461692   -0.04690511354810923   -0.000809926412276901
-0.0017551195076669305   -0.054848537834048576   -0.0010679172188117361
0.00227602703613185   -0.05461360616911948   -0.0009188624041979822
-0.0012583513619461692   -0.04690511354810923   -0.000809926412276901
0.003456579138365648   -0.0468387086664273   -0.0006109155412148731
0.003411259017563632   -0.046971440620093424   -0.000534926095362594
0.00227602703613185   -0.05461360616911948   -0.0009188624041979822
-0.0012583513619461692   -0.04690511354810923   -0.000809926412276901
0.003411259017563632   -0.046971440620093424   -0.000534926095362594
-0.0017551195076669305   -0.054848537834048576   -0.0010679172188117361
0.00227602703613185   -0.05461360616911948   -0.0009188624041979822
0.003456579138365648   -0.0468387086664273   -0.0006109155412148731
-0.0017444888509842715   -0.054731508842032525   -0.0011156045567737307
0.0023491842960488792   -0.05452332498176587   -0.0010244285221172218
0.003456579138365648   -0.0468387086664273   -0.0006109155412148731
-0.0012583513619461692   -0.04690511354810923   -0.000809926412276901
-0.0017444888509842715   -0.054731508842032525   -0.0011156045567737307
-0.0012812609995999013   -0.0468148757694043   -0.0008291303430686281
0.0023491842960488792   -0.05452332498176587   -0.0010244285221172218
-0.0017309615282887782   -0.05464676418470057   -0.0011559820811971218
-0.0012812609995999013   -0.0468148757694043   -0.0008291303430686281
-0.0017444888509842715   -0.054731508842032525   -0.0011156045567737307
0.0023491842960488792   -0.05452332498176587   -0.0010244285221172218
-0.0012812609995999013   -0.0468148757694043   -0.0008291303430686281
0.0034704476071523317   -0.04674208597704339   -0.0006772730928509985
0.003456579138365648   -0.0468387086664273   -0.0006109155412148731
0.0023491842960488792   -0.05452332498176587   -0.0010244285221172218
-0.0012812609995999013   -0.0468148757694043   -0.0008291303430686281
0.003456579138365648   -0.0468387086664273   -0.0006109155412148731
-0.0017444888509842715   -0.054731508842032525   -0.0011156045567737307
0.0023491842960488792   -0.05452332498176587   -0.0010244285221172218
0.0034704476071523317   -0.04674208597704339   -0.0006772730928509985
-0.0017309615282887782   -0.05464676418470057   -0.0011559820811971218
0.0024243420884567063   -0.05446299187909571   -0.0011198813077787854
0.0034704476071523317   -0.04674208597704339   -0.0006772730928509985
-0.0012812609995999013   -0.0468148757694043   -0.0008291303430686281
-0.0017309615282887782   -0.05464676418470057   -0.0011559820811971218
-0.0013203254979229104   -0.04674573359195677   -0.0008420265490942934
0.0024243420884567063   -0.05446299187909571   -0.0011198813077787854
-0.0017373612562300393   -0.05459158676299705   -0.001189582889439075
-0.0013203254979229104   -0.04674573359195677   -0.0008420265490942934
-0.0017309615282887782   -0.05464676418470057   -0.0011559820811971218
0.0024243420884567063   -0.05446299187909571   -0.0011198813077787854
-0.0013203254979229104   -0.04674573359195677   -0.0008420265490942934
0.0034783478213995917   -0.04666451573108984   -0.0007344549112417827
0.0034704476071523317   -0.04674208597704339   -0.0006772730928509985
0.0024243420884567063   -0.05446299187909571   -0.0011198813077787854
-0.0013203254979229104   -0.04674573359195677   -0.0008420265490942934
0.0034704476071523317   -0.04674208597704339   -0.0006772730928509985
-0.0017309615282887782   -0.05464676418470057   -0.0011559820811971218
-0.0017551195076669305   -0.054848537834048576   -0.0010679172188117361
-0.0012365460483270275   -0.04701928703596997   -0.000784194168297351
-0.00552446343977426   -0.054849075872139   -0.001286373251385994
-0.0017444888509842715   -0.054731508842032525   -0.0011156045567737307
-0.0012365460483270275   -0.04701928703596997   -0.000784194168297351
-0.005691824806752408   -0.04699477748509823   -0.0009893909979919878
-0.00552446343977426   -0.054849075872139   -0.001286373251385994
-0.005722099610381294   -0.04689938508890075   -0.000977381272146549
-0.0017444888509842715   -0.054731508842032525   -0.0011156045567737307
-0.005524931208675835   -0.05475007972506202   -0.0012818705875293544
-0.005722099610381294   -0.04689938508890075   -0.000977381272146549
-0.00552446343977426   -0.054849075872139   -0.001286373251385994
-0.0017444888509842715   -0.054731508842032525   -0.0011156045567737307
-0.005722099610381294   -0.04689938508890075   -0.000977381272146549
-0.0012583513619461692   -0.04690511354810923   -0.000809926412276901
-0.0012365460483270275   -0.04701928703596997   -0.000784194168297351
-0.0017444888509842715   -0.054731508842032525   -0.0011156045567737307
-0.005722099610381294   -0.04689938508890075   -0.000977381272146549
-0.0012365460483270275   -0.04701928703596997   -0.000784194168297351
-0.00552446343977426   -0.054849075872139   -0.001286373251385994
-0.0017444888509842715   -0.054731508842032525   -0.0011156045567737307
-0.0012583513619461692   -0.04690511354810923   -0.000809926412276901
-0.005524931208675835   -0.05475007972506202   -0.0012818705875293544
-0.0017309615282887782   -0.05464676418470057   -0.0011559820811971218
-0.0012583513619461692   -0.04690511354810923   -0.000809926412276901
-0.005722099610381294   -0.04689938508890075   -0.000977381272146549
-0.005524931208675835   -0.05475007972506202   -0.0012818705875293544
-0.005752790481742902   -0.046824509915431904   -0.0009586502603039906
-0.0017309615282887782   -0.05464676418470057   -0.0011559820811971218
-0.005525145107907452   -0.054679543252568956   -0.001270085989200162
-0.005752790481742902   -0.046824509915431904   -0.0009586502603039906
-0.005524931208675835   -0.05475007972506202   -0.0012818705875293544
-0.0017309615282887782   -0.05464676418470057   -0.0011559820811971218
-0.005752790481742902   -0.046824509915431904   -0.0009586502603039906
-0.0012812609995999013   -0.0468148757694043   -0.0008291303430686281
-0.0012583513619461692   -0.04690511354810923   -0.000809926412276901
-0.0017309615282887782   -0.05464676418470057   -0.0011559820811971218
-0.005752790481742902   -0.046824509915431904   -0.0009586502603039906
-0.0012583513619461692   -0.04690511354810923   -0.000809926412276901
-0.005524931208675835   -0.05475007972506202   -0.0012818705875293544
-0.0017309615282887782   -0.05464676418470057   -0.0011559820811971218
-0.0012812609995999013   -0.0468148757694043   -0.0008291303430686281
-0.005525145107907452   -0.054679543252568956   -0.001270085989200162
-0.0017373612562300393   -0.05459158676299705   -0.001189582889439075
-0.0012812609995999013   -0.0468148757694043   -0.0008291303430686281
-0.005752790481742902   -0.046824509915431904   -0.0009586502603039906
-0.005525145107907452   -0.054679543252568956   -0.001270085989200162
-0.005788264036626372   -0.04677050010217529   -0.0009335226937286276
-0.0017373612562300393   -0.05459158676299705   -0.001189582889439075
-0.005530396647339949   -0.05463751699791743   -0.001251397982180788
-0.005788264036626372   -0.04677050010217529   -0.0009335226937286276
-0.005525145107907452   -0.054679543252568956   -0.001270085989200162
-0.0017373612562300393   -0.05459158676299705   -0.001189582889439075
-0.005788264036626372   -0.04677050010217529   -0.0009335226937286276
-0.0013203254979229104   -0.04674573359195677   -0.0008420265490942934
-0.0012812609995999013   -0.0468148757694043   -0.0008291303430686281
-0.0017373612562300393   -0.05459158676299705   -0.001189582889439075
-0.005788264036626372   -0.04677050010217529   -0.0009335226937286276
-0.0012812609995999013   -0.0468148757694043   -0.0008291303430686281
-0.005525145107907452   -0.054679543252568956   -0.001270085989200162
-0.00552446343977426   -0.054849075872139   -0.001286373251385994
-0.005691824806752408   -0.04699477748509823   -0.0009893909979919878
-0.009229852256374434   -0.05475523051664284   -0.001477716661818071
-0.005524931208675835   -0.05475007972506202   -0.0012818705875293544
-0.005691824806752408   -0.04699477748509823   -0.0009893909979919878
-0.010071826269791672   -0.0469024073415488   -0.0011649371540841391
-0.009229852256374434   -0.05475523051664284   -0.001477716661818071
-0.010104496133360423   -0.04682407528691207   -0.001115369338728505
-0.005524931208675835   -0.05475007972506202   -0.0012818705875293544
-0.009233111925573698   -0.05467207265145865   -0.0014216544613057495
-0.010104496133360423   -0.04682407528691207   -0.001115369338728505
-0.009229852256374434   -0.05475523051664284   -0.001477716661818071
-0.005524931208675835   -0.05475007972506202   -0.0012818705875293544
-0.010104496133360423   -0.04682407528691207   -0.001115369338728505
-0.005722099610381294   -0.04689938508890075   -0.000977381272146549
-0.005691824806752408   -0.04699477748509823   -0.0009893909979919878
-0.005524931208675835   -0.05475007972506202   -0.0012818705875293544
-0.010104496133360423   -0.04682407528691207   -0.001115369338728505
-0.005691824806752408   -0.04699477748509823   -0.0009893909979919878
-0.009229852256374434   -0.05475523051664284   -0.001477716661818071
-0.005524931208675835   -0.05475007972506202   -0.0012818705875293544
-0.005722099610381294   -0.04689938508890075   -0.000977381272146549
-0.009233111925573698   -0.05467207265145865   -0.0014216544613057495
-0.005525145107907452   -0.054679543252568956   -0.001270085989200162
-0.005722099610381294   -0.04689938508890075   -0.000977381272146549
-0.010104496133360423   -0.04682407528691207   -0.001115369338728505
-0.009233111925573698   -0.05467207265145865   -0.0014216544613057495
-0.01013155885150963   -0.04676606456874016   -0.0010591994297710179
-0.005525145107907452   -0.054679543252568956   -0.001270085989200162
-0.009230058289104408   -0.05461712276700435   -0.0013584520581474328
-0.01013155885150963   -0.04676606456874016   -0.0010591994297710179
-0.009233111925573698   -0.05467207265145865   -0.0014216544613057495
-0.005525145107907452   -0.054679543252568956   -0.001270085989200162
-0.01013155885150963   -0.04676606456874016   -0.0010591994297710179
-0.005752790481742902   -0.046824509915431904   -0.0009586502603039906
-0.005722099610381294   -0.04689938508890075   -0.000977381272146549
-0.005525145107907452   -0.054679543252568956   -0.001270085989200162
-0.01013155885150963   -0.04676606456874016   -0.0010591994297710179
-0.005722099610381294   -0.04689938508890075   -0.000977381272146549
-0.009233111925573698   -0.05467207265145865   -0.0014216544613057495
-0.005525145107907452   -0.054679543252568956   -0.001270085989200162
-0.005752790481742902   -0.046824509915431904   -0.0009586502603039906
-0.009230058289104408   -0.05461712276700435   -0.0013584520581474328
-0.005530396647339949   -0.05463751699791743   -0.001251397982180788
-0.005752790481742902   -0.046824509915431904   -0.0009586502603039906
-0.01013155885150963   -0.04676606456874016   -0.0010591994297710179
-0.009230058289104408   -0.05461712276700435   -0.0013584520581474328
-0.010159409918795083   -0.046728289849625106   -0.0009966215897308662
-0.005530396647339949   -0.05463751699791743   -0.001251397982180788
-0.009228144773353325   -0.05458988635233118   -0.0012883174611595354
-0.010159409918795083   -0.046728289849625106   -0.0009966215897308662
-0.009230058289104408   -0.05461712276700435   -0.0013584520581474328
-0.005530396647339949   -0.05463751699791743   -0.001251397982180788
-0.010159409918795083   -0.046728289849625106   -0.0009966215897308662
-0.005788264036626372   -0.04677050010217529   -0.0009335226937286276
-0.005752790481742902   -0.046824509915431904   -0.0009586502603039906
-0.005530396647339949   -0.05463751699791743   -0.001251397982180788
-0.010159409918795083   -0.046728289849625106   -0.0009966215897308662
-0.005752790481742902   -0.046824509915431904   -0.0009586502603039906
-0.009230058289104408   -0.05461712276700435   -0.0013584520581474328
-0.009229852256374434   -0.05475523051664284   -0.001477716661818071
-0.010071826269791672   -0.0469024073415488   -0.0011649371540841391
-0.01305069337720184   -0.05457054737495275   -0.0016423153157999273
-0.009233111925573698   -0.05467207265145865   -0.0014216544613057495
-0.010071826269791672   -0.0469024073415488   -0.0011649371540841391
-0.014556002534493987   -0.04674401541049212   -0.0013115072302903046
-0.01305069337720184   -0.05457054737495275   -0.0016423153157999273
-0.014583020388991138   -0.046682345657043864   -0.0012238693912704605
-0.009233111925573698   -0.05467207265145865   -0.0014216544613057495
-0.013046160159506617   -0.05450255205537565   -0.001534081919986015
-0.014583020388991138   -0.046682345657043864   -0.0012238693912704605
-0.01305069337720184   -0.05457054737495275   -0.0016423153157999273
-0.009233111925573698   -0.05467207265145865   -0.0014216544613057495
-0.014583020388991138   -0.046682345657043864   -0.0012238693912704605
-0.010104496133360423   -0.04682407528691207   -0.001115369338728505
-0.010071826269791672   -0.0469024073415488   -0.0011649371540841391
-0.009233111925573698   -0.05467207265145865   -0.0014216544613057495
-0.014583020388991138   -0.046682345657043864   -0.0012238693912704605
-0.010071826269791672   -0.0469024073415488   -0.0011649371540841391
-0.01305069337720184   -0.05457054737495275   -0.0016423153157999273
-0.009233111925573698   -0.05467207265145865   -0.0014216544613057495
-0.010104496133360423   -0.04682407528691207   -0.001115369338728505
-0.013046160159506617   -0.05450255205537565   -0.001534081919986015
-0.009230058289104408   -0.05461712276700435   -0.0013584520581474328
-0.010104496133360423   -0.04682407528691207   -0.001115369338728505
-0.014583020388991138   -0.046682345657043864   -0.0012238693912704605
-0.013046160159506617   -0.05450255205537565   -0.001534081919986015
-0.014586447578115247   -0.04663975636977498   -0.0011305429167272594
-0.009230058289104408   -0.05461712276700435   -0.0013584520581474328
-0.01301408194044192   -0.054461735144806483   -0.0014197849041715578
-0.014586447578115247   -0.04663975636977498   -0.0011305429167272594
-0.013046160159506617   -0.05450255205537565   -0.001534081919986015
-0.009230058289104408   -0.05461712276700435   -0.0013584520581474328
-0.014586447578115247   -0.04663975636977498   -0.0011305429167272594
-0.01013155885150963   -0.04676606456874016   -0.0010591994297710179
-0.010104496133360423   -0.04682407528691207   -0.001115369338728505
-0.009230058289104408   -0.05461712276700435   -0.0013584520581474328
-0.014586447578115247   -0.04663975636977498   -0.0011305429167272594
-0.010104496133360423   -0.04682407528691207   -0.001115369338728505
-0.013046160159506617   -0.05450255205537565   -0.001534081919986015
-0.009230058289104408   -0.05461712276700435   -0.0013584520581474328
-0.01013155885150963   -0.04676606456874016   -0.0010591994297710179
-0.01301408194044192   -0.054461735144806483   -0.0014197849041715578
-0.009228144773353325   -0.05458988635233118   -0.0012883174611595354
-0.01013155885150963   -0.04676606456874016   -0.0010591994297710179
-0.014586447578115247   -0.04663975636977498   -0.0011305429167272594
-0.01301408194044192   -0.054461735144806483   -0.0014197849041715578
-0.014596579432284415   -0.04661922461084757   -0.001030322690311502
-0.009228144773353325   -0.05458988635233118   -0.0012883174611595354
-0.012992651108698485   -0.054450961498950116   -0.0012979982319980727
-0.014596579432284415   -0.04661922461084757   -0.001030322690311502
-0.01301408194044192   -0.054461735144806483   -0.0014197849041715578
-0.009228144773353325   -0.05458988635233118   -0.0012883174611595354
-0.014596579432284415   -0.04661922461084757   -0.001030322690311502
-0.010159409918795083   -0.046728289849625106   -0.0009966215897308662
-0.01013155885150963   -0.04676606456874016   -0.0010591994297710179
-0.009228144773353325   -0.05458988635233118   -0.0012883174611595354
-0.014596579432284415   -0.04661922461084757   -0.001030322690311502
-0.01013155885150963   -0.04676606456874016   -0.0010591994297710179
-0.01301408194044192   -0.054461735144806483   -0.0014197849041715578
-0.01305069337720184   -0.05457054737495275   -0.0016423153157999273
-0.014556002534493987   -0.04674401541049212   -0.0013115072302903046
-0.017318530117360065   -0.05431595762039839   -0.0017907599385922149
-0.013046160159506617   -0.05450255205537565   -0.001534081919986015
-0.014556002534493987   -0.04674401541049212   -0.0013115072302903046
-0.019445978999678593   -0.04653619775160462   -0.001436715856144816
-0.017318530117360065   -0.05431595762039839   -0.0017907599385922149
-0.01935223098650937   -0.0464798642225001   -0.0013088078301120199
-0.013046160159506617   -0.05450255205537565   -0.001534081919986015
-0.017158801749845617   -0.05424921598914821   -0.0016251728125320757
-0.01935223098650937   -0.0464798642225001   -0.0013088078301120199
-0.017318530117360065   -0.05431595762039839   -0.0017907599385922149
-0.013046160159506617   -0.05450255205537565   -0.001534081919986015
-0.01935223098650937   -0.0464798642225001   -0.0013088078301120199
-0.014583020388991138   -0.046682345657043864   -0.0012238693912704605
-0.014556002534493987   -0.04674401541049212   -0.0013115072302903046
-0.013046160159506617   -0.05450255205537565   -0.001534081919986015
-0.01935223098650937   -0.0464798642225001   -0.0013088078301120199
-0.014556002534493987   -0.04674401541049212   -0.0013115072302903046
-0.017318530117360065   -0.05431595762039839   -0.0017907599385922149
-0.013046160159506617   -0.05450255205537565   -0.001534081919986015
-0.014583020388991138   -0.046682345657043864   -0.0012238693912704605
-0.017158801749845617   -0.05424921598914821   -0.0016251728125320757
-0.01301408194044192   -0.054461735144806483   -0.0014197849041715578
-0.014583020388991138   -0.046682345657043864   -0.0012238693912704605
-0.01935223098650937   -0.0464798642225001   -0.0013088078301120199
-0.017158801749845617   -0.05424921598914821   -0.0016251728125320757
-0.019273203343188796   -0.046443813426092044   -0.0011709668513582932
-0.01301408194044192   -0.054461735144806483   -0.0014197849041715578
-0.017022214996165134   -0.0542135551712722   -0.0014493923837199808
-0.019273203343188796   -0.046443813426092044   -0.0011709668513582932
-0.017158801749845617   -0.05424921598914821   -0.0016251728125320757
-0.01301408194044192   -0.054461735144806483   -0.0014197849041715578
-0.019273203343188796   -0.046443813426092044   -0.0011709668513582932
-0.014586447578115247   -0.04663975636977498   -0.0011305429167272594
-0.014583020388991138   -0.046682345657043864   -0.0012238693912704605
-0.01301408194044192   -0.054461735144806483   -0.0014197849041715578
-0.019273203343188796   -0.046443813426092044   -0.0011709668513582932
-0.014583020388991138   -0.046682345657043864   -0.0012238693912704605
-0.017158801749845617   -0.05424921598914821   -0.0016251728125320757
-0.01301408194044192   -0.054461735144806483   -0.0014197849041715578
-0.014586447578115247   -0.04663975636977498   -0.0011305429167272594
-0.017022214996165134   -0.0542135551712722   -0.0014493923837199808
-0.012992651108698485   -0.054450961498950116   -0.0012979982319980727
-0.014586447578115247   -0.04663975636977498   -0.0011305429167272594
-0.019273203343188796   -0.046443813426092044   -0.0011709668513582932
-0.017022214996165134   -0.0542135551712722   -0.0014493923837199808
-0.01914286970479871   -0.046445235606096265   -0.0010244314460903315
-0.012992651108698485   -0.054450961498950116   -0.0012979982319980727
-0.016825119530152435   -0.05422554138364307   -0.00126481659000073
-0.01914286970479871   -0.046445235606096265   -0.0010244314460903315
-0.017022214996165134   -0.0542135551712722   -0.0014493923837199808
-0.012992651108698485   -0.054450961498950116   -0.0012979982319980727
-0.01914286970479871   -0.046445235606096265   -0.0010244314460903315
-0.014596579432284415   -0.04661922461084757   -0.001030322690311502
-0.014586447578115247   -0.04663975636977498   -0.0011305429167272594
-0.012992651108698485   -0.054450961498950116   -0.0012979982319980727
-0.01914286970479871   -0.046445235606096265   -0.0010244314460903315
-0.014586447578115247   -0.04663975636977498   -0.0011305429167272594
-0.017022214996165134   -0.0542135551712722   -0.0014493923837199808
0.003411259017563632   -0.046971440620093424   -0.000534926095362594
0.0041061677101699254   -0.03823947587176022   -0.0002725661384488076
-0.0012365460483270275   -0.04701928703596997   -0.000784194168297351
0.003456579138365648   -0.0468387086664273   -0.0006109155412148731
0.0041061677101699254   -0.03823947587176022   -0.0002725661384488076
-0.0010544744738191104   -0.03823848945311989   -0.0005036928416099285
-0.0012365460483270275   -0.04701928703596997   -0.000784194168297351
-0.0011005562699630232   -0.03812806366286407   -0.0005071802757160483
0.003456579138365648   -0.0468387086664273   -0.0006109155412148731
-0.0012583513619461692   -0.04690511354810923   -0.000809926412276901
-0.0011005562699630232   -0.03812806366286407   -0.0005071802757160483
-0.0012365460483270275   -0.04701928703596997   -0.000784194168297351
0.003456579138365648   -0.0468387086664273   -0.0006109155412148731
-0.0011005562699630232   -0.03812806366286407   -0.0005071802757160483
0.004091470415158839   -0.03811241494397755   -0.0003090761770649934
0.0041061677101699254   -0.03823947587176022   -0.0002725661384488076
0.003456579138365648   -0.0468387086664273   -0.0006109155412148731
-0.0011005562699630232   -0.03812806366286407   -0.0005071802757160483
0.0041061677101699254   -0.03823947587176022   -0.0002725661384488076
-0.0012365460483270275   -0.04701928703596997   -0.000784194168297351
0.003456579138365648   -0.0468387086664273   -0.0006109155412148731
0.004091470415158839   -0.03811241494397755   -0.0003090761770649934
-0.0012583513619461692   -0.04690511354810923   -0.000809926412276901
0.0034704476071523317   -0.04674208597704339   -0.0006772730928509985
0.004091470415158839   -0.03811241494397755   -0.0003090761770649934
-0.0011005562699630232   -0.03812806366286407   -0.0005071802757160483
-0.0012583513619461692   -0.04690511354810923   -0.000809926412276901
-0.0011517628814984916   -0.038033077154684417   -0.0005048763333741714
0.0034704476071523317   -0.04674208597704339   -0.0006772730928509985
-0.0012812609995999013   -0.0468148757694043   -0.0008291303430686281
-0.0011517628814984916   -0.038033077154684417   -0.0005048763333741714
-0.0012583513619461692   -0.04690511354810923   -0.000809926412276901
0.0034704476071523317   -0.04674208597704339   -0.0006772730928509985
-0.0011517628814984916   -0.038033077154684417   -0.0005048763333741714
0.004054517509793222   -0.03801026117488545   -0.00033630364393293197
0.004091470415158839   -0.03811241494397755   -0.0003090761770649934
0.0034704476071523317   -0.04674208597704339   -0.0006772730928509985
-0.0011517628814984916   -0.038033077154684417   -0.0005048763333741714
0.004091470415158839   -0.03811241494397755   -0.0003090761770649934
-0.0012583513619461692   -0.04690511354810923   -0.000809926412276901
0.0034704476071523317   -0.04674208597704339   -0.0006772730928509985
0.004054517509793222   -0.03801026117488545   -0.00033630364393293197
-0.0012812609995999013   -0.0468148757694043   -0.0008291303430686281
0.0034783478213995917   -0.04666451573108984   -0.0007344549112417827
0.004054517509793222   -0.03801026117488545   -0.00033630364393293197
-0.0011517628814984916   -0.038033077154684417   -0.0005048763333741714
-0.0012812609995999013   -0.0468148757694043   -0.0008291303430686281
-0.0012153467226412244   -0.03795106459052373   -0.0004965526993378183
0.0034783478213995917   -0.04666451573108984   -0.0007344549112417827
-0.0013203254979229104   -0.04674573359195677   -0.0008420265490942934
-0.0012153467226412244   -0.03795106459052373   -0.0004965526993378183
-0.0012812609995999013   -0.0468148757694043   -0.0008291303430686281
0.0034783478213995917   -0.04666451573108984   -0.0007344549112417827
-0.0012153467226412244   -0.03795106459052373   -0.0004965526993378183
0.00400289833226104   -0.03791631968501121   -0.0003548968165048282
0.004054517509793222   -0.03801026117488545   -0.00033630364393293197
0.0034783478213995917   -0.04666451573108984   -0.0007344549112417827
-0.0012153467226412244   -0.03795106459052373   -0.0004965526993378183
0.004054517509793222   -0.03801026117488545   -0.00033630364393293197
-0.0012812609995999013   -0.0468148757694043   -0.0008291303430686281
-0.0012365460483270275   -0.04701928703596997   -0.000784194168297351
-0.0010544744738191104   -0.03823848945311989   -0.0005036928416099285
-0.005691824806752408   -0.04699477748509823   -0.0009893909979919878
-0.0012583513619461692   -0.04690511354810923   -0.000809926412276901
-0.0010544744738191104   -0.03823848945311989   -0.0005036928416099285
-0.0059769089170367   -0.038191857883261404   -0.0006943696392500605
-0.005691824806752408   -0.04699477748509823   -0.0009893909979919878
-0.006028512416609473   -0.03810022305220791   -0.0006742226025531613
-0.0012583513619461692   -0.04690511354810923   -0.000809926412276901
-0.005722099610381294   -0.04689938508890075   -0.000977381272146549
-0.006028512416609473   -0.03810022305220791   -0.0006742226025531613
-0.005691824806752408   -0.04699477748509823   -0.0009893909979919878
-0.0012583513619461692   -0.04690511354810923   -0.000809926412276901
-0.006028512416609473   -0.03810022305220791   -0.0006742226025531613
-0.0011005562699630232   -0.03812806366286407   -0.0005071802757160483
-0.0010544744738191104   -0.03823848945311989   -0.0005036928416099285
-0.0012583513619461692   -0.04690511354810923   -0.000809926412276901
-0.006028512416609473   -0.03810022305220791   -0.0006742226025531613
-0.0010544744738191104   -0.03823848945311989   -0.0005036928416099285
-0.005691824806752408   -0.04699477748509823   -0.0009893909979919878
-0.0012583513619461692   -0.04690511354810923   -0.000809926412276901
-0.0011005562699630232   -0.03812806366286407   -0.0005071802757160483
-0.005722099610381294   -0.04689938508890075   -0.000977381272146549
-0.0012812609995999013   -0.0468148757694043   -0.0008291303430686281
-0.0011005562699630232   -0.03812806366286407   -0.0005071802757160483
-0.006028512416609473   -0.03810022305220791   -0.0006742226025531613
-0.005722099610381294   -0.04689938508890075   -0.000977381272146549
-0.006081155811798255   -0.03802115668833987   -0.0006480423739297233
-0.0012812609995999013   -0.0468148757694043   -0.0008291303430686281
-0.005752790481742902   -0.046824509915431904   -0.0009586502603039906
-0.006081155811798255   -0.03802115668833987   -0.0006480423739297233
-0.005722099610381294   -0.04689938508890075   -0.000977381272146549
-0.0012812609995999013   -0.0468148757694043   -0.0008291303430686281
-0.006081155811798255   -0.03802115668833987   -0.0006480423739297233
-0.0011517628814984916   -0.038033077154684417   -0.0005048763333741714
-0.0011005562699630232   -0.03812806366286407   -0.0005071802757160483
-0.0012812609995999013   -0.0468148757694043   -0.0008291303430686281
-0.006081155811798255   -0.03802115668833987   -0.0006480423739297233
-0.0011005562699630232   -0.03812806366286407   -0.0005071802757160483
-0.005722099610381294   -0.04689938508890075   -0.000977381272146549
-0.0012812609995999013   -0.0468148757694043   -0.0008291303430686281
-0.0011517628814984916   -0.038033077154684417   -0.0005048763333741714
-0.005752790481742902   -0.046824509915431904   -0.0009586502603039906
-0.0013203254979229104   -0.04674573359195677   -0.0008420265490942934
-0.0011517628814984916   -0.038033077154684417   -0.0005048763333741714
-0.006081155811798255   -0.03802115668833987   -0.0006480423739297233
-0.005752790481742902   -0.046824509915431904   -0.0009586502603039906
-0.006138255523713847   -0.03795540695729436   -0.0006161124870894557
-0.0013203254979229104   -0.04674573359195677   -0.0008420265490942934
-0.005788264036626372   -0.04677050010217529   -0.0009335226937286276
-0.006138255523713847   -0.03795540695729436   -0.0006161124870894557
-0.005752790481742902   -0.046824509915431904   -0.0009586502603039906
-0.0013203254979229104   -0.04674573359195677   -0.0008420265490942934
-0.006138255523713847   -0.03795540695729436   -0.0006161124870894557
-0.0012153467226412244   -0.03795106459052373   -0.0004965526993378183
-0.0011517628814984916   -0.038033077154684417   -0.0005048763333741714
-0.0013203254979229104   -0.04674573359195677   -0.0008420265490942934
-0.006138255523713847   -0.03795540695729436   -0.0006161124870894557
-0.0011517628814984916   -0.038033077154684417   -0.0005048763333741714
-0.005752790481742902   -0.046824509915431904   -0.0009586502603039906
-0.005691824806752408   -0.04699477748509823   -0.0009893909979919878
-0.0059769089170367   -0.038191857883261404   -0.0006943696392500605
-0.010071826269791672   -0.0469024073415488   -0.0011649371540841391
-0.005722099610381294   -0.04689938508890075   -0.000977381272146549
-0.0059769089170367   -0.038191857883261404   -0.0006943696392500605
-0.010816117090744388   -0.038104766677280535   -0.0008551903316172514
-0.010071826269791672   -0.0469024073415488   -0.0011649371540841391
-0.010869253684913932   -0.03803045052226831   -0.000811453428408291
-0.005722099610381294   -0.04689938508890075   -0.000977381272146549
-0.010104496133360423   -0.04682407528691207   -0.001115369338728505
-0.010869253684913932   -0.03803045052226831   -0.000811453428408291
-0.010071826269791672   -0.0469024073415488   -0.0011649371540841391
-0.005722099610381294   -0.04689938508890075   -0.000977381272146549
-0.010869253684913932   -0.03803045052226831   -0.000811453428408291
-0.006028512416609473   -0.03810022305220791   -0.0006742226025531613
-0.0059769089170367   -0.038191857883261404   -0.0006943696392500605
-0.005722099610381294   -0.04689938508890075   -0.000977381272146549
-0.010869253684913932   -0.03803045052226831   -0.000811453428408291
-0.0059769089170367   -0.038191857883261404   -0.0006943696392500605
-0.010071826269791672   -0.0469024073415488   -0.0011649371540841391
-0.005722099610381294   -0.04689938508890075   -0.000977381272146549
-0.006028512416609473   -0.03810022305220791   -0.0006742226025531613
-0.010104496133360423   -0.04682407528691207   -0.001115369338728505
-0.005752790481742902   -0.046824509915431904   -0.0009586502603039906
-0.006028512416609473   -0.03810022305220791   -0.0006742226025531613
-0.010869253684913932   -0.03803045052226831   -0.000811453428408291
-0.010104496133360423   -0.04682407528691207   -0.001115369338728505
-0.010917453388209158   -0.037968614002355745   -0.0007618241480527369
-0.005752790481742902   -0.046824509915431904   -0.0009586502603039906
-0.01013155885150963   -0.04676606456874016   -0.0010591994297710179
-0.010917453388209158   -0.037968614002355745   -0.0007618241480527369
-0.010104496133360423   -0.04682407528691207   -0.001115369338728505
-0.005752790481742902   -0.046824509915431904   -0.0009586502603039906
-0.010917453388209158   -0.037968614002355745   -0.0007618241480527369
-0.006081155811798255   -0.03802115668833987   -0.0006480423739297233
-0.006028512416609473   -0.03810022305220791   -0.0006742226025531613
-0.005752790481742902   -0.046824509915431904   -0.0009586502603039906
-0.010917453388209158   -0.037968614002355745   -0.0007618241480527369
-0.006028512416609473   -0.03810022305220791   -0.0006742226025531613
-0.010104496133360423   -0.04682407528691207   -0.001115369338728505
-0.005752790481742902   -0.046824509915431904   -0.0009586502603039906
-0.006081155811798255   -0.03802115668833987   -0.0006480423739297233
-0.01013155885150963   -0.04676606456874016   -0.0010591994297710179
-0.005788264036626372   -0.04677050010217529   -0.0009335226937286276
-0.006081155811798255   -0.03802115668833987   -0.0006480423739297233
-0.010917453388209158   -0.037968614002355745   -0.0007618241480527369
-0.01013155885150963   -0.04676606456874016   -0.0010591994297710179
-0.010966110777120164   -0.03791936101470599   -0.0007065269241521254
-0.005788264036626372   -0.04677050010217529   -0.0009335226937286276
-0.010159409918795083   -0.046728289849625106   -0.0009966215897308662
-0.010966110777120164   -0.03791936101470599   -0.0007065269241521254
-0.01013155885150963   -0.04676606456874016   -0.0010591994297710179
-0.005788264036626372   -0.04677050010217529   -0.0009335226937286276
-0.010966110777120164   -0.03791936101470599   -0.0007065269241521254
-0.006138255523713847   -0.03795540695729436   -0.0006161124870894557
-0.006081155811798255   -0.03802115668833987   -0.0006480423739297233
-0.005788264036626372   -0.04677050010217529   -0.0009335226937286276
-0.010966110777120164   -0.03791936101470599   -0.0007065269241521254
-0.006081155811798255   -0.03802115668833987   -0.0006480423739297233
-0.01013155885150963   -0.04676606456874016   -0.0010591994297710179
-0.010071826269791672   -0.0469024073415488   -0.0011649371540841391
-0.010816117090744388   -0.038104766677280535   -0.0008551903316172514
-0.014556002534493987   -0.04674401541049212   -0.0013115072302903046
-0.010104496133360423   -0.04682407528691207   -0.001115369338728505
-0.010816117090744388   -0.038104766677280535   -0.0008551903316172514
-0.015751190764540218   -0.03797536486023246   -0.0009865209435976588
-0.014556002534493987   -0.04674401541049212   -0.0013115072302903046
-0.015800519017979887   -0.03791851218161728   -0.0009190134730543942
-0.010104496133360423   -0.04682407528691207   -0.001115369338728505
-0.014583020388991138   -0.046682345657043864   -0.0012238693912704605
-0.015800519017979887   -0.03791851218161728   -0.0009190134730543942
-0.014556002534493987   -0.04674401541049212   -0.0013115072302903046
-0.010104496133360423   -0.04682407528691207   -0.001115369338728505
-0.015800519017979887   -0.03791851218161728   -0.0009190134730543942
-0.010869253684913932   -0.03803045052226831   -0.000811453428408291
-0.010816117090744388   -0.038104766677280535   -0.0008551903316172514
-0.010104496133360423   -0.04682407528691207   -0.001115369338728505
-0.015800519017979887   -0.03791851218161728   -0.0009190134730543942
-0.010816117090744388   -0.038104766677280535   -0.0008551903316172514
-0.014556002534493987   -0.04674401541049212   -0.0013115072302903046
-0.010104496133360423   -0.04682407528691207   -0.001115369338728505
-0.010869253684913932   -0.03803045052226831   -0.000811453428408291
-0.014583020388991138   -0.046682345657043864   -0.0012238693912704605
-0.01013155885150963   -0.04676606456874016   -0.0010591994297710179
-0.010869253684913932   -0.03803045052226831   -0.000811453428408291
-0.015800519017979887   -0.03791851218161728   -0.0009190134730543942
-0.014583020388991138   -0.046682345657043864   -0.0012238693912704605
-0.01583036555149151   -0.03787255543140143   -0.000846408198778743
-0.01013155885150963   -0.04676606456874016   -0.0010591994297710179
-0.014586447578115247   -0.04663975636977498   -0.0011305429167272594
-0.01583036555149151   -0.03787255543140143   -0.000846408198778743
-0.014583020388991138   -0.046682345657043864   -0.0012238693912704605
-0.01013155885150963   -0.04676606456874016   -0.0010591994297710179
-0.01583036555149151   -0.03787255543140143   -0.000846408198778743
-0.010917453388209158   -0.037968614002355745   -0.0007618241480527369
-0.010869253684913932   -0.03803045052226831   -0.000811453428408291
-0.01013155885150963   -0.04676606456874016   -0.0010591994297710179
-0.01583036555149151   -0.03787255543140143   -0.000846408198778743
-0.010869253684913932   -0.03803045052226831   -0.000811453428408291
-0.014583020388991138   -0.046682345657043864   -0.0012238693912704605
-0.01013155885150963   -0.04676606456874016   -0.0010591994297710179
-0.010917453388209158   -0.037968614002355745   -0.0007618241480527369
-0.014586447578115247   -0.04663975636977498   -0.0011305429167272594
-0.010159409918795083   -0.046728289849625106   -0.0009966215897308662
-0.010917453388209158   -0.037968614002355745   -0.0007618241480527369
-0.01583036555149151   -0.03787255543140143   -0.000846408198778743
-0.014586447578115247   -0.04663975636977498   -0.0011305429167272594
-0.015863165384812396   -0.03784027522569267   -0.0007676513435421178
-0.010159409918795083   -0.046728289849625106   -0.0009966215897308662
-0.014596579432284415   -0.04661922461084757   -0.001030322690311502
-0.015863165384812396   -0.03784027522569267   -0.0007676513435421178
-0.014586447578115247   -0.04663975636977498   -0.0011305429167272594
-0.010159409918795083   -0.046728289849625106   -0.0009966215897308662
-0.015863165384812396   -0.03784027522569267   -0.0007676513435421178
-0.010966110777120164   -0.03791936101470599   -0.0007065269241521254
-0.010917453388209158   -0.037968614002355745   -0.0007618241480527369
-0.010159409918795083   -0.046728289849625106   -0.0009966215897308662
-0.015863165384812396   -0.03784027522569267   -0.0007676513435421178
-0.010917453388209158   -0.037968614002355745   -0.0007618241480527369
-0.014586447578115247   -0.04663975636977498   -0.0011305429167272594
-0.014556002534493987   -0.04674401541049212   -0.0013115072302903046
-0.015751190764540218   -0.03797536486023246   -0.0009865209435976588
-0.019445978999678593   -0.04653619775160462   -0.001436715856144816
-0.014583020388991138   -0.046682345657043864   -0.0012238693912704605
-0.015751190764540218   -0.03797536486023246   -0.0009865209435976588
-0.02104793965252405   -0.037816119731428115   -0.0010909066568276693
-0.019445978999678593   -0.04653619775160462   -0.001436715856144816
-0.021011391889721846   -0.037768215380322205   -0.0010009396729607487
-0.014583020388991138   -0.046682345657043864   -0.0012238693912704605
-0.01935223098650937   -0.0464798642225001   -0.0013088078301120199
-0.021011391889721846   -0.037768215380322205   -0.0010009396729607487
-0.019445978999678593   -0.04653619775160462   -0.001436715856144816
-0.014583020388991138   -0.046682345657043864   -0.0012238693912704605
-0.021011391889721846   -0.037768215380322205   -0.0010009396729607487
-0.015800519017979887   -0.03791851218161728   -0.0009190134730543942
-0.015751190764540218   -0.03797536486023246   -0.0009865209435976588
-0.014583020388991138   -0.046682345657043864   -0.0012238693912704605
-0.021011391889721846   -0.037768215380322205   -0.0010009396729607487
-0.015751190764540218   -0.03797536486023246   -0.0009865209435976588
-0.019445978999678593   -0.04653619775160462   -0.001436715856144816
-0.014583020388991138   -0.046682345657043864   -0.0012238693912704605
-0.015800519017979887   -0.03791851218161728   -0.0009190134730543942
-0.01935223098650937   -0.0464798642225001   -0.0013088078301120199
-0.014586447578115247   -0.04663975636977498   -0.0011305429167272594
-0.015800519017979887   -0.03791851218161728   -0.0009190134730543942
-0.021011391889721846   -0.037768215380322205   -0.0010009396729607487
-0.01935223098650937   -0.0464798642225001   -0.0013088078301120199
-0.02098160676215966   -0.03772974004992693   -0.0009016184053848257
-0.014586447578115247   -0.04663975636977498   -0.0011305429167272594
-0.019273203343188796   -0.046443813426092044   -0.0011709668513582932
-0.02098160676215966   -0.03772974004992693   -0.0009016184053848257
-0.01935223098650937   -0.0464798642225001   -0.0013088078301120199
-0.014586447578115247   -0.04663975636977498   -0.0011305429167272594
-0.02098160676215966   -0.03772974004992693   -0.0009016184053848257
-0.01583036555149151   -0.03787255543140143   -0.000846408198778743
-0.015800519017979887   -0.03791851218161728   -0.0009190134730543942
-0.014586447578115247   -0.04663975636977498   -0.0011305429167272594
-0.02098160676215966   -0.03772974004992693   -0.0009016184053848257
-0.015800519017979887   -0.03791851218161728   -0.0009190134730543942
-0.01935223098650937   -0.0464798642225001   -0.0013088078301120199
-0.014586447578115247   -0.04663975636977498   -0.0011305429167272594
-0.01583036555149151   -0.03787255543140143   -0.000846408198778743
-0.019273203343188796   -0.046443813426092044   -0.0011709668513582932
-0.014596579432284415   -0.04661922461084757   -0.001030322690311502
-0.01583036555149151   -0.03787255543140143   -0.000846408198778743
-0.02098160676215966   -0.03772974004992693   -0.0009016184053848257
-0.019273203343188796   -0.046443813426092044   -0.0011709668513582932
-0.020910201760857467   -0.037717816506916926   -0.0007940096277974841
-0.014596579432284415   -0.04661922461084757   -0.001030322690311502
-0.01914286970479871   -0.046445235606096265   -0.0010244314460903315
-0.020910201760857467   -0.037717816506916926   -0.0007940096277974841
-0.019273203343188796   -0.046443813426092044   -0.0011709668513582932
-0.014596579432284415   -0.04661922461084757   -0.001030322690311502
-0.020910201760857467   -0.037717816506916926   -0.0007940096277974841
-0.015863165384812396   -0.03784027522569267   -0.0007676513435421178
-0.01583036555149151   -0.03787255543140143   -0.000846408198778743
-0.014596579432284415   -0.04661922461084757   -0.001030322690311502
-0.020910201760857467   -0.037717816506916926   -0.0007940096277974841
-0.01583036555149151   -0.03787255543140143   -0.000846408198778743
-0.019273203343188796   -0.046443813426092044   -0.0011709668513582932
0.0041061677101699254   -0.03823947587176022   -0.0002725661384488076
0.004246360137990034   -0.028902512754740112   -4.2812059860363725e-05
-0.0010544744738191104   -0.03823848945311989   -0.0005036928416099285
0.004091470415158839   -0.03811241494397755   -0.0003090761770649934
0.004246360137990034   -0.028902512754740112   -4.2812059860363725e-05
-0.001208018704365917   -0.028854628142176077   -0.0002505624052425859
-0.0010544744738191104   -0.03823848945311989   -0.0005036928416099285
-0.0012713080386895182   -0.028748962006247453   -0.00023180000812365184
0.004091470415158839   -0.03811241494397755   -0.0003090761770649934
-0.0011005562699630232   -0.03812806366286407   -0.0005071802757160483
-0.0012713080386895182   -0.028748962006247453   -0.00023180000812365184
-0.0010544744738191104   -0.03823848945311989   -0.0005036928416099285
0.004091470415158839   -0.03811241494397755   -0.0003090761770649934
-0.0012713080386895182   -0.028748962006247453   -0.00023180000812365184
0.004179305163975656   -0.028781327563231495   -3.9139553351555765e-05
0.004246360137990034   -0.028902512754740112   -4.2812059860363725e-05
0.004091470415158839   -0.03811241494397755   -0.0003090761770649934
-0.0012713080386895182   -0.028748962006247453   -0.00023180000812365184
0.004246360137990034   -0.028902512754740112   -4.2812059860363725e-05
-0.0010544744738191104   -0.03823848945311989   -0.0005036928416099285
0.004091470415158839   -0.03811241494397755   -0.0003090761770649934
0.004179305163975656   -0.028781327563231495   -3.9139553351555765e-05
-0.0011005562699630232   -0.03812806366286407   -0.0005071802757160483
0.004054517509793222   -0.03801026117488545   -0.00033630364393293197
0.004179305163975656   -0.028781327563231495   -3.9139553351555765e-05
-0.0012713080386895182   -0.028748962006247453   -0.00023180000812365184
-0.0011005562699630232   -0.03812806366286407   -0.0005071802757160483
-0.0013437738391898538   -0.028649273200350878   -0.00020778418171493198
0.004054517509793222   -0.03801026117488545   -0.00033630364393293197
-0.0011517628814984916   -0.038033077154684417   -0.0005048763333741714
-0.0013437738391898538   -0.028649273200350878   -0.00020778418171493198
-0.0011005562699630232   -0.03812806366286407   -0.0005071802757160483
0.004054517509793222   -0.03801026117488545   -0.00033630364393293197
-0.0013437738391898538   -0.028649273200350878   -0.00020778418171493198
0.0040969129453231065   -0.028673103123942535   -2.473423003680336e-05
0.004179305163975656   -0.028781327563231495   -3.9139553351555765e-05
0.004054517509793222   -0.03801026117488545   -0.00033630364393293197
-0.0013437738391898538   -0.028649273200350878   -0.00020778418171493198
0.004179305163975656   -0.028781327563231495   -3.9139553351555765e-05
-0.0011005562699630232   -0.03812806366286407   -0.0005071802757160483
0.004054517509793222   -0.03801026117488545   -0.00033630364393293197
0.0040969129453231065   -0.028673103123942535   -2.473423003680336e-05
-0.0011517628814984916   -0.038033077154684417   -0.0005048763333741714
0.00400289833226104   -0.03791631968501121   -0.0003548968165048282
0.0040969129453231065   -0.028673103123942535   -2.473423003680336e-05
-0.0013437738391898538   -0.028649273200350878   -0.00020778418171493198
-0.0011517628814984916   -0.038033077154684417   -0.0005048763333741714
-0.0014251292870906065   -0.02855419527036791   -0.0001771982952115751
0.00400289833226104   -0.03791631968501121   -0.0003548968165048282
-0.0012153467226412244   -0.03795106459052373   -0.0004965526993378183
-0.0014251292870906065   -0.02855419527036791   -0.0001771982952115751
-0.0011517628814984916   -0.038033077154684417   -0.0005048763333741714
0.00400289833226104   -0.03791631968501121   -0.0003548968165048282
-0.0014251292870906065   -0.02855419527036791   -0.0001771982952115751
0.003988282267589638   -0.02855992828853088   -8.133372487980429e-08
0.0040969129453231065   -0.028673103123942535   -2.473423003680336e-05
0.00400289833226104   -0.03791631968501121   -0.0003548968165048282
-0.0014251292870906065   -0.02855419527036791   -0.0001771982952115751
0.0040969129453231065   -0.028673103123942535   -2.473423003680336e-05
-0.0011517628814984916   -0.038033077154684417   -0.0005048763333741714
-0.0010544744738191104   -0.03823848945311989   -0.0005036928416099285
-0.001208018704365917   -0.028854628142176077   -0.0002505624052425859
-0.0059769089170367   -0.038191857883261404   -0.0006943696392500605
-0.0011005562699630232   -0.03812806366286407   -0.0005071802757160483
-0.001208018704365917   -0.028854628142176077   -0.0002505624052425859
-0.006376291252360765   -0.028798730230575685   -0.00042629741361835134
-0.0059769089170367   -0.038191857883261404   -0.0006943696392500605
-0.006440876866117397   -0.028710391102879207   -0.0003974925674266989
-0.0011005562699630232   -0.03812806366286407   -0.0005071802757160483
-0.006028512416609473   -0.03810022305220791   -0.0006742226025531613
-0.006440876866117397   -0.028710391102879207   -0.0003974925674266989
-0.0059769089170367   -0.038191857883261404   -0.0006943696392500605
-0.0011005562699630232   -0.03812806366286407   -0.0005071802757160483
-0.006440876866117397   -0.028710391102879207   -0.0003974925674266989
-0.0012713080386895182   -0.028748962006247453   -0.00023180000812365184
-0.001208018704365917   -0.028854628142176077   -0.0002505624052425859
-0.0011005562699630232   -0.03812806366286407   -0.0005071802757160483
-0.006440876866117397   -0.028710391102879207   -0.0003974925674266989
-0.001208018704365917   -0.028854628142176077   -0.0002505624052425859
-0.0059769089170367   -0.038191857883261404   -0.0006943696392500605
-0.0011005562699630232   -0.03812806366286407   -0.0005071802757160483
-0.0012713080386895182   -0.028748962006247453   -0.00023180000812365184
-0.006028512416609473   -0.03810022305220791   -0.0006742226025531613
-0.0011517628814984916   -0.038033077154684417   -0.0005048763333741714
-0.0012713080386895182   -0.028748962006247453   -0.00023180000812365184
-0.006440876866117397   -0.028710391102879207   -0.0003974925674266989
-0.006028512416609473   -0.03810022305220791   -0.0006742226025531613
-0.0065069112886354235   -0.028626690765096573   -0.000363680396649496
-0.0011517628814984916   -0.038033077154684417   -0.0005048763333741714
-0.006081155811798255   -0.03802115668833987   -0.0006480423739297233
-0.0065069112886354235   -0.028626690765096573   -0.000363680396649496
-0.006028512416609473   -0.03810022305220791   -0.0006742226025531613
-0.0011517628814984916   -0.038033077154684417   -0.0005048763333741714
-0.0065069112886354235   -0.028626690765096573   -0.000363680396649496
-0.0013437738391898538   -0.028649273200350878   -0.00020778418171493198
-0.0012713080386895182   -0.028748962006247453   -0.00023180000812365184
-0.0011517628814984916   -0.038033077154684417   -0.0005048763333741714
-0.0065069112886354235   -0.028626690765096573   -0.000363680396649496
-0.0012713080386895182   -0.028748962006247453   -0.00023180000812365184
-0.006028512416609473   -0.03810022305220791   -0.0006742226025531613
-0.0011517628814984916   -0.038033077154684417   -0.0005048763333741714
-0.0013437738391898538   -0.028649273200350878   -0.00020778418171493198
-0.006081155811798255   -0.03802115668833987   -0.0006480423739297233
-0.0012153467226412244   -0.03795106459052373   -0.0004965526993378183
-0.0013437738391898538   -0.028649273200350878   -0.00020778418171493198
-0.0065069112886354235   -0.028626690765096573   -0.000363680396649496
-0.006081155811798255   -0.03802115668833987   -0.0006480423739297233
-0.00657714873956317   -0.028548928131924604   -0.00032480749417355655
-0.0012153467226412244   -0.03795106459052373   -0.0004965526993378183
-0.006138255523713847   -0.03795540695729436   -0.0006161124870894557
-0.00657714873956317   -0.028548928131924604   -0.00032480749417355655
-0.006081155811798255   -0.03802115668833987   -0.0006480423739297233
-0.0012153467226412244   -0.03795106459052373   -0.0004965526993378183
-0.00657714873956317   -0.028548928131924604   -0.00032480749417355655
-0.0014251292870906065   -0.02855419527036791   -0.0001771982952115751
-0.0013437738391898538   -0.028649273200350878   -0.00020778418171493198
-0.0012153467226412244   -0.03795106459052373   -0.0004965526993378183
-0.00657714873956317   -0.028548928131924604   -0.00032480749417355655
-0.0013437738391898538   -0.028649273200350878   -0.00020778418171493198
-0.006081155811798255   -0.03802115668833987   -0.0006480423739297233
-0.0059769089170367   -0.038191857883261404   -0.0006943696392500605
-0.006376291252360765   -0.028798730230575685   -0.00042629741361835134
-0.010816117090744388   -0.038104766677280535   -0.0008551903316172514
-0.006028512416609473   -0.03810022305220791   -0.0006742226025531613
-0.006376291252360765   -0.028798730230575685   -0.00042629741361835134
-0.01146043946173544   -0.02873165810496406   -0.0005754902405780768
-0.010816117090744388   -0.038104766677280535   -0.0008551903316172514
-0.011524566697636343   -0.028659371143159237   -0.0005366535402553267
-0.006028512416609473   -0.03810022305220791   -0.0006742226025531613
-0.010869253684913932   -0.03803045052226831   -0.000811453428408291
-0.011524566697636343   -0.028659371143159237   -0.0005366535402553267
-0.010816117090744388   -0.038104766677280535   -0.0008551903316172514
-0.006028512416609473   -0.03810022305220791   -0.0006742226025531613
-0.011524566697636343   -0.028659371143159237   -0.0005366535402553267
-0.006440876866117397   -0.028710391102879207   -0.0003974925674266989
-0.006376291252360765   -0.028798730230575685   -0.00042629741361835134
-0.006028512416609473   -0.03810022305220791   -0.0006742226025531613
-0.011524566697636343   -0.028659371143159237   -0.0005366535402553267
-0.006376291252360765   -0.028798730230575685   -0.00042629741361835134
-0.010816117090744388   -0.038104766677280535   -0.0008551903316172514
-0.006028512416609473   -0.03810022305220791   -0.0006742226025531613
-0.006440876866117397   -0.028710391102879207   -0.0003974925674266989
-0.010869253684913932   -0.03803045052226831   -0.000811453428408291
-0.006081155811798255   -0.03802115668833987   -0.0006480423739297233
-0.006440876866117397   -0.028710391102879207   -0.0003974925674266989
-0.011524566697636343   -0.028659371143159237   -0.0005366535402553267
-0.010869253684913932   -0.03803045052226831   -0.000811453428408291
-0.011584542340435476   -0.028591984889753355   -0.0004929806793225167
-0.006081155811798255   -0.03802115668833987   -0.0006480423739297233
-0.010917453388209158   -0.037968614002355745   -0.0007618241480527369
-0.011584542340435476   -0.028591984889753355   -0.0004929806793225167
-0.010869253684913932   -0.03803045052226831   -0.000811453428408291
-0.006081155811798255   -0.03802115668833987   -0.0006480423739297233
-0.011584542340435476   -0.028591984889753355   -0.0004929806793225167
-0.0065069112886354235   -0.028626690765096573   -0.000363680396649496
-0.006440876866117397   -0.028710391102879207   -0.0003974925674266989
-0.006081155811798255   -0.03802115668833987   -0.0006480423739297233
-0.011584542340435476   -0.028591984889753355   -0.0004929806793225167
-0.006440876866117397   -0.028710391102879207   -0.0003974925674266989
-0.010869253684913932   -0.03803045052226831   -0.000811453428408291
-0.006081155811798255   -0.03802115668833987   -0.0006480423739297233
-0.0065069112886354235   -0.028626690765096573   -0.000363680396649496
-0.010917453388209158   -0.037968614002355745   -0.0007618241480527369
-0.006138255523713847   -0.03795540695729436   -0.0006161124870894557
-0.0065069112886354235   -0.028626690765096573   -0.000363680396649496
-0.011584542340435476   -0.028591984889753355   -0.0004929806793225167
-0.010917453388209158   -0.037968614002355745   -0.0007618241480527369
-0.011644732599058197   -0.028529685642231656   -0.0004447109877348272
-0.006138255523713847   -0.03795540695729436   -0.0006161124870894557
-0.010966110777120164   -0.03791936101470599   -0.0007065269241521254
-0.011644732599058197   -0.028529685642231656   -0.0004447109877348272
-0.010917453388209158   -0.037968614002355745   -0.0007618241480527369
-0.006138255523713847   -0.03795540695729436   -0.0006161124870894557
-0.011644732599058197   -0.028529685642231656   -0.0004447109877348272
-0.00657714873956317   -0.028548928131924604   -0.00032480749417355655
-0.0065069112886354235   -0.028626690765096573   -0.000363680396649496
-0.006138255523713847   -0.03795540695729436   -0.0006161124870894557
-0.011644732599058197   -0.028529685642231656   -0.0004447109877348272
-0.0065069112886354235   -0.028626690765096573   -0.000363680396649496
-0.010917453388209158   -0.037968614002355745   -0.0007618241480527369
-0.010816117090744388   -0.038104766677280535   -0.0008551903316172514
-0.01146043946173544   -0.02873165810496406   -0.0005754902405780768
-0.015751190764540218   -0.03797536486023246   -0.0009865209435976588
-0.010869253684913932   -0.03803045052226831   -0.000811453428408291
-0.01146043946173544   -0.02873165810496406   -0.0005754902405780768
-0.016636447133102618   -0.028640957510072607   -0.0006968651245710813
-0.015751190764540218   -0.03797536486023246   -0.0009865209435976588
-0.01669785277341439   -0.028585558205391097   -0.0006481160306761598
-0.010869253684913932   -0.03803045052226831   -0.000811453428408291
-0.015800519017979887   -0.03791851218161728   -0.0009190134730543942
-0.01669785277341439   -0.028585558205391097   -0.0006481160306761598
-0.015751190764540218   -0.03797536486023246   -0.0009865209435976588
-0.010869253684913932   -0.03803045052226831   -0.000811453428408291
-0.01669785277341439   -0.028585558205391097   -0.0006481160306761598
-0.011524566697636343   -0.028659371143159237   -0.0005366535402553267
-0.01146043946173544   -0.02873165810496406   -0.0005754902405780768
-0.010869253684913932   -0.03803045052226831   -0.000811453428408291
-0.01669785277341439   -0.028585558205391097   -0.0006481160306761598
-0.01146043946173544   -0.02873165810496406   -0.0005754902405780768
-0.015751190764540218   -0.03797536486023246   -0.0009865209435976588
-0.010869253684913932   -0.03803045052226831   -0.000811453428408291
-0.011524566697636343   -0.028659371143159237   -0.0005366535402553267
-0.015800519017979887   -0.03791851218161728   -0.0009190134730543942
-0.010917453388209158   -0.037968614002355745   -0.0007618241480527369
-0.011524566697636343   -0.028659371143159237   -0.0005366535402553267
-0.01669785277341439   -0.028585558205391097   -0.0006481160306761598
-0.015800519017979887   -0.03791851218161728   -0.0009190134730543942
-0.016744382572402922   -0.028533197763880313   -0.0005953279043857088
-0.010917453388209158   -0.037968614002355745   -0.0007618241480527369
-0.01583036555149151   -0.03787255543140143   -0.000846408198778743
-0.016744382572402922   -0.028533197763880313   -0.0005953279043857088
-0.015800519017979887   -0.03791851218161728   -0.0009190134730543942
-0.010917453388209158   -0.037968614002355745   -0.0007618241480527369
-0.016744382572402922   -0.028533197763880313   -0.0005953279043857088
-0.011584542340435476   -0.028591984889753355   -0.0004929806793225167
-0.011524566697636343   -0.028659371143159237   -0.0005366535402553267
-0.010917453388209158   -0.037968614002355745   -0.0007618241480527369
-0.016744382572402922   -0.028533197763880313   -0.0005953279043857088
-0.011524566697636343   -0.028659371143159237   -0.0005366535402553267
-0.015800519017979887   -0.03791851218161728   -0.0009190134730543942
-0.010917453388209158   -0.037968614002355745   -0.0007618241480527369
-0.011584542340435476   -0.028591984889753355   -0.0004929806793225167
-0.01583036555149151   -0.03787255543140143   -0.000846408198778743
-0.010966110777120164   -0.03791936101470599   -0.0007065269241521254
-0.011584542340435476   -0.028591984889753355   -0.0004929806793225167
-0.016744382572402922   -0.028533197763880313   -0.0005953279043857088
-0.01583036555149151   -0.03787255543140143   -0.000846408198778743
-0.01679055525535088   -0.028486207501970066   -0.0005374478314893419
-0.010966110777120164   -0.03791936101470599   -0.0007065269241521254
-0.015863165384812396   -0.03784027522569267   -0.0007676513435421178
-0.01679055525535088   -0.028486207501970066   -0.0005374478314893419
-0.01583036555149151   -0.03787255543140143   -0.000846408198778743
-0.010966110777120164   -0.03791936101470599   -0.0007065269241521254
-0.01679055525535088   -0.028486207501970066   -0.0005374478314893419
-0.011644732599058197   -0.028529685642231656   -0.0004447109877348272
-0.011584542340435476   -0.028591984889753355   -0.0004929806793225167
-0.010966110777120164   -0.03791936101470599   -0.0007065269241521254
-0.01679055525535088   -0.028486207501970066   -0.0005374478314893419
-0.011584542340435476   -0.028591984889753355   -0.0004929806793225167
-0.01583036555149151   -0.03787255543140143   -0.000846408198778743
-0.015751190764540218   -0.03797536486023246   -0.0009865209435976588
-0.016636447133102618   -0.028640957510072607   -0.0006968651245710813
-0.02104793965252405   -0.037816119731428115   -0.0010909066568276693
-0.015800519017979887   -0.03791851218161728   -0.0009190134730543942
-0.016636447133102618   -0.028640957510072607   -0.0006968651245710813
-0.022122514801327903   -0.0285337529932757   -0.0007868474559202704
-0.02104793965252405   -0.037816119731428115   -0.0010909066568276693
-0.02213177307336642   -0.02848959054760278   -0.0007329493305212065
-0.015800519017979887   -0.03791851218161728   -0.0009190134730543942
-0.021011391889721846   -0.037768215380322205   -0.0010009396729607487
-0.02213177307336642   -0.02848959054760278   -0.0007329493305212065
-0.02104793965252405   -0.037816119731428115   -0.0010909066568276693
-0.015800519017979887   -0.03791851218161728   -0.0009190134730543942
-0.02213177307336642   -0.02848959054760278   -0.0007329493305212065
-0.01669785277341439   -0.028585558205391097   -0.0006481160306761598
-0.016636447133102618   -0.028640957510072607   -0.0006968651245710813
-0.015800519017979887   -0.03791851218161728   -0.0009190134730543942
-0.02213177307336642   -0.02848959054760278   -0.0007329493305212065
-0.016636447133102618   -0.028640957510072607   -0.0006968651245710813
-0.02104793965252405   -0.037816119731428115   -0.0010909066568276693
-0.015800519017979887   -0.03791851218161728   -0.0009190134730543942
-0.01669785277341439   -0.028585558205391097   -0.0006481160306761598
-0.021011391889721846   -0.037768215380322205   -0.0010009396729607487
-0.01583036555149151   -0.03787255543140143   -0.000846408198778743
-0.01669785277341439   -0.028585558205391097   -0.0006481160306761598
-0.02213177307336642   -0.02848959054760278   -0.0007329493305212065
-0.021011391889721846   -0.037768215380322205   -0.0010009396729607487
-0.022141309018468617   -0.028444948246852075   -0.0006709199493247702
-0.01583036555149151   -0.03787255543140143   -0.000846408198778743
-0.02098160676215966   -0.03772974004992693   -0.0009016184053848257
-0.022141309018468617   -0.028444948246852075   -0.0006709199493247702
-0.021011391889721846   -0.037768215380322205   -0.0010009396729607487
-0.01583036555149151   -0.03787255543140143   -0.000846408198778743
-0.022141309018468617   -0.028444948246852075   -0.0006709199493247702
-0.016744382572402922   -0.028533197763880313   -0.0005953279043857088
-0.01669785277341439   -0.028585558205391097   -0.0006481160306761598
-0.01583036555149151   -0.03787255543140143   -0.000846408198778743
-0.022141309018468617   -0.028444948246852075   -0.0006709199493247702
-0.01669785277341439   -0.028585558205391097   -0.0006481160306761598
-0.021011391889721846   -0.037768215380322205   -0.0010009396729607487
-0.01583036555149151   -0.03787255543140143   -0.000846408198778743
-0.016744382572402922   -0.028533197763880313   -0.0005953279043857088
-0.02098160676215966   -0.03772974004992693   -0.0009016184053848257
-0.015863165384812396   -0.03784027522569267   -0.0007676513435421178
-0.016744382572402922   -0.028533197763880313   -0.0005953279043857088
-0.022141309018468617   -0.028444948246852075   -0.0006709199493247702
-0.02098160676215966   -0.03772974004992693   -0.0009016184053848257
-0.022119961093623873   -0.028415685894038048   -0.0006017233764557688
-0.015863165384812396   -0.03784027522569267   -0.0007676513435421178
-0.020910201760857467   -0.037717816506916926   -0.0007940096277974841
-0.022119961093623873   -0.028415685894038048   -0.0006017233764557688
-0.02098160676215966   -0.03772974004992693   -0.0009016184053848257
-0.015863165384812396   -0.03784027522569267   -0.0007676513435421178
-0.022119961093623873   -0.028415685894038048   -0.0006017233764557688
-0.01679055525535088   -0.028486207501970066   -0.0005374478314893419
-0.016744382572402922   -0.028533197763880313   -0.0005953279043857088
-0.015863165384812396   -0.03784027522569267   -0.0007676513435421178
-0.022119961093623873   -0.028415685894038048   -0.0006017233764557688
-0.016744382572402922   -0.028533197763880313   -0.0005953279043857088
-0.02098160676215966   -0.03772974004992693   -0.0009016184053848257
0.004246360137990034   -0.028902512754740112   -4.2812059860363725e-05
0.0038076173854729375   -0.01928653948836141   0.00011578223239630352
-0.001208018704365917   -0.028854628142176077   -0.0002505624052425859
0.004179305163975656   -0.028781327563231495   -3.9139553351555765e-05
0.0038076173854729375   -0.01928653948836141   0.00011578223239630352
-0.0016883317761817803   -0.019196040534996246   -4.918767129092985e-05
-0.001208018704365917   -0.028854628142176077   -0.0002505624052425859
-0.0017639994616346379   -0.019100412963268584   -9.934497695611406e-06
0.004179305163975656   -0.028781327563231495   -3.9139553351555765e-05
-0.0012713080386895182   -0.028748962006247453   -0.00023180000812365184
-0.0017639994616346379   -0.019100412963268584   -9.934497695611406e-06
-0.001208018704365917   -0.028854628142176077   -0.0002505624052425859
0.004179305163975656   -0.028781327563231495   -3.9139553351555765e-05
-0.0017639994616346379   -0.019100412963268584   -9.934497695611406e-06
0.0036885195691491266   -0.019171105761943856   0.00016456775017852738
0.0038076173854729375   -0.01928653948836141   0.00011578223239630352
0.004179305163975656   -0.028781327563231495   -3.9139553351555765e-05
-0.0017639994616346379   -0.019100412963268584   -9.934497695611406e-06
0.0038076173854729375   -0.01928653948836141   0.00011578223239630352
-0.001208018704365917   -0.028854628142176077   -0.0002505624052425859
0.004179305163975656   -0.028781327563231495   -3.9139553351555765e-05
0.0036885195691491266   -0.019171105761943856   0.00016456775017852738
-0.0012713080386895182   -0.028748962006247453   -0.00023180000812365184
0.0040969129453231065   -0.028673103123942535   -2.473423003680336e-05
0.0036885195691491266   -0.019171105761943856   0.00016456775017852738
-0.0017639994616346379   -0.019100412963268584   -9.934497695611406e-06
-0.0012713080386895182   -0.028748962006247453   -0.00023180000812365184
-0.0018525301498118277   -0.01899950398696697   3.631247740772641e-05
0.0040969129453231065   -0.028673103123942535   -2.473423003680336e-05
-0.0013437738391898538   -0.028649273200350878   -0.00020778418171493198
-0.0018525301498118277   -0.01899950398696697   3.631247740772641e-05
-0.0012713080386895182   -0.028748962006247453   -0.00023180000812365184
0.0040969129453231065   -0.028673103123942535   -2.473423003680336e-05
-0.0018525301498118277   -0.01899950398696697   3.631247740772641e-05
0.003555504952916288   -0.019056509252904606   0.00023470407973797408
0.0036885195691491266   -0.019171105761943856   0.00016456775017852738
0.0040969129453231065   -0.028673103123942535   -2.473423003680336e-05
-0.0018525301498118277   -0.01899950398696697   3.631247740772641e-05
0.0036885195691491266   -0.019171105761943856   0.00016456775017852738
-0.0012713080386895182   -0.028748962006247453   -0.00023180000812365184
0.0040969129453231065   -0.028673103123942535   -2.473423003680336e-05
0.003555504952916288   -0.019056509252904606   0.00023470407973797408
-0.0013437738391898538   -0.028649273200350878   -0.00020778418171493198
0.003988282267589638   -0.02855992828853088   -8.133372487980429e-08
0.003555504952916288   -0.019056509252904606   0.00023470407973797408
-0.0018525301498118277   -0.01899950398696697   3.631247740772641e-05
-0.0013437738391898538   -0.028649273200350878   -0.00020778418171493198
-0.0019441196150977392   -0.018892376095708437   8.94619310618405e-05
0.003988282267589638   -0.02855992828853088   -8.133372487980429e-08
-0.0014251292870906065   -0.02855419527036791   -0.0001771982952115751
-0.0019441196150977392   -0.018892376095708437   8.94619310618405e-05
-0.0013437738391898538   -0.028649273200350878   -0.00020778418171493198
0.003988282267589638   -0.02855992828853088   -8.133372487980429e-08
-0.0019441196150977392   -0.018892376095708437   8.94619310618405e-05
0.003392971615708677   -0.018915718071467833   0.00031189098513573703
0.003555504952916288   -0.019056509252904606   0.00023470407973797408
0.003988282267589638   -0.02855992828853088   -8.133372487980429e-08
-0.0019441196150977392   -0.018892376095708437   8.94619310618405e-05
0.003555504952916288   -0.019056509252904606   0.00023470407973797408
-0.0013437738391898538   -0.028649273200350878   -0.00020778418171493198
-0.001208018704365917   -0.028854628142176077   -0.0002505624052425859
-0.0016883317761817803   -0.019196040534996246   -4.918767129092985e-05
-0.006376291252360765   -0.028798730230575685   -0.00042629741361835134
-0.0012713080386895182   -0.028748962006247453   -0.00023180000812365184
-0.0016883317761817803   -0.019196040534996246   -4.918767129092985e-05
-0.006863465642409571   -0.01917261295045628   -0.00020814223760054853
-0.006376291252360765   -0.028798730230575685   -0.00042629741361835134
-0.006931891334386645   -0.019089193640279896   -0.0001715857973433414
-0.0012713080386895182   -0.028748962006247453   -0.00023180000812365184
-0.006440876866117397   -0.028710391102879207   -0.0003974925674266989
-0.006931891334386645   -0.019089193640279896   -0.0001715857973433414
-0.006376291252360765   -0.028798730230575685   -0.00042629741361835134
-0.0012713080386895182   -0.028748962006247453   -0.00023180000812365184
-0.006931891334386645   -0.019089193640279896   -0.0001715857973433414
-0.0017639994616346379   -0.019100412963268584   -9.934497695611406e-06
-0.0016883317761817803   -0.019196040534996246   -4.918767129092985e-05
-0.0012713080386895182   -0.028748962006247453   -0.00023180000812365184
-0.006931891334386645   -0.019089193640279896   -0.0001715857973433414
-0.0016883317761817803   -0.019196040534996246   -4.918767129092985e-05
-0.006376291252360765   -0.028798730230575685   -0.00042629741361835134
-0.0012713080386895182   -0.028748962006247453   -0.00023180000812365184
-0.0017639994616346379   -0.019100412963268584   -9.934497695611406e-06
-0.006440876866117397   -0.028710391102879207   -0.0003974925674266989
-0.0013437738391898538   -0.028649273200350878   -0.00020778418171493198
-0.0017639994616346379   -0.019100412963268584   -9.934497695611406e-06
-0.006931891334386645   -0.019089193640279896   -0.0001715857973433414
-0.006440876866117397   -0.028710391102879207   -0.0003974925674266989
-0.007002681099832645   -0.01900242870615101   -0.00013139616804154873
-0.0013437738391898538   -0.028649273200350878   -0.00020778418171493198
-0.0065069112886354235   -0.028626690765096573   -0.000363680396649496
-0.007002681099832645   -0.01900242870615101   -0.00013139616804154873
-0.006440876866117397   -0.028710391102879207   -0.0003974925674266989
-0.0013437738391898538   -0.028649273200350878   -0.00020778418171493198
-0.007002681099832645   -0.01900242870615101   -0.00013139616804154873
-0.0018525301498118277   -0.01899950398696697   3.631247740772641e-05
-0.0017639994616346379   -0.019100412963268584   -9.934497695611406e-06
-0.0013437738391898538   -0.028649273200350878   -0.00020778418171493198
-0.007002681099832645   -0.01900242870615101   -0.00013139616804154873
-0.0017639994616346379   -0.019100412963268584   -9.934497695611406e-06
-0.006440876866117397   -0.028710391102879207   -0.0003974925674266989
-0.0013437738391898538   -0.028649273200350878   -0.00020778418171493198
-0.0018525301498118277   -0.01899950398696697   3.631247740772641e-05
-0.0065069112886354235   -0.028626690765096573   -0.000363680396649496
-0.0014251292870906065   -0.02855419527036791   -0.0001771982952115751
-0.0018525301498118277   -0.01899950398696697   3.631247740772641e-05
-0.007002681099832645   -0.01900242870615101   -0.00013139616804154873
-0.0065069112886354235   -0.028626690765096573   -0.000363680396649496
-0.00707638572721019   -0.018913879702860417   -8.684871153878653e-05
-0.0014251292870906065   -0.02855419527036791   -0.0001771982952115751
-0.00657714873956317   -0.028548928131924604   -0.00032480749417355655
-0.00707638572721019   -0.018913879702860417   -8.684871153878653e-05
-0.0065069112886354235   -0.028626690765096573   -0.000363680396649496
-0.0014251292870906065   -0.02855419527036791   -0.0001771982952115751
-0.00707638572721019   -0.018913879702860417   -8.684871153878653e-05
-0.0019441196150977392   -0.018892376095708437   8.94619310618405e-05
-0.0018525301498118277   -0.01899950398696697   3.631247740772641e-05
-0.0014251292870906065   -0.02855419527036791   -0.0001771982952115751
-0.00707638572721019   -0.018913879702860417   -8.684871153878653e-05
-0.0018525301498118277   -0.01899950398696697   3.631247740772641e-05
-0.0065069112886354235   -0.028626690765096573   -0.000363680396649496
-0.006376291252360765   -0.028798730230575685   -0.00042629741361835134
-0.006863465642409571   -0.01917261295045628   -0.00020814223760054853
-0.01146043946173544   -0.02873165810496406   -0.0005754902405780768
-0.006440876866117397   -0.028710391102879207   -0.0003974925674266989
-0.006863465642409571   -0.01917261295045628   -0.00020814223760054853
-0.011985336972546395   -0.019166090786868893   -0.00035178471487603267
-0.01146043946173544   -0.02873165810496406   -0.0005754902405780768
-0.012050765436383023   -0.019092976248168768   -0.000316881301366623
-0.006440876866117397   -0.028710391102879207   -0.0003974925674266989
-0.011524566697636343   -0.028659371143159237   -0.0005366535402553267
-0.012050765436383023   -0.019092976248168768   -0.000316881301366623
-0.01146043946173544   -0.02873165810496406   -0.0005754902405780768
-0.006440876866117397   -0.028710391102879207   -0.0003974925674266989
-0.012050765436383023   -0.019092976248168768   -0.000316881301366623
-0.006931891334386645   -0.019089193640279896   -0.0001715857973433414
-0.006863465642409571   -0.01917261295045628   -0.00020814223760054853
-0.006440876866117397   -0.028710391102879207   -0.0003974925674266989
-0.012050765436383023   -0.019092976248168768   -0.000316881301366623
-0.006863465642409571   -0.01917261295045628   -0.00020814223760054853
-0.01146043946173544   -0.02873165810496406   -0.0005754902405780768
-0.006440876866117397   -0.028710391102879207   -0.0003974925674266989
-0.006931891334386645   -0.019089193640279896   -0.0001715857973433414
-0.011524566697636343   -0.028659371143159237   -0.0005366535402553267
-0.0065069112886354235   -0.028626690765096573   -0.000363680396649496
-0.006931891334386645   -0.019089193640279896   -0.0001715857973433414
-0.012050765436383023   -0.019092976248168768   -0.000316881301366623
-0.011524566697636343   -0.028659371143159237   -0.0005366535402553267
-0.01211309378495789   -0.019018550380854676   -0.0002787998868134395
-0.0065069112886354235   -0.028626690765096573   -0.000363680396649496
-0.011584542340435476   -0.028591984889753355   -0.0004929806793225167
-0.01211309378495789   -0.019018550380854676   -0.0002787998868134395
-0.011524566697636343   -0.028659371143159237   -0.0005366535402553267
-0.0065069112886354235   -0.028626690765096573   -0.000363680396649496
-0.01211309378495789   -0.019018550380854676   -0.0002787998868134395
-0.007002681099832645   -0.01900242870615101   -0.00013139616804154873
-0.006931891334386645   -0.019089193640279896   -0.0001715857973433414
-0.0065069112886354235   -0.028626690765096573   -0.000363680396649496
-0.01211309378495789   -0.019018550380854676   -0.0002787998868134395
-0.006931891334386645   -0.019089193640279896   -0.0001715857973433414
-0.011524566697636343   -0.028659371143159237   -0.0005366535402553267
-0.0065069112886354235   -0.028626690765096573   -0.000363680396649496
-0.007002681099832645   -0.01900242870615101   -0.00013139616804154873
-0.011584542340435476   -0.028591984889753355   -0.0004929806793225167
-0.00657714873956317   -0.028548928131924604   -0.00032480749417355655
-0.007002681099832645   -0.01900242870615101   -0.00013139616804154873
-0.01211309378495789   -0.019018550380854676   -0.0002787998868134395
-0.011584542340435476   -0.028591984889753355   -0.0004929806793225167
-0.012174795860324697   -0.018942386937522065   -0.0002377196581404097
-0.00657714873956317   -0.028548928131924604   -0.00032480749417355655
-0.011644732599058197   -0.028529685642231656   -0.0004447109877348272
-0.012174795860324697   -0.018942386937522065   -0.0002377196581404097
-0.011584542340435476   -0.028591984889753355   -0.0004929806793225167
-0.00657714873956317   -0.028548928131924604   -0.00032480749417355655
-0.012174795860324697   -0.018942386937522065   -0.0002377196581404097
-0.00707638572721019   -0.018913879702860417   -8.684871153878653e-05
-0.007002681099832645   -0.01900242870615101   -0.00013139616804154873
-0.00657714873956317   -0.028548928131924604   -0.00032480749417355655
-0.012174795860324697   -0.018942386937522065   -0.0002377196581404097
-0.007002681099832645   -0.01900242870615101   -0.00013139616804154873
-0.011584542340435476   -0.028591984889753355   -0.0004929806793225167
-0.01146043946173544   -0.02873165810496406   -0.0005754902405780768
-0.011985336972546395   -0.019166090786868893   -0.00035178471487603267
-0.016636447133102618   -0.028640957510072607   -0.0006968651245710813
-0.011524566697636343   -0.028659371143159237   -0.0005366535402553267
-0.011985336972546395   -0.019166090786868893   -0.00035178471487603267
-0.017215738815647055   -0.019136293558807266   -0.00047236827970366136
-0.016636447133102618   -0.028640957510072607   -0.0006968651245710813
-0.017278112704345355   -0.019076757901959628   -0.00043929774447544874
-0.011524566697636343   -0.028659371143159237   -0.0005366535402553267
-0.01669785277341439   -0.028585558205391097   -0.0006481160306761598
-0.017278112704345355   -0.019076757901959628   -0.00043929774447544874
-0.016636447133102618   -0.028640957510072607   -0.0006968651245710813
-0.011524566697636343   -0.028659371143159237   -0.0005366535402553267
-0.017278112704345355   -0.019076757901959628   -0.00043929774447544874
-0.012050765436383023   -0.019092976248168768   -0.000316881301366623
-0.011985336972546395   -0.019166090786868893   -0.00035178471487603267
-0.011524566697636343   -0.028659371143159237   -0.0005366535402553267
-0.017278112704345355   -0.019076757901959628   -0.00043929774447544874
-0.011985336972546395   -0.019166090786868893   -0.00035178471487603267
-0.016636447133102618   -0.028640957510072607   -0.0006968651245710813
-0.011524566697636343   -0.028659371143159237   -0.0005366535402553267
-0.012050765436383023   -0.019092976248168768   -0.000316881301366623
-0.01669785277341439   -0.028585558205391097   -0.0006481160306761598
-0.011584542340435476   -0.028591984889753355   -0.0004929806793225167
-0.012050765436383023   -0.019092976248168768   -0.000316881301366623
-0.017278112704345355   -0.019076757901959628   -0.00043929774447544874
-0.01669785277341439   -0.028585558205391097   -0.0006481160306761598
-0.017330948174522402   -0.019013960662483727   -0.00040396746091281977
-0.011584542340435476   -0.028591984889753355   -0.0004929806793225167
-0.016744382572402922   -0.028533197763880313   -0.0005953279043857088
-0.017330948174522402   -0.019013960662483727   -0.00040396746091281977
-0.01669785277341439   -0.028585558205391097   -0.0006481160306761598
-0.011584542340435476   -0.028591984889753355   -0.0004929806793225167
-0.017330948174522402   -0.019013960662483727   -0.00040396746091281977
-0.01211309378495789   -0.019018550380854676   -0.0002787998868134395
-0.012050765436383023   -0.019092976248168768   -0.000316881301366623
-0.011584542340435476   -0.028591984889753355   -0.0004929806793225167
-0.017330948174522402   -0.019013960662483727   -0.00040396746091281977
-0.012050765436383023   -0.019092976248168768   -0.000316881301366623
-0.01669785277341439   -0.028585558205391097   -0.0006481160306761598
-0.011584542340435476   -0.028591984889753355   -0.0004929806793225167
-0.01211309378495789   -0.019018550380854676   -0.0002787998868134395
-0.016744382572402922   -0.028533197763880313   -0.0005953279043857088
-0.011644732599058197   -0.028529685642231656   -0.0004447109877348272
-0.01211309378495789   -0.019018550380854676   -0.0002787998868134395
-0.017330948174522402   -0.019013960662483727   -0.00040396746091281977
-0.016744382572402922   -0.028533197763880313   -0.0005953279043857088
-0.01738088465240096   -0.018949520466461894   -0.0003653960225280703
-0.011644732599058197   -0.028529685642231656   -0.0004447109877348272
-0.01679055525535088   -0.028486207501970066   -0.0005374478314893419
-0.01738088465240096   -0.018949520466461894   -0.0003653960225280703
-0.016744382572402922   -0.028533197763880313   -0.0005953279043857088
-0.011644732599058197   -0.028529685642231656   -0.0004447109877348272
-0.01738088465240096   -0.018949520466461894   -0.0003653960225280703
-0.012174795860324697   -0.018942386937522065   -0.0002377196581404097
-0.01211309378495789   -0.019018550380854676   -0.0002787998868134395
-0.011644732599058197   -0.028529685642231656   -0.0004447109877348272
-0.01738088465240096   -0.018949520466461894   -0.0003653960225280703
-0.01211309378495789   -0.019018550380854676   -0.0002787998868134395
-0.016744382572402922   -0.028533197763880313   -0.0005953279043857088
-0.016636447133102618   -0.028640957510072607   -0.0006968651245710813
-0.017215738815647055   -0.019136293558807266   -0.00047236827970366136
-0.022122514801327903   -0.0285337529932757   -0.0007868474559202704
-0.01669785277341439   -0.028585558205391097   -0.0006481160306761598
-0.017215738815647055   -0.019136293558807266   -0.00047236827970366136
-0.022694889059530796   -0.01908716370889854   -0.0005614648729135793
-0.022122514801327903   -0.0285337529932757   -0.0007868474559202704
-0.022733581267955147   -0.019037240158436147   -0.0005366155971398259
-0.01669785277341439   -0.028585558205391097   -0.0006481160306761598
-0.02213177307336642   -0.02848959054760278   -0.0007329493305212065
-0.022733581267955147   -0.019037240158436147   -0.0005366155971398259
-0.022122514801327903   -0.0285337529932757   -0.0007868474559202704
-0.01669785277341439   -0.028585558205391097   -0.0006481160306761598
-0.022733581267955147   -0.019037240158436147   -0.0005366155971398259
-0.017278112704345355   -0.019076757901959628   -0.00043929774447544874
-0.017215738815647055   -0.019136293558807266   -0.00047236827970366136
-0.01669785277341439   -0.028585558205391097   -0.0006481160306761598
-0.022733581267955147   -0.019037240158436147   -0.0005366155971398259
-0.017215738815647055   -0.019136293558807266   -0.00047236827970366136
-0.022122514801327903   -0.0285337529932757   -0.0007868474559202704
-0.01669785277341439   -0.028585558205391097   -0.0006481160306761598
-0.017278112704345355   -0.019076757901959628   -0.00043929774447544874
-0.02213177307336642   -0.02848959054760278   -0.0007329493305212065
-0.016744382572402922   -0.028533197763880313   -0.0005953279043857088
-0.017278112704345355   -0.019076757901959628   -0.00043929774447544874
-0.022733581267955147   -0.019037240158436147   -0.0005366155971398259
-0.02213177307336642   -0.02848959054760278   -0.0007329493305212065
-0.022768960884131228   -0.01898072745054507   -0.0005062288079378278
-0.016744382572402922   -0.028533197763880313   -0.0005953279043857088
-0.022141309018468617   -0.028444948246852075   -0.0006709199493247702
-0.022768960884131228   -0.01898072745054507   -0.0005062288079378278
-0.02213177307336642   -0.02848959054760278   -0.0007329493305212065
-0.016744382572402922   -0.028533197763880313   -0.0005953279043857088
-0.022768960884131228   -0.01898072745054507   -0.0005062288079378278
-0.017330948174522402   -0.019013960662483727   -0.00040396746091281977
-0.017278112704345355   -0.019076757901959628   -0.00043929774447544874
-0.016744382572402922   -0.028533197763880313   -0.0005953279043857088
-0.022768960884131228   -0.01898072745054507   -0.0005062288079378278
-0.017278112704345355   -0.019076757901959628   -0.00043929774447544874
-0.02213177307336642   -0.02848959054760278   -0.0007329493305212065
-0.016744382572402922   -0.028533197763880313   -0.0005953279043857088
-0.017330948174522402   -0.019013960662483727   -0.00040396746091281977
-0.022141309018468617   -0.028444948246852075   -0.0006709199493247702
-0.01679055525535088   -0.028486207501970066   -0.0005374478314893419
-0.017330948174522402   -0.019013960662483727   -0.00040396746091281977
-0.022768960884131228   -0.01898072745054507   -0.0005062288079378278
-0.022141309018468617   -0.028444948246852075   -0.0006709199493247702
-0.02278602488103742   -0.01892893409246932   -0.0004716854323577046
-0.01679055525535088   -0.028486207501970066   -0.0005374478314893419
-0.022119961093623873   -0.028415685894038048   -0.0006017233764557688
-0.02278602488103742   -0.01892893409246932   -0.0004716854323577046
-0.022141309018468617   -0.028444948246852075   -0.0006709199493247702
-0.01679055525535088   -0.028486207501970066   -0.0005374478314893419
-0.02278602488103742   -0.01892893409246932   -0.0004716854323577046
-0.01738088465240096   -0.018949520466461894   -0.0003653960225280703
-0.017330948174522402   -0.019013960662483727   -0.00040396746091281977
-0.01679055525535088   -0.028486207501970066   -0.0005374478314893419
-0.02278602488103742   -0.01892893409246932   -0.0004716854323577046
-0.017330948174522402   -0.019013960662483727   -0.00040396746091281977
-0.022141309018468617   -0.028444948246852075   -0.0006709199493247702
0.0038076173854729375   -0.01928653948836141   0.00011578223239630352
0.002668584527188568   -0.009687031084223786   0.00012449310675192375
-0.0016883317761817803   -0.019196040534996246   -4.918767129092985e-05
0.0036885195691491266   -0.019171105761943856   0.00016456775017852738
0.002668584527188568   -0.009687031084223786   0.00012449310675192375
-0.0024574064934045465   -0.009561725688124668   6.380631320367104e-05
-0.0016883317761817803   -0.019196040534996246   -4.918767129092985e-05
-0.002532711830254591   -0.009513594655537031   0.00011839982856322869
0.0036885195691491266   -0.019171105761943856   0.00016456775017852738
-0.0017639994616346379   -0.019100412963268584   -9.934497695611406e-06
-0.002532711830254591   -0.009513594655537031   0.00011839982856322869
-0.0016883317761817803   -0.019196040534996246   -4.918767129092985e-05
0.0036885195691491266   -0.019171105761943856   0.00016456775017852738
-0.002532711830254591   -0.009513594655537031   0.00011839982856322869
0.0024338264016972393   -0.009564342925649703   0.0002595831188405058
0.002668584527188568   -0.009687031084223786   0.00012449310675192375
0.0036885195691491266   -0.019171105761943856   0.00016456775017852738
-0.002532711830254591   -0.009513594655537031   0.00011839982856322869
0.002668584527188568   -0.009687031084223786   0.00012449310675192375
-0.0016883317761817803   -0.019196040534996246   -4.918767129092985e-05
0.0036885195691491266   -0.019171105761943856   0.00016456775017852738
0.0024338264016972393   -0.009564342925649703   0.0002595831188405058
-0.0017639994616346379   -0.019100412963268584   -9.934497695611406e-06
0.003555504952916288   -0.019056509252904606   0.00023470407973797408
0.0024338264016972393   -0.009564342925649703   0.0002595831188405058
-0.002532711830254591   -0.009513594655537031   0.00011839982856322869
-0.0017639994616346379   -0.019100412963268584   -9.934497695611406e-06
-0.002631742012547272   -0.009427673868796805   0.0001847092133978581
0.003555504952916288   -0.019056509252904606   0.00023470407973797408
-0.0018525301498118277   -0.01899950398696697   3.631247740772641e-05
-0.002631742012547272   -0.009427673868796805   0.0001847092133978581
-0.0017639994616346379   -0.019100412963268584   -9.934497695611406e-06
0.003555504952916288   -0.019056509252904606   0.00023470407973797408
-0.002631742012547272   -0.009427673868796805   0.0001847092133978581
0.0022963839069296754   -0.009464084899759626   0.0003603625372575183
0.0024338264016972393   -0.009564342925649703   0.0002595831188405058
0.003555504952916288   -0.019056509252904606   0.00023470407973797408
-0.002631742012547272   -0.009427673868796805   0.0001847092133978581
0.0024338264016972393   -0.009564342925649703   0.0002595831188405058
-0.0017639994616346379   -0.019100412963268584   -9.934497695611406e-06
0.003555504952916288   -0.019056509252904606   0.00023470407973797408
0.0022963839069296754   -0.009464084899759626   0.0003603625372575183
-0.0018525301498118277   -0.01899950398696697   3.631247740772641e-05
0.003392971615708677   -0.018915718071467833   0.00031189098513573703
0.0022963839069296754   -0.009464084899759626   0.0003603625372575183
-0.002631742012547272   -0.009427673868796805   0.0001847092133978581
-0.0018525301498118277   -0.01899950398696697   3.631247740772641e-05
-0.0027150266476866384   -0.009335326381203431   0.0002430769689310963
0.003392971615708677   -0.018915718071467833   0.00031189098513573703
-0.0019441196150977392   -0.018892376095708437   8.94619310618405e-05
-0.0027150266476866384   -0.009335326381203431   0.0002430769689310963
-0.0018525301498118277   -0.01899950398696697   3.631247740772641e-05
0.003392971615708677   -0.018915718071467833   0.00031189098513573703
-0.0027150266476866384   -0.009335326381203431   0.0002430769689310963
0.002120202773924898   -0.009310763629158347   0.0004757745286880738
0.0022963839069296754   -0.009464084899759626   0.0003603625372575183
0.003392971615708677   -0.018915718071467833   0.00031189098513573703
-0.0027150266476866384   -0.009335326381203431   0.0002430769689310963
0.0022963839069296754   -0.009464084899759626   0.0003603625372575183
-0.0018525301498118277   -0.01899950398696697   3.631247740772641e-05
-0.0016883317761817803   -0.019196040534996246   -4.918767129092985e-05
-0.0024574064934045465   -0.009561725688124668   6.380631320367104e-05
-0.006863465642409571   -0.01917261295045628   -0.00020814223760054853
-0.0017639994616346379   -0.019100412963268584   -9.934497695611406e-06
-0.0024574064934045465   -0.009561725688124668   6.380631320367104e-05
-0.0073354087346221885   -0.009703267060587294   -6.252194427768527e-05
-0.006863465642409571   -0.01917261295045628   -0.00020814223760054853
-0.00740480175298669   -0.009629521953398515   -2.382933040307879e-05
-0.0017639994616346379   -0.019100412963268584   -9.934497695611406e-06
-0.006931891334386645   -0.019089193640279896   -0.0001715857973433414
-0.00740480175298669   -0.009629521953398515   -2.382933040307879e-05
-0.006863465642409571   -0.01917261295045628   -0.00020814223760054853
-0.0017639994616346379   -0.019100412963268584   -9.934497695611406e-06
-0.00740480175298669   -0.009629521953398515   -2.382933040307879e-05
-0.002532711830254591   -0.009513594655537031   0.00011839982856322869
-0.0024574064934045465   -0.009561725688124668   6.380631320367104e-05
-0.0017639994616346379   -0.019100412963268584   -9.934497695611406e-06
-0.00740480175298669   -0.009629521953398515   -2.382933040307879e-05
-0.0024574064934045465   -0.009561725688124668   6.380631320367104e-05
-0.006863465642409571   -0.01917261295045628   -0.00020814223760054853
-0.0017639994616346379   -0.019100412963268584   -9.934497695611406e-06
-0.002532711830254591   -0.009513594655537031   0.00011839982856322869
-0.006931891334386645   -0.019089193640279896   -0.0001715857973433414
-0.0018525301498118277   -0.01899950398696697   3.631247740772641e-05
-0.002532711830254591   -0.009513594655537031   0.00011839982856322869
-0.00740480175298669   -0.009629521953398515   -2.382933040307879e-05
-0.006931891334386645   -0.019089193640279896   -0.0001715857973433414
-0.007477466046243996   -0.00954622016644441   1.7134126924057536e-05
-0.0018525301498118277   -0.01899950398696697   3.631247740772641e-05
-0.007002681099832645   -0.01900242870615101   -0.00013139616804154873
-0.007477466046243996   -0.00954622016644441   1.7134126924057536e-05
-0.006931891334386645   -0.019089193640279896   -0.0001715857973433414
-0.0018525301498118277   -0.01899950398696697   3.631247740772641e-05
-0.007477466046243996   -0.00954622016644441   1.7134126924057536e-05
-0.002631742012547272   -0.009427673868796805   0.0001847092133978581
-0.002532711830254591   -0.009513594655537031   0.00011839982856322869
-0.0018525301498118277   -0.01899950398696697   3.631247740772641e-05
-0.007477466046243996   -0.00954622016644441   1.7134126924057536e-05
-0.002532711830254591   -0.009513594655537031   0.00011839982856322869
-0.006931891334386645   -0.019089193640279896   -0.0001715857973433414
-0.0018525301498118277   -0.01899950398696697   3.631247740772641e-05
-0.002631742012547272   -0.009427673868796805   0.0001847092133978581
-0.007002681099832645   -0.01900242870615101   -0.00013139616804154873
-0.0019441196150977392   -0.018892376095708437   8.94619310618405e-05
-0.002631742012547272   -0.009427673868796805   0.0001847092133978581
-0.007477466046243996   -0.00954622016644441   1.7134126924057536e-05
-0.007002681099832645   -0.01900242870615101   -0.00013139616804154873
-0.007546556520724783   -0.009454921018953772   6.231901598392387e-05
-0.0019441196150977392   -0.018892376095708437   8.94619310618405e-05
-0.00707638572721019   -0.018913879702860417   -8.684871153878653e-05
-0.007546556520724783   -0.009454921018953772   6.231901598392387e-05
-0.007002681099832645   -0.01900242870615101   -0.00013139616804154873
-0.0019441196150977392   -0.018892376095708437   8.94619310618405e-05
-0.007546556520724783   -0.009454921018953772   6.231901598392387e-05
-0.0027150266476866384   -0.009335326381203431   0.0002430769689310963
-0.002631742012547272   -0.009427673868796805   0.0001847092133978581
-0.0019441196150977392   -0.018892376095708437   8.94619310618405e-05
-0.007546556520724783   -0.009454921018953772   6.231901598392387e-05
-0.002631742012547272   -0.009427673868796805   0.0001847092133978581
-0.007002681099832645   -0.01900242870615101   -0.00013139616804154873
-0.006863465642409571   -0.01917261295045628   -0.00020814223760054853
-0.0073354087346221885   -0.009703267060587294   -6.252194427768527e-05
-0.011985336972546395   -0.019166090786868893   -0.00035178471487603267
-0.006931891334386645   -0.019089193640279896   -0.0001715857973433414
-0.0073354087346221885   -0.009703267060587294   -6.252194427768527e-05
-0.012332721171105048   -0.00981384178409748   -0.00020262596411539606
-0.011985336972546395   -0.019166090786868893   -0.00035178471487603267
-0.012395069309373178   -0.009738119374756542   -0.00017262662311467934
-0.006931891334386645   -0.019089193640279896   -0.0001715857973433414
-0.012050765436383023   -0.019092976248168768   -0.000316881301366623
-0.012395069309373178   -0.009738119374756542   -0.00017262662311467934
-0.011985336972546395   -0.019166090786868893   -0.00035178471487603267
-0.006931891334386645   -0.019089193640279896   -0.0001715857973433414
-0.012395069309373178   -0.009738119374756542   -0.00017262662311467934
-0.00740480175298669   -0.009629521953398515   -2.382933040307879e-05
-0.0073354087346221885   -0.009703267060587294   -6.252194427768527e-05
-0.006931891334386645   -0.019089193640279896   -0.0001715857973433414
-0.012395069309373178   -0.009738119374756542   -0.00017262662311467934
-0.0073354087346221885   -0.009703267060587294   -6.252194427768527e-05
-0.011985336972546395   -0.019166090786868893   -0.00035178471487603267
-0.006931891334386645   -0.019089193640279896   -0.0001715857973433414
-0.00740480175298669   -0.009629521953398515   -2.382933040307879e-05
-0.012050765436383023   -0.019092976248168768   -0.000316881301366623
-0.007002681099832645   -0.01900242870615101   -0.00013139616804154873
-0.00740480175298669   -0.009629521953398515   -2.382933040307879e-05
-0.012395069309373178   -0.009738119374756542   -0.00017262662311467934
-0.012050765436383023   -0.019092976248168768   -0.000316881301366623
-0.012454763329742475   -0.00965812769143355   -0.000142714973900744
-0.007002681099832645   -0.01900242870615101   -0.00013139616804154873
-0.01211309378495789   -0.019018550380854676   -0.0002787998868134395
-0.012454763329742475   -0.00965812769143355   -0.000142714973900744
-0.012050765436383023   -0.019092976248168768   -0.000316881301366623
-0.007002681099832645   -0.01900242870615101   -0.00013139616804154873
-0.012454763329742475   -0.00965812769143355   -0.000142714973900744
-0.007477466046243996   -0.00954622016644441   1.7134126924057536e-05
-0.00740480175298669   -0.009629521953398515   -2.382933040307879e-05
-0.007002681099832645   -0.01900242870615101   -0.00013139616804154873
-0.012454763329742475   -0.00965812769143355   -0.000142714973900744
-0.00740480175298669   -0.009629521953398515   -2.382933040307879e-05
-0.012050765436383023   -0.019092976248168768   -0.000316881301366623
-0.007002681099832645   -0.01900242870615101   -0.00013139616804154873
-0.007477466046243996   -0.00954622016644441   1.7134126924057536e-05
-0.01211309378495789   -0.019018550380854676   -0.0002787998868134395
-0.00707638572721019   -0.018913879702860417   -8.684871153878653e-05
-0.007477466046243996   -0.00954622016644441   1.7134126924057536e-05
-0.012454763329742475   -0.00965812769143355   -0.000142714973900744
-0.01211309378495789   -0.019018550380854676   -0.0002787998868134395
-0.01250979904813695   -0.009571508237437   -0.00011013980045367175
-0.00707638572721019   -0.018913879702860417   -8.684871153878653e-05
-0.012174795860324697   -0.018942386937522065   -0.0002377196581404097
-0.01250979904813695   -0.009571508237437   -0.00011013980045367175
-0.01211309378495789   -0.019018550380854676   -0.0002787998868134395
-0.00707638572721019   -0.018913879702860417   -8.684871153878653e-05
-0.01250979904813695   -0.009571508237437   -0.00011013980045367175
-0.007546556520724783   -0.009454921018953772   6.231901598392387e-05
-0.007477466046243996   -0.00954622016644441   1.7134126924057536e-05
-0.00707638572721019   -0.018913879702860417   -8.684871153878653e-05
-0.01250979904813695   -0.009571508237437   -0.00011013980045367175
-0.007477466046243996   -0.00954622016644441   1.7134126924057536e-05
-0.01211309378495789   -0.019018550380854676   -0.0002787998868134395
-0.011985336972546395   -0.019166090786868893   -0.00035178471487603267
-0.012332721171105048   -0.00981384178409748   -0.00020262596411539606
-0.017215738815647055   -0.019136293558807266   -0.00047236827970366136
-0.012050765436383023   -0.019092976248168768   -0.000316881301366623
-0.012332721171105048   -0.00981384178409748   -0.00020262596411539606
-0.017505577708341147   -0.009859225101975856   -0.0003319472537285036
-0.017215738815647055   -0.019136293558807266   -0.00047236827970366136
-0.01756175319992842   -0.009791234794705794   -0.0003100664284038052
-0.012050765436383023   -0.019092976248168768   -0.000316881301366623
-0.017278112704345355   -0.019076757901959628   -0.00043929774447544874
-0.01756175319992842   -0.009791234794705794   -0.0003100664284038052
-0.017215738815647055   -0.019136293558807266   -0.00047236827970366136
-0.012050765436383023   -0.019092976248168768   -0.000316881301366623
-0.01756175319992842   -0.009791234794705794   -0.0003100664284038052
-0.012395069309373178   -0.009738119374756542   -0.00017262662311467934
-0.012332721171105048   -0.00981384178409748   -0.00020262596411539606
-0.012050765436383023   -0.019092976248168768   -0.000316881301366623
-0.01756175319992842   -0.009791234794705794   -0.0003100664284038052
-0.012332721171105048   -0.00981384178409748   -0.00020262596411539606
-0.017215738815647055   -0.019136293558807266   -0.00047236827970366136
-0.012050765436383023   -0.019092976248168768   -0.000316881301366623
-0.012395069309373178   -0.009738119374756542   -0.00017262662311467934
-0.017278112704345355   -0.019076757901959628   -0.00043929774447544874
-0.01211309378495789   -0.019018550380854676   -0.0002787998868134395
-0.012395069309373178   -0.009738119374756542   -0.00017262662311467934
-0.01756175319992842   -0.009791234794705794   -0.0003100664284038052
-0.017278112704345355   -0.019076757901959628   -0.00043929774447544874
-0.017611812613495075   -0.009717162388882311   -0.0002888007933100436
-0.01211309378495789   -0.019018550380854676   -0.0002787998868134395
-0.017330948174522402   -0.019013960662483727   -0.00040396746091281977
-0.017611812613495075   -0.009717162388882311   -0.0002888007933100436
-0.017278112704345355   -0.019076757901959628   -0.00043929774447544874
-0.01211309378495789   -0.019018550380854676   -0.0002787998868134395
-0.017611812613495075   -0.009717162388882311   -0.0002888007933100436
-0.012454763329742475   -0.00965812769143355   -0.000142714973900744
-0.012395069309373178   -0.009738119374756542   -0.00017262662311467934
-0.01211309378495789   -0.019018550380854676   -0.0002787998868134395
-0.017611812613495075   -0.009717162388882311   -0.0002888007933100436
-0.012395069309373178   -0.009738119374756542   -0.00017262662311467934
-0.017278112704345355   -0.019076757901959628   -0.00043929774447544874
-0.01211309378495789   -0.019018550380854676   -0.0002787998868134395
-0.012454763329742475   -0.00965812769143355   -0.000142714973900744
-0.017330948174522402   -0.019013960662483727   -0.00040396746091281977
-0.012174795860324697   -0.018942386937522065   -0.0002377196581404097
-0.012454763329742475   -0.00965812769143355   -0.000142714973900744
-0.017611812613495075   -0.009717162388882311   -0.0002888007933100436
-0.017330948174522402   -0.019013960662483727   -0.00040396746091281977
-0.01765714638765259   -0.009638303622800543   -0.0002668936825562233
-0.012174795860324697   -0.018942386937522065   -0.0002377196581404097
-0.01738088465240096   -0.018949520466461894   -0.0003653960225280703
-0.01765714638765259   -0.009638303622800543   -0.0002668936825562233
-0.017330948174522402   -0.019013960662483727   -0.00040396746091281977
-0.012174795860324697   -0.018942386937522065   -0.0002377196581404097
-0.01765714638765259   -0.009638303622800543   -0.0002668936825562233
-0.01250979904813695   -0.009571508237437   -0.00011013980045367175
-0.012454763329742475   -0.00965812769143355   -0.000142714973900744
-0.012174795860324697   -0.018942386937522065   -0.0002377196581404097
-0.01765714638765259   -0.009638303622800543   -0.0002668936825562233
-0.012454763329742475   -0.00965812769143355   -0.000142714973900744
-0.017330948174522402   -0.019013960662483727   -0.00040396746091281977
-0.017215738815647055   -0.019136293558807266   -0.00047236827970366136
-0.017505577708341147   -0.009859225101975856   -0.0003319472537285036
-0.022694889059530796   -0.01908716370889854   -0.0005614648729135793
-0.017278112704345355   -0.019076757901959628   -0.00043929774447544874
-0.017505577708341147   -0.009859225101975856   -0.0003319472537285036
-0.02286283751518531   -0.009864286950357537   -0.00043924295125064743
-0.022694889059530796   -0.01908716370889854   -0.0005614648729135793
-0.022911090277077207   -0.009798299227827682   -0.0004298267471240949
-0.017278112704345355   -0.019076757901959628   -0.00043929774447544874
-0.022733581267955147   -0.019037240158436147   -0.0005366155971398259
-0.022911090277077207   -0.009798299227827682   -0.0004298267471240949
-0.022694889059530796   -0.01908716370889854   -0.0005614648729135793
-0.017278112704345355   -0.019076757901959628   -0.00043929774447544874
-0.022911090277077207   -0.009798299227827682   -0.0004298267471240949
-0.01756175319992842   -0.009791234794705794   -0.0003100664284038052
-0.017505577708341147   -0.009859225101975856   -0.0003319472537285036
-0.017278112704345355   -0.019076757901959628   -0.00043929774447544874
-0.022911090277077207   -0.009798299227827682   -0.0004298267471240949
-0.017505577708341147   -0.009859225101975856   -0.0003319472537285036
-0.022694889059530796   -0.01908716370889854   -0.0005614648729135793
-0.017278112704345355   -0.019076757901959628   -0.00043929774447544874
-0.01756175319992842   -0.009791234794705794   -0.0003100664284038052
-0.022733581267955147   -0.019037240158436147   -0.0005366155971398259
-0.017330948174522402   -0.019013960662483727   -0.00040396746091281977
-0.01756175319992842   -0.009791234794705794   -0.0003100664284038052
-0.022911090277077207   -0.009798299227827682   -0.0004298267471240949
-0.022733581267955147   -0.019037240158436147   -0.0005366155971398259
-0.022954320542342015   -0.009726935483453332   -0.0004188098517266089
-0.017330948174522402   -0.019013960662483727   -0.00040396746091281977
-0.022768960884131228   -0.01898072745054507   -0.0005062288079378278
-0.022954320542342015   -0.009726935483453332   -0.0004188098517266089
-0.022733581267955147   -0.019037240158436147   -0.0005366155971398259
-0.017330948174522402   -0.019013960662483727   -0.00040396746091281977
-0.022954320542342015   -0.009726935483453332   -0.0004188098517266089
-0.017611812613495075   -0.009717162388882311   -0.0002888007933100436
-0.01756175319992842   -0.009791234794705794   -0.0003100664284038052
-0.017330948174522402   -0.019013960662483727   -0.00040396746091281977
-0.022954320542342015   -0.009726935483453332   -0.0004188098517266089
-0.01756175319992842   -0.009791234794705794   -0.0003100664284038052
-0.022733581267955147   -0.019037240158436147   -0.0005366155971398259
-0.017330948174522402   -0.019013960662483727   -0.00040396746091281977
-0.017611812613495075   -0.009717162388882311   -0.0002888007933100436
-0.022768960884131228   -0.01898072745054507   -0.0005062288079378278
-0.01738088465240096   -0.018949520466461894   -0.0003653960225280703
-0.017611812613495075   -0.009717162388882311   -0.0002888007933100436
-0.022954320542342015   -0.009726935483453332   -0.0004188098517266089
-0.022768960884131228   -0.01898072745054507   -0.0005062288079378278
-0.022990656740372987   -0.009651371486436468   -0.00040854948964680267
-0.01738088465240096   -0.018949520466461894   -0.0003653960225280703
-0.02278602488103742   -0.01892893409246932   -0.0004716854323577046
-0.022990656740372987   -0.009651371486436468   -0.00040854948964680267
-0.022768960884131228   -0.01898072745054507   -0.0005062288079378278
-0.01738088465240096   -0.018949520466461894   -0.0003653960225280703
-0.022990656740372987   -0.009651371486436468   -0.00040854948964680267
-0.01765714638765259   -0.009638303622800543   -0.0002668936825562233
-0.017611812613495075   -0.009717162388882311   -0.0002888007933100436
-0.01738088465240096   -0.018949520466461894   -0.0003653960225280703
-0.022990656740372987   -0.009651371486436468   -0.00040854948964680267
-0.017611812613495075   -0.009717162388882311   -0.0002888007933100436
-0.022768960884131228   -0.01898072745054507   -0.0005062288079378278
0.002668584527188568   -0.009687031084223786   0.00012449310675192375
0.0   0.0   0.0
-0.0024574064934045465   -0.009561725688124668   6.380631320367104e-05
0.0024338264016972393   -0.009564342925649703   0.0002595831188405058
0.0   0.0   0.0
-0.0030847448673634393   -0.0007825148361087238   -2.5900246508420687e-05
-0.0024574064934045465   -0.009561725688124668   6.380631320367104e-05
-0.0032690587434312745   -0.0006082253915581829   8.039993742903629e-05
0.0024338264016972393   -0.009564342925649703   0.0002595831188405058
-0.002532711830254591   -0.009513594655537031   0.00011839982856322869
-0.0032690587434312745   -0.0006082253915581829   8.039993742903629e-05
-0.0024574064934045465   -0.009561725688124668   6.380631320367104e-05
0.0024338264016972393   -0.009564342925649703   0.0002595831188405058
-0.0032690587434312745   -0.0006082253915581829   8.039993742903629e-05
0.0   0.0   0.0
0.0   0.0   0.0
0.0024338264016972393   -0.009564342925649703   0.0002595831188405058
-0.0032690587434312745   -0.0006082253915581829   8.039993742903629e-05
0.0   0.0   0.0
-0.0024574064934045465   -0.009561725688124668   6.380631320367104e-05
0.0024338264016972393   -0.009564342925649703   0.0002595831188405058
0.0   0.0   0.0
-0.002532711830254591   -0.009513594655537031   0.00011839982856322869
0.0022963839069296754   -0.009464084899759626   0.0003603625372575183
0.0   0.0   0.0
-0.0032690587434312745   -0.0006082253915581829   8.039993742903629e-05
-0.002532711830254591   -0.009513594655537031   0.00011839982856322869
-0.0033847451099798622   -0.0005242452621917529   0.00014177564964578562
0.0022963839069296754   -0.009464084899759626   0.0003603625372575183
-0.002631742012547272   -0.009427673868796805   0.0001847092133978581
-0.0033847451099798622   -0.0005242452621917529   0.00014177564964578562
-0.002532711830254591   -0.009513594655537031   0.00011839982856322869
0.0022963839069296754   -0.009464084899759626   0.0003603625372575183
-0.0033847451099798622   -0.0005242452621917529   0.00014177564964578562
0.0   0.0   0.0
0.0   0.0   0.0
0.0022963839069296754   -0.009464084899759626   0.0003603625372575183
-0.0033847451099798622   -0.0005242452621917529   0.00014177564964578562
0.0   0.0   0.0
-0.002532711830254591   -0.009513594655537031   0.00011839982856322869
0.0022963839069296754   -0.009464084899759626   0.0003603625372575183
0.0   0.0   0.0
-0.002631742012547272   -0.009427673868796805   0.0001847092133978581
0.002120202773924898   -0.009310763629158347   0.0004757745286880738
0.0   0.0   0.0
-0.0033847451099798622   -0.0005242452621917529   0.00014177564964578562
-0.002631742012547272   -0.009427673868796805   0.0001847092133978581
-0.003539869872497573   -0.00041271881272938343   0.0002122273350091634
0.002120202773924898   -0.009310763629158347   0.0004757745286880738
-0.0027150266476866384   -0.009335326381203431   0.0002430769689310963
-0.003539869872497573   -0.00041271881272938343   0.0002122273350091634
-0.002631742012547272   -0.009427673868796805   0.0001847092133978581
0.002120202773924898   -0.009310763629158347   0.0004757745286880738
-0.003539869872497573   -0.00041271881272938343   0.0002122273350091634
0.0   0.0   0.0
0.0   0.0   0.0
0.002120202773924898   -0.009310763629158347   0.0004757745286880738
-0.003539869872497573   -0.00041271881272938343   0.0002122273350091634
0.0   0.0   0.0
-0.002631742012547272   -0.009427673868796805   0.0001847092133978581
-0.0024574064934045465   -0.009561725688124668   6.380631320367104e-05
-0.0030847448673634393   -0.0007825148361087238   -2.5900246508420687e-05
-0.0073354087346221885   -0.009703267060587294   -6.252194427768527e-05
-0.002532711830254591   -0.009513594655537031   0.00011839982856322869
-0.0030847448673634393   -0.0007825148361087238   -2.5900246508420687e-05
-0.0075539315355721585   -0.0010251226628647603   -2.4316775106158567e-05
-0.0073354087346221885   -0.009703267060587294   -6.252194427768527e-05
-0.007648921119350339   -0.0009298692152950274   2.9368860494157753e-06
-0.002532711830254591   -0.009513594655537031   0.00011839982856322869
-0.00740480175298669   -0.009629521953398515   -2.382933040307879e-05
-0.007648921119350339   -0.0009298692152950274   2.9368860494157753e-06
-0.0073354087346221885   -0.009703267060587294   -6.252194427768527e-05
-0.002532711830254591   -0.009513594655537031   0.00011839982856322869
-0.007648921119350339   -0.0009298692152950274   2.9368860494157753e-06
-0.0032690587434312745   -0.0006082253915581829   8.039993742903629e-05
-0.0030847448673634393   -0.0007825148361087238   -2.5900246508420687e-05
-0.002532711830254591   -0.009513594655537031   0.00011839982856322869
-0.007648921119350339   -0.0009298692152950274   2.9368860494157753e-06
-0.0030847448673634393   -0.0007825148361087238   -2.5900246508420687e-05
-0.0073354087346221885   -0.009703267060587294   -6.252194427768527e-05
-0.002532711830254591   -0.009513594655537031   0.00011839982856322869
-0.0032690587434312745   -0.0006082253915581829   8.039993742903629e-05
-0.00740480175298669   -0.009629521953398515   -2.382933040307879e-05
-0.002631742012547272   -0.009427673868796805   0.0001847092133978581
-0.0032690587434312745   -0.0006082253915581829   8.039993742903629e-05
-0.007648921119350339   -0.0009298692152950274   2.9368860494157753e-06
-0.00740480175298669   -0.009629521953398515   -2.382933040307879e-05
-0.007743515830897446   -0.000818418785700822   5.175204001560125e-05
-0.002631742012547272   -0.009427673868796805   0.0001847092133978581
-0.007477466046243996   -0.00954622016644441   1.7134126924057536e-05
-0.007743515830897446   -0.000818418785700822   5.175204001560125e-05
-0.00740480175298669   -0.009629521953398515   -2.382933040307879e-05
-0.002631742012547272   -0.009427673868796805   0.0001847092133978581
-0.007743515830897446   -0.000818418785700822   5.175204001560125e-05
-0.0033847451099798622   -0.0005242452621917529   0.00014177564964578562
-0.0032690587434312745   -0.0006082253915581829   8.039993742903629e-05
-0.002631742012547272   -0.009427673868796805   0.0001847092133978581
-0.007743515830897446   -0.000818418785700822   5.175204001560125e-05
-0.0032690587434312745   -0.0006082253915581829   8.039993742903629e-05
-0.00740480175298669   -0.009629521953398515   -2.382933040307879e-05
-0.002631742012547272   -0.009427673868796805   0.0001847092133978581
-0.0033847451099798622   -0.0005242452621917529   0.00014177564964578562
-0.007477466046243996   -0.00954622016644441   1.7134126924057536e-05
-0.0027150266476866384   -0.009335326381203431   0.0002430769689310963
-0.0033847451099798622   -0.0005242452621917529   0.00014177564964578562
-0.007743515830897446   -0.000818418785700822   5.175204001560125e-05
-0.007477466046243996   -0.00954622016644441   1.7134126924057536e-05
-0.007848281051123866   -0.0006895651857331598   9.8494367949465e-05
-0.0027150266476866384   -0.009335326381203431   0.0002430769689310963
-0.007546556520724783   -0.009454921018953772   6.231901598392387e-05
-0.007848281051123866   -0.0006895651857331598   9.8494367949465e-05
-0.007477466046243996   -0.00954622016644441   1.7134126924057536e-05
-0.0027150266476866384   -0.009335326381203431   0.0002430769689310963
-0.007848281051123866   -0.0006895651857331598   9.8494367949465e-05
-0.003539869872497573   -0.00041271881272938343   0.0002122273350091634
-0.0033847451099798622   -0.0005242452621917529   0.00014177564964578562
-0.0027150266476866384   -0.009335326381203431   0.0002430769689310963
-0.007848281051123866   -0.0006895651857331598   9.8494367949465e-05
-0.0033847451099798622   -0.0005242452621917529   0.00014177564964578562
-0.007477466046243996   -0.00954622016644441   1.7134126924057536e-05
-0.0073354087346221885   -0.009703267060587294   -6.252194427768527e-05
-0.0075539315355721585   -0.0010251226628647603   -2.4316775106158567e-05
-0.012332721171105048   -0.00981384178409748   -0.00020262596411539606
-0.00740480175298669   -0.009629521953398515   -2.382933040307879e-05
-0.0075539315355721585   -0.0010251226628647603   -2.4316775106158567e-05
-0.012454643667775676   -0.0010929197349550004   -0.0001129782798432984
-0.012332721171105048   -0.00981384178409748   -0.00020262596411539606
-0.012512266561178688   -0.0010186072512772305   -0.00010545434098235274
-0.00740480175298669   -0.009629521953398515   -2.382933040307879e-05
-0.012395069309373178   -0.009738119374756542   -0.00017262662311467934
-0.012512266561178688   -0.0010186072512772305   -0.00010545434098235274
-0.012332721171105048   -0.00981384178409748   -0.00020262596411539606
-0.00740480175298669   -0.009629521953398515   -2.382933040307879e-05
-0.012512266561178688   -0.0010186072512772305   -0.00010545434098235274
-0.007648921119350339   -0.0009298692152950274   2.9368860494157753e-06
-0.0075539315355721585   -0.0010251226628647603   -2.4316775106158567e-05
-0.00740480175298669   -0.009629521953398515   -2.382933040307879e-05
-0.012512266561178688   -0.0010186072512772305   -0.00010545434098235274
-0.0075539315355721585   -0.0010251226628647603   -2.4316775106158567e-05
-0.012332721171105048   -0.00981384178409748   -0.00020262596411539606
-0.00740480175298669   -0.009629521953398515   -2.382933040307879e-05
-0.007648921119350339   -0.0009298692152950274   2.9368860494157753e-06
-0.012395069309373178   -0.009738119374756542   -0.00017262662311467934
-0.007477466046243996   -0.00954622016644441   1.7134126924057536e-05
-0.007648921119350339   -0.0009298692152950274   2.9368860494157753e-06
-0.012512266561178688   -0.0010186072512772305   -0.00010545434098235274
-0.012395069309373178   -0.009738119374756542   -0.00017262662311467934
-0.012572181341294513   -0.000932374021260251   -9.223561834683902e-05
-0.007477466046243996   -0.00954622016644441   1.7134126924057536e-05
-0.012454763329742475   -0.00965812769143355   -0.000142714973900744
-0.012572181341294513   -0.000932374021260251   -9.223561834683902e-05
-0.012395069309373178   -0.009738119374756542   -0.00017262662311467934
-0.007477466046243996   -0.00954622016644441   1.7134126924057536e-05
-0.012572181341294513   -0.000932374021260251   -9.223561834683902e-05
-0.007743515830897446   -0.000818418785700822   5.175204001560125e-05
-0.007648921119350339   -0.0009298692152950274   2.9368860494157753e-06
-0.007477466046243996   -0.00954622016644441   1.7134126924057536e-05
-0.012572181341294513   -0.000932374021260251   -9.223561834683902e-05
-0.007648921119350339   -0.0009298692152950274   2.9368860494157753e-06
-0.012395069309373178   -0.009738119374756542   -0.00017262662311467934
-0.007477466046243996   -0.00954622016644441   1.7134126924057536e-05
-0.007743515830897446   -0.000818418785700822   5.175204001560125e-05
-0.012454763329742475   -0.00965812769143355   -0.000142714973900744
-0.007546556520724783   -0.009454921018953772   6.231901598392387e-05
-0.007743515830897446   -0.000818418785700822   5.175204001560125e-05
-0.012572181341294513   -0.000932374021260251   -9.223561834683902e-05
-0.012454763329742475   -0.00965812769143355   -0.000142714973900744
-0.01262904402288658   -0.0008274839626826286   -7.474565389434482e-05
-0.007546556520724783   -0.009454921018953772   6.231901598392387e-05
-0.01250979904813695   -0.009571508237437   -0.00011013980045367175
-0.01262904402288658   -0.0008274839626826286   -7.474565389434482e-05
-0.012454763329742475   -0.00965812769143355   -0.000142714973900744
-0.007546556520724783   -0.009454921018953772   6.231901598392387e-05
-0.01262904402288658   -0.0008274839626826286   -7.474565389434482e-05
-0.007848281051123866   -0.0006895651857331598   9.8494367949465e-05
-0.007743515830897446   -0.000818418785700822   5.175204001560125e-05
-0.007546556520724783   -0.009454921018953772   6.231901598392387e-05
-0.01262904402288658   -0.0008274839626826286   -7.474565389434482e-05
-0.007743515830897446   -0.000818418785700822   5.175204001560125e-05
-0.012454763329742475   -0.00965812769143355   -0.000142714973900744
-0.012332721171105048   -0.00981384178409748   -0.00020262596411539606
-0.012454643667775676   -0.0010929197349550004   -0.0001129782798432984
-0.017505577708341147   -0.009859225101975856   -0.0003319472537285036
-0.012395069309373178   -0.009738119374756542   -0.00017262662311467934
-0.012454643667775676   -0.0010929197349550004   -0.0001129782798432984
-0.01759615764776299   -0.0010812727912802487   -0.00024040901265734291
-0.017505577708341147   -0.009859225101975856   -0.0003319472537285036
-0.01763507424903032   -0.0010144686976864806   -0.0002371915760507847
-0.012395069309373178   -0.009738119374756542   -0.00017262662311467934
-0.01756175319992842   -0.009791234794705794   -0.0003100664284038052
-0.01763507424903032   -0.0010144686976864806   -0.0002371915760507847
-0.017505577708341147   -0.009859225101975856   -0.0003319472537285036
-0.012395069309373178   -0.009738119374756542   -0.00017262662311467934
-0.01763507424903032   -0.0010144686976864806   -0.0002371915760507847
-0.012512266561178688   -0.0010186072512772305   -0.00010545434098235274
-0.012454643667775676   -0.0010929197349550004   -0.0001129782798432984
-0.012395069309373178   -0.009738119374756542   -0.00017262662311467934
-0.01763507424903032   -0.0010144686976864806   -0.0002371915760507847
-0.012454643667775676   -0.0010929197349550004   -0.0001129782798432984
-0.017505577708341147   -0.009859225101975856   -0.0003319472537285036
-0.012395069309373178   -0.009738119374756542   -0.00017262662311467934
-0.012512266561178688   -0.0010186072512772305   -0.00010545434098235274
-0.01756175319992842   -0.009791234794705794   -0.0003100664284038052
-0.012454763329742475   -0.00965812769143355   -0.000142714973900744
-0.012512266561178688   -0.0010186072512772305   -0.00010545434098235274
-0.01763507424903032   -0.0010144686976864806   -0.0002371915760507847
-0.01756175319992842   -0.009791234794705794   -0.0003100664284038052
-0.017675676303745926   -0.0009401291197565264   -0.00023497472994579732
-0.012454763329742475   -0.00965812769143355   -0.000142714973900744
-0.017611812613495075   -0.009717162388882311   -0.0002888007933100436
-0.017675676303745926   -0.0009401291197565264   -0.00023497472994579732
-0.01756175319992842   -0.009791234794705794   -0.0003100664284038052
-0.012454763329742475   -0.00965812769143355   -0.000142714973900744
-0.017675676303745926   -0.0009401291197565264   -0.00023497472994579732
-0.012572181341294513   -0.000932374021260251   -9.223561834683902e-05
-0.012512266561178688   -0.0010186072512772305   -0.00010545434098235274
-0.012454763329742475   -0.00965812769143355   -0.000142714973900744
-0.017675676303745926   -0.0009401291197565264   -0.00023497472994579732
-0.012512266561178688   -0.0010186072512772305   -0.00010545434098235274
-0.01756175319992842   -0.009791234794705794   -0.0003100664284038052
-0.012454763329742475   -0.00965812769143355   -0.000142714973900744
-0.012572181341294513   -0.000932374021260251   -9.223561834683902e-05
-0.017611812613495075   -0.009717162388882311   -0.0002888007933100436
-0.01250979904813695   -0.009571508237437   -0.00011013980045367175
-0.012572181341294513   -0.000932374021260251   -9.223561834683902e-05
-0.017675676303745926   -0.0009401291197565264   -0.00023497472994579732
-0.017611812613495075   -0.009717162388882311   -0.0002888007933100436
-0.017706505501484407   -0.0008596557536495187   -0.00023393331701559699
-0.01250979904813695   -0.009571508237437   -0.00011013980045367175
-0.01765714638765259   -0.009638303622800543   -0.0002668936825562233
-0.017706505501484407   -0.0008596557536495187   -0.00023393331701559699
-0.017611812613495075   -0.009717162388882311   -0.0002888007933100436
-0.01250979904813695   -0.009571508237437   -0.00011013980045367175
-0.017706505501484407   -0.0008596557536495187   -0.00023393331701559699
-0.01262904402288658   -0.0008274839626826286   -7.474565389434482e-05
-0.012572181341294513   -0.000932374021260251   -9.223561834683902e-05
-0.01250979904813695   -0.009571508237437   -0.00011013980045367175
-0.017706505501484407   -0.0008596557536495187   -0.00023393331701559699
-0.012572181341294513   -0.000932374021260251   -9.223561834683902e-05
-0.017611812613495075   -0.009717162388882311   -0.0002888007933100436
-0.017505577708341147   -0.009859225101975856   -0.0003319472537285036
-0.01759615764776299   -0.0010812727912802487   -0.00024040901265734291
-0.02286283751518531   -0.009864286950357537   -0.00043924295125064743
-0.01756175319992842   -0.009791234794705794   -0.0003100664284038052
-0.01759615764776299   -0.0010812727912802487   -0.00024040901265734291
-0.02287972907417792   -0.001073501137688042   -0.000365850283631291
-0.02286283751518531   -0.009864286950357537   -0.00043924295125064743
-0.022911035597148875   -0.0010010275462310908   -0.00036579733833650677
-0.01756175319992842   -0.009791234794705794   -0.0003100664284038052
-0.022911090277077207   -0.009798299227827682   -0.0004298267471240949
-0.022911035597148875   -0.0010010275462310908   -0.00036579733833650677
-0.02286283751518531   -0.009864286950357537   -0.00043924295125064743
-0.01756175319992842   -0.009791234794705794   -0.0003100664284038052
-0.022911035597148875   -0.0010010275462310908   -0.00036579733833650677
-0.01763507424903032   -0.0010144686976864806   -0.0002371915760507847
-0.01759615764776299   -0.0010812727912802487   -0.00024040901265734291
-0.01756175319992842   -0.009791234794705794   -0.0003100664284038052
-0.022911035597148875   -0.0010010275462310908   -0.00036579733833650677
-0.01759615764776299   -0.0010812727912802487   -0.00024040901265734291
-0.02286283751518531   -0.009864286950357537   -0.00043924295125064743
-0.01756175319992842   -0.009791234794705794   -0.0003100664284038052
-0.01763507424903032   -0.0010144686976864806   -0.0002371915760507847
-0.022911090277077207   -0.009798299227827682   -0.0004298267471240949
-0.017611812613495075   -0.009717162388882311   -0.0002888007933100436
-0.01763507424903032   -0.0010144686976864806   -0.0002371915760507847
-0.022911035597148875   -0.0010010275462310908   -0.00036579733833650677
-0.022911090277077207   -0.009798299227827682   -0.0004298267471240949
-0.02294540294827984   -0.0009286367138958253   -0.0003713988746763496
-0.017611812613495075   -0.009717162388882311   -0.0002888007933100436
-0.022954320542342015   -0.009726935483453332   -0.0004188098517266089
-0.02294540294827984   -0.0009286367138958253   -0.0003713988746763496
-0.022911090277077207   -0.009798299227827682   -0.0004298267471240949
-0.017611812613495075   -0.009717162388882311   -0.0002888007933100436
-0.02294540294827984   -0.0009286367138958253   -0.0003713988746763496
-0.017675676303745926   -0.0009401291197565264   -0.00023497472994579732
-0.01763507424903032   -0.0010144686976864806   -0.0002371915760507847
-0.017611812613495075   -0.009717162388882311   -0.0002888007933100436
-0.02294540294827984   -0.0009286367138958253   -0.0003713988746763496
-0.01763507424903032   -0.0010144686976864806   -0.0002371915760507847
-0.022911090277077207   -0.009798299227827682   -0.0004298267471240949
-0.017611812613495075   -0.009717162388882311   -0.0002888007933100436
-0.017675676303745926   -0.0009401291197565264   -0.00023497472994579732
-0.022954320542342015   -0.009726935483453332   -0.0004188098517266089
-0.01765714638765259   -0.009638303622800543   -0.0002668936825562233
-0.017675676303745926   -0.0009401291197565264   -0.00023497472994579732
-0.02294540294827984   -0.0009286367138958253   -0.0003713988746763496
-0.022954320542342015   -0.009726935483453332   -0.0004188098517266089
-0.022970719512611797   -0.0008498313758036776   -0.0003773573043665495
-0.01765714638765259   -0.009638303622800543   -0.0002668936825562233
-0.022990656740372987   -0.009651371486436468   -0.00040854948964680267
-0.022970719512611797   -0.0008498313758036776   -0.0003773573043665495
-0.022954320542342015   -0.009726935483453332   -0.0004188098517266089
-0.01765714638765259   -0.009638303622800543   -0.0002668936825562233
-0.022970719512611797   -0.0008498313758036776   -0.0003773573043665495
-0.017706505501484407   -0.0008596557536495187   -0.00023393331701559699
-0.017675676303745926   -0.0009401291197565264   -0.00023497472994579732
-0.01765714638765259   -0.009638303622800543   -0.0002668936825562233
-0.022970719512611797   -0.0008498313758036776   -0.0003773573043665495
-0.017675676303745926   -0.0009401291197565264   -0.00023497472994579732
-0.022954320542342015   -0.009726935483453332   -0.0004188098517266089
              </DataArray>   
          </PointData>  
       </Piece>  
   </UnstructuredGrid> 
</VTKFile> 
