<?xml version="1.0"?> 
<VTKFile type="UnstructuredGrid"> 
   <UnstructuredGrid> 
      <Piece NumberOfPoints="6000"  NumberOfCells="1500">  
          <Points>  
             <DataArray type="Float64" NumberOfComponents="3" format="ascii">   
-500.0   0.0   0.0
-450.0   0.0   0.0
-500.0   30.0   0.0
-500.0   0.0   16.666666666666668
-450.0   0.0   0.0
-450.0   30.0   0.0
-500.0   30.0   0.0
-450.0   30.0   16.666666666666668
-500.0   0.0   16.666666666666668
-500.0   30.0   16.666666666666668
-450.0   30.0   16.666666666666668
-500.0   30.0   0.0
-500.0   0.0   16.666666666666668
-450.0   30.0   16.666666666666668
-450.0   0.0   16.666666666666668
-450.0   0.0   0.0
-500.0   0.0   16.666666666666668
-450.0   30.0   16.666666666666668
-450.0   0.0   0.0
-500.0   30.0   0.0
-500.0   0.0   16.666666666666668
-450.0   0.0   16.666666666666668
-500.0   30.0   16.666666666666668
-500.0   0.0   33.333333333333336
-450.0   0.0   16.666666666666668
-450.0   30.0   16.666666666666668
-500.0   30.0   16.666666666666668
-450.0   30.0   33.333333333333336
-500.0   0.0   33.333333333333336
-500.0   30.0   33.333333333333336
-450.0   30.0   33.333333333333336
-500.0   30.0   16.666666666666668
-500.0   0.0   33.333333333333336
-450.0   30.0   33.333333333333336
-450.0   0.0   33.333333333333336
-450.0   0.0   16.666666666666668
-500.0   0.0   33.333333333333336
-450.0   30.0   33.333333333333336
-450.0   0.0   16.666666666666668
-500.0   30.0   16.666666666666668
-500.0   0.0   33.333333333333336
-450.0   0.0   33.333333333333336
-500.0   30.0   33.333333333333336
-500.0   0.0   50.0
-450.0   0.0   33.333333333333336
-450.0   30.0   33.333333333333336
-500.0   30.0   33.333333333333336
-450.0   30.0   50.0
-500.0   0.0   50.0
-500.0   30.0   50.0
-450.0   30.0   50.0
-500.0   30.0   33.333333333333336
-500.0   0.0   50.0
-450.0   30.0   50.0
-450.0   0.0   50.0
-450.0   0.0   33.333333333333336
-500.0   0.0   50.0
-450.0   30.0   50.0
-450.0   0.0   33.333333333333336
-500.0   30.0   33.333333333333336
-500.0   30.0   0.0
-450.0   30.0   0.0
-500.0   60.0   0.0
-500.0   30.0   16.666666666666668
-450.0   30.0   0.0
-450.0   60.0   0.0
-500.0   60.0   0.0
-450.0   60.0   16.666666666666668
-500.0   30.0   16.666666666666668
-500.0   60.0   16.666666666666668
-450.0   60.0   16.666666666666668
-500.0   60.0   0.0
-500.0   30.0   16.666666666666668
-450.0   60.0   16.666666666666668
-450.0   30.0   16.666666666666668
-450.0   30.0   0.0
-500.0   30.0   16.666666666666668
-450.0   60.0   16.666666666666668
-450.0   30.0   0.0
-500.0   60.0   0.0
-500.0   30.0   16.666666666666668
-450.0   30.0   16.666666666666668
-500.0   60.0   16.666666666666668
-500.0   30.0   33.333333333333336
-450.0   30.0   16.666666666666668
-450.0   60.0   16.666666666666668
-500.0   60.0   16.666666666666668
-450.0   60.0   33.333333333333336
-500.0   30.0   33.333333333333336
-500.0   60.0   33.333333333333336
-450.0   60.0   33.333333333333336
-500.0   60.0   16.666666666666668
-500.0   30.0   33.333333333333336
-450.0   60.0   33.333333333333336
-450.0   30.0   33.333333333333336
-450.0   30.0   16.666666666666668
-500.0   30.0   33.333333333333336
-450.0   60.0   33.333333333333336
-450.0   30.0   16.666666666666668
-500.0   60.0   16.666666666666668
-500.0   30.0   33.333333333333336
-450.0   30.0   33.333333333333336
-500.0   60.0   33.333333333333336
-500.0   30.0   50.0
-450.0   30.0   33.333333333333336
-450.0   60.0   33.333333333333336
-500.0   60.0   33.333333333333336
-450.0   60.0   50.0
-500.0   30.0   50.0
-500.0   60.0   50.0
-450.0   60.0   50.0
-500.0   60.0   33.333333333333336
-500.0   30.0   50.0
-450.0   60.0   50.0
-450.0   30.0   50.0
-450.0   30.0   33.333333333333336
-500.0   30.0   50.0
-450.0   60.0   50.0
-450.0   30.0   33.333333333333336
-500.0   60.0   33.333333333333336
-500.0   60.0   0.0
-450.0   60.0   0.0
-500.0   90.0   0.0
-500.0   60.0   16.666666666666668
-450.0   60.0   0.0
-450.0   90.0   0.0
-500.0   90.0   0.0
-450.0   90.0   16.666666666666668
-500.0   60.0   16.666666666666668
-500.0   90.0   16.666666666666668
-450.0   90.0   16.666666666666668
-500.0   90.0   0.0
-500.0   60.0   16.666666666666668
-450.0   90.0   16.666666666666668
-450.0   60.0   16.666666666666668
-450.0   60.0   0.0
-500.0   60.0   16.666666666666668
-450.0   90.0   16.666666666666668
-450.0   60.0   0.0
-500.0   90.0   0.0
-500.0   60.0   16.666666666666668
-450.0   60.0   16.666666666666668
-500.0   90.0   16.666666666666668
-500.0   60.0   33.333333333333336
-450.0   60.0   16.666666666666668
-450.0   90.0   16.666666666666668
-500.0   90.0   16.666666666666668
-450.0   90.0   33.333333333333336
-500.0   60.0   33.333333333333336
-500.0   90.0   33.333333333333336
-450.0   90.0   33.333333333333336
-500.0   90.0   16.666666666666668
-500.0   60.0   33.333333333333336
-450.0   90.0   33.333333333333336
-450.0   60.0   33.333333333333336
-450.0   60.0   16.666666666666668
-500.0   60.0   33.333333333333336
-450.0   90.0   33.333333333333336
-450.0   60.0   16.666666666666668
-500.0   90.0   16.666666666666668
-500.0   60.0   33.333333333333336
-450.0   60.0   33.333333333333336
-500.0   90.0   33.333333333333336
-500.0   60.0   50.0
-450.0   60.0   33.333333333333336
-450.0   90.0   33.333333333333336
-500.0   90.0   33.333333333333336
-450.0   90.0   50.0
-500.0   60.0   50.0
-500.0   90.0   50.0
-450.0   90.0   50.0
-500.0   90.0   33.333333333333336
-500.0   60.0   50.0
-450.0   90.0   50.0
-450.0   60.0   50.0
-450.0   60.0   33.333333333333336
-500.0   60.0   50.0
-450.0   90.0   50.0
-450.0   60.0   33.333333333333336
-500.0   90.0   33.333333333333336
-500.0   90.0   0.0
-450.0   90.0   0.0
-500.0   120.0   0.0
-500.0   90.0   16.666666666666668
-450.0   90.0   0.0
-450.0   120.0   0.0
-500.0   120.0   0.0
-450.0   120.0   16.666666666666668
-500.0   90.0   16.666666666666668
-500.0   120.0   16.666666666666668
-450.0   120.0   16.666666666666668
-500.0   120.0   0.0
-500.0   90.0   16.666666666666668
-450.0   120.0   16.666666666666668
-450.0   90.0   16.666666666666668
-450.0   90.0   0.0
-500.0   90.0   16.666666666666668
-450.0   120.0   16.666666666666668
-450.0   90.0   0.0
-500.0   120.0   0.0
-500.0   90.0   16.666666666666668
-450.0   90.0   16.666666666666668
-500.0   120.0   16.666666666666668
-500.0   90.0   33.333333333333336
-450.0   90.0   16.666666666666668
-450.0   120.0   16.666666666666668
-500.0   120.0   16.666666666666668
-450.0   120.0   33.333333333333336
-500.0   90.0   33.333333333333336
-500.0   120.0   33.333333333333336
-450.0   120.0   33.333333333333336
-500.0   120.0   16.666666666666668
-500.0   90.0   33.333333333333336
-450.0   120.0   33.333333333333336
-450.0   90.0   33.333333333333336
-450.0   90.0   16.666666666666668
-500.0   90.0   33.333333333333336
-450.0   120.0   33.333333333333336
-450.0   90.0   16.666666666666668
-500.0   120.0   16.666666666666668
-500.0   90.0   33.333333333333336
-450.0   90.0   33.333333333333336
-500.0   120.0   33.333333333333336
-500.0   90.0   50.0
-450.0   90.0   33.333333333333336
-450.0   120.0   33.333333333333336
-500.0   120.0   33.333333333333336
-450.0   120.0   50.0
-500.0   90.0   50.0
-500.0   120.0   50.0
-450.0   120.0   50.0
-500.0   120.0   33.333333333333336
-500.0   90.0   50.0
-450.0   120.0   50.0
-450.0   90.0   50.0
-450.0   90.0   33.333333333333336
-500.0   90.0   50.0
-450.0   120.0   50.0
-450.0   90.0   33.333333333333336
-500.0   120.0   33.333333333333336
-500.0   120.0   0.0
-450.0   120.0   0.0
-500.0   150.0   0.0
-500.0   120.0   16.666666666666668
-450.0   120.0   0.0
-450.0   150.0   0.0
-500.0   150.0   0.0
-450.0   150.0   16.666666666666668
-500.0   120.0   16.666666666666668
-500.0   150.0   16.666666666666668
-450.0   150.0   16.666666666666668
-500.0   150.0   0.0
-500.0   120.0   16.666666666666668
-450.0   150.0   16.666666666666668
-450.0   120.0   16.666666666666668
-450.0   120.0   0.0
-500.0   120.0   16.666666666666668
-450.0   150.0   16.666666666666668
-450.0   120.0   0.0
-500.0   150.0   0.0
-500.0   120.0   16.666666666666668
-450.0   120.0   16.666666666666668
-500.0   150.0   16.666666666666668
-500.0   120.0   33.333333333333336
-450.0   120.0   16.666666666666668
-450.0   150.0   16.666666666666668
-500.0   150.0   16.666666666666668
-450.0   150.0   33.333333333333336
-500.0   120.0   33.333333333333336
-500.0   150.0   33.333333333333336
-450.0   150.0   33.333333333333336
-500.0   150.0   16.666666666666668
-500.0   120.0   33.333333333333336
-450.0   150.0   33.333333333333336
-450.0   120.0   33.333333333333336
-450.0   120.0   16.666666666666668
-500.0   120.0   33.333333333333336
-450.0   150.0   33.333333333333336
-450.0   120.0   16.666666666666668
-500.0   150.0   16.666666666666668
-500.0   120.0   33.333333333333336
-450.0   120.0   33.333333333333336
-500.0   150.0   33.333333333333336
-500.0   120.0   50.0
-450.0   120.0   33.333333333333336
-450.0   150.0   33.333333333333336
-500.0   150.0   33.333333333333336
-450.0   150.0   50.0
-500.0   120.0   50.0
-500.0   150.0   50.0
-450.0   150.0   50.0
-500.0   150.0   33.333333333333336
-500.0   120.0   50.0
-450.0   150.0   50.0
-450.0   120.0   50.0
-450.0   120.0   33.333333333333336
-500.0   120.0   50.0
-450.0   150.0   50.0
-450.0   120.0   33.333333333333336
-500.0   150.0   33.333333333333336
-450.0   0.0   0.0
-400.0   0.0   0.0
-450.0   30.0   0.0
-450.0   0.0   16.666666666666668
-400.0   0.0   0.0
-400.0   30.0   0.0
-450.0   30.0   0.0
-400.0   30.0   16.666666666666668
-450.0   0.0   16.666666666666668
-450.0   30.0   16.666666666666668
-400.0   30.0   16.666666666666668
-450.0   30.0   0.0
-450.0   0.0   16.666666666666668
-400.0   30.0   16.666666666666668
-400.0   0.0   16.666666666666668
-400.0   0.0   0.0
-450.0   0.0   16.666666666666668
-400.0   30.0   16.666666666666668
-400.0   0.0   0.0
-450.0   30.0   0.0
-450.0   0.0   16.666666666666668
-400.0   0.0   16.666666666666668
-450.0   30.0   16.666666666666668
-450.0   0.0   33.333333333333336
-400.0   0.0   16.666666666666668
-400.0   30.0   16.666666666666668
-450.0   30.0   16.666666666666668
-400.0   30.0   33.333333333333336
-450.0   0.0   33.333333333333336
-450.0   30.0   33.333333333333336
-400.0   30.0   33.333333333333336
-450.0   30.0   16.666666666666668
-450.0   0.0   33.333333333333336
-400.0   30.0   33.333333333333336
-400.0   0.0   33.333333333333336
-400.0   0.0   16.666666666666668
-450.0   0.0   33.333333333333336
-400.0   30.0   33.333333333333336
-400.0   0.0   16.666666666666668
-450.0   30.0   16.666666666666668
-450.0   0.0   33.333333333333336
-400.0   0.0   33.333333333333336
-450.0   30.0   33.333333333333336
-450.0   0.0   50.0
-400.0   0.0   33.333333333333336
-400.0   30.0   33.333333333333336
-450.0   30.0   33.333333333333336
-400.0   30.0   50.0
-450.0   0.0   50.0
-450.0   30.0   50.0
-400.0   30.0   50.0
-450.0   30.0   33.333333333333336
-450.0   0.0   50.0
-400.0   30.0   50.0
-400.0   0.0   50.0
-400.0   0.0   33.333333333333336
-450.0   0.0   50.0
-400.0   30.0   50.0
-400.0   0.0   33.333333333333336
-450.0   30.0   33.333333333333336
-450.0   30.0   0.0
-400.0   30.0   0.0
-450.0   60.0   0.0
-450.0   30.0   16.666666666666668
-400.0   30.0   0.0
-400.0   60.0   0.0
-450.0   60.0   0.0
-400.0   60.0   16.666666666666668
-450.0   30.0   16.666666666666668
-450.0   60.0   16.666666666666668
-400.0   60.0   16.666666666666668
-450.0   60.0   0.0
-450.0   30.0   16.666666666666668
-400.0   60.0   16.666666666666668
-400.0   30.0   16.666666666666668
-400.0   30.0   0.0
-450.0   30.0   16.666666666666668
-400.0   60.0   16.666666666666668
-400.0   30.0   0.0
-450.0   60.0   0.0
-450.0   30.0   16.666666666666668
-400.0   30.0   16.666666666666668
-450.0   60.0   16.666666666666668
-450.0   30.0   33.333333333333336
-400.0   30.0   16.666666666666668
-400.0   60.0   16.666666666666668
-450.0   60.0   16.666666666666668
-400.0   60.0   33.333333333333336
-450.0   30.0   33.333333333333336
-450.0   60.0   33.333333333333336
-400.0   60.0   33.333333333333336
-450.0   60.0   16.666666666666668
-450.0   30.0   33.333333333333336
-400.0   60.0   33.333333333333336
-400.0   30.0   33.333333333333336
-400.0   30.0   16.666666666666668
-450.0   30.0   33.333333333333336
-400.0   60.0   33.333333333333336
-400.0   30.0   16.666666666666668
-450.0   60.0   16.666666666666668
-450.0   30.0   33.333333333333336
-400.0   30.0   33.333333333333336
-450.0   60.0   33.333333333333336
-450.0   30.0   50.0
-400.0   30.0   33.333333333333336
-400.0   60.0   33.333333333333336
-450.0   60.0   33.333333333333336
-400.0   60.0   50.0
-450.0   30.0   50.0
-450.0   60.0   50.0
-400.0   60.0   50.0
-450.0   60.0   33.333333333333336
-450.0   30.0   50.0
-400.0   60.0   50.0
-400.0   30.0   50.0
-400.0   30.0   33.333333333333336
-450.0   30.0   50.0
-400.0   60.0   50.0
-400.0   30.0   33.333333333333336
-450.0   60.0   33.333333333333336
-450.0   60.0   0.0
-400.0   60.0   0.0
-450.0   90.0   0.0
-450.0   60.0   16.666666666666668
-400.0   60.0   0.0
-400.0   90.0   0.0
-450.0   90.0   0.0
-400.0   90.0   16.666666666666668
-450.0   60.0   16.666666666666668
-450.0   90.0   16.666666666666668
-400.0   90.0   16.666666666666668
-450.0   90.0   0.0
-450.0   60.0   16.666666666666668
-400.0   90.0   16.666666666666668
-400.0   60.0   16.666666666666668
-400.0   60.0   0.0
-450.0   60.0   16.666666666666668
-400.0   90.0   16.666666666666668
-400.0   60.0   0.0
-450.0   90.0   0.0
-450.0   60.0   16.666666666666668
-400.0   60.0   16.666666666666668
-450.0   90.0   16.666666666666668
-450.0   60.0   33.333333333333336
-400.0   60.0   16.666666666666668
-400.0   90.0   16.666666666666668
-450.0   90.0   16.666666666666668
-400.0   90.0   33.333333333333336
-450.0   60.0   33.333333333333336
-450.0   90.0   33.333333333333336
-400.0   90.0   33.333333333333336
-450.0   90.0   16.666666666666668
-450.0   60.0   33.333333333333336
-400.0   90.0   33.333333333333336
-400.0   60.0   33.333333333333336
-400.0   60.0   16.666666666666668
-450.0   60.0   33.333333333333336
-400.0   90.0   33.333333333333336
-400.0   60.0   16.666666666666668
-450.0   90.0   16.666666666666668
-450.0   60.0   33.333333333333336
-400.0   60.0   33.333333333333336
-450.0   90.0   33.333333333333336
-450.0   60.0   50.0
-400.0   60.0   33.333333333333336
-400.0   90.0   33.333333333333336
-450.0   90.0   33.333333333333336
-400.0   90.0   50.0
-450.0   60.0   50.0
-450.0   90.0   50.0
-400.0   90.0   50.0
-450.0   90.0   33.333333333333336
-450.0   60.0   50.0
-400.0   90.0   50.0
-400.0   60.0   50.0
-400.0   60.0   33.333333333333336
-450.0   60.0   50.0
-400.0   90.0   50.0
-400.0   60.0   33.333333333333336
-450.0   90.0   33.333333333333336
-450.0   90.0   0.0
-400.0   90.0   0.0
-450.0   120.0   0.0
-450.0   90.0   16.666666666666668
-400.0   90.0   0.0
-400.0   120.0   0.0
-450.0   120.0   0.0
-400.0   120.0   16.666666666666668
-450.0   90.0   16.666666666666668
-450.0   120.0   16.666666666666668
-400.0   120.0   16.666666666666668
-450.0   120.0   0.0
-450.0   90.0   16.666666666666668
-400.0   120.0   16.666666666666668
-400.0   90.0   16.666666666666668
-400.0   90.0   0.0
-450.0   90.0   16.666666666666668
-400.0   120.0   16.666666666666668
-400.0   90.0   0.0
-450.0   120.0   0.0
-450.0   90.0   16.666666666666668
-400.0   90.0   16.666666666666668
-450.0   120.0   16.666666666666668
-450.0   90.0   33.333333333333336
-400.0   90.0   16.666666666666668
-400.0   120.0   16.666666666666668
-450.0   120.0   16.666666666666668
-400.0   120.0   33.333333333333336
-450.0   90.0   33.333333333333336
-450.0   120.0   33.333333333333336
-400.0   120.0   33.333333333333336
-450.0   120.0   16.666666666666668
-450.0   90.0   33.333333333333336
-400.0   120.0   33.333333333333336
-400.0   90.0   33.333333333333336
-400.0   90.0   16.666666666666668
-450.0   90.0   33.333333333333336
-400.0   120.0   33.333333333333336
-400.0   90.0   16.666666666666668
-450.0   120.0   16.666666666666668
-450.0   90.0   33.333333333333336
-400.0   90.0   33.333333333333336
-450.0   120.0   33.333333333333336
-450.0   90.0   50.0
-400.0   90.0   33.333333333333336
-400.0   120.0   33.333333333333336
-450.0   120.0   33.333333333333336
-400.0   120.0   50.0
-450.0   90.0   50.0
-450.0   120.0   50.0
-400.0   120.0   50.0
-450.0   120.0   33.333333333333336
-450.0   90.0   50.0
-400.0   120.0   50.0
-400.0   90.0   50.0
-400.0   90.0   33.333333333333336
-450.0   90.0   50.0
-400.0   120.0   50.0
-400.0   90.0   33.333333333333336
-450.0   120.0   33.333333333333336
-450.0   120.0   0.0
-400.0   120.0   0.0
-450.0   150.0   0.0
-450.0   120.0   16.666666666666668
-400.0   120.0   0.0
-400.0   150.0   0.0
-450.0   150.0   0.0
-400.0   150.0   16.666666666666668
-450.0   120.0   16.666666666666668
-450.0   150.0   16.666666666666668
-400.0   150.0   16.666666666666668
-450.0   150.0   0.0
-450.0   120.0   16.666666666666668
-400.0   150.0   16.666666666666668
-400.0   120.0   16.666666666666668
-400.0   120.0   0.0
-450.0   120.0   16.666666666666668
-400.0   150.0   16.666666666666668
-400.0   120.0   0.0
-450.0   150.0   0.0
-450.0   120.0   16.666666666666668
-400.0   120.0   16.666666666666668
-450.0   150.0   16.666666666666668
-450.0   120.0   33.333333333333336
-400.0   120.0   16.666666666666668
-400.0   150.0   16.666666666666668
-450.0   150.0   16.666666666666668
-400.0   150.0   33.333333333333336
-450.0   120.0   33.333333333333336
-450.0   150.0   33.333333333333336
-400.0   150.0   33.333333333333336
-450.0   150.0   16.666666666666668
-450.0   120.0   33.333333333333336
-400.0   150.0   33.333333333333336
-400.0   120.0   33.333333333333336
-400.0   120.0   16.666666666666668
-450.0   120.0   33.333333333333336
-400.0   150.0   33.333333333333336
-400.0   120.0   16.666666666666668
-450.0   150.0   16.666666666666668
-450.0   120.0   33.333333333333336
-400.0   120.0   33.333333333333336
-450.0   150.0   33.333333333333336
-450.0   120.0   50.0
-400.0   120.0   33.333333333333336
-400.0   150.0   33.333333333333336
-450.0   150.0   33.333333333333336
-400.0   150.0   50.0
-450.0   120.0   50.0
-450.0   150.0   50.0
-400.0   150.0   50.0
-450.0   150.0   33.333333333333336
-450.0   120.0   50.0
-400.0   150.0   50.0
-400.0   120.0   50.0
-400.0   120.0   33.333333333333336
-450.0   120.0   50.0
-400.0   150.0   50.0
-400.0   120.0   33.333333333333336
-450.0   150.0   33.333333333333336
-400.0   0.0   0.0
-350.0   0.0   0.0
-400.0   30.0   0.0
-400.0   0.0   16.666666666666668
-350.0   0.0   0.0
-350.0   30.0   0.0
-400.0   30.0   0.0
-350.0   30.0   16.666666666666668
-400.0   0.0   16.666666666666668
-400.0   30.0   16.666666666666668
-350.0   30.0   16.666666666666668
-400.0   30.0   0.0
-400.0   0.0   16.666666666666668
-350.0   30.0   16.666666666666668
-350.0   0.0   16.666666666666668
-350.0   0.0   0.0
-400.0   0.0   16.666666666666668
-350.0   30.0   16.666666666666668
-350.0   0.0   0.0
-400.0   30.0   0.0
-400.0   0.0   16.666666666666668
-350.0   0.0   16.666666666666668
-400.0   30.0   16.666666666666668
-400.0   0.0   33.333333333333336
-350.0   0.0   16.666666666666668
-350.0   30.0   16.666666666666668
-400.0   30.0   16.666666666666668
-350.0   30.0   33.333333333333336
-400.0   0.0   33.333333333333336
-400.0   30.0   33.333333333333336
-350.0   30.0   33.333333333333336
-400.0   30.0   16.666666666666668
-400.0   0.0   33.333333333333336
-350.0   30.0   33.333333333333336
-350.0   0.0   33.333333333333336
-350.0   0.0   16.666666666666668
-400.0   0.0   33.333333333333336
-350.0   30.0   33.333333333333336
-350.0   0.0   16.666666666666668
-400.0   30.0   16.666666666666668
-400.0   0.0   33.333333333333336
-350.0   0.0   33.333333333333336
-400.0   30.0   33.333333333333336
-400.0   0.0   50.0
-350.0   0.0   33.333333333333336
-350.0   30.0   33.333333333333336
-400.0   30.0   33.333333333333336
-350.0   30.0   50.0
-400.0   0.0   50.0
-400.0   30.0   50.0
-350.0   30.0   50.0
-400.0   30.0   33.333333333333336
-400.0   0.0   50.0
-350.0   30.0   50.0
-350.0   0.0   50.0
-350.0   0.0   33.333333333333336
-400.0   0.0   50.0
-350.0   30.0   50.0
-350.0   0.0   33.333333333333336
-400.0   30.0   33.333333333333336
-400.0   30.0   0.0
-350.0   30.0   0.0
-400.0   60.0   0.0
-400.0   30.0   16.666666666666668
-350.0   30.0   0.0
-350.0   60.0   0.0
-400.0   60.0   0.0
-350.0   60.0   16.666666666666668
-400.0   30.0   16.666666666666668
-400.0   60.0   16.666666666666668
-350.0   60.0   16.666666666666668
-400.0   60.0   0.0
-400.0   30.0   16.666666666666668
-350.0   60.0   16.666666666666668
-350.0   30.0   16.666666666666668
-350.0   30.0   0.0
-400.0   30.0   16.666666666666668
-350.0   60.0   16.666666666666668
-350.0   30.0   0.0
-400.0   60.0   0.0
-400.0   30.0   16.666666666666668
-350.0   30.0   16.666666666666668
-400.0   60.0   16.666666666666668
-400.0   30.0   33.333333333333336
-350.0   30.0   16.666666666666668
-350.0   60.0   16.666666666666668
-400.0   60.0   16.666666666666668
-350.0   60.0   33.333333333333336
-400.0   30.0   33.333333333333336
-400.0   60.0   33.333333333333336
-350.0   60.0   33.333333333333336
-400.0   60.0   16.666666666666668
-400.0   30.0   33.333333333333336
-350.0   60.0   33.333333333333336
-350.0   30.0   33.333333333333336
-350.0   30.0   16.666666666666668
-400.0   30.0   33.333333333333336
-350.0   60.0   33.333333333333336
-350.0   30.0   16.666666666666668
-400.0   60.0   16.666666666666668
-400.0   30.0   33.333333333333336
-350.0   30.0   33.333333333333336
-400.0   60.0   33.333333333333336
-400.0   30.0   50.0
-350.0   30.0   33.333333333333336
-350.0   60.0   33.333333333333336
-400.0   60.0   33.333333333333336
-350.0   60.0   50.0
-400.0   30.0   50.0
-400.0   60.0   50.0
-350.0   60.0   50.0
-400.0   60.0   33.333333333333336
-400.0   30.0   50.0
-350.0   60.0   50.0
-350.0   30.0   50.0
-350.0   30.0   33.333333333333336
-400.0   30.0   50.0
-350.0   60.0   50.0
-350.0   30.0   33.333333333333336
-400.0   60.0   33.333333333333336
-400.0   60.0   0.0
-350.0   60.0   0.0
-400.0   90.0   0.0
-400.0   60.0   16.666666666666668
-350.0   60.0   0.0
-350.0   90.0   0.0
-400.0   90.0   0.0
-350.0   90.0   16.666666666666668
-400.0   60.0   16.666666666666668
-400.0   90.0   16.666666666666668
-350.0   90.0   16.666666666666668
-400.0   90.0   0.0
-400.0   60.0   16.666666666666668
-350.0   90.0   16.666666666666668
-350.0   60.0   16.666666666666668
-350.0   60.0   0.0
-400.0   60.0   16.666666666666668
-350.0   90.0   16.666666666666668
-350.0   60.0   0.0
-400.0   90.0   0.0
-400.0   60.0   16.666666666666668
-350.0   60.0   16.666666666666668
-400.0   90.0   16.666666666666668
-400.0   60.0   33.333333333333336
-350.0   60.0   16.666666666666668
-350.0   90.0   16.666666666666668
-400.0   90.0   16.666666666666668
-350.0   90.0   33.333333333333336
-400.0   60.0   33.333333333333336
-400.0   90.0   33.333333333333336
-350.0   90.0   33.333333333333336
-400.0   90.0   16.666666666666668
-400.0   60.0   33.333333333333336
-350.0   90.0   33.333333333333336
-350.0   60.0   33.333333333333336
-350.0   60.0   16.666666666666668
-400.0   60.0   33.333333333333336
-350.0   90.0   33.333333333333336
-350.0   60.0   16.666666666666668
-400.0   90.0   16.666666666666668
-400.0   60.0   33.333333333333336
-350.0   60.0   33.333333333333336
-400.0   90.0   33.333333333333336
-400.0   60.0   50.0
-350.0   60.0   33.333333333333336
-350.0   90.0   33.333333333333336
-400.0   90.0   33.333333333333336
-350.0   90.0   50.0
-400.0   60.0   50.0
-400.0   90.0   50.0
-350.0   90.0   50.0
-400.0   90.0   33.333333333333336
-400.0   60.0   50.0
-350.0   90.0   50.0
-350.0   60.0   50.0
-350.0   60.0   33.333333333333336
-400.0   60.0   50.0
-350.0   90.0   50.0
-350.0   60.0   33.333333333333336
-400.0   90.0   33.333333333333336
-400.0   90.0   0.0
-350.0   90.0   0.0
-400.0   120.0   0.0
-400.0   90.0   16.666666666666668
-350.0   90.0   0.0
-350.0   120.0   0.0
-400.0   120.0   0.0
-350.0   120.0   16.666666666666668
-400.0   90.0   16.666666666666668
-400.0   120.0   16.666666666666668
-350.0   120.0   16.666666666666668
-400.0   120.0   0.0
-400.0   90.0   16.666666666666668
-350.0   120.0   16.666666666666668
-350.0   90.0   16.666666666666668
-350.0   90.0   0.0
-400.0   90.0   16.666666666666668
-350.0   120.0   16.666666666666668
-350.0   90.0   0.0
-400.0   120.0   0.0
-400.0   90.0   16.666666666666668
-350.0   90.0   16.666666666666668
-400.0   120.0   16.666666666666668
-400.0   90.0   33.333333333333336
-350.0   90.0   16.666666666666668
-350.0   120.0   16.666666666666668
-400.0   120.0   16.666666666666668
-350.0   120.0   33.333333333333336
-400.0   90.0   33.333333333333336
-400.0   120.0   33.333333333333336
-350.0   120.0   33.333333333333336
-400.0   120.0   16.666666666666668
-400.0   90.0   33.333333333333336
-350.0   120.0   33.333333333333336
-350.0   90.0   33.333333333333336
-350.0   90.0   16.666666666666668
-400.0   90.0   33.333333333333336
-350.0   120.0   33.333333333333336
-350.0   90.0   16.666666666666668
-400.0   120.0   16.666666666666668
-400.0   90.0   33.333333333333336
-350.0   90.0   33.333333333333336
-400.0   120.0   33.333333333333336
-400.0   90.0   50.0
-350.0   90.0   33.333333333333336
-350.0   120.0   33.333333333333336
-400.0   120.0   33.333333333333336
-350.0   120.0   50.0
-400.0   90.0   50.0
-400.0   120.0   50.0
-350.0   120.0   50.0
-400.0   120.0   33.333333333333336
-400.0   90.0   50.0
-350.0   120.0   50.0
-350.0   90.0   50.0
-350.0   90.0   33.333333333333336
-400.0   90.0   50.0
-350.0   120.0   50.0
-350.0   90.0   33.333333333333336
-400.0   120.0   33.333333333333336
-400.0   120.0   0.0
-350.0   120.0   0.0
-400.0   150.0   0.0
-400.0   120.0   16.666666666666668
-350.0   120.0   0.0
-350.0   150.0   0.0
-400.0   150.0   0.0
-350.0   150.0   16.666666666666668
-400.0   120.0   16.666666666666668
-400.0   150.0   16.666666666666668
-350.0   150.0   16.666666666666668
-400.0   150.0   0.0
-400.0   120.0   16.666666666666668
-350.0   150.0   16.666666666666668
-350.0   120.0   16.666666666666668
-350.0   120.0   0.0
-400.0   120.0   16.666666666666668
-350.0   150.0   16.666666666666668
-350.0   120.0   0.0
-400.0   150.0   0.0
-400.0   120.0   16.666666666666668
-350.0   120.0   16.666666666666668
-400.0   150.0   16.666666666666668
-400.0   120.0   33.333333333333336
-350.0   120.0   16.666666666666668
-350.0   150.0   16.666666666666668
-400.0   150.0   16.666666666666668
-350.0   150.0   33.333333333333336
-400.0   120.0   33.333333333333336
-400.0   150.0   33.333333333333336
-350.0   150.0   33.333333333333336
-400.0   150.0   16.666666666666668
-400.0   120.0   33.333333333333336
-350.0   150.0   33.333333333333336
-350.0   120.0   33.333333333333336
-350.0   120.0   16.666666666666668
-400.0   120.0   33.333333333333336
-350.0   150.0   33.333333333333336
-350.0   120.0   16.666666666666668
-400.0   150.0   16.666666666666668
-400.0   120.0   33.333333333333336
-350.0   120.0   33.333333333333336
-400.0   150.0   33.333333333333336
-400.0   120.0   50.0
-350.0   120.0   33.333333333333336
-350.0   150.0   33.333333333333336
-400.0   150.0   33.333333333333336
-350.0   150.0   50.0
-400.0   120.0   50.0
-400.0   150.0   50.0
-350.0   150.0   50.0
-400.0   150.0   33.333333333333336
-400.0   120.0   50.0
-350.0   150.0   50.0
-350.0   120.0   50.0
-350.0   120.0   33.333333333333336
-400.0   120.0   50.0
-350.0   150.0   50.0
-350.0   120.0   33.333333333333336
-400.0   150.0   33.333333333333336
-350.0   0.0   0.0
-300.0   0.0   0.0
-350.0   30.0   0.0
-350.0   0.0   16.666666666666668
-300.0   0.0   0.0
-300.0   30.0   0.0
-350.0   30.0   0.0
-300.0   30.0   16.666666666666668
-350.0   0.0   16.666666666666668
-350.0   30.0   16.666666666666668
-300.0   30.0   16.666666666666668
-350.0   30.0   0.0
-350.0   0.0   16.666666666666668
-300.0   30.0   16.666666666666668
-300.0   0.0   16.666666666666668
-300.0   0.0   0.0
-350.0   0.0   16.666666666666668
-300.0   30.0   16.666666666666668
-300.0   0.0   0.0
-350.0   30.0   0.0
-350.0   0.0   16.666666666666668
-300.0   0.0   16.666666666666668
-350.0   30.0   16.666666666666668
-350.0   0.0   33.333333333333336
-300.0   0.0   16.666666666666668
-300.0   30.0   16.666666666666668
-350.0   30.0   16.666666666666668
-300.0   30.0   33.333333333333336
-350.0   0.0   33.333333333333336
-350.0   30.0   33.333333333333336
-300.0   30.0   33.333333333333336
-350.0   30.0   16.666666666666668
-350.0   0.0   33.333333333333336
-300.0   30.0   33.333333333333336
-300.0   0.0   33.333333333333336
-300.0   0.0   16.666666666666668
-350.0   0.0   33.333333333333336
-300.0   30.0   33.333333333333336
-300.0   0.0   16.666666666666668
-350.0   30.0   16.666666666666668
-350.0   0.0   33.333333333333336
-300.0   0.0   33.333333333333336
-350.0   30.0   33.333333333333336
-350.0   0.0   50.0
-300.0   0.0   33.333333333333336
-300.0   30.0   33.333333333333336
-350.0   30.0   33.333333333333336
-300.0   30.0   50.0
-350.0   0.0   50.0
-350.0   30.0   50.0
-300.0   30.0   50.0
-350.0   30.0   33.333333333333336
-350.0   0.0   50.0
-300.0   30.0   50.0
-300.0   0.0   50.0
-300.0   0.0   33.333333333333336
-350.0   0.0   50.0
-300.0   30.0   50.0
-300.0   0.0   33.333333333333336
-350.0   30.0   33.333333333333336
-350.0   30.0   0.0
-300.0   30.0   0.0
-350.0   60.0   0.0
-350.0   30.0   16.666666666666668
-300.0   30.0   0.0
-300.0   60.0   0.0
-350.0   60.0   0.0
-300.0   60.0   16.666666666666668
-350.0   30.0   16.666666666666668
-350.0   60.0   16.666666666666668
-300.0   60.0   16.666666666666668
-350.0   60.0   0.0
-350.0   30.0   16.666666666666668
-300.0   60.0   16.666666666666668
-300.0   30.0   16.666666666666668
-300.0   30.0   0.0
-350.0   30.0   16.666666666666668
-300.0   60.0   16.666666666666668
-300.0   30.0   0.0
-350.0   60.0   0.0
-350.0   30.0   16.666666666666668
-300.0   30.0   16.666666666666668
-350.0   60.0   16.666666666666668
-350.0   30.0   33.333333333333336
-300.0   30.0   16.666666666666668
-300.0   60.0   16.666666666666668
-350.0   60.0   16.666666666666668
-300.0   60.0   33.333333333333336
-350.0   30.0   33.333333333333336
-350.0   60.0   33.333333333333336
-300.0   60.0   33.333333333333336
-350.0   60.0   16.666666666666668
-350.0   30.0   33.333333333333336
-300.0   60.0   33.333333333333336
-300.0   30.0   33.333333333333336
-300.0   30.0   16.666666666666668
-350.0   30.0   33.333333333333336
-300.0   60.0   33.333333333333336
-300.0   30.0   16.666666666666668
-350.0   60.0   16.666666666666668
-350.0   30.0   33.333333333333336
-300.0   30.0   33.333333333333336
-350.0   60.0   33.333333333333336
-350.0   30.0   50.0
-300.0   30.0   33.333333333333336
-300.0   60.0   33.333333333333336
-350.0   60.0   33.333333333333336
-300.0   60.0   50.0
-350.0   30.0   50.0
-350.0   60.0   50.0
-300.0   60.0   50.0
-350.0   60.0   33.333333333333336
-350.0   30.0   50.0
-300.0   60.0   50.0
-300.0   30.0   50.0
-300.0   30.0   33.333333333333336
-350.0   30.0   50.0
-300.0   60.0   50.0
-300.0   30.0   33.333333333333336
-350.0   60.0   33.333333333333336
-350.0   60.0   0.0
-300.0   60.0   0.0
-350.0   90.0   0.0
-350.0   60.0   16.666666666666668
-300.0   60.0   0.0
-300.0   90.0   0.0
-350.0   90.0   0.0
-300.0   90.0   16.666666666666668
-350.0   60.0   16.666666666666668
-350.0   90.0   16.666666666666668
-300.0   90.0   16.666666666666668
-350.0   90.0   0.0
-350.0   60.0   16.666666666666668
-300.0   90.0   16.666666666666668
-300.0   60.0   16.666666666666668
-300.0   60.0   0.0
-350.0   60.0   16.666666666666668
-300.0   90.0   16.666666666666668
-300.0   60.0   0.0
-350.0   90.0   0.0
-350.0   60.0   16.666666666666668
-300.0   60.0   16.666666666666668
-350.0   90.0   16.666666666666668
-350.0   60.0   33.333333333333336
-300.0   60.0   16.666666666666668
-300.0   90.0   16.666666666666668
-350.0   90.0   16.666666666666668
-300.0   90.0   33.333333333333336
-350.0   60.0   33.333333333333336
-350.0   90.0   33.333333333333336
-300.0   90.0   33.333333333333336
-350.0   90.0   16.666666666666668
-350.0   60.0   33.333333333333336
-300.0   90.0   33.333333333333336
-300.0   60.0   33.333333333333336
-300.0   60.0   16.666666666666668
-350.0   60.0   33.333333333333336
-300.0   90.0   33.333333333333336
-300.0   60.0   16.666666666666668
-350.0   90.0   16.666666666666668
-350.0   60.0   33.333333333333336
-300.0   60.0   33.333333333333336
-350.0   90.0   33.333333333333336
-350.0   60.0   50.0
-300.0   60.0   33.333333333333336
-300.0   90.0   33.333333333333336
-350.0   90.0   33.333333333333336
-300.0   90.0   50.0
-350.0   60.0   50.0
-350.0   90.0   50.0
-300.0   90.0   50.0
-350.0   90.0   33.333333333333336
-350.0   60.0   50.0
-300.0   90.0   50.0
-300.0   60.0   50.0
-300.0   60.0   33.333333333333336
-350.0   60.0   50.0
-300.0   90.0   50.0
-300.0   60.0   33.333333333333336
-350.0   90.0   33.333333333333336
-350.0   90.0   0.0
-300.0   90.0   0.0
-350.0   120.0   0.0
-350.0   90.0   16.666666666666668
-300.0   90.0   0.0
-300.0   120.0   0.0
-350.0   120.0   0.0
-300.0   120.0   16.666666666666668
-350.0   90.0   16.666666666666668
-350.0   120.0   16.666666666666668
-300.0   120.0   16.666666666666668
-350.0   120.0   0.0
-350.0   90.0   16.666666666666668
-300.0   120.0   16.666666666666668
-300.0   90.0   16.666666666666668
-300.0   90.0   0.0
-350.0   90.0   16.666666666666668
-300.0   120.0   16.666666666666668
-300.0   90.0   0.0
-350.0   120.0   0.0
-350.0   90.0   16.666666666666668
-300.0   90.0   16.666666666666668
-350.0   120.0   16.666666666666668
-350.0   90.0   33.333333333333336
-300.0   90.0   16.666666666666668
-300.0   120.0   16.666666666666668
-350.0   120.0   16.666666666666668
-300.0   120.0   33.333333333333336
-350.0   90.0   33.333333333333336
-350.0   120.0   33.333333333333336
-300.0   120.0   33.333333333333336
-350.0   120.0   16.666666666666668
-350.0   90.0   33.333333333333336
-300.0   120.0   33.333333333333336
-300.0   90.0   33.333333333333336
-300.0   90.0   16.666666666666668
-350.0   90.0   33.333333333333336
-300.0   120.0   33.333333333333336
-300.0   90.0   16.666666666666668
-350.0   120.0   16.666666666666668
-350.0   90.0   33.333333333333336
-300.0   90.0   33.333333333333336
-350.0   120.0   33.333333333333336
-350.0   90.0   50.0
-300.0   90.0   33.333333333333336
-300.0   120.0   33.333333333333336
-350.0   120.0   33.333333333333336
-300.0   120.0   50.0
-350.0   90.0   50.0
-350.0   120.0   50.0
-300.0   120.0   50.0
-350.0   120.0   33.333333333333336
-350.0   90.0   50.0
-300.0   120.0   50.0
-300.0   90.0   50.0
-300.0   90.0   33.333333333333336
-350.0   90.0   50.0
-300.0   120.0   50.0
-300.0   90.0   33.333333333333336
-350.0   120.0   33.333333333333336
-350.0   120.0   0.0
-300.0   120.0   0.0
-350.0   150.0   0.0
-350.0   120.0   16.666666666666668
-300.0   120.0   0.0
-300.0   150.0   0.0
-350.0   150.0   0.0
-300.0   150.0   16.666666666666668
-350.0   120.0   16.666666666666668
-350.0   150.0   16.666666666666668
-300.0   150.0   16.666666666666668
-350.0   150.0   0.0
-350.0   120.0   16.666666666666668
-300.0   150.0   16.666666666666668
-300.0   120.0   16.666666666666668
-300.0   120.0   0.0
-350.0   120.0   16.666666666666668
-300.0   150.0   16.666666666666668
-300.0   120.0   0.0
-350.0   150.0   0.0
-350.0   120.0   16.666666666666668
-300.0   120.0   16.666666666666668
-350.0   150.0   16.666666666666668
-350.0   120.0   33.333333333333336
-300.0   120.0   16.666666666666668
-300.0   150.0   16.666666666666668
-350.0   150.0   16.666666666666668
-300.0   150.0   33.333333333333336
-350.0   120.0   33.333333333333336
-350.0   150.0   33.333333333333336
-300.0   150.0   33.333333333333336
-350.0   150.0   16.666666666666668
-350.0   120.0   33.333333333333336
-300.0   150.0   33.333333333333336
-300.0   120.0   33.333333333333336
-300.0   120.0   16.666666666666668
-350.0   120.0   33.333333333333336
-300.0   150.0   33.333333333333336
-300.0   120.0   16.666666666666668
-350.0   150.0   16.666666666666668
-350.0   120.0   33.333333333333336
-300.0   120.0   33.333333333333336
-350.0   150.0   33.333333333333336
-350.0   120.0   50.0
-300.0   120.0   33.333333333333336
-300.0   150.0   33.333333333333336
-350.0   150.0   33.333333333333336
-300.0   150.0   50.0
-350.0   120.0   50.0
-350.0   150.0   50.0
-300.0   150.0   50.0
-350.0   150.0   33.333333333333336
-350.0   120.0   50.0
-300.0   150.0   50.0
-300.0   120.0   50.0
-300.0   120.0   33.333333333333336
-350.0   120.0   50.0
-300.0   150.0   50.0
-300.0   120.0   33.333333333333336
-350.0   150.0   33.333333333333336
-300.0   0.0   0.0
-250.0   0.0   0.0
-300.0   30.0   0.0
-300.0   0.0   16.666666666666668
-250.0   0.0   0.0
-250.0   30.0   0.0
-300.0   30.0   0.0
-250.0   30.0   16.666666666666668
-300.0   0.0   16.666666666666668
-300.0   30.0   16.666666666666668
-250.0   30.0   16.666666666666668
-300.0   30.0   0.0
-300.0   0.0   16.666666666666668
-250.0   30.0   16.666666666666668
-250.0   0.0   16.666666666666668
-250.0   0.0   0.0
-300.0   0.0   16.666666666666668
-250.0   30.0   16.666666666666668
-250.0   0.0   0.0
-300.0   30.0   0.0
-300.0   0.0   16.666666666666668
-250.0   0.0   16.666666666666668
-300.0   30.0   16.666666666666668
-300.0   0.0   33.333333333333336
-250.0   0.0   16.666666666666668
-250.0   30.0   16.666666666666668
-300.0   30.0   16.666666666666668
-250.0   30.0   33.333333333333336
-300.0   0.0   33.333333333333336
-300.0   30.0   33.333333333333336
-250.0   30.0   33.333333333333336
-300.0   30.0   16.666666666666668
-300.0   0.0   33.333333333333336
-250.0   30.0   33.333333333333336
-250.0   0.0   33.333333333333336
-250.0   0.0   16.666666666666668
-300.0   0.0   33.333333333333336
-250.0   30.0   33.333333333333336
-250.0   0.0   16.666666666666668
-300.0   30.0   16.666666666666668
-300.0   0.0   33.333333333333336
-250.0   0.0   33.333333333333336
-300.0   30.0   33.333333333333336
-300.0   0.0   50.0
-250.0   0.0   33.333333333333336
-250.0   30.0   33.333333333333336
-300.0   30.0   33.333333333333336
-250.0   30.0   50.0
-300.0   0.0   50.0
-300.0   30.0   50.0
-250.0   30.0   50.0
-300.0   30.0   33.333333333333336
-300.0   0.0   50.0
-250.0   30.0   50.0
-250.0   0.0   50.0
-250.0   0.0   33.333333333333336
-300.0   0.0   50.0
-250.0   30.0   50.0
-250.0   0.0   33.333333333333336
-300.0   30.0   33.333333333333336
-300.0   30.0   0.0
-250.0   30.0   0.0
-300.0   60.0   0.0
-300.0   30.0   16.666666666666668
-250.0   30.0   0.0
-250.0   60.0   0.0
-300.0   60.0   0.0
-250.0   60.0   16.666666666666668
-300.0   30.0   16.666666666666668
-300.0   60.0   16.666666666666668
-250.0   60.0   16.666666666666668
-300.0   60.0   0.0
-300.0   30.0   16.666666666666668
-250.0   60.0   16.666666666666668
-250.0   30.0   16.666666666666668
-250.0   30.0   0.0
-300.0   30.0   16.666666666666668
-250.0   60.0   16.666666666666668
-250.0   30.0   0.0
-300.0   60.0   0.0
-300.0   30.0   16.666666666666668
-250.0   30.0   16.666666666666668
-300.0   60.0   16.666666666666668
-300.0   30.0   33.333333333333336
-250.0   30.0   16.666666666666668
-250.0   60.0   16.666666666666668
-300.0   60.0   16.666666666666668
-250.0   60.0   33.333333333333336
-300.0   30.0   33.333333333333336
-300.0   60.0   33.333333333333336
-250.0   60.0   33.333333333333336
-300.0   60.0   16.666666666666668
-300.0   30.0   33.333333333333336
-250.0   60.0   33.333333333333336
-250.0   30.0   33.333333333333336
-250.0   30.0   16.666666666666668
-300.0   30.0   33.333333333333336
-250.0   60.0   33.333333333333336
-250.0   30.0   16.666666666666668
-300.0   60.0   16.666666666666668
-300.0   30.0   33.333333333333336
-250.0   30.0   33.333333333333336
-300.0   60.0   33.333333333333336
-300.0   30.0   50.0
-250.0   30.0   33.333333333333336
-250.0   60.0   33.333333333333336
-300.0   60.0   33.333333333333336
-250.0   60.0   50.0
-300.0   30.0   50.0
-300.0   60.0   50.0
-250.0   60.0   50.0
-300.0   60.0   33.333333333333336
-300.0   30.0   50.0
-250.0   60.0   50.0
-250.0   30.0   50.0
-250.0   30.0   33.333333333333336
-300.0   30.0   50.0
-250.0   60.0   50.0
-250.0   30.0   33.333333333333336
-300.0   60.0   33.333333333333336
-300.0   60.0   0.0
-250.0   60.0   0.0
-300.0   90.0   0.0
-300.0   60.0   16.666666666666668
-250.0   60.0   0.0
-250.0   90.0   0.0
-300.0   90.0   0.0
-250.0   90.0   16.666666666666668
-300.0   60.0   16.666666666666668
-300.0   90.0   16.666666666666668
-250.0   90.0   16.666666666666668
-300.0   90.0   0.0
-300.0   60.0   16.666666666666668
-250.0   90.0   16.666666666666668
-250.0   60.0   16.666666666666668
-250.0   60.0   0.0
-300.0   60.0   16.666666666666668
-250.0   90.0   16.666666666666668
-250.0   60.0   0.0
-300.0   90.0   0.0
-300.0   60.0   16.666666666666668
-250.0   60.0   16.666666666666668
-300.0   90.0   16.666666666666668
-300.0   60.0   33.333333333333336
-250.0   60.0   16.666666666666668
-250.0   90.0   16.666666666666668
-300.0   90.0   16.666666666666668
-250.0   90.0   33.333333333333336
-300.0   60.0   33.333333333333336
-300.0   90.0   33.333333333333336
-250.0   90.0   33.333333333333336
-300.0   90.0   16.666666666666668
-300.0   60.0   33.333333333333336
-250.0   90.0   33.333333333333336
-250.0   60.0   33.333333333333336
-250.0   60.0   16.666666666666668
-300.0   60.0   33.333333333333336
-250.0   90.0   33.333333333333336
-250.0   60.0   16.666666666666668
-300.0   90.0   16.666666666666668
-300.0   60.0   33.333333333333336
-250.0   60.0   33.333333333333336
-300.0   90.0   33.333333333333336
-300.0   60.0   50.0
-250.0   60.0   33.333333333333336
-250.0   90.0   33.333333333333336
-300.0   90.0   33.333333333333336
-250.0   90.0   50.0
-300.0   60.0   50.0
-300.0   90.0   50.0
-250.0   90.0   50.0
-300.0   90.0   33.333333333333336
-300.0   60.0   50.0
-250.0   90.0   50.0
-250.0   60.0   50.0
-250.0   60.0   33.333333333333336
-300.0   60.0   50.0
-250.0   90.0   50.0
-250.0   60.0   33.333333333333336
-300.0   90.0   33.333333333333336
-300.0   90.0   0.0
-250.0   90.0   0.0
-300.0   120.0   0.0
-300.0   90.0   16.666666666666668
-250.0   90.0   0.0
-250.0   120.0   0.0
-300.0   120.0   0.0
-250.0   120.0   16.666666666666668
-300.0   90.0   16.666666666666668
-300.0   120.0   16.666666666666668
-250.0   120.0   16.666666666666668
-300.0   120.0   0.0
-300.0   90.0   16.666666666666668
-250.0   120.0   16.666666666666668
-250.0   90.0   16.666666666666668
-250.0   90.0   0.0
-300.0   90.0   16.666666666666668
-250.0   120.0   16.666666666666668
-250.0   90.0   0.0
-300.0   120.0   0.0
-300.0   90.0   16.666666666666668
-250.0   90.0   16.666666666666668
-300.0   120.0   16.666666666666668
-300.0   90.0   33.333333333333336
-250.0   90.0   16.666666666666668
-250.0   120.0   16.666666666666668
-300.0   120.0   16.666666666666668
-250.0   120.0   33.333333333333336
-300.0   90.0   33.333333333333336
-300.0   120.0   33.333333333333336
-250.0   120.0   33.333333333333336
-300.0   120.0   16.666666666666668
-300.0   90.0   33.333333333333336
-250.0   120.0   33.333333333333336
-250.0   90.0   33.333333333333336
-250.0   90.0   16.666666666666668
-300.0   90.0   33.333333333333336
-250.0   120.0   33.333333333333336
-250.0   90.0   16.666666666666668
-300.0   120.0   16.666666666666668
-300.0   90.0   33.333333333333336
-250.0   90.0   33.333333333333336
-300.0   120.0   33.333333333333336
-300.0   90.0   50.0
-250.0   90.0   33.333333333333336
-250.0   120.0   33.333333333333336
-300.0   120.0   33.333333333333336
-250.0   120.0   50.0
-300.0   90.0   50.0
-300.0   120.0   50.0
-250.0   120.0   50.0
-300.0   120.0   33.333333333333336
-300.0   90.0   50.0
-250.0   120.0   50.0
-250.0   90.0   50.0
-250.0   90.0   33.333333333333336
-300.0   90.0   50.0
-250.0   120.0   50.0
-250.0   90.0   33.333333333333336
-300.0   120.0   33.333333333333336
-300.0   120.0   0.0
-250.0   120.0   0.0
-300.0   150.0   0.0
-300.0   120.0   16.666666666666668
-250.0   120.0   0.0
-250.0   150.0   0.0
-300.0   150.0   0.0
-250.0   150.0   16.666666666666668
-300.0   120.0   16.666666666666668
-300.0   150.0   16.666666666666668
-250.0   150.0   16.666666666666668
-300.0   150.0   0.0
-300.0   120.0   16.666666666666668
-250.0   150.0   16.666666666666668
-250.0   120.0   16.666666666666668
-250.0   120.0   0.0
-300.0   120.0   16.666666666666668
-250.0   150.0   16.666666666666668
-250.0   120.0   0.0
-300.0   150.0   0.0
-300.0   120.0   16.666666666666668
-250.0   120.0   16.666666666666668
-300.0   150.0   16.666666666666668
-300.0   120.0   33.333333333333336
-250.0   120.0   16.666666666666668
-250.0   150.0   16.666666666666668
-300.0   150.0   16.666666666666668
-250.0   150.0   33.333333333333336
-300.0   120.0   33.333333333333336
-300.0   150.0   33.333333333333336
-250.0   150.0   33.333333333333336
-300.0   150.0   16.666666666666668
-300.0   120.0   33.333333333333336
-250.0   150.0   33.333333333333336
-250.0   120.0   33.333333333333336
-250.0   120.0   16.666666666666668
-300.0   120.0   33.333333333333336
-250.0   150.0   33.333333333333336
-250.0   120.0   16.666666666666668
-300.0   150.0   16.666666666666668
-300.0   120.0   33.333333333333336
-250.0   120.0   33.333333333333336
-300.0   150.0   33.333333333333336
-300.0   120.0   50.0
-250.0   120.0   33.333333333333336
-250.0   150.0   33.333333333333336
-300.0   150.0   33.333333333333336
-250.0   150.0   50.0
-300.0   120.0   50.0
-300.0   150.0   50.0
-250.0   150.0   50.0
-300.0   150.0   33.333333333333336
-300.0   120.0   50.0
-250.0   150.0   50.0
-250.0   120.0   50.0
-250.0   120.0   33.333333333333336
-300.0   120.0   50.0
-250.0   150.0   50.0
-250.0   120.0   33.333333333333336
-300.0   150.0   33.333333333333336
-250.0   0.0   0.0
-200.0   0.0   0.0
-250.0   30.0   0.0
-250.0   0.0   16.666666666666668
-200.0   0.0   0.0
-200.0   30.0   0.0
-250.0   30.0   0.0
-200.0   30.0   16.666666666666668
-250.0   0.0   16.666666666666668
-250.0   30.0   16.666666666666668
-200.0   30.0   16.666666666666668
-250.0   30.0   0.0
-250.0   0.0   16.666666666666668
-200.0   30.0   16.666666666666668
-200.0   0.0   16.666666666666668
-200.0   0.0   0.0
-250.0   0.0   16.666666666666668
-200.0   30.0   16.666666666666668
-200.0   0.0   0.0
-250.0   30.0   0.0
-250.0   0.0   16.666666666666668
-200.0   0.0   16.666666666666668
-250.0   30.0   16.666666666666668
-250.0   0.0   33.333333333333336
-200.0   0.0   16.666666666666668
-200.0   30.0   16.666666666666668
-250.0   30.0   16.666666666666668
-200.0   30.0   33.333333333333336
-250.0   0.0   33.333333333333336
-250.0   30.0   33.333333333333336
-200.0   30.0   33.333333333333336
-250.0   30.0   16.666666666666668
-250.0   0.0   33.333333333333336
-200.0   30.0   33.333333333333336
-200.0   0.0   33.333333333333336
-200.0   0.0   16.666666666666668
-250.0   0.0   33.333333333333336
-200.0   30.0   33.333333333333336
-200.0   0.0   16.666666666666668
-250.0   30.0   16.666666666666668
-250.0   0.0   33.333333333333336
-200.0   0.0   33.333333333333336
-250.0   30.0   33.333333333333336
-250.0   0.0   50.0
-200.0   0.0   33.333333333333336
-200.0   30.0   33.333333333333336
-250.0   30.0   33.333333333333336
-200.0   30.0   50.0
-250.0   0.0   50.0
-250.0   30.0   50.0
-200.0   30.0   50.0
-250.0   30.0   33.333333333333336
-250.0   0.0   50.0
-200.0   30.0   50.0
-200.0   0.0   50.0
-200.0   0.0   33.333333333333336
-250.0   0.0   50.0
-200.0   30.0   50.0
-200.0   0.0   33.333333333333336
-250.0   30.0   33.333333333333336
-250.0   30.0   0.0
-200.0   30.0   0.0
-250.0   60.0   0.0
-250.0   30.0   16.666666666666668
-200.0   30.0   0.0
-200.0   60.0   0.0
-250.0   60.0   0.0
-200.0   60.0   16.666666666666668
-250.0   30.0   16.666666666666668
-250.0   60.0   16.666666666666668
-200.0   60.0   16.666666666666668
-250.0   60.0   0.0
-250.0   30.0   16.666666666666668
-200.0   60.0   16.666666666666668
-200.0   30.0   16.666666666666668
-200.0   30.0   0.0
-250.0   30.0   16.666666666666668
-200.0   60.0   16.666666666666668
-200.0   30.0   0.0
-250.0   60.0   0.0
-250.0   30.0   16.666666666666668
-200.0   30.0   16.666666666666668
-250.0   60.0   16.666666666666668
-250.0   30.0   33.333333333333336
-200.0   30.0   16.666666666666668
-200.0   60.0   16.666666666666668
-250.0   60.0   16.666666666666668
-200.0   60.0   33.333333333333336
-250.0   30.0   33.333333333333336
-250.0   60.0   33.333333333333336
-200.0   60.0   33.333333333333336
-250.0   60.0   16.666666666666668
-250.0   30.0   33.333333333333336
-200.0   60.0   33.333333333333336
-200.0   30.0   33.333333333333336
-200.0   30.0   16.666666666666668
-250.0   30.0   33.333333333333336
-200.0   60.0   33.333333333333336
-200.0   30.0   16.666666666666668
-250.0   60.0   16.666666666666668
-250.0   30.0   33.333333333333336
-200.0   30.0   33.333333333333336
-250.0   60.0   33.333333333333336
-250.0   30.0   50.0
-200.0   30.0   33.333333333333336
-200.0   60.0   33.333333333333336
-250.0   60.0   33.333333333333336
-200.0   60.0   50.0
-250.0   30.0   50.0
-250.0   60.0   50.0
-200.0   60.0   50.0
-250.0   60.0   33.333333333333336
-250.0   30.0   50.0
-200.0   60.0   50.0
-200.0   30.0   50.0
-200.0   30.0   33.333333333333336
-250.0   30.0   50.0
-200.0   60.0   50.0
-200.0   30.0   33.333333333333336
-250.0   60.0   33.333333333333336
-250.0   60.0   0.0
-200.0   60.0   0.0
-250.0   90.0   0.0
-250.0   60.0   16.666666666666668
-200.0   60.0   0.0
-200.0   90.0   0.0
-250.0   90.0   0.0
-200.0   90.0   16.666666666666668
-250.0   60.0   16.666666666666668
-250.0   90.0   16.666666666666668
-200.0   90.0   16.666666666666668
-250.0   90.0   0.0
-250.0   60.0   16.666666666666668
-200.0   90.0   16.666666666666668
-200.0   60.0   16.666666666666668
-200.0   60.0   0.0
-250.0   60.0   16.666666666666668
-200.0   90.0   16.666666666666668
-200.0   60.0   0.0
-250.0   90.0   0.0
-250.0   60.0   16.666666666666668
-200.0   60.0   16.666666666666668
-250.0   90.0   16.666666666666668
-250.0   60.0   33.333333333333336
-200.0   60.0   16.666666666666668
-200.0   90.0   16.666666666666668
-250.0   90.0   16.666666666666668
-200.0   90.0   33.333333333333336
-250.0   60.0   33.333333333333336
-250.0   90.0   33.333333333333336
-200.0   90.0   33.333333333333336
-250.0   90.0   16.666666666666668
-250.0   60.0   33.333333333333336
-200.0   90.0   33.333333333333336
-200.0   60.0   33.333333333333336
-200.0   60.0   16.666666666666668
-250.0   60.0   33.333333333333336
-200.0   90.0   33.333333333333336
-200.0   60.0   16.666666666666668
-250.0   90.0   16.666666666666668
-250.0   60.0   33.333333333333336
-200.0   60.0   33.333333333333336
-250.0   90.0   33.333333333333336
-250.0   60.0   50.0
-200.0   60.0   33.333333333333336
-200.0   90.0   33.333333333333336
-250.0   90.0   33.333333333333336
-200.0   90.0   50.0
-250.0   60.0   50.0
-250.0   90.0   50.0
-200.0   90.0   50.0
-250.0   90.0   33.333333333333336
-250.0   60.0   50.0
-200.0   90.0   50.0
-200.0   60.0   50.0
-200.0   60.0   33.333333333333336
-250.0   60.0   50.0
-200.0   90.0   50.0
-200.0   60.0   33.333333333333336
-250.0   90.0   33.333333333333336
-250.0   90.0   0.0
-200.0   90.0   0.0
-250.0   120.0   0.0
-250.0   90.0   16.666666666666668
-200.0   90.0   0.0
-200.0   120.0   0.0
-250.0   120.0   0.0
-200.0   120.0   16.666666666666668
-250.0   90.0   16.666666666666668
-250.0   120.0   16.666666666666668
-200.0   120.0   16.666666666666668
-250.0   120.0   0.0
-250.0   90.0   16.666666666666668
-200.0   120.0   16.666666666666668
-200.0   90.0   16.666666666666668
-200.0   90.0   0.0
-250.0   90.0   16.666666666666668
-200.0   120.0   16.666666666666668
-200.0   90.0   0.0
-250.0   120.0   0.0
-250.0   90.0   16.666666666666668
-200.0   90.0   16.666666666666668
-250.0   120.0   16.666666666666668
-250.0   90.0   33.333333333333336
-200.0   90.0   16.666666666666668
-200.0   120.0   16.666666666666668
-250.0   120.0   16.666666666666668
-200.0   120.0   33.333333333333336
-250.0   90.0   33.333333333333336
-250.0   120.0   33.333333333333336
-200.0   120.0   33.333333333333336
-250.0   120.0   16.666666666666668
-250.0   90.0   33.333333333333336
-200.0   120.0   33.333333333333336
-200.0   90.0   33.333333333333336
-200.0   90.0   16.666666666666668
-250.0   90.0   33.333333333333336
-200.0   120.0   33.333333333333336
-200.0   90.0   16.666666666666668
-250.0   120.0   16.666666666666668
-250.0   90.0   33.333333333333336
-200.0   90.0   33.333333333333336
-250.0   120.0   33.333333333333336
-250.0   90.0   50.0
-200.0   90.0   33.333333333333336
-200.0   120.0   33.333333333333336
-250.0   120.0   33.333333333333336
-200.0   120.0   50.0
-250.0   90.0   50.0
-250.0   120.0   50.0
-200.0   120.0   50.0
-250.0   120.0   33.333333333333336
-250.0   90.0   50.0
-200.0   120.0   50.0
-200.0   90.0   50.0
-200.0   90.0   33.333333333333336
-250.0   90.0   50.0
-200.0   120.0   50.0
-200.0   90.0   33.333333333333336
-250.0   120.0   33.333333333333336
-250.0   120.0   0.0
-200.0   120.0   0.0
-250.0   150.0   0.0
-250.0   120.0   16.666666666666668
-200.0   120.0   0.0
-200.0   150.0   0.0
-250.0   150.0   0.0
-200.0   150.0   16.666666666666668
-250.0   120.0   16.666666666666668
-250.0   150.0   16.666666666666668
-200.0   150.0   16.666666666666668
-250.0   150.0   0.0
-250.0   120.0   16.666666666666668
-200.0   150.0   16.666666666666668
-200.0   120.0   16.666666666666668
-200.0   120.0   0.0
-250.0   120.0   16.666666666666668
-200.0   150.0   16.666666666666668
-200.0   120.0   0.0
-250.0   150.0   0.0
-250.0   120.0   16.666666666666668
-200.0   120.0   16.666666666666668
-250.0   150.0   16.666666666666668
-250.0   120.0   33.333333333333336
-200.0   120.0   16.666666666666668
-200.0   150.0   16.666666666666668
-250.0   150.0   16.666666666666668
-200.0   150.0   33.333333333333336
-250.0   120.0   33.333333333333336
-250.0   150.0   33.333333333333336
-200.0   150.0   33.333333333333336
-250.0   150.0   16.666666666666668
-250.0   120.0   33.333333333333336
-200.0   150.0   33.333333333333336
-200.0   120.0   33.333333333333336
-200.0   120.0   16.666666666666668
-250.0   120.0   33.333333333333336
-200.0   150.0   33.333333333333336
-200.0   120.0   16.666666666666668
-250.0   150.0   16.666666666666668
-250.0   120.0   33.333333333333336
-200.0   120.0   33.333333333333336
-250.0   150.0   33.333333333333336
-250.0   120.0   50.0
-200.0   120.0   33.333333333333336
-200.0   150.0   33.333333333333336
-250.0   150.0   33.333333333333336
-200.0   150.0   50.0
-250.0   120.0   50.0
-250.0   150.0   50.0
-200.0   150.0   50.0
-250.0   150.0   33.333333333333336
-250.0   120.0   50.0
-200.0   150.0   50.0
-200.0   120.0   50.0
-200.0   120.0   33.333333333333336
-250.0   120.0   50.0
-200.0   150.0   50.0
-200.0   120.0   33.333333333333336
-250.0   150.0   33.333333333333336
-200.0   0.0   0.0
-150.0   0.0   0.0
-200.0   30.0   0.0
-200.0   0.0   16.666666666666668
-150.0   0.0   0.0
-150.0   30.0   0.0
-200.0   30.0   0.0
-150.0   30.0   16.666666666666668
-200.0   0.0   16.666666666666668
-200.0   30.0   16.666666666666668
-150.0   30.0   16.666666666666668
-200.0   30.0   0.0
-200.0   0.0   16.666666666666668
-150.0   30.0   16.666666666666668
-150.0   0.0   16.666666666666668
-150.0   0.0   0.0
-200.0   0.0   16.666666666666668
-150.0   30.0   16.666666666666668
-150.0   0.0   0.0
-200.0   30.0   0.0
-200.0   0.0   16.666666666666668
-150.0   0.0   16.666666666666668
-200.0   30.0   16.666666666666668
-200.0   0.0   33.333333333333336
-150.0   0.0   16.666666666666668
-150.0   30.0   16.666666666666668
-200.0   30.0   16.666666666666668
-150.0   30.0   33.333333333333336
-200.0   0.0   33.333333333333336
-200.0   30.0   33.333333333333336
-150.0   30.0   33.333333333333336
-200.0   30.0   16.666666666666668
-200.0   0.0   33.333333333333336
-150.0   30.0   33.333333333333336
-150.0   0.0   33.333333333333336
-150.0   0.0   16.666666666666668
-200.0   0.0   33.333333333333336
-150.0   30.0   33.333333333333336
-150.0   0.0   16.666666666666668
-200.0   30.0   16.666666666666668
-200.0   0.0   33.333333333333336
-150.0   0.0   33.333333333333336
-200.0   30.0   33.333333333333336
-200.0   0.0   50.0
-150.0   0.0   33.333333333333336
-150.0   30.0   33.333333333333336
-200.0   30.0   33.333333333333336
-150.0   30.0   50.0
-200.0   0.0   50.0
-200.0   30.0   50.0
-150.0   30.0   50.0
-200.0   30.0   33.333333333333336
-200.0   0.0   50.0
-150.0   30.0   50.0
-150.0   0.0   50.0
-150.0   0.0   33.333333333333336
-200.0   0.0   50.0
-150.0   30.0   50.0
-150.0   0.0   33.333333333333336
-200.0   30.0   33.333333333333336
-200.0   30.0   0.0
-150.0   30.0   0.0
-200.0   60.0   0.0
-200.0   30.0   16.666666666666668
-150.0   30.0   0.0
-150.0   60.0   0.0
-200.0   60.0   0.0
-150.0   60.0   16.666666666666668
-200.0   30.0   16.666666666666668
-200.0   60.0   16.666666666666668
-150.0   60.0   16.666666666666668
-200.0   60.0   0.0
-200.0   30.0   16.666666666666668
-150.0   60.0   16.666666666666668
-150.0   30.0   16.666666666666668
-150.0   30.0   0.0
-200.0   30.0   16.666666666666668
-150.0   60.0   16.666666666666668
-150.0   30.0   0.0
-200.0   60.0   0.0
-200.0   30.0   16.666666666666668
-150.0   30.0   16.666666666666668
-200.0   60.0   16.666666666666668
-200.0   30.0   33.333333333333336
-150.0   30.0   16.666666666666668
-150.0   60.0   16.666666666666668
-200.0   60.0   16.666666666666668
-150.0   60.0   33.333333333333336
-200.0   30.0   33.333333333333336
-200.0   60.0   33.333333333333336
-150.0   60.0   33.333333333333336
-200.0   60.0   16.666666666666668
-200.0   30.0   33.333333333333336
-150.0   60.0   33.333333333333336
-150.0   30.0   33.333333333333336
-150.0   30.0   16.666666666666668
-200.0   30.0   33.333333333333336
-150.0   60.0   33.333333333333336
-150.0   30.0   16.666666666666668
-200.0   60.0   16.666666666666668
-200.0   30.0   33.333333333333336
-150.0   30.0   33.333333333333336
-200.0   60.0   33.333333333333336
-200.0   30.0   50.0
-150.0   30.0   33.333333333333336
-150.0   60.0   33.333333333333336
-200.0   60.0   33.333333333333336
-150.0   60.0   50.0
-200.0   30.0   50.0
-200.0   60.0   50.0
-150.0   60.0   50.0
-200.0   60.0   33.333333333333336
-200.0   30.0   50.0
-150.0   60.0   50.0
-150.0   30.0   50.0
-150.0   30.0   33.333333333333336
-200.0   30.0   50.0
-150.0   60.0   50.0
-150.0   30.0   33.333333333333336
-200.0   60.0   33.333333333333336
-200.0   60.0   0.0
-150.0   60.0   0.0
-200.0   90.0   0.0
-200.0   60.0   16.666666666666668
-150.0   60.0   0.0
-150.0   90.0   0.0
-200.0   90.0   0.0
-150.0   90.0   16.666666666666668
-200.0   60.0   16.666666666666668
-200.0   90.0   16.666666666666668
-150.0   90.0   16.666666666666668
-200.0   90.0   0.0
-200.0   60.0   16.666666666666668
-150.0   90.0   16.666666666666668
-150.0   60.0   16.666666666666668
-150.0   60.0   0.0
-200.0   60.0   16.666666666666668
-150.0   90.0   16.666666666666668
-150.0   60.0   0.0
-200.0   90.0   0.0
-200.0   60.0   16.666666666666668
-150.0   60.0   16.666666666666668
-200.0   90.0   16.666666666666668
-200.0   60.0   33.333333333333336
-150.0   60.0   16.666666666666668
-150.0   90.0   16.666666666666668
-200.0   90.0   16.666666666666668
-150.0   90.0   33.333333333333336
-200.0   60.0   33.333333333333336
-200.0   90.0   33.333333333333336
-150.0   90.0   33.333333333333336
-200.0   90.0   16.666666666666668
-200.0   60.0   33.333333333333336
-150.0   90.0   33.333333333333336
-150.0   60.0   33.333333333333336
-150.0   60.0   16.666666666666668
-200.0   60.0   33.333333333333336
-150.0   90.0   33.333333333333336
-150.0   60.0   16.666666666666668
-200.0   90.0   16.666666666666668
-200.0   60.0   33.333333333333336
-150.0   60.0   33.333333333333336
-200.0   90.0   33.333333333333336
-200.0   60.0   50.0
-150.0   60.0   33.333333333333336
-150.0   90.0   33.333333333333336
-200.0   90.0   33.333333333333336
-150.0   90.0   50.0
-200.0   60.0   50.0
-200.0   90.0   50.0
-150.0   90.0   50.0
-200.0   90.0   33.333333333333336
-200.0   60.0   50.0
-150.0   90.0   50.0
-150.0   60.0   50.0
-150.0   60.0   33.333333333333336
-200.0   60.0   50.0
-150.0   90.0   50.0
-150.0   60.0   33.333333333333336
-200.0   90.0   33.333333333333336
-200.0   90.0   0.0
-150.0   90.0   0.0
-200.0   120.0   0.0
-200.0   90.0   16.666666666666668
-150.0   90.0   0.0
-150.0   120.0   0.0
-200.0   120.0   0.0
-150.0   120.0   16.666666666666668
-200.0   90.0   16.666666666666668
-200.0   120.0   16.666666666666668
-150.0   120.0   16.666666666666668
-200.0   120.0   0.0
-200.0   90.0   16.666666666666668
-150.0   120.0   16.666666666666668
-150.0   90.0   16.666666666666668
-150.0   90.0   0.0
-200.0   90.0   16.666666666666668
-150.0   120.0   16.666666666666668
-150.0   90.0   0.0
-200.0   120.0   0.0
-200.0   90.0   16.666666666666668
-150.0   90.0   16.666666666666668
-200.0   120.0   16.666666666666668
-200.0   90.0   33.333333333333336
-150.0   90.0   16.666666666666668
-150.0   120.0   16.666666666666668
-200.0   120.0   16.666666666666668
-150.0   120.0   33.333333333333336
-200.0   90.0   33.333333333333336
-200.0   120.0   33.333333333333336
-150.0   120.0   33.333333333333336
-200.0   120.0   16.666666666666668
-200.0   90.0   33.333333333333336
-150.0   120.0   33.333333333333336
-150.0   90.0   33.333333333333336
-150.0   90.0   16.666666666666668
-200.0   90.0   33.333333333333336
-150.0   120.0   33.333333333333336
-150.0   90.0   16.666666666666668
-200.0   120.0   16.666666666666668
-200.0   90.0   33.333333333333336
-150.0   90.0   33.333333333333336
-200.0   120.0   33.333333333333336
-200.0   90.0   50.0
-150.0   90.0   33.333333333333336
-150.0   120.0   33.333333333333336
-200.0   120.0   33.333333333333336
-150.0   120.0   50.0
-200.0   90.0   50.0
-200.0   120.0   50.0
-150.0   120.0   50.0
-200.0   120.0   33.333333333333336
-200.0   90.0   50.0
-150.0   120.0   50.0
-150.0   90.0   50.0
-150.0   90.0   33.333333333333336
-200.0   90.0   50.0
-150.0   120.0   50.0
-150.0   90.0   33.333333333333336
-200.0   120.0   33.333333333333336
-200.0   120.0   0.0
-150.0   120.0   0.0
-200.0   150.0   0.0
-200.0   120.0   16.666666666666668
-150.0   120.0   0.0
-150.0   150.0   0.0
-200.0   150.0   0.0
-150.0   150.0   16.666666666666668
-200.0   120.0   16.666666666666668
-200.0   150.0   16.666666666666668
-150.0   150.0   16.666666666666668
-200.0   150.0   0.0
-200.0   120.0   16.666666666666668
-150.0   150.0   16.666666666666668
-150.0   120.0   16.666666666666668
-150.0   120.0   0.0
-200.0   120.0   16.666666666666668
-150.0   150.0   16.666666666666668
-150.0   120.0   0.0
-200.0   150.0   0.0
-200.0   120.0   16.666666666666668
-150.0   120.0   16.666666666666668
-200.0   150.0   16.666666666666668
-200.0   120.0   33.333333333333336
-150.0   120.0   16.666666666666668
-150.0   150.0   16.666666666666668
-200.0   150.0   16.666666666666668
-150.0   150.0   33.333333333333336
-200.0   120.0   33.333333333333336
-200.0   150.0   33.333333333333336
-150.0   150.0   33.333333333333336
-200.0   150.0   16.666666666666668
-200.0   120.0   33.333333333333336
-150.0   150.0   33.333333333333336
-150.0   120.0   33.333333333333336
-150.0   120.0   16.666666666666668
-200.0   120.0   33.333333333333336
-150.0   150.0   33.333333333333336
-150.0   120.0   16.666666666666668
-200.0   150.0   16.666666666666668
-200.0   120.0   33.333333333333336
-150.0   120.0   33.333333333333336
-200.0   150.0   33.333333333333336
-200.0   120.0   50.0
-150.0   120.0   33.333333333333336
-150.0   150.0   33.333333333333336
-200.0   150.0   33.333333333333336
-150.0   150.0   50.0
-200.0   120.0   50.0
-200.0   150.0   50.0
-150.0   150.0   50.0
-200.0   150.0   33.333333333333336
-200.0   120.0   50.0
-150.0   150.0   50.0
-150.0   120.0   50.0
-150.0   120.0   33.333333333333336
-200.0   120.0   50.0
-150.0   150.0   50.0
-150.0   120.0   33.333333333333336
-200.0   150.0   33.333333333333336
-150.0   0.0   0.0
-100.0   0.0   0.0
-150.0   30.0   0.0
-150.0   0.0   16.666666666666668
-100.0   0.0   0.0
-100.0   30.0   0.0
-150.0   30.0   0.0
-100.0   30.0   16.666666666666668
-150.0   0.0   16.666666666666668
-150.0   30.0   16.666666666666668
-100.0   30.0   16.666666666666668
-150.0   30.0   0.0
-150.0   0.0   16.666666666666668
-100.0   30.0   16.666666666666668
-100.0   0.0   16.666666666666668
-100.0   0.0   0.0
-150.0   0.0   16.666666666666668
-100.0   30.0   16.666666666666668
-100.0   0.0   0.0
-150.0   30.0   0.0
-150.0   0.0   16.666666666666668
-100.0   0.0   16.666666666666668
-150.0   30.0   16.666666666666668
-150.0   0.0   33.333333333333336
-100.0   0.0   16.666666666666668
-100.0   30.0   16.666666666666668
-150.0   30.0   16.666666666666668
-100.0   30.0   33.333333333333336
-150.0   0.0   33.333333333333336
-150.0   30.0   33.333333333333336
-100.0   30.0   33.333333333333336
-150.0   30.0   16.666666666666668
-150.0   0.0   33.333333333333336
-100.0   30.0   33.333333333333336
-100.0   0.0   33.333333333333336
-100.0   0.0   16.666666666666668
-150.0   0.0   33.333333333333336
-100.0   30.0   33.333333333333336
-100.0   0.0   16.666666666666668
-150.0   30.0   16.666666666666668
-150.0   0.0   33.333333333333336
-100.0   0.0   33.333333333333336
-150.0   30.0   33.333333333333336
-150.0   0.0   50.0
-100.0   0.0   33.333333333333336
-100.0   30.0   33.333333333333336
-150.0   30.0   33.333333333333336
-100.0   30.0   50.0
-150.0   0.0   50.0
-150.0   30.0   50.0
-100.0   30.0   50.0
-150.0   30.0   33.333333333333336
-150.0   0.0   50.0
-100.0   30.0   50.0
-100.0   0.0   50.0
-100.0   0.0   33.333333333333336
-150.0   0.0   50.0
-100.0   30.0   50.0
-100.0   0.0   33.333333333333336
-150.0   30.0   33.333333333333336
-150.0   30.0   0.0
-100.0   30.0   0.0
-150.0   60.0   0.0
-150.0   30.0   16.666666666666668
-100.0   30.0   0.0
-100.0   60.0   0.0
-150.0   60.0   0.0
-100.0   60.0   16.666666666666668
-150.0   30.0   16.666666666666668
-150.0   60.0   16.666666666666668
-100.0   60.0   16.666666666666668
-150.0   60.0   0.0
-150.0   30.0   16.666666666666668
-100.0   60.0   16.666666666666668
-100.0   30.0   16.666666666666668
-100.0   30.0   0.0
-150.0   30.0   16.666666666666668
-100.0   60.0   16.666666666666668
-100.0   30.0   0.0
-150.0   60.0   0.0
-150.0   30.0   16.666666666666668
-100.0   30.0   16.666666666666668
-150.0   60.0   16.666666666666668
-150.0   30.0   33.333333333333336
-100.0   30.0   16.666666666666668
-100.0   60.0   16.666666666666668
-150.0   60.0   16.666666666666668
-100.0   60.0   33.333333333333336
-150.0   30.0   33.333333333333336
-150.0   60.0   33.333333333333336
-100.0   60.0   33.333333333333336
-150.0   60.0   16.666666666666668
-150.0   30.0   33.333333333333336
-100.0   60.0   33.333333333333336
-100.0   30.0   33.333333333333336
-100.0   30.0   16.666666666666668
-150.0   30.0   33.333333333333336
-100.0   60.0   33.333333333333336
-100.0   30.0   16.666666666666668
-150.0   60.0   16.666666666666668
-150.0   30.0   33.333333333333336
-100.0   30.0   33.333333333333336
-150.0   60.0   33.333333333333336
-150.0   30.0   50.0
-100.0   30.0   33.333333333333336
-100.0   60.0   33.333333333333336
-150.0   60.0   33.333333333333336
-100.0   60.0   50.0
-150.0   30.0   50.0
-150.0   60.0   50.0
-100.0   60.0   50.0
-150.0   60.0   33.333333333333336
-150.0   30.0   50.0
-100.0   60.0   50.0
-100.0   30.0   50.0
-100.0   30.0   33.333333333333336
-150.0   30.0   50.0
-100.0   60.0   50.0
-100.0   30.0   33.333333333333336
-150.0   60.0   33.333333333333336
-150.0   60.0   0.0
-100.0   60.0   0.0
-150.0   90.0   0.0
-150.0   60.0   16.666666666666668
-100.0   60.0   0.0
-100.0   90.0   0.0
-150.0   90.0   0.0
-100.0   90.0   16.666666666666668
-150.0   60.0   16.666666666666668
-150.0   90.0   16.666666666666668
-100.0   90.0   16.666666666666668
-150.0   90.0   0.0
-150.0   60.0   16.666666666666668
-100.0   90.0   16.666666666666668
-100.0   60.0   16.666666666666668
-100.0   60.0   0.0
-150.0   60.0   16.666666666666668
-100.0   90.0   16.666666666666668
-100.0   60.0   0.0
-150.0   90.0   0.0
-150.0   60.0   16.666666666666668
-100.0   60.0   16.666666666666668
-150.0   90.0   16.666666666666668
-150.0   60.0   33.333333333333336
-100.0   60.0   16.666666666666668
-100.0   90.0   16.666666666666668
-150.0   90.0   16.666666666666668
-100.0   90.0   33.333333333333336
-150.0   60.0   33.333333333333336
-150.0   90.0   33.333333333333336
-100.0   90.0   33.333333333333336
-150.0   90.0   16.666666666666668
-150.0   60.0   33.333333333333336
-100.0   90.0   33.333333333333336
-100.0   60.0   33.333333333333336
-100.0   60.0   16.666666666666668
-150.0   60.0   33.333333333333336
-100.0   90.0   33.333333333333336
-100.0   60.0   16.666666666666668
-150.0   90.0   16.666666666666668
-150.0   60.0   33.333333333333336
-100.0   60.0   33.333333333333336
-150.0   90.0   33.333333333333336
-150.0   60.0   50.0
-100.0   60.0   33.333333333333336
-100.0   90.0   33.333333333333336
-150.0   90.0   33.333333333333336
-100.0   90.0   50.0
-150.0   60.0   50.0
-150.0   90.0   50.0
-100.0   90.0   50.0
-150.0   90.0   33.333333333333336
-150.0   60.0   50.0
-100.0   90.0   50.0
-100.0   60.0   50.0
-100.0   60.0   33.333333333333336
-150.0   60.0   50.0
-100.0   90.0   50.0
-100.0   60.0   33.333333333333336
-150.0   90.0   33.333333333333336
-150.0   90.0   0.0
-100.0   90.0   0.0
-150.0   120.0   0.0
-150.0   90.0   16.666666666666668
-100.0   90.0   0.0
-100.0   120.0   0.0
-150.0   120.0   0.0
-100.0   120.0   16.666666666666668
-150.0   90.0   16.666666666666668
-150.0   120.0   16.666666666666668
-100.0   120.0   16.666666666666668
-150.0   120.0   0.0
-150.0   90.0   16.666666666666668
-100.0   120.0   16.666666666666668
-100.0   90.0   16.666666666666668
-100.0   90.0   0.0
-150.0   90.0   16.666666666666668
-100.0   120.0   16.666666666666668
-100.0   90.0   0.0
-150.0   120.0   0.0
-150.0   90.0   16.666666666666668
-100.0   90.0   16.666666666666668
-150.0   120.0   16.666666666666668
-150.0   90.0   33.333333333333336
-100.0   90.0   16.666666666666668
-100.0   120.0   16.666666666666668
-150.0   120.0   16.666666666666668
-100.0   120.0   33.333333333333336
-150.0   90.0   33.333333333333336
-150.0   120.0   33.333333333333336
-100.0   120.0   33.333333333333336
-150.0   120.0   16.666666666666668
-150.0   90.0   33.333333333333336
-100.0   120.0   33.333333333333336
-100.0   90.0   33.333333333333336
-100.0   90.0   16.666666666666668
-150.0   90.0   33.333333333333336
-100.0   120.0   33.333333333333336
-100.0   90.0   16.666666666666668
-150.0   120.0   16.666666666666668
-150.0   90.0   33.333333333333336
-100.0   90.0   33.333333333333336
-150.0   120.0   33.333333333333336
-150.0   90.0   50.0
-100.0   90.0   33.333333333333336
-100.0   120.0   33.333333333333336
-150.0   120.0   33.333333333333336
-100.0   120.0   50.0
-150.0   90.0   50.0
-150.0   120.0   50.0
-100.0   120.0   50.0
-150.0   120.0   33.333333333333336
-150.0   90.0   50.0
-100.0   120.0   50.0
-100.0   90.0   50.0
-100.0   90.0   33.333333333333336
-150.0   90.0   50.0
-100.0   120.0   50.0
-100.0   90.0   33.333333333333336
-150.0   120.0   33.333333333333336
-150.0   120.0   0.0
-100.0   120.0   0.0
-150.0   150.0   0.0
-150.0   120.0   16.666666666666668
-100.0   120.0   0.0
-100.0   150.0   0.0
-150.0   150.0   0.0
-100.0   150.0   16.666666666666668
-150.0   120.0   16.666666666666668
-150.0   150.0   16.666666666666668
-100.0   150.0   16.666666666666668
-150.0   150.0   0.0
-150.0   120.0   16.666666666666668
-100.0   150.0   16.666666666666668
-100.0   120.0   16.666666666666668
-100.0   120.0   0.0
-150.0   120.0   16.666666666666668
-100.0   150.0   16.666666666666668
-100.0   120.0   0.0
-150.0   150.0   0.0
-150.0   120.0   16.666666666666668
-100.0   120.0   16.666666666666668
-150.0   150.0   16.666666666666668
-150.0   120.0   33.333333333333336
-100.0   120.0   16.666666666666668
-100.0   150.0   16.666666666666668
-150.0   150.0   16.666666666666668
-100.0   150.0   33.333333333333336
-150.0   120.0   33.333333333333336
-150.0   150.0   33.333333333333336
-100.0   150.0   33.333333333333336
-150.0   150.0   16.666666666666668
-150.0   120.0   33.333333333333336
-100.0   150.0   33.333333333333336
-100.0   120.0   33.333333333333336
-100.0   120.0   16.666666666666668
-150.0   120.0   33.333333333333336
-100.0   150.0   33.333333333333336
-100.0   120.0   16.666666666666668
-150.0   150.0   16.666666666666668
-150.0   120.0   33.333333333333336
-100.0   120.0   33.333333333333336
-150.0   150.0   33.333333333333336
-150.0   120.0   50.0
-100.0   120.0   33.333333333333336
-100.0   150.0   33.333333333333336
-150.0   150.0   33.333333333333336
-100.0   150.0   50.0
-150.0   120.0   50.0
-150.0   150.0   50.0
-100.0   150.0   50.0
-150.0   150.0   33.333333333333336
-150.0   120.0   50.0
-100.0   150.0   50.0
-100.0   120.0   50.0
-100.0   120.0   33.333333333333336
-150.0   120.0   50.0
-100.0   150.0   50.0
-100.0   120.0   33.333333333333336
-150.0   150.0   33.333333333333336
-100.0   0.0   0.0
-50.0   0.0   0.0
-100.0   30.0   0.0
-100.0   0.0   16.666666666666668
-50.0   0.0   0.0
-50.0   30.0   0.0
-100.0   30.0   0.0
-50.0   30.0   16.666666666666668
-100.0   0.0   16.666666666666668
-100.0   30.0   16.666666666666668
-50.0   30.0   16.666666666666668
-100.0   30.0   0.0
-100.0   0.0   16.666666666666668
-50.0   30.0   16.666666666666668
-50.0   0.0   16.666666666666668
-50.0   0.0   0.0
-100.0   0.0   16.666666666666668
-50.0   30.0   16.666666666666668
-50.0   0.0   0.0
-100.0   30.0   0.0
-100.0   0.0   16.666666666666668
-50.0   0.0   16.666666666666668
-100.0   30.0   16.666666666666668
-100.0   0.0   33.333333333333336
-50.0   0.0   16.666666666666668
-50.0   30.0   16.666666666666668
-100.0   30.0   16.666666666666668
-50.0   30.0   33.333333333333336
-100.0   0.0   33.333333333333336
-100.0   30.0   33.333333333333336
-50.0   30.0   33.333333333333336
-100.0   30.0   16.666666666666668
-100.0   0.0   33.333333333333336
-50.0   30.0   33.333333333333336
-50.0   0.0   33.333333333333336
-50.0   0.0   16.666666666666668
-100.0   0.0   33.333333333333336
-50.0   30.0   33.333333333333336
-50.0   0.0   16.666666666666668
-100.0   30.0   16.666666666666668
-100.0   0.0   33.333333333333336
-50.0   0.0   33.333333333333336
-100.0   30.0   33.333333333333336
-100.0   0.0   50.0
-50.0   0.0   33.333333333333336
-50.0   30.0   33.333333333333336
-100.0   30.0   33.333333333333336
-50.0   30.0   50.0
-100.0   0.0   50.0
-100.0   30.0   50.0
-50.0   30.0   50.0
-100.0   30.0   33.333333333333336
-100.0   0.0   50.0
-50.0   30.0   50.0
-50.0   0.0   50.0
-50.0   0.0   33.333333333333336
-100.0   0.0   50.0
-50.0   30.0   50.0
-50.0   0.0   33.333333333333336
-100.0   30.0   33.333333333333336
-100.0   30.0   0.0
-50.0   30.0   0.0
-100.0   60.0   0.0
-100.0   30.0   16.666666666666668
-50.0   30.0   0.0
-50.0   60.0   0.0
-100.0   60.0   0.0
-50.0   60.0   16.666666666666668
-100.0   30.0   16.666666666666668
-100.0   60.0   16.666666666666668
-50.0   60.0   16.666666666666668
-100.0   60.0   0.0
-100.0   30.0   16.666666666666668
-50.0   60.0   16.666666666666668
-50.0   30.0   16.666666666666668
-50.0   30.0   0.0
-100.0   30.0   16.666666666666668
-50.0   60.0   16.666666666666668
-50.0   30.0   0.0
-100.0   60.0   0.0
-100.0   30.0   16.666666666666668
-50.0   30.0   16.666666666666668
-100.0   60.0   16.666666666666668
-100.0   30.0   33.333333333333336
-50.0   30.0   16.666666666666668
-50.0   60.0   16.666666666666668
-100.0   60.0   16.666666666666668
-50.0   60.0   33.333333333333336
-100.0   30.0   33.333333333333336
-100.0   60.0   33.333333333333336
-50.0   60.0   33.333333333333336
-100.0   60.0   16.666666666666668
-100.0   30.0   33.333333333333336
-50.0   60.0   33.333333333333336
-50.0   30.0   33.333333333333336
-50.0   30.0   16.666666666666668
-100.0   30.0   33.333333333333336
-50.0   60.0   33.333333333333336
-50.0   30.0   16.666666666666668
-100.0   60.0   16.666666666666668
-100.0   30.0   33.333333333333336
-50.0   30.0   33.333333333333336
-100.0   60.0   33.333333333333336
-100.0   30.0   50.0
-50.0   30.0   33.333333333333336
-50.0   60.0   33.333333333333336
-100.0   60.0   33.333333333333336
-50.0   60.0   50.0
-100.0   30.0   50.0
-100.0   60.0   50.0
-50.0   60.0   50.0
-100.0   60.0   33.333333333333336
-100.0   30.0   50.0
-50.0   60.0   50.0
-50.0   30.0   50.0
-50.0   30.0   33.333333333333336
-100.0   30.0   50.0
-50.0   60.0   50.0
-50.0   30.0   33.333333333333336
-100.0   60.0   33.333333333333336
-100.0   60.0   0.0
-50.0   60.0   0.0
-100.0   90.0   0.0
-100.0   60.0   16.666666666666668
-50.0   60.0   0.0
-50.0   90.0   0.0
-100.0   90.0   0.0
-50.0   90.0   16.666666666666668
-100.0   60.0   16.666666666666668
-100.0   90.0   16.666666666666668
-50.0   90.0   16.666666666666668
-100.0   90.0   0.0
-100.0   60.0   16.666666666666668
-50.0   90.0   16.666666666666668
-50.0   60.0   16.666666666666668
-50.0   60.0   0.0
-100.0   60.0   16.666666666666668
-50.0   90.0   16.666666666666668
-50.0   60.0   0.0
-100.0   90.0   0.0
-100.0   60.0   16.666666666666668
-50.0   60.0   16.666666666666668
-100.0   90.0   16.666666666666668
-100.0   60.0   33.333333333333336
-50.0   60.0   16.666666666666668
-50.0   90.0   16.666666666666668
-100.0   90.0   16.666666666666668
-50.0   90.0   33.333333333333336
-100.0   60.0   33.333333333333336
-100.0   90.0   33.333333333333336
-50.0   90.0   33.333333333333336
-100.0   90.0   16.666666666666668
-100.0   60.0   33.333333333333336
-50.0   90.0   33.333333333333336
-50.0   60.0   33.333333333333336
-50.0   60.0   16.666666666666668
-100.0   60.0   33.333333333333336
-50.0   90.0   33.333333333333336
-50.0   60.0   16.666666666666668
-100.0   90.0   16.666666666666668
-100.0   60.0   33.333333333333336
-50.0   60.0   33.333333333333336
-100.0   90.0   33.333333333333336
-100.0   60.0   50.0
-50.0   60.0   33.333333333333336
-50.0   90.0   33.333333333333336
-100.0   90.0   33.333333333333336
-50.0   90.0   50.0
-100.0   60.0   50.0
-100.0   90.0   50.0
-50.0   90.0   50.0
-100.0   90.0   33.333333333333336
-100.0   60.0   50.0
-50.0   90.0   50.0
-50.0   60.0   50.0
-50.0   60.0   33.333333333333336
-100.0   60.0   50.0
-50.0   90.0   50.0
-50.0   60.0   33.333333333333336
-100.0   90.0   33.333333333333336
-100.0   90.0   0.0
-50.0   90.0   0.0
-100.0   120.0   0.0
-100.0   90.0   16.666666666666668
-50.0   90.0   0.0
-50.0   120.0   0.0
-100.0   120.0   0.0
-50.0   120.0   16.666666666666668
-100.0   90.0   16.666666666666668
-100.0   120.0   16.666666666666668
-50.0   120.0   16.666666666666668
-100.0   120.0   0.0
-100.0   90.0   16.666666666666668
-50.0   120.0   16.666666666666668
-50.0   90.0   16.666666666666668
-50.0   90.0   0.0
-100.0   90.0   16.666666666666668
-50.0   120.0   16.666666666666668
-50.0   90.0   0.0
-100.0   120.0   0.0
-100.0   90.0   16.666666666666668
-50.0   90.0   16.666666666666668
-100.0   120.0   16.666666666666668
-100.0   90.0   33.333333333333336
-50.0   90.0   16.666666666666668
-50.0   120.0   16.666666666666668
-100.0   120.0   16.666666666666668
-50.0   120.0   33.333333333333336
-100.0   90.0   33.333333333333336
-100.0   120.0   33.333333333333336
-50.0   120.0   33.333333333333336
-100.0   120.0   16.666666666666668
-100.0   90.0   33.333333333333336
-50.0   120.0   33.333333333333336
-50.0   90.0   33.333333333333336
-50.0   90.0   16.666666666666668
-100.0   90.0   33.333333333333336
-50.0   120.0   33.333333333333336
-50.0   90.0   16.666666666666668
-100.0   120.0   16.666666666666668
-100.0   90.0   33.333333333333336
-50.0   90.0   33.333333333333336
-100.0   120.0   33.333333333333336
-100.0   90.0   50.0
-50.0   90.0   33.333333333333336
-50.0   120.0   33.333333333333336
-100.0   120.0   33.333333333333336
-50.0   120.0   50.0
-100.0   90.0   50.0
-100.0   120.0   50.0
-50.0   120.0   50.0
-100.0   120.0   33.333333333333336
-100.0   90.0   50.0
-50.0   120.0   50.0
-50.0   90.0   50.0
-50.0   90.0   33.333333333333336
-100.0   90.0   50.0
-50.0   120.0   50.0
-50.0   90.0   33.333333333333336
-100.0   120.0   33.333333333333336
-100.0   120.0   0.0
-50.0   120.0   0.0
-100.0   150.0   0.0
-100.0   120.0   16.666666666666668
-50.0   120.0   0.0
-50.0   150.0   0.0
-100.0   150.0   0.0
-50.0   150.0   16.666666666666668
-100.0   120.0   16.666666666666668
-100.0   150.0   16.666666666666668
-50.0   150.0   16.666666666666668
-100.0   150.0   0.0
-100.0   120.0   16.666666666666668
-50.0   150.0   16.666666666666668
-50.0   120.0   16.666666666666668
-50.0   120.0   0.0
-100.0   120.0   16.666666666666668
-50.0   150.0   16.666666666666668
-50.0   120.0   0.0
-100.0   150.0   0.0
-100.0   120.0   16.666666666666668
-50.0   120.0   16.666666666666668
-100.0   150.0   16.666666666666668
-100.0   120.0   33.333333333333336
-50.0   120.0   16.666666666666668
-50.0   150.0   16.666666666666668
-100.0   150.0   16.666666666666668
-50.0   150.0   33.333333333333336
-100.0   120.0   33.333333333333336
-100.0   150.0   33.333333333333336
-50.0   150.0   33.333333333333336
-100.0   150.0   16.666666666666668
-100.0   120.0   33.333333333333336
-50.0   150.0   33.333333333333336
-50.0   120.0   33.333333333333336
-50.0   120.0   16.666666666666668
-100.0   120.0   33.333333333333336
-50.0   150.0   33.333333333333336
-50.0   120.0   16.666666666666668
-100.0   150.0   16.666666666666668
-100.0   120.0   33.333333333333336
-50.0   120.0   33.333333333333336
-100.0   150.0   33.333333333333336
-100.0   120.0   50.0
-50.0   120.0   33.333333333333336
-50.0   150.0   33.333333333333336
-100.0   150.0   33.333333333333336
-50.0   150.0   50.0
-100.0   120.0   50.0
-100.0   150.0   50.0
-50.0   150.0   50.0
-100.0   150.0   33.333333333333336
-100.0   120.0   50.0
-50.0   150.0   50.0
-50.0   120.0   50.0
-50.0   120.0   33.333333333333336
-100.0   120.0   50.0
-50.0   150.0   50.0
-50.0   120.0   33.333333333333336
-100.0   150.0   33.333333333333336
-50.0   0.0   0.0
0.0   0.0   0.0
-50.0   30.0   0.0
-50.0   0.0   16.666666666666668
0.0   0.0   0.0
0.0   30.0   0.0
-50.0   30.0   0.0
0.0   30.0   16.666666666666668
-50.0   0.0   16.666666666666668
-50.0   30.0   16.666666666666668
0.0   30.0   16.666666666666668
-50.0   30.0   0.0
-50.0   0.0   16.666666666666668
0.0   30.0   16.666666666666668
0.0   0.0   16.666666666666668
0.0   0.0   0.0
-50.0   0.0   16.666666666666668
0.0   30.0   16.666666666666668
0.0   0.0   0.0
-50.0   30.0   0.0
-50.0   0.0   16.666666666666668
0.0   0.0   16.666666666666668
-50.0   30.0   16.666666666666668
-50.0   0.0   33.333333333333336
0.0   0.0   16.666666666666668
0.0   30.0   16.666666666666668
-50.0   30.0   16.666666666666668
0.0   30.0   33.333333333333336
-50.0   0.0   33.333333333333336
-50.0   30.0   33.333333333333336
0.0   30.0   33.333333333333336
-50.0   30.0   16.666666666666668
-50.0   0.0   33.333333333333336
0.0   30.0   33.333333333333336
0.0   0.0   33.333333333333336
0.0   0.0   16.666666666666668
-50.0   0.0   33.333333333333336
0.0   30.0   33.333333333333336
0.0   0.0   16.666666666666668
-50.0   30.0   16.666666666666668
-50.0   0.0   33.333333333333336
0.0   0.0   33.333333333333336
-50.0   30.0   33.333333333333336
-50.0   0.0   50.0
0.0   0.0   33.333333333333336
0.0   30.0   33.333333333333336
-50.0   30.0   33.333333333333336
0.0   30.0   50.0
-50.0   0.0   50.0
-50.0   30.0   50.0
0.0   30.0   50.0
-50.0   30.0   33.333333333333336
-50.0   0.0   50.0
0.0   30.0   50.0
0.0   0.0   50.0
0.0   0.0   33.333333333333336
-50.0   0.0   50.0
0.0   30.0   50.0
0.0   0.0   33.333333333333336
-50.0   30.0   33.333333333333336
-50.0   30.0   0.0
0.0   30.0   0.0
-50.0   60.0   0.0
-50.0   30.0   16.666666666666668
0.0   30.0   0.0
0.0   60.0   0.0
-50.0   60.0   0.0
0.0   60.0   16.666666666666668
-50.0   30.0   16.666666666666668
-50.0   60.0   16.666666666666668
0.0   60.0   16.666666666666668
-50.0   60.0   0.0
-50.0   30.0   16.666666666666668
0.0   60.0   16.666666666666668
0.0   30.0   16.666666666666668
0.0   30.0   0.0
-50.0   30.0   16.666666666666668
0.0   60.0   16.666666666666668
0.0   30.0   0.0
-50.0   60.0   0.0
-50.0   30.0   16.666666666666668
0.0   30.0   16.666666666666668
-50.0   60.0   16.666666666666668
-50.0   30.0   33.333333333333336
0.0   30.0   16.666666666666668
0.0   60.0   16.666666666666668
-50.0   60.0   16.666666666666668
0.0   60.0   33.333333333333336
-50.0   30.0   33.333333333333336
-50.0   60.0   33.333333333333336
0.0   60.0   33.333333333333336
-50.0   60.0   16.666666666666668
-50.0   30.0   33.333333333333336
0.0   60.0   33.333333333333336
0.0   30.0   33.333333333333336
0.0   30.0   16.666666666666668
-50.0   30.0   33.333333333333336
0.0   60.0   33.333333333333336
0.0   30.0   16.666666666666668
-50.0   60.0   16.666666666666668
-50.0   30.0   33.333333333333336
0.0   30.0   33.333333333333336
-50.0   60.0   33.333333333333336
-50.0   30.0   50.0
0.0   30.0   33.333333333333336
0.0   60.0   33.333333333333336
-50.0   60.0   33.333333333333336
0.0   60.0   50.0
-50.0   30.0   50.0
-50.0   60.0   50.0
0.0   60.0   50.0
-50.0   60.0   33.333333333333336
-50.0   30.0   50.0
0.0   60.0   50.0
0.0   30.0   50.0
0.0   30.0   33.333333333333336
-50.0   30.0   50.0
0.0   60.0   50.0
0.0   30.0   33.333333333333336
-50.0   60.0   33.333333333333336
-50.0   60.0   0.0
0.0   60.0   0.0
-50.0   90.0   0.0
-50.0   60.0   16.666666666666668
0.0   60.0   0.0
0.0   90.0   0.0
-50.0   90.0   0.0
0.0   90.0   16.666666666666668
-50.0   60.0   16.666666666666668
-50.0   90.0   16.666666666666668
0.0   90.0   16.666666666666668
-50.0   90.0   0.0
-50.0   60.0   16.666666666666668
0.0   90.0   16.666666666666668
0.0   60.0   16.666666666666668
0.0   60.0   0.0
-50.0   60.0   16.666666666666668
0.0   90.0   16.666666666666668
0.0   60.0   0.0
-50.0   90.0   0.0
-50.0   60.0   16.666666666666668
0.0   60.0   16.666666666666668
-50.0   90.0   16.666666666666668
-50.0   60.0   33.333333333333336
0.0   60.0   16.666666666666668
0.0   90.0   16.666666666666668
-50.0   90.0   16.666666666666668
0.0   90.0   33.333333333333336
-50.0   60.0   33.333333333333336
-50.0   90.0   33.333333333333336
0.0   90.0   33.333333333333336
-50.0   90.0   16.666666666666668
-50.0   60.0   33.333333333333336
0.0   90.0   33.333333333333336
0.0   60.0   33.333333333333336
0.0   60.0   16.666666666666668
-50.0   60.0   33.333333333333336
0.0   90.0   33.333333333333336
0.0   60.0   16.666666666666668
-50.0   90.0   16.666666666666668
-50.0   60.0   33.333333333333336
0.0   60.0   33.333333333333336
-50.0   90.0   33.333333333333336
-50.0   60.0   50.0
0.0   60.0   33.333333333333336
0.0   90.0   33.333333333333336
-50.0   90.0   33.333333333333336
0.0   90.0   50.0
-50.0   60.0   50.0
-50.0   90.0   50.0
0.0   90.0   50.0
-50.0   90.0   33.333333333333336
-50.0   60.0   50.0
0.0   90.0   50.0
0.0   60.0   50.0
0.0   60.0   33.333333333333336
-50.0   60.0   50.0
0.0   90.0   50.0
0.0   60.0   33.333333333333336
-50.0   90.0   33.333333333333336
-50.0   90.0   0.0
0.0   90.0   0.0
-50.0   120.0   0.0
-50.0   90.0   16.666666666666668
0.0   90.0   0.0
0.0   120.0   0.0
-50.0   120.0   0.0
0.0   120.0   16.666666666666668
-50.0   90.0   16.666666666666668
-50.0   120.0   16.666666666666668
0.0   120.0   16.666666666666668
-50.0   120.0   0.0
-50.0   90.0   16.666666666666668
0.0   120.0   16.666666666666668
0.0   90.0   16.666666666666668
0.0   90.0   0.0
-50.0   90.0   16.666666666666668
0.0   120.0   16.666666666666668
0.0   90.0   0.0
-50.0   120.0   0.0
-50.0   90.0   16.666666666666668
0.0   90.0   16.666666666666668
-50.0   120.0   16.666666666666668
-50.0   90.0   33.333333333333336
0.0   90.0   16.666666666666668
0.0   120.0   16.666666666666668
-50.0   120.0   16.666666666666668
0.0   120.0   33.333333333333336
-50.0   90.0   33.333333333333336
-50.0   120.0   33.333333333333336
0.0   120.0   33.333333333333336
-50.0   120.0   16.666666666666668
-50.0   90.0   33.333333333333336
0.0   120.0   33.333333333333336
0.0   90.0   33.333333333333336
0.0   90.0   16.666666666666668
-50.0   90.0   33.333333333333336
0.0   120.0   33.333333333333336
0.0   90.0   16.666666666666668
-50.0   120.0   16.666666666666668
-50.0   90.0   33.333333333333336
0.0   90.0   33.333333333333336
-50.0   120.0   33.333333333333336
-50.0   90.0   50.0
0.0   90.0   33.333333333333336
0.0   120.0   33.333333333333336
-50.0   120.0   33.333333333333336
0.0   120.0   50.0
-50.0   90.0   50.0
-50.0   120.0   50.0
0.0   120.0   50.0
-50.0   120.0   33.333333333333336
-50.0   90.0   50.0
0.0   120.0   50.0
0.0   90.0   50.0
0.0   90.0   33.333333333333336
-50.0   90.0   50.0
0.0   120.0   50.0
0.0   90.0   33.333333333333336
-50.0   120.0   33.333333333333336
-50.0   120.0   0.0
0.0   120.0   0.0
-50.0   150.0   0.0
-50.0   120.0   16.666666666666668
0.0   120.0   0.0
0.0   150.0   0.0
-50.0   150.0   0.0
0.0   150.0   16.666666666666668
-50.0   120.0   16.666666666666668
-50.0   150.0   16.666666666666668
0.0   150.0   16.666666666666668
-50.0   150.0   0.0
-50.0   120.0   16.666666666666668
0.0   150.0   16.666666666666668
0.0   120.0   16.666666666666668
0.0   120.0   0.0
-50.0   120.0   16.666666666666668
0.0   150.0   16.666666666666668
0.0   120.0   0.0
-50.0   150.0   0.0
-50.0   120.0   16.666666666666668
0.0   120.0   16.666666666666668
-50.0   150.0   16.666666666666668
-50.0   120.0   33.333333333333336
0.0   120.0   16.666666666666668
0.0   150.0   16.666666666666668
-50.0   150.0   16.666666666666668
0.0   150.0   33.333333333333336
-50.0   120.0   33.333333333333336
-50.0   150.0   33.333333333333336
0.0   150.0   33.333333333333336
-50.0   150.0   16.666666666666668
-50.0   120.0   33.333333333333336
0.0   150.0   33.333333333333336
0.0   120.0   33.333333333333336
0.0   120.0   16.666666666666668
-50.0   120.0   33.333333333333336
0.0   150.0   33.333333333333336
0.0   120.0   16.666666666666668
-50.0   150.0   16.666666666666668
-50.0   120.0   33.333333333333336
0.0   120.0   33.333333333333336
-50.0   150.0   33.333333333333336
-50.0   120.0   50.0
0.0   120.0   33.333333333333336
0.0   150.0   33.333333333333336
-50.0   150.0   33.333333333333336
0.0   150.0   50.0
-50.0   120.0   50.0
-50.0   150.0   50.0
0.0   150.0   50.0
-50.0   150.0   33.333333333333336
-50.0   120.0   50.0
0.0   150.0   50.0
0.0   120.0   50.0
0.0   120.0   33.333333333333336
-50.0   120.0   50.0
0.0   150.0   50.0
0.0   120.0   33.333333333333336
-50.0   150.0   33.333333333333336
0.0   0.0   0.0
50.0   0.0   0.0
0.0   30.0   0.0
0.0   0.0   16.666666666666668
50.0   0.0   0.0
50.0   30.0   0.0
0.0   30.0   0.0
50.0   30.0   16.666666666666668
0.0   0.0   16.666666666666668
0.0   30.0   16.666666666666668
50.0   30.0   16.666666666666668
0.0   30.0   0.0
0.0   0.0   16.666666666666668
50.0   30.0   16.666666666666668
50.0   0.0   16.666666666666668
50.0   0.0   0.0
0.0   0.0   16.666666666666668
50.0   30.0   16.666666666666668
50.0   0.0   0.0
0.0   30.0   0.0
0.0   0.0   16.666666666666668
50.0   0.0   16.666666666666668
0.0   30.0   16.666666666666668
0.0   0.0   33.333333333333336
50.0   0.0   16.666666666666668
50.0   30.0   16.666666666666668
0.0   30.0   16.666666666666668
50.0   30.0   33.333333333333336
0.0   0.0   33.333333333333336
0.0   30.0   33.333333333333336
50.0   30.0   33.333333333333336
0.0   30.0   16.666666666666668
0.0   0.0   33.333333333333336
50.0   30.0   33.333333333333336
50.0   0.0   33.333333333333336
50.0   0.0   16.666666666666668
0.0   0.0   33.333333333333336
50.0   30.0   33.333333333333336
50.0   0.0   16.666666666666668
0.0   30.0   16.666666666666668
0.0   0.0   33.333333333333336
50.0   0.0   33.333333333333336
0.0   30.0   33.333333333333336
0.0   0.0   50.0
50.0   0.0   33.333333333333336
50.0   30.0   33.333333333333336
0.0   30.0   33.333333333333336
50.0   30.0   50.0
0.0   0.0   50.0
0.0   30.0   50.0
50.0   30.0   50.0
0.0   30.0   33.333333333333336
0.0   0.0   50.0
50.0   30.0   50.0
50.0   0.0   50.0
50.0   0.0   33.333333333333336
0.0   0.0   50.0
50.0   30.0   50.0
50.0   0.0   33.333333333333336
0.0   30.0   33.333333333333336
0.0   30.0   0.0
50.0   30.0   0.0
0.0   60.0   0.0
0.0   30.0   16.666666666666668
50.0   30.0   0.0
50.0   60.0   0.0
0.0   60.0   0.0
50.0   60.0   16.666666666666668
0.0   30.0   16.666666666666668
0.0   60.0   16.666666666666668
50.0   60.0   16.666666666666668
0.0   60.0   0.0
0.0   30.0   16.666666666666668
50.0   60.0   16.666666666666668
50.0   30.0   16.666666666666668
50.0   30.0   0.0
0.0   30.0   16.666666666666668
50.0   60.0   16.666666666666668
50.0   30.0   0.0
0.0   60.0   0.0
0.0   30.0   16.666666666666668
50.0   30.0   16.666666666666668
0.0   60.0   16.666666666666668
0.0   30.0   33.333333333333336
50.0   30.0   16.666666666666668
50.0   60.0   16.666666666666668
0.0   60.0   16.666666666666668
50.0   60.0   33.333333333333336
0.0   30.0   33.333333333333336
0.0   60.0   33.333333333333336
50.0   60.0   33.333333333333336
0.0   60.0   16.666666666666668
0.0   30.0   33.333333333333336
50.0   60.0   33.333333333333336
50.0   30.0   33.333333333333336
50.0   30.0   16.666666666666668
0.0   30.0   33.333333333333336
50.0   60.0   33.333333333333336
50.0   30.0   16.666666666666668
0.0   60.0   16.666666666666668
0.0   30.0   33.333333333333336
50.0   30.0   33.333333333333336
0.0   60.0   33.333333333333336
0.0   30.0   50.0
50.0   30.0   33.333333333333336
50.0   60.0   33.333333333333336
0.0   60.0   33.333333333333336
50.0   60.0   50.0
0.0   30.0   50.0
0.0   60.0   50.0
50.0   60.0   50.0
0.0   60.0   33.333333333333336
0.0   30.0   50.0
50.0   60.0   50.0
50.0   30.0   50.0
50.0   30.0   33.333333333333336
0.0   30.0   50.0
50.0   60.0   50.0
50.0   30.0   33.333333333333336
0.0   60.0   33.333333333333336
0.0   60.0   0.0
50.0   60.0   0.0
0.0   90.0   0.0
0.0   60.0   16.666666666666668
50.0   60.0   0.0
50.0   90.0   0.0
0.0   90.0   0.0
50.0   90.0   16.666666666666668
0.0   60.0   16.666666666666668
0.0   90.0   16.666666666666668
50.0   90.0   16.666666666666668
0.0   90.0   0.0
0.0   60.0   16.666666666666668
50.0   90.0   16.666666666666668
50.0   60.0   16.666666666666668
50.0   60.0   0.0
0.0   60.0   16.666666666666668
50.0   90.0   16.666666666666668
50.0   60.0   0.0
0.0   90.0   0.0
0.0   60.0   16.666666666666668
50.0   60.0   16.666666666666668
0.0   90.0   16.666666666666668
0.0   60.0   33.333333333333336
50.0   60.0   16.666666666666668
50.0   90.0   16.666666666666668
0.0   90.0   16.666666666666668
50.0   90.0   33.333333333333336
0.0   60.0   33.333333333333336
0.0   90.0   33.333333333333336
50.0   90.0   33.333333333333336
0.0   90.0   16.666666666666668
0.0   60.0   33.333333333333336
50.0   90.0   33.333333333333336
50.0   60.0   33.333333333333336
50.0   60.0   16.666666666666668
0.0   60.0   33.333333333333336
50.0   90.0   33.333333333333336
50.0   60.0   16.666666666666668
0.0   90.0   16.666666666666668
0.0   60.0   33.333333333333336
50.0   60.0   33.333333333333336
0.0   90.0   33.333333333333336
0.0   60.0   50.0
50.0   60.0   33.333333333333336
50.0   90.0   33.333333333333336
0.0   90.0   33.333333333333336
50.0   90.0   50.0
0.0   60.0   50.0
0.0   90.0   50.0
50.0   90.0   50.0
0.0   90.0   33.333333333333336
0.0   60.0   50.0
50.0   90.0   50.0
50.0   60.0   50.0
50.0   60.0   33.333333333333336
0.0   60.0   50.0
50.0   90.0   50.0
50.0   60.0   33.333333333333336
0.0   90.0   33.333333333333336
0.0   90.0   0.0
50.0   90.0   0.0
0.0   120.0   0.0
0.0   90.0   16.666666666666668
50.0   90.0   0.0
50.0   120.0   0.0
0.0   120.0   0.0
50.0   120.0   16.666666666666668
0.0   90.0   16.666666666666668
0.0   120.0   16.666666666666668
50.0   120.0   16.666666666666668
0.0   120.0   0.0
0.0   90.0   16.666666666666668
50.0   120.0   16.666666666666668
50.0   90.0   16.666666666666668
50.0   90.0   0.0
0.0   90.0   16.666666666666668
50.0   120.0   16.666666666666668
50.0   90.0   0.0
0.0   120.0   0.0
0.0   90.0   16.666666666666668
50.0   90.0   16.666666666666668
0.0   120.0   16.666666666666668
0.0   90.0   33.333333333333336
50.0   90.0   16.666666666666668
50.0   120.0   16.666666666666668
0.0   120.0   16.666666666666668
50.0   120.0   33.333333333333336
0.0   90.0   33.333333333333336
0.0   120.0   33.333333333333336
50.0   120.0   33.333333333333336
0.0   120.0   16.666666666666668
0.0   90.0   33.333333333333336
50.0   120.0   33.333333333333336
50.0   90.0   33.333333333333336
50.0   90.0   16.666666666666668
0.0   90.0   33.333333333333336
50.0   120.0   33.333333333333336
50.0   90.0   16.666666666666668
0.0   120.0   16.666666666666668
0.0   90.0   33.333333333333336
50.0   90.0   33.333333333333336
0.0   120.0   33.333333333333336
0.0   90.0   50.0
50.0   90.0   33.333333333333336
50.0   120.0   33.333333333333336
0.0   120.0   33.333333333333336
50.0   120.0   50.0
0.0   90.0   50.0
0.0   120.0   50.0
50.0   120.0   50.0
0.0   120.0   33.333333333333336
0.0   90.0   50.0
50.0   120.0   50.0
50.0   90.0   50.0
50.0   90.0   33.333333333333336
0.0   90.0   50.0
50.0   120.0   50.0
50.0   90.0   33.333333333333336
0.0   120.0   33.333333333333336
0.0   120.0   0.0
50.0   120.0   0.0
0.0   150.0   0.0
0.0   120.0   16.666666666666668
50.0   120.0   0.0
50.0   150.0   0.0
0.0   150.0   0.0
50.0   150.0   16.666666666666668
0.0   120.0   16.666666666666668
0.0   150.0   16.666666666666668
50.0   150.0   16.666666666666668
0.0   150.0   0.0
0.0   120.0   16.666666666666668
50.0   150.0   16.666666666666668
50.0   120.0   16.666666666666668
50.0   120.0   0.0
0.0   120.0   16.666666666666668
50.0   150.0   16.666666666666668
50.0   120.0   0.0
0.0   150.0   0.0
0.0   120.0   16.666666666666668
50.0   120.0   16.666666666666668
0.0   150.0   16.666666666666668
0.0   120.0   33.333333333333336
50.0   120.0   16.666666666666668
50.0   150.0   16.666666666666668
0.0   150.0   16.666666666666668
50.0   150.0   33.333333333333336
0.0   120.0   33.333333333333336
0.0   150.0   33.333333333333336
50.0   150.0   33.333333333333336
0.0   150.0   16.666666666666668
0.0   120.0   33.333333333333336
50.0   150.0   33.333333333333336
50.0   120.0   33.333333333333336
50.0   120.0   16.666666666666668
0.0   120.0   33.333333333333336
50.0   150.0   33.333333333333336
50.0   120.0   16.666666666666668
0.0   150.0   16.666666666666668
0.0   120.0   33.333333333333336
50.0   120.0   33.333333333333336
0.0   150.0   33.333333333333336
0.0   120.0   50.0
50.0   120.0   33.333333333333336
50.0   150.0   33.333333333333336
0.0   150.0   33.333333333333336
50.0   150.0   50.0
0.0   120.0   50.0
0.0   150.0   50.0
50.0   150.0   50.0
0.0   150.0   33.333333333333336
0.0   120.0   50.0
50.0   150.0   50.0
50.0   120.0   50.0
50.0   120.0   33.333333333333336
0.0   120.0   50.0
50.0   150.0   50.0
50.0   120.0   33.333333333333336
0.0   150.0   33.333333333333336
50.0   0.0   0.0
100.0   0.0   0.0
50.0   30.0   0.0
50.0   0.0   16.666666666666668
100.0   0.0   0.0
100.0   30.0   0.0
50.0   30.0   0.0
100.0   30.0   16.666666666666668
50.0   0.0   16.666666666666668
50.0   30.0   16.666666666666668
100.0   30.0   16.666666666666668
50.0   30.0   0.0
50.0   0.0   16.666666666666668
100.0   30.0   16.666666666666668
100.0   0.0   16.666666666666668
100.0   0.0   0.0
50.0   0.0   16.666666666666668
100.0   30.0   16.666666666666668
100.0   0.0   0.0
50.0   30.0   0.0
50.0   0.0   16.666666666666668
100.0   0.0   16.666666666666668
50.0   30.0   16.666666666666668
50.0   0.0   33.333333333333336
100.0   0.0   16.666666666666668
100.0   30.0   16.666666666666668
50.0   30.0   16.666666666666668
100.0   30.0   33.333333333333336
50.0   0.0   33.333333333333336
50.0   30.0   33.333333333333336
100.0   30.0   33.333333333333336
50.0   30.0   16.666666666666668
50.0   0.0   33.333333333333336
100.0   30.0   33.333333333333336
100.0   0.0   33.333333333333336
100.0   0.0   16.666666666666668
50.0   0.0   33.333333333333336
100.0   30.0   33.333333333333336
100.0   0.0   16.666666666666668
50.0   30.0   16.666666666666668
50.0   0.0   33.333333333333336
100.0   0.0   33.333333333333336
50.0   30.0   33.333333333333336
50.0   0.0   50.0
100.0   0.0   33.333333333333336
100.0   30.0   33.333333333333336
50.0   30.0   33.333333333333336
100.0   30.0   50.0
50.0   0.0   50.0
50.0   30.0   50.0
100.0   30.0   50.0
50.0   30.0   33.333333333333336
50.0   0.0   50.0
100.0   30.0   50.0
100.0   0.0   50.0
100.0   0.0   33.333333333333336
50.0   0.0   50.0
100.0   30.0   50.0
100.0   0.0   33.333333333333336
50.0   30.0   33.333333333333336
50.0   30.0   0.0
100.0   30.0   0.0
50.0   60.0   0.0
50.0   30.0   16.666666666666668
100.0   30.0   0.0
100.0   60.0   0.0
50.0   60.0   0.0
100.0   60.0   16.666666666666668
50.0   30.0   16.666666666666668
50.0   60.0   16.666666666666668
100.0   60.0   16.666666666666668
50.0   60.0   0.0
50.0   30.0   16.666666666666668
100.0   60.0   16.666666666666668
100.0   30.0   16.666666666666668
100.0   30.0   0.0
50.0   30.0   16.666666666666668
100.0   60.0   16.666666666666668
100.0   30.0   0.0
50.0   60.0   0.0
50.0   30.0   16.666666666666668
100.0   30.0   16.666666666666668
50.0   60.0   16.666666666666668
50.0   30.0   33.333333333333336
100.0   30.0   16.666666666666668
100.0   60.0   16.666666666666668
50.0   60.0   16.666666666666668
100.0   60.0   33.333333333333336
50.0   30.0   33.333333333333336
50.0   60.0   33.333333333333336
100.0   60.0   33.333333333333336
50.0   60.0   16.666666666666668
50.0   30.0   33.333333333333336
100.0   60.0   33.333333333333336
100.0   30.0   33.333333333333336
100.0   30.0   16.666666666666668
50.0   30.0   33.333333333333336
100.0   60.0   33.333333333333336
100.0   30.0   16.666666666666668
50.0   60.0   16.666666666666668
50.0   30.0   33.333333333333336
100.0   30.0   33.333333333333336
50.0   60.0   33.333333333333336
50.0   30.0   50.0
100.0   30.0   33.333333333333336
100.0   60.0   33.333333333333336
50.0   60.0   33.333333333333336
100.0   60.0   50.0
50.0   30.0   50.0
50.0   60.0   50.0
100.0   60.0   50.0
50.0   60.0   33.333333333333336
50.0   30.0   50.0
100.0   60.0   50.0
100.0   30.0   50.0
100.0   30.0   33.333333333333336
50.0   30.0   50.0
100.0   60.0   50.0
100.0   30.0   33.333333333333336
50.0   60.0   33.333333333333336
50.0   60.0   0.0
100.0   60.0   0.0
50.0   90.0   0.0
50.0   60.0   16.666666666666668
100.0   60.0   0.0
100.0   90.0   0.0
50.0   90.0   0.0
100.0   90.0   16.666666666666668
50.0   60.0   16.666666666666668
50.0   90.0   16.666666666666668
100.0   90.0   16.666666666666668
50.0   90.0   0.0
50.0   60.0   16.666666666666668
100.0   90.0   16.666666666666668
100.0   60.0   16.666666666666668
100.0   60.0   0.0
50.0   60.0   16.666666666666668
100.0   90.0   16.666666666666668
100.0   60.0   0.0
50.0   90.0   0.0
50.0   60.0   16.666666666666668
100.0   60.0   16.666666666666668
50.0   90.0   16.666666666666668
50.0   60.0   33.333333333333336
100.0   60.0   16.666666666666668
100.0   90.0   16.666666666666668
50.0   90.0   16.666666666666668
100.0   90.0   33.333333333333336
50.0   60.0   33.333333333333336
50.0   90.0   33.333333333333336
100.0   90.0   33.333333333333336
50.0   90.0   16.666666666666668
50.0   60.0   33.333333333333336
100.0   90.0   33.333333333333336
100.0   60.0   33.333333333333336
100.0   60.0   16.666666666666668
50.0   60.0   33.333333333333336
100.0   90.0   33.333333333333336
100.0   60.0   16.666666666666668
50.0   90.0   16.666666666666668
50.0   60.0   33.333333333333336
100.0   60.0   33.333333333333336
50.0   90.0   33.333333333333336
50.0   60.0   50.0
100.0   60.0   33.333333333333336
100.0   90.0   33.333333333333336
50.0   90.0   33.333333333333336
100.0   90.0   50.0
50.0   60.0   50.0
50.0   90.0   50.0
100.0   90.0   50.0
50.0   90.0   33.333333333333336
50.0   60.0   50.0
100.0   90.0   50.0
100.0   60.0   50.0
100.0   60.0   33.333333333333336
50.0   60.0   50.0
100.0   90.0   50.0
100.0   60.0   33.333333333333336
50.0   90.0   33.333333333333336
50.0   90.0   0.0
100.0   90.0   0.0
50.0   120.0   0.0
50.0   90.0   16.666666666666668
100.0   90.0   0.0
100.0   120.0   0.0
50.0   120.0   0.0
100.0   120.0   16.666666666666668
50.0   90.0   16.666666666666668
50.0   120.0   16.666666666666668
100.0   120.0   16.666666666666668
50.0   120.0   0.0
50.0   90.0   16.666666666666668
100.0   120.0   16.666666666666668
100.0   90.0   16.666666666666668
100.0   90.0   0.0
50.0   90.0   16.666666666666668
100.0   120.0   16.666666666666668
100.0   90.0   0.0
50.0   120.0   0.0
50.0   90.0   16.666666666666668
100.0   90.0   16.666666666666668
50.0   120.0   16.666666666666668
50.0   90.0   33.333333333333336
100.0   90.0   16.666666666666668
100.0   120.0   16.666666666666668
50.0   120.0   16.666666666666668
100.0   120.0   33.333333333333336
50.0   90.0   33.333333333333336
50.0   120.0   33.333333333333336
100.0   120.0   33.333333333333336
50.0   120.0   16.666666666666668
50.0   90.0   33.333333333333336
100.0   120.0   33.333333333333336
100.0   90.0   33.333333333333336
100.0   90.0   16.666666666666668
50.0   90.0   33.333333333333336
100.0   120.0   33.333333333333336
100.0   90.0   16.666666666666668
50.0   120.0   16.666666666666668
50.0   90.0   33.333333333333336
100.0   90.0   33.333333333333336
50.0   120.0   33.333333333333336
50.0   90.0   50.0
100.0   90.0   33.333333333333336
100.0   120.0   33.333333333333336
50.0   120.0   33.333333333333336
100.0   120.0   50.0
50.0   90.0   50.0
50.0   120.0   50.0
100.0   120.0   50.0
50.0   120.0   33.333333333333336
50.0   90.0   50.0
100.0   120.0   50.0
100.0   90.0   50.0
100.0   90.0   33.333333333333336
50.0   90.0   50.0
100.0   120.0   50.0
100.0   90.0   33.333333333333336
50.0   120.0   33.333333333333336
50.0   120.0   0.0
100.0   120.0   0.0
50.0   150.0   0.0
50.0   120.0   16.666666666666668
100.0   120.0   0.0
100.0   150.0   0.0
50.0   150.0   0.0
100.0   150.0   16.666666666666668
50.0   120.0   16.666666666666668
50.0   150.0   16.666666666666668
100.0   150.0   16.666666666666668
50.0   150.0   0.0
50.0   120.0   16.666666666666668
100.0   150.0   16.666666666666668
100.0   120.0   16.666666666666668
100.0   120.0   0.0
50.0   120.0   16.666666666666668
100.0   150.0   16.666666666666668
100.0   120.0   0.0
50.0   150.0   0.0
50.0   120.0   16.666666666666668
100.0   120.0   16.666666666666668
50.0   150.0   16.666666666666668
50.0   120.0   33.333333333333336
100.0   120.0   16.666666666666668
100.0   150.0   16.666666666666668
50.0   150.0   16.666666666666668
100.0   150.0   33.333333333333336
50.0   120.0   33.333333333333336
50.0   150.0   33.333333333333336
100.0   150.0   33.333333333333336
50.0   150.0   16.666666666666668
50.0   120.0   33.333333333333336
100.0   150.0   33.333333333333336
100.0   120.0   33.333333333333336
100.0   120.0   16.666666666666668
50.0   120.0   33.333333333333336
100.0   150.0   33.333333333333336
100.0   120.0   16.666666666666668
50.0   150.0   16.666666666666668
50.0   120.0   33.333333333333336
100.0   120.0   33.333333333333336
50.0   150.0   33.333333333333336
50.0   120.0   50.0
100.0   120.0   33.333333333333336
100.0   150.0   33.333333333333336
50.0   150.0   33.333333333333336
100.0   150.0   50.0
50.0   120.0   50.0
50.0   150.0   50.0
100.0   150.0   50.0
50.0   150.0   33.333333333333336
50.0   120.0   50.0
100.0   150.0   50.0
100.0   120.0   50.0
100.0   120.0   33.333333333333336
50.0   120.0   50.0
100.0   150.0   50.0
100.0   120.0   33.333333333333336
50.0   150.0   33.333333333333336
100.0   0.0   0.0
150.0   0.0   0.0
100.0   30.0   0.0
100.0   0.0   16.666666666666668
150.0   0.0   0.0
150.0   30.0   0.0
100.0   30.0   0.0
150.0   30.0   16.666666666666668
100.0   0.0   16.666666666666668
100.0   30.0   16.666666666666668
150.0   30.0   16.666666666666668
100.0   30.0   0.0
100.0   0.0   16.666666666666668
150.0   30.0   16.666666666666668
150.0   0.0   16.666666666666668
150.0   0.0   0.0
100.0   0.0   16.666666666666668
150.0   30.0   16.666666666666668
150.0   0.0   0.0
100.0   30.0   0.0
100.0   0.0   16.666666666666668
150.0   0.0   16.666666666666668
100.0   30.0   16.666666666666668
100.0   0.0   33.333333333333336
150.0   0.0   16.666666666666668
150.0   30.0   16.666666666666668
100.0   30.0   16.666666666666668
150.0   30.0   33.333333333333336
100.0   0.0   33.333333333333336
100.0   30.0   33.333333333333336
150.0   30.0   33.333333333333336
100.0   30.0   16.666666666666668
100.0   0.0   33.333333333333336
150.0   30.0   33.333333333333336
150.0   0.0   33.333333333333336
150.0   0.0   16.666666666666668
100.0   0.0   33.333333333333336
150.0   30.0   33.333333333333336
150.0   0.0   16.666666666666668
100.0   30.0   16.666666666666668
100.0   0.0   33.333333333333336
150.0   0.0   33.333333333333336
100.0   30.0   33.333333333333336
100.0   0.0   50.0
150.0   0.0   33.333333333333336
150.0   30.0   33.333333333333336
100.0   30.0   33.333333333333336
150.0   30.0   50.0
100.0   0.0   50.0
100.0   30.0   50.0
150.0   30.0   50.0
100.0   30.0   33.333333333333336
100.0   0.0   50.0
150.0   30.0   50.0
150.0   0.0   50.0
150.0   0.0   33.333333333333336
100.0   0.0   50.0
150.0   30.0   50.0
150.0   0.0   33.333333333333336
100.0   30.0   33.333333333333336
100.0   30.0   0.0
150.0   30.0   0.0
100.0   60.0   0.0
100.0   30.0   16.666666666666668
150.0   30.0   0.0
150.0   60.0   0.0
100.0   60.0   0.0
150.0   60.0   16.666666666666668
100.0   30.0   16.666666666666668
100.0   60.0   16.666666666666668
150.0   60.0   16.666666666666668
100.0   60.0   0.0
100.0   30.0   16.666666666666668
150.0   60.0   16.666666666666668
150.0   30.0   16.666666666666668
150.0   30.0   0.0
100.0   30.0   16.666666666666668
150.0   60.0   16.666666666666668
150.0   30.0   0.0
100.0   60.0   0.0
100.0   30.0   16.666666666666668
150.0   30.0   16.666666666666668
100.0   60.0   16.666666666666668
100.0   30.0   33.333333333333336
150.0   30.0   16.666666666666668
150.0   60.0   16.666666666666668
100.0   60.0   16.666666666666668
150.0   60.0   33.333333333333336
100.0   30.0   33.333333333333336
100.0   60.0   33.333333333333336
150.0   60.0   33.333333333333336
100.0   60.0   16.666666666666668
100.0   30.0   33.333333333333336
150.0   60.0   33.333333333333336
150.0   30.0   33.333333333333336
150.0   30.0   16.666666666666668
100.0   30.0   33.333333333333336
150.0   60.0   33.333333333333336
150.0   30.0   16.666666666666668
100.0   60.0   16.666666666666668
100.0   30.0   33.333333333333336
150.0   30.0   33.333333333333336
100.0   60.0   33.333333333333336
100.0   30.0   50.0
150.0   30.0   33.333333333333336
150.0   60.0   33.333333333333336
100.0   60.0   33.333333333333336
150.0   60.0   50.0
100.0   30.0   50.0
100.0   60.0   50.0
150.0   60.0   50.0
100.0   60.0   33.333333333333336
100.0   30.0   50.0
150.0   60.0   50.0
150.0   30.0   50.0
150.0   30.0   33.333333333333336
100.0   30.0   50.0
150.0   60.0   50.0
150.0   30.0   33.333333333333336
100.0   60.0   33.333333333333336
100.0   60.0   0.0
150.0   60.0   0.0
100.0   90.0   0.0
100.0   60.0   16.666666666666668
150.0   60.0   0.0
150.0   90.0   0.0
100.0   90.0   0.0
150.0   90.0   16.666666666666668
100.0   60.0   16.666666666666668
100.0   90.0   16.666666666666668
150.0   90.0   16.666666666666668
100.0   90.0   0.0
100.0   60.0   16.666666666666668
150.0   90.0   16.666666666666668
150.0   60.0   16.666666666666668
150.0   60.0   0.0
100.0   60.0   16.666666666666668
150.0   90.0   16.666666666666668
150.0   60.0   0.0
100.0   90.0   0.0
100.0   60.0   16.666666666666668
150.0   60.0   16.666666666666668
100.0   90.0   16.666666666666668
100.0   60.0   33.333333333333336
150.0   60.0   16.666666666666668
150.0   90.0   16.666666666666668
100.0   90.0   16.666666666666668
150.0   90.0   33.333333333333336
100.0   60.0   33.333333333333336
100.0   90.0   33.333333333333336
150.0   90.0   33.333333333333336
100.0   90.0   16.666666666666668
100.0   60.0   33.333333333333336
150.0   90.0   33.333333333333336
150.0   60.0   33.333333333333336
150.0   60.0   16.666666666666668
100.0   60.0   33.333333333333336
150.0   90.0   33.333333333333336
150.0   60.0   16.666666666666668
100.0   90.0   16.666666666666668
100.0   60.0   33.333333333333336
150.0   60.0   33.333333333333336
100.0   90.0   33.333333333333336
100.0   60.0   50.0
150.0   60.0   33.333333333333336
150.0   90.0   33.333333333333336
100.0   90.0   33.333333333333336
150.0   90.0   50.0
100.0   60.0   50.0
100.0   90.0   50.0
150.0   90.0   50.0
100.0   90.0   33.333333333333336
100.0   60.0   50.0
150.0   90.0   50.0
150.0   60.0   50.0
150.0   60.0   33.333333333333336
100.0   60.0   50.0
150.0   90.0   50.0
150.0   60.0   33.333333333333336
100.0   90.0   33.333333333333336
100.0   90.0   0.0
150.0   90.0   0.0
100.0   120.0   0.0
100.0   90.0   16.666666666666668
150.0   90.0   0.0
150.0   120.0   0.0
100.0   120.0   0.0
150.0   120.0   16.666666666666668
100.0   90.0   16.666666666666668
100.0   120.0   16.666666666666668
150.0   120.0   16.666666666666668
100.0   120.0   0.0
100.0   90.0   16.666666666666668
150.0   120.0   16.666666666666668
150.0   90.0   16.666666666666668
150.0   90.0   0.0
100.0   90.0   16.666666666666668
150.0   120.0   16.666666666666668
150.0   90.0   0.0
100.0   120.0   0.0
100.0   90.0   16.666666666666668
150.0   90.0   16.666666666666668
100.0   120.0   16.666666666666668
100.0   90.0   33.333333333333336
150.0   90.0   16.666666666666668
150.0   120.0   16.666666666666668
100.0   120.0   16.666666666666668
150.0   120.0   33.333333333333336
100.0   90.0   33.333333333333336
100.0   120.0   33.333333333333336
150.0   120.0   33.333333333333336
100.0   120.0   16.666666666666668
100.0   90.0   33.333333333333336
150.0   120.0   33.333333333333336
150.0   90.0   33.333333333333336
150.0   90.0   16.666666666666668
100.0   90.0   33.333333333333336
150.0   120.0   33.333333333333336
150.0   90.0   16.666666666666668
100.0   120.0   16.666666666666668
100.0   90.0   33.333333333333336
150.0   90.0   33.333333333333336
100.0   120.0   33.333333333333336
100.0   90.0   50.0
150.0   90.0   33.333333333333336
150.0   120.0   33.333333333333336
100.0   120.0   33.333333333333336
150.0   120.0   50.0
100.0   90.0   50.0
100.0   120.0   50.0
150.0   120.0   50.0
100.0   120.0   33.333333333333336
100.0   90.0   50.0
150.0   120.0   50.0
150.0   90.0   50.0
150.0   90.0   33.333333333333336
100.0   90.0   50.0
150.0   120.0   50.0
150.0   90.0   33.333333333333336
100.0   120.0   33.333333333333336
100.0   120.0   0.0
150.0   120.0   0.0
100.0   150.0   0.0
100.0   120.0   16.666666666666668
150.0   120.0   0.0
150.0   150.0   0.0
100.0   150.0   0.0
150.0   150.0   16.666666666666668
100.0   120.0   16.666666666666668
100.0   150.0   16.666666666666668
150.0   150.0   16.666666666666668
100.0   150.0   0.0
100.0   120.0   16.666666666666668
150.0   150.0   16.666666666666668
150.0   120.0   16.666666666666668
150.0   120.0   0.0
100.0   120.0   16.666666666666668
150.0   150.0   16.666666666666668
150.0   120.0   0.0
100.0   150.0   0.0
100.0   120.0   16.666666666666668
150.0   120.0   16.666666666666668
100.0   150.0   16.666666666666668
100.0   120.0   33.333333333333336
150.0   120.0   16.666666666666668
150.0   150.0   16.666666666666668
100.0   150.0   16.666666666666668
150.0   150.0   33.333333333333336
100.0   120.0   33.333333333333336
100.0   150.0   33.333333333333336
150.0   150.0   33.333333333333336
100.0   150.0   16.666666666666668
100.0   120.0   33.333333333333336
150.0   150.0   33.333333333333336
150.0   120.0   33.333333333333336
150.0   120.0   16.666666666666668
100.0   120.0   33.333333333333336
150.0   150.0   33.333333333333336
150.0   120.0   16.666666666666668
100.0   150.0   16.666666666666668
100.0   120.0   33.333333333333336
150.0   120.0   33.333333333333336
100.0   150.0   33.333333333333336
100.0   120.0   50.0
150.0   120.0   33.333333333333336
150.0   150.0   33.333333333333336
100.0   150.0   33.333333333333336
150.0   150.0   50.0
100.0   120.0   50.0
100.0   150.0   50.0
150.0   150.0   50.0
100.0   150.0   33.333333333333336
100.0   120.0   50.0
150.0   150.0   50.0
150.0   120.0   50.0
150.0   120.0   33.333333333333336
100.0   120.0   50.0
150.0   150.0   50.0
150.0   120.0   33.333333333333336
100.0   150.0   33.333333333333336
150.0   0.0   0.0
200.0   0.0   0.0
150.0   30.0   0.0
150.0   0.0   16.666666666666668
200.0   0.0   0.0
200.0   30.0   0.0
150.0   30.0   0.0
200.0   30.0   16.666666666666668
150.0   0.0   16.666666666666668
150.0   30.0   16.666666666666668
200.0   30.0   16.666666666666668
150.0   30.0   0.0
150.0   0.0   16.666666666666668
200.0   30.0   16.666666666666668
200.0   0.0   16.666666666666668
200.0   0.0   0.0
150.0   0.0   16.666666666666668
200.0   30.0   16.666666666666668
200.0   0.0   0.0
150.0   30.0   0.0
150.0   0.0   16.666666666666668
200.0   0.0   16.666666666666668
150.0   30.0   16.666666666666668
150.0   0.0   33.333333333333336
200.0   0.0   16.666666666666668
200.0   30.0   16.666666666666668
150.0   30.0   16.666666666666668
200.0   30.0   33.333333333333336
150.0   0.0   33.333333333333336
150.0   30.0   33.333333333333336
200.0   30.0   33.333333333333336
150.0   30.0   16.666666666666668
150.0   0.0   33.333333333333336
200.0   30.0   33.333333333333336
200.0   0.0   33.333333333333336
200.0   0.0   16.666666666666668
150.0   0.0   33.333333333333336
200.0   30.0   33.333333333333336
200.0   0.0   16.666666666666668
150.0   30.0   16.666666666666668
150.0   0.0   33.333333333333336
200.0   0.0   33.333333333333336
150.0   30.0   33.333333333333336
150.0   0.0   50.0
200.0   0.0   33.333333333333336
200.0   30.0   33.333333333333336
150.0   30.0   33.333333333333336
200.0   30.0   50.0
150.0   0.0   50.0
150.0   30.0   50.0
200.0   30.0   50.0
150.0   30.0   33.333333333333336
150.0   0.0   50.0
200.0   30.0   50.0
200.0   0.0   50.0
200.0   0.0   33.333333333333336
150.0   0.0   50.0
200.0   30.0   50.0
200.0   0.0   33.333333333333336
150.0   30.0   33.333333333333336
150.0   30.0   0.0
200.0   30.0   0.0
150.0   60.0   0.0
150.0   30.0   16.666666666666668
200.0   30.0   0.0
200.0   60.0   0.0
150.0   60.0   0.0
200.0   60.0   16.666666666666668
150.0   30.0   16.666666666666668
150.0   60.0   16.666666666666668
200.0   60.0   16.666666666666668
150.0   60.0   0.0
150.0   30.0   16.666666666666668
200.0   60.0   16.666666666666668
200.0   30.0   16.666666666666668
200.0   30.0   0.0
150.0   30.0   16.666666666666668
200.0   60.0   16.666666666666668
200.0   30.0   0.0
150.0   60.0   0.0
150.0   30.0   16.666666666666668
200.0   30.0   16.666666666666668
150.0   60.0   16.666666666666668
150.0   30.0   33.333333333333336
200.0   30.0   16.666666666666668
200.0   60.0   16.666666666666668
150.0   60.0   16.666666666666668
200.0   60.0   33.333333333333336
150.0   30.0   33.333333333333336
150.0   60.0   33.333333333333336
200.0   60.0   33.333333333333336
150.0   60.0   16.666666666666668
150.0   30.0   33.333333333333336
200.0   60.0   33.333333333333336
200.0   30.0   33.333333333333336
200.0   30.0   16.666666666666668
150.0   30.0   33.333333333333336
200.0   60.0   33.333333333333336
200.0   30.0   16.666666666666668
150.0   60.0   16.666666666666668
150.0   30.0   33.333333333333336
200.0   30.0   33.333333333333336
150.0   60.0   33.333333333333336
150.0   30.0   50.0
200.0   30.0   33.333333333333336
200.0   60.0   33.333333333333336
150.0   60.0   33.333333333333336
200.0   60.0   50.0
150.0   30.0   50.0
150.0   60.0   50.0
200.0   60.0   50.0
150.0   60.0   33.333333333333336
150.0   30.0   50.0
200.0   60.0   50.0
200.0   30.0   50.0
200.0   30.0   33.333333333333336
150.0   30.0   50.0
200.0   60.0   50.0
200.0   30.0   33.333333333333336
150.0   60.0   33.333333333333336
150.0   60.0   0.0
200.0   60.0   0.0
150.0   90.0   0.0
150.0   60.0   16.666666666666668
200.0   60.0   0.0
200.0   90.0   0.0
150.0   90.0   0.0
200.0   90.0   16.666666666666668
150.0   60.0   16.666666666666668
150.0   90.0   16.666666666666668
200.0   90.0   16.666666666666668
150.0   90.0   0.0
150.0   60.0   16.666666666666668
200.0   90.0   16.666666666666668
200.0   60.0   16.666666666666668
200.0   60.0   0.0
150.0   60.0   16.666666666666668
200.0   90.0   16.666666666666668
200.0   60.0   0.0
150.0   90.0   0.0
150.0   60.0   16.666666666666668
200.0   60.0   16.666666666666668
150.0   90.0   16.666666666666668
150.0   60.0   33.333333333333336
200.0   60.0   16.666666666666668
200.0   90.0   16.666666666666668
150.0   90.0   16.666666666666668
200.0   90.0   33.333333333333336
150.0   60.0   33.333333333333336
150.0   90.0   33.333333333333336
200.0   90.0   33.333333333333336
150.0   90.0   16.666666666666668
150.0   60.0   33.333333333333336
200.0   90.0   33.333333333333336
200.0   60.0   33.333333333333336
200.0   60.0   16.666666666666668
150.0   60.0   33.333333333333336
200.0   90.0   33.333333333333336
200.0   60.0   16.666666666666668
150.0   90.0   16.666666666666668
150.0   60.0   33.333333333333336
200.0   60.0   33.333333333333336
150.0   90.0   33.333333333333336
150.0   60.0   50.0
200.0   60.0   33.333333333333336
200.0   90.0   33.333333333333336
150.0   90.0   33.333333333333336
200.0   90.0   50.0
150.0   60.0   50.0
150.0   90.0   50.0
200.0   90.0   50.0
150.0   90.0   33.333333333333336
150.0   60.0   50.0
200.0   90.0   50.0
200.0   60.0   50.0
200.0   60.0   33.333333333333336
150.0   60.0   50.0
200.0   90.0   50.0
200.0   60.0   33.333333333333336
150.0   90.0   33.333333333333336
150.0   90.0   0.0
200.0   90.0   0.0
150.0   120.0   0.0
150.0   90.0   16.666666666666668
200.0   90.0   0.0
200.0   120.0   0.0
150.0   120.0   0.0
200.0   120.0   16.666666666666668
150.0   90.0   16.666666666666668
150.0   120.0   16.666666666666668
200.0   120.0   16.666666666666668
150.0   120.0   0.0
150.0   90.0   16.666666666666668
200.0   120.0   16.666666666666668
200.0   90.0   16.666666666666668
200.0   90.0   0.0
150.0   90.0   16.666666666666668
200.0   120.0   16.666666666666668
200.0   90.0   0.0
150.0   120.0   0.0
150.0   90.0   16.666666666666668
200.0   90.0   16.666666666666668
150.0   120.0   16.666666666666668
150.0   90.0   33.333333333333336
200.0   90.0   16.666666666666668
200.0   120.0   16.666666666666668
150.0   120.0   16.666666666666668
200.0   120.0   33.333333333333336
150.0   90.0   33.333333333333336
150.0   120.0   33.333333333333336
200.0   120.0   33.333333333333336
150.0   120.0   16.666666666666668
150.0   90.0   33.333333333333336
200.0   120.0   33.333333333333336
200.0   90.0   33.333333333333336
200.0   90.0   16.666666666666668
150.0   90.0   33.333333333333336
200.0   120.0   33.333333333333336
200.0   90.0   16.666666666666668
150.0   120.0   16.666666666666668
150.0   90.0   33.333333333333336
200.0   90.0   33.333333333333336
150.0   120.0   33.333333333333336
150.0   90.0   50.0
200.0   90.0   33.333333333333336
200.0   120.0   33.333333333333336
150.0   120.0   33.333333333333336
200.0   120.0   50.0
150.0   90.0   50.0
150.0   120.0   50.0
200.0   120.0   50.0
150.0   120.0   33.333333333333336
150.0   90.0   50.0
200.0   120.0   50.0
200.0   90.0   50.0
200.0   90.0   33.333333333333336
150.0   90.0   50.0
200.0   120.0   50.0
200.0   90.0   33.333333333333336
150.0   120.0   33.333333333333336
150.0   120.0   0.0
200.0   120.0   0.0
150.0   150.0   0.0
150.0   120.0   16.666666666666668
200.0   120.0   0.0
200.0   150.0   0.0
150.0   150.0   0.0
200.0   150.0   16.666666666666668
150.0   120.0   16.666666666666668
150.0   150.0   16.666666666666668
200.0   150.0   16.666666666666668
150.0   150.0   0.0
150.0   120.0   16.666666666666668
200.0   150.0   16.666666666666668
200.0   120.0   16.666666666666668
200.0   120.0   0.0
150.0   120.0   16.666666666666668
200.0   150.0   16.666666666666668
200.0   120.0   0.0
150.0   150.0   0.0
150.0   120.0   16.666666666666668
200.0   120.0   16.666666666666668
150.0   150.0   16.666666666666668
150.0   120.0   33.333333333333336
200.0   120.0   16.666666666666668
200.0   150.0   16.666666666666668
150.0   150.0   16.666666666666668
200.0   150.0   33.333333333333336
150.0   120.0   33.333333333333336
150.0   150.0   33.333333333333336
200.0   150.0   33.333333333333336
150.0   150.0   16.666666666666668
150.0   120.0   33.333333333333336
200.0   150.0   33.333333333333336
200.0   120.0   33.333333333333336
200.0   120.0   16.666666666666668
150.0   120.0   33.333333333333336
200.0   150.0   33.333333333333336
200.0   120.0   16.666666666666668
150.0   150.0   16.666666666666668
150.0   120.0   33.333333333333336
200.0   120.0   33.333333333333336
150.0   150.0   33.333333333333336
150.0   120.0   50.0
200.0   120.0   33.333333333333336
200.0   150.0   33.333333333333336
150.0   150.0   33.333333333333336
200.0   150.0   50.0
150.0   120.0   50.0
150.0   150.0   50.0
200.0   150.0   50.0
150.0   150.0   33.333333333333336
150.0   120.0   50.0
200.0   150.0   50.0
200.0   120.0   50.0
200.0   120.0   33.333333333333336
150.0   120.0   50.0
200.0   150.0   50.0
200.0   120.0   33.333333333333336
150.0   150.0   33.333333333333336
200.0   0.0   0.0
250.0   0.0   0.0
200.0   30.0   0.0
200.0   0.0   16.666666666666668
250.0   0.0   0.0
250.0   30.0   0.0
200.0   30.0   0.0
250.0   30.0   16.666666666666668
200.0   0.0   16.666666666666668
200.0   30.0   16.666666666666668
250.0   30.0   16.666666666666668
200.0   30.0   0.0
200.0   0.0   16.666666666666668
250.0   30.0   16.666666666666668
250.0   0.0   16.666666666666668
250.0   0.0   0.0
200.0   0.0   16.666666666666668
250.0   30.0   16.666666666666668
250.0   0.0   0.0
200.0   30.0   0.0
200.0   0.0   16.666666666666668
250.0   0.0   16.666666666666668
200.0   30.0   16.666666666666668
200.0   0.0   33.333333333333336
250.0   0.0   16.666666666666668
250.0   30.0   16.666666666666668
200.0   30.0   16.666666666666668
250.0   30.0   33.333333333333336
200.0   0.0   33.333333333333336
200.0   30.0   33.333333333333336
250.0   30.0   33.333333333333336
200.0   30.0   16.666666666666668
200.0   0.0   33.333333333333336
250.0   30.0   33.333333333333336
250.0   0.0   33.333333333333336
250.0   0.0   16.666666666666668
200.0   0.0   33.333333333333336
250.0   30.0   33.333333333333336
250.0   0.0   16.666666666666668
200.0   30.0   16.666666666666668
200.0   0.0   33.333333333333336
250.0   0.0   33.333333333333336
200.0   30.0   33.333333333333336
200.0   0.0   50.0
250.0   0.0   33.333333333333336
250.0   30.0   33.333333333333336
200.0   30.0   33.333333333333336
250.0   30.0   50.0
200.0   0.0   50.0
200.0   30.0   50.0
250.0   30.0   50.0
200.0   30.0   33.333333333333336
200.0   0.0   50.0
250.0   30.0   50.0
250.0   0.0   50.0
250.0   0.0   33.333333333333336
200.0   0.0   50.0
250.0   30.0   50.0
250.0   0.0   33.333333333333336
200.0   30.0   33.333333333333336
200.0   30.0   0.0
250.0   30.0   0.0
200.0   60.0   0.0
200.0   30.0   16.666666666666668
250.0   30.0   0.0
250.0   60.0   0.0
200.0   60.0   0.0
250.0   60.0   16.666666666666668
200.0   30.0   16.666666666666668
200.0   60.0   16.666666666666668
250.0   60.0   16.666666666666668
200.0   60.0   0.0
200.0   30.0   16.666666666666668
250.0   60.0   16.666666666666668
250.0   30.0   16.666666666666668
250.0   30.0   0.0
200.0   30.0   16.666666666666668
250.0   60.0   16.666666666666668
250.0   30.0   0.0
200.0   60.0   0.0
200.0   30.0   16.666666666666668
250.0   30.0   16.666666666666668
200.0   60.0   16.666666666666668
200.0   30.0   33.333333333333336
250.0   30.0   16.666666666666668
250.0   60.0   16.666666666666668
200.0   60.0   16.666666666666668
250.0   60.0   33.333333333333336
200.0   30.0   33.333333333333336
200.0   60.0   33.333333333333336
250.0   60.0   33.333333333333336
200.0   60.0   16.666666666666668
200.0   30.0   33.333333333333336
250.0   60.0   33.333333333333336
250.0   30.0   33.333333333333336
250.0   30.0   16.666666666666668
200.0   30.0   33.333333333333336
250.0   60.0   33.333333333333336
250.0   30.0   16.666666666666668
200.0   60.0   16.666666666666668
200.0   30.0   33.333333333333336
250.0   30.0   33.333333333333336
200.0   60.0   33.333333333333336
200.0   30.0   50.0
250.0   30.0   33.333333333333336
250.0   60.0   33.333333333333336
200.0   60.0   33.333333333333336
250.0   60.0   50.0
200.0   30.0   50.0
200.0   60.0   50.0
250.0   60.0   50.0
200.0   60.0   33.333333333333336
200.0   30.0   50.0
250.0   60.0   50.0
250.0   30.0   50.0
250.0   30.0   33.333333333333336
200.0   30.0   50.0
250.0   60.0   50.0
250.0   30.0   33.333333333333336
200.0   60.0   33.333333333333336
200.0   60.0   0.0
250.0   60.0   0.0
200.0   90.0   0.0
200.0   60.0   16.666666666666668
250.0   60.0   0.0
250.0   90.0   0.0
200.0   90.0   0.0
250.0   90.0   16.666666666666668
200.0   60.0   16.666666666666668
200.0   90.0   16.666666666666668
250.0   90.0   16.666666666666668
200.0   90.0   0.0
200.0   60.0   16.666666666666668
250.0   90.0   16.666666666666668
250.0   60.0   16.666666666666668
250.0   60.0   0.0
200.0   60.0   16.666666666666668
250.0   90.0   16.666666666666668
250.0   60.0   0.0
200.0   90.0   0.0
200.0   60.0   16.666666666666668
250.0   60.0   16.666666666666668
200.0   90.0   16.666666666666668
200.0   60.0   33.333333333333336
250.0   60.0   16.666666666666668
250.0   90.0   16.666666666666668
200.0   90.0   16.666666666666668
250.0   90.0   33.333333333333336
200.0   60.0   33.333333333333336
200.0   90.0   33.333333333333336
250.0   90.0   33.333333333333336
200.0   90.0   16.666666666666668
200.0   60.0   33.333333333333336
250.0   90.0   33.333333333333336
250.0   60.0   33.333333333333336
250.0   60.0   16.666666666666668
200.0   60.0   33.333333333333336
250.0   90.0   33.333333333333336
250.0   60.0   16.666666666666668
200.0   90.0   16.666666666666668
200.0   60.0   33.333333333333336
250.0   60.0   33.333333333333336
200.0   90.0   33.333333333333336
200.0   60.0   50.0
250.0   60.0   33.333333333333336
250.0   90.0   33.333333333333336
200.0   90.0   33.333333333333336
250.0   90.0   50.0
200.0   60.0   50.0
200.0   90.0   50.0
250.0   90.0   50.0
200.0   90.0   33.333333333333336
200.0   60.0   50.0
250.0   90.0   50.0
250.0   60.0   50.0
250.0   60.0   33.333333333333336
200.0   60.0   50.0
250.0   90.0   50.0
250.0   60.0   33.333333333333336
200.0   90.0   33.333333333333336
200.0   90.0   0.0
250.0   90.0   0.0
200.0   120.0   0.0
200.0   90.0   16.666666666666668
250.0   90.0   0.0
250.0   120.0   0.0
200.0   120.0   0.0
250.0   120.0   16.666666666666668
200.0   90.0   16.666666666666668
200.0   120.0   16.666666666666668
250.0   120.0   16.666666666666668
200.0   120.0   0.0
200.0   90.0   16.666666666666668
250.0   120.0   16.666666666666668
250.0   90.0   16.666666666666668
250.0   90.0   0.0
200.0   90.0   16.666666666666668
250.0   120.0   16.666666666666668
250.0   90.0   0.0
200.0   120.0   0.0
200.0   90.0   16.666666666666668
250.0   90.0   16.666666666666668
200.0   120.0   16.666666666666668
200.0   90.0   33.333333333333336
250.0   90.0   16.666666666666668
250.0   120.0   16.666666666666668
200.0   120.0   16.666666666666668
250.0   120.0   33.333333333333336
200.0   90.0   33.333333333333336
200.0   120.0   33.333333333333336
250.0   120.0   33.333333333333336
200.0   120.0   16.666666666666668
200.0   90.0   33.333333333333336
250.0   120.0   33.333333333333336
250.0   90.0   33.333333333333336
250.0   90.0   16.666666666666668
200.0   90.0   33.333333333333336
250.0   120.0   33.333333333333336
250.0   90.0   16.666666666666668
200.0   120.0   16.666666666666668
200.0   90.0   33.333333333333336
250.0   90.0   33.333333333333336
200.0   120.0   33.333333333333336
200.0   90.0   50.0
250.0   90.0   33.333333333333336
250.0   120.0   33.333333333333336
200.0   120.0   33.333333333333336
250.0   120.0   50.0
200.0   90.0   50.0
200.0   120.0   50.0
250.0   120.0   50.0
200.0   120.0   33.333333333333336
200.0   90.0   50.0
250.0   120.0   50.0
250.0   90.0   50.0
250.0   90.0   33.333333333333336
200.0   90.0   50.0
250.0   120.0   50.0
250.0   90.0   33.333333333333336
200.0   120.0   33.333333333333336
200.0   120.0   0.0
250.0   120.0   0.0
200.0   150.0   0.0
200.0   120.0   16.666666666666668
250.0   120.0   0.0
250.0   150.0   0.0
200.0   150.0   0.0
250.0   150.0   16.666666666666668
200.0   120.0   16.666666666666668
200.0   150.0   16.666666666666668
250.0   150.0   16.666666666666668
200.0   150.0   0.0
200.0   120.0   16.666666666666668
250.0   150.0   16.666666666666668
250.0   120.0   16.666666666666668
250.0   120.0   0.0
200.0   120.0   16.666666666666668
250.0   150.0   16.666666666666668
250.0   120.0   0.0
200.0   150.0   0.0
200.0   120.0   16.666666666666668
250.0   120.0   16.666666666666668
200.0   150.0   16.666666666666668
200.0   120.0   33.333333333333336
250.0   120.0   16.666666666666668
250.0   150.0   16.666666666666668
200.0   150.0   16.666666666666668
250.0   150.0   33.333333333333336
200.0   120.0   33.333333333333336
200.0   150.0   33.333333333333336
250.0   150.0   33.333333333333336
200.0   150.0   16.666666666666668
200.0   120.0   33.333333333333336
250.0   150.0   33.333333333333336
250.0   120.0   33.333333333333336
250.0   120.0   16.666666666666668
200.0   120.0   33.333333333333336
250.0   150.0   33.333333333333336
250.0   120.0   16.666666666666668
200.0   150.0   16.666666666666668
200.0   120.0   33.333333333333336
250.0   120.0   33.333333333333336
200.0   150.0   33.333333333333336
200.0   120.0   50.0
250.0   120.0   33.333333333333336
250.0   150.0   33.333333333333336
200.0   150.0   33.333333333333336
250.0   150.0   50.0
200.0   120.0   50.0
200.0   150.0   50.0
250.0   150.0   50.0
200.0   150.0   33.333333333333336
200.0   120.0   50.0
250.0   150.0   50.0
250.0   120.0   50.0
250.0   120.0   33.333333333333336
200.0   120.0   50.0
250.0   150.0   50.0
250.0   120.0   33.333333333333336
200.0   150.0   33.333333333333336
250.0   0.0   0.0
300.0   0.0   0.0
250.0   30.0   0.0
250.0   0.0   16.666666666666668
300.0   0.0   0.0
300.0   30.0   0.0
250.0   30.0   0.0
300.0   30.0   16.666666666666668
250.0   0.0   16.666666666666668
250.0   30.0   16.666666666666668
300.0   30.0   16.666666666666668
250.0   30.0   0.0
250.0   0.0   16.666666666666668
300.0   30.0   16.666666666666668
300.0   0.0   16.666666666666668
300.0   0.0   0.0
250.0   0.0   16.666666666666668
300.0   30.0   16.666666666666668
300.0   0.0   0.0
250.0   30.0   0.0
250.0   0.0   16.666666666666668
300.0   0.0   16.666666666666668
250.0   30.0   16.666666666666668
250.0   0.0   33.333333333333336
300.0   0.0   16.666666666666668
300.0   30.0   16.666666666666668
250.0   30.0   16.666666666666668
300.0   30.0   33.333333333333336
250.0   0.0   33.333333333333336
250.0   30.0   33.333333333333336
300.0   30.0   33.333333333333336
250.0   30.0   16.666666666666668
250.0   0.0   33.333333333333336
300.0   30.0   33.333333333333336
300.0   0.0   33.333333333333336
300.0   0.0   16.666666666666668
250.0   0.0   33.333333333333336
300.0   30.0   33.333333333333336
300.0   0.0   16.666666666666668
250.0   30.0   16.666666666666668
250.0   0.0   33.333333333333336
300.0   0.0   33.333333333333336
250.0   30.0   33.333333333333336
250.0   0.0   50.0
300.0   0.0   33.333333333333336
300.0   30.0   33.333333333333336
250.0   30.0   33.333333333333336
300.0   30.0   50.0
250.0   0.0   50.0
250.0   30.0   50.0
300.0   30.0   50.0
250.0   30.0   33.333333333333336
250.0   0.0   50.0
300.0   30.0   50.0
300.0   0.0   50.0
300.0   0.0   33.333333333333336
250.0   0.0   50.0
300.0   30.0   50.0
300.0   0.0   33.333333333333336
250.0   30.0   33.333333333333336
250.0   30.0   0.0
300.0   30.0   0.0
250.0   60.0   0.0
250.0   30.0   16.666666666666668
300.0   30.0   0.0
300.0   60.0   0.0
250.0   60.0   0.0
300.0   60.0   16.666666666666668
250.0   30.0   16.666666666666668
250.0   60.0   16.666666666666668
300.0   60.0   16.666666666666668
250.0   60.0   0.0
250.0   30.0   16.666666666666668
300.0   60.0   16.666666666666668
300.0   30.0   16.666666666666668
300.0   30.0   0.0
250.0   30.0   16.666666666666668
300.0   60.0   16.666666666666668
300.0   30.0   0.0
250.0   60.0   0.0
250.0   30.0   16.666666666666668
300.0   30.0   16.666666666666668
250.0   60.0   16.666666666666668
250.0   30.0   33.333333333333336
300.0   30.0   16.666666666666668
300.0   60.0   16.666666666666668
250.0   60.0   16.666666666666668
300.0   60.0   33.333333333333336
250.0   30.0   33.333333333333336
250.0   60.0   33.333333333333336
300.0   60.0   33.333333333333336
250.0   60.0   16.666666666666668
250.0   30.0   33.333333333333336
300.0   60.0   33.333333333333336
300.0   30.0   33.333333333333336
300.0   30.0   16.666666666666668
250.0   30.0   33.333333333333336
300.0   60.0   33.333333333333336
300.0   30.0   16.666666666666668
250.0   60.0   16.666666666666668
250.0   30.0   33.333333333333336
300.0   30.0   33.333333333333336
250.0   60.0   33.333333333333336
250.0   30.0   50.0
300.0   30.0   33.333333333333336
300.0   60.0   33.333333333333336
250.0   60.0   33.333333333333336
300.0   60.0   50.0
250.0   30.0   50.0
250.0   60.0   50.0
300.0   60.0   50.0
250.0   60.0   33.333333333333336
250.0   30.0   50.0
300.0   60.0   50.0
300.0   30.0   50.0
300.0   30.0   33.333333333333336
250.0   30.0   50.0
300.0   60.0   50.0
300.0   30.0   33.333333333333336
250.0   60.0   33.333333333333336
250.0   60.0   0.0
300.0   60.0   0.0
250.0   90.0   0.0
250.0   60.0   16.666666666666668
300.0   60.0   0.0
300.0   90.0   0.0
250.0   90.0   0.0
300.0   90.0   16.666666666666668
250.0   60.0   16.666666666666668
250.0   90.0   16.666666666666668
300.0   90.0   16.666666666666668
250.0   90.0   0.0
250.0   60.0   16.666666666666668
300.0   90.0   16.666666666666668
300.0   60.0   16.666666666666668
300.0   60.0   0.0
250.0   60.0   16.666666666666668
300.0   90.0   16.666666666666668
300.0   60.0   0.0
250.0   90.0   0.0
250.0   60.0   16.666666666666668
300.0   60.0   16.666666666666668
250.0   90.0   16.666666666666668
250.0   60.0   33.333333333333336
300.0   60.0   16.666666666666668
300.0   90.0   16.666666666666668
250.0   90.0   16.666666666666668
300.0   90.0   33.333333333333336
250.0   60.0   33.333333333333336
250.0   90.0   33.333333333333336
300.0   90.0   33.333333333333336
250.0   90.0   16.666666666666668
250.0   60.0   33.333333333333336
300.0   90.0   33.333333333333336
300.0   60.0   33.333333333333336
300.0   60.0   16.666666666666668
250.0   60.0   33.333333333333336
300.0   90.0   33.333333333333336
300.0   60.0   16.666666666666668
250.0   90.0   16.666666666666668
250.0   60.0   33.333333333333336
300.0   60.0   33.333333333333336
250.0   90.0   33.333333333333336
250.0   60.0   50.0
300.0   60.0   33.333333333333336
300.0   90.0   33.333333333333336
250.0   90.0   33.333333333333336
300.0   90.0   50.0
250.0   60.0   50.0
250.0   90.0   50.0
300.0   90.0   50.0
250.0   90.0   33.333333333333336
250.0   60.0   50.0
300.0   90.0   50.0
300.0   60.0   50.0
300.0   60.0   33.333333333333336
250.0   60.0   50.0
300.0   90.0   50.0
300.0   60.0   33.333333333333336
250.0   90.0   33.333333333333336
250.0   90.0   0.0
300.0   90.0   0.0
250.0   120.0   0.0
250.0   90.0   16.666666666666668
300.0   90.0   0.0
300.0   120.0   0.0
250.0   120.0   0.0
300.0   120.0   16.666666666666668
250.0   90.0   16.666666666666668
250.0   120.0   16.666666666666668
300.0   120.0   16.666666666666668
250.0   120.0   0.0
250.0   90.0   16.666666666666668
300.0   120.0   16.666666666666668
300.0   90.0   16.666666666666668
300.0   90.0   0.0
250.0   90.0   16.666666666666668
300.0   120.0   16.666666666666668
300.0   90.0   0.0
250.0   120.0   0.0
250.0   90.0   16.666666666666668
300.0   90.0   16.666666666666668
250.0   120.0   16.666666666666668
250.0   90.0   33.333333333333336
300.0   90.0   16.666666666666668
300.0   120.0   16.666666666666668
250.0   120.0   16.666666666666668
300.0   120.0   33.333333333333336
250.0   90.0   33.333333333333336
250.0   120.0   33.333333333333336
300.0   120.0   33.333333333333336
250.0   120.0   16.666666666666668
250.0   90.0   33.333333333333336
300.0   120.0   33.333333333333336
300.0   90.0   33.333333333333336
300.0   90.0   16.666666666666668
250.0   90.0   33.333333333333336
300.0   120.0   33.333333333333336
300.0   90.0   16.666666666666668
250.0   120.0   16.666666666666668
250.0   90.0   33.333333333333336
300.0   90.0   33.333333333333336
250.0   120.0   33.333333333333336
250.0   90.0   50.0
300.0   90.0   33.333333333333336
300.0   120.0   33.333333333333336
250.0   120.0   33.333333333333336
300.0   120.0   50.0
250.0   90.0   50.0
250.0   120.0   50.0
300.0   120.0   50.0
250.0   120.0   33.333333333333336
250.0   90.0   50.0
300.0   120.0   50.0
300.0   90.0   50.0
300.0   90.0   33.333333333333336
250.0   90.0   50.0
300.0   120.0   50.0
300.0   90.0   33.333333333333336
250.0   120.0   33.333333333333336
250.0   120.0   0.0
300.0   120.0   0.0
250.0   150.0   0.0
250.0   120.0   16.666666666666668
300.0   120.0   0.0
300.0   150.0   0.0
250.0   150.0   0.0
300.0   150.0   16.666666666666668
250.0   120.0   16.666666666666668
250.0   150.0   16.666666666666668
300.0   150.0   16.666666666666668
250.0   150.0   0.0
250.0   120.0   16.666666666666668
300.0   150.0   16.666666666666668
300.0   120.0   16.666666666666668
300.0   120.0   0.0
250.0   120.0   16.666666666666668
300.0   150.0   16.666666666666668
300.0   120.0   0.0
250.0   150.0   0.0
250.0   120.0   16.666666666666668
300.0   120.0   16.666666666666668
250.0   150.0   16.666666666666668
250.0   120.0   33.333333333333336
300.0   120.0   16.666666666666668
300.0   150.0   16.666666666666668
250.0   150.0   16.666666666666668
300.0   150.0   33.333333333333336
250.0   120.0   33.333333333333336
250.0   150.0   33.333333333333336
300.0   150.0   33.333333333333336
250.0   150.0   16.666666666666668
250.0   120.0   33.333333333333336
300.0   150.0   33.333333333333336
300.0   120.0   33.333333333333336
300.0   120.0   16.666666666666668
250.0   120.0   33.333333333333336
300.0   150.0   33.333333333333336
300.0   120.0   16.666666666666668
250.0   150.0   16.666666666666668
250.0   120.0   33.333333333333336
300.0   120.0   33.333333333333336
250.0   150.0   33.333333333333336
250.0   120.0   50.0
300.0   120.0   33.333333333333336
300.0   150.0   33.333333333333336
250.0   150.0   33.333333333333336
300.0   150.0   50.0
250.0   120.0   50.0
250.0   150.0   50.0
300.0   150.0   50.0
250.0   150.0   33.333333333333336
250.0   120.0   50.0
300.0   150.0   50.0
300.0   120.0   50.0
300.0   120.0   33.333333333333336
250.0   120.0   50.0
300.0   150.0   50.0
300.0   120.0   33.333333333333336
250.0   150.0   33.333333333333336
300.0   0.0   0.0
350.0   0.0   0.0
300.0   30.0   0.0
300.0   0.0   16.666666666666668
350.0   0.0   0.0
350.0   30.0   0.0
300.0   30.0   0.0
350.0   30.0   16.666666666666668
300.0   0.0   16.666666666666668
300.0   30.0   16.666666666666668
350.0   30.0   16.666666666666668
300.0   30.0   0.0
300.0   0.0   16.666666666666668
350.0   30.0   16.666666666666668
350.0   0.0   16.666666666666668
350.0   0.0   0.0
300.0   0.0   16.666666666666668
350.0   30.0   16.666666666666668
350.0   0.0   0.0
300.0   30.0   0.0
300.0   0.0   16.666666666666668
350.0   0.0   16.666666666666668
300.0   30.0   16.666666666666668
300.0   0.0   33.333333333333336
350.0   0.0   16.666666666666668
350.0   30.0   16.666666666666668
300.0   30.0   16.666666666666668
350.0   30.0   33.333333333333336
300.0   0.0   33.333333333333336
300.0   30.0   33.333333333333336
350.0   30.0   33.333333333333336
300.0   30.0   16.666666666666668
300.0   0.0   33.333333333333336
350.0   30.0   33.333333333333336
350.0   0.0   33.333333333333336
350.0   0.0   16.666666666666668
300.0   0.0   33.333333333333336
350.0   30.0   33.333333333333336
350.0   0.0   16.666666666666668
300.0   30.0   16.666666666666668
300.0   0.0   33.333333333333336
350.0   0.0   33.333333333333336
300.0   30.0   33.333333333333336
300.0   0.0   50.0
350.0   0.0   33.333333333333336
350.0   30.0   33.333333333333336
300.0   30.0   33.333333333333336
350.0   30.0   50.0
300.0   0.0   50.0
300.0   30.0   50.0
350.0   30.0   50.0
300.0   30.0   33.333333333333336
300.0   0.0   50.0
350.0   30.0   50.0
350.0   0.0   50.0
350.0   0.0   33.333333333333336
300.0   0.0   50.0
350.0   30.0   50.0
350.0   0.0   33.333333333333336
300.0   30.0   33.333333333333336
300.0   30.0   0.0
350.0   30.0   0.0
300.0   60.0   0.0
300.0   30.0   16.666666666666668
350.0   30.0   0.0
350.0   60.0   0.0
300.0   60.0   0.0
350.0   60.0   16.666666666666668
300.0   30.0   16.666666666666668
300.0   60.0   16.666666666666668
350.0   60.0   16.666666666666668
300.0   60.0   0.0
300.0   30.0   16.666666666666668
350.0   60.0   16.666666666666668
350.0   30.0   16.666666666666668
350.0   30.0   0.0
300.0   30.0   16.666666666666668
350.0   60.0   16.666666666666668
350.0   30.0   0.0
300.0   60.0   0.0
300.0   30.0   16.666666666666668
350.0   30.0   16.666666666666668
300.0   60.0   16.666666666666668
300.0   30.0   33.333333333333336
350.0   30.0   16.666666666666668
350.0   60.0   16.666666666666668
300.0   60.0   16.666666666666668
350.0   60.0   33.333333333333336
300.0   30.0   33.333333333333336
300.0   60.0   33.333333333333336
350.0   60.0   33.333333333333336
300.0   60.0   16.666666666666668
300.0   30.0   33.333333333333336
350.0   60.0   33.333333333333336
350.0   30.0   33.333333333333336
350.0   30.0   16.666666666666668
300.0   30.0   33.333333333333336
350.0   60.0   33.333333333333336
350.0   30.0   16.666666666666668
300.0   60.0   16.666666666666668
300.0   30.0   33.333333333333336
350.0   30.0   33.333333333333336
300.0   60.0   33.333333333333336
300.0   30.0   50.0
350.0   30.0   33.333333333333336
350.0   60.0   33.333333333333336
300.0   60.0   33.333333333333336
350.0   60.0   50.0
300.0   30.0   50.0
300.0   60.0   50.0
350.0   60.0   50.0
300.0   60.0   33.333333333333336
300.0   30.0   50.0
350.0   60.0   50.0
350.0   30.0   50.0
350.0   30.0   33.333333333333336
300.0   30.0   50.0
350.0   60.0   50.0
350.0   30.0   33.333333333333336
300.0   60.0   33.333333333333336
300.0   60.0   0.0
350.0   60.0   0.0
300.0   90.0   0.0
300.0   60.0   16.666666666666668
350.0   60.0   0.0
350.0   90.0   0.0
300.0   90.0   0.0
350.0   90.0   16.666666666666668
300.0   60.0   16.666666666666668
300.0   90.0   16.666666666666668
350.0   90.0   16.666666666666668
300.0   90.0   0.0
300.0   60.0   16.666666666666668
350.0   90.0   16.666666666666668
350.0   60.0   16.666666666666668
350.0   60.0   0.0
300.0   60.0   16.666666666666668
350.0   90.0   16.666666666666668
350.0   60.0   0.0
300.0   90.0   0.0
300.0   60.0   16.666666666666668
350.0   60.0   16.666666666666668
300.0   90.0   16.666666666666668
300.0   60.0   33.333333333333336
350.0   60.0   16.666666666666668
350.0   90.0   16.666666666666668
300.0   90.0   16.666666666666668
350.0   90.0   33.333333333333336
300.0   60.0   33.333333333333336
300.0   90.0   33.333333333333336
350.0   90.0   33.333333333333336
300.0   90.0   16.666666666666668
300.0   60.0   33.333333333333336
350.0   90.0   33.333333333333336
350.0   60.0   33.333333333333336
350.0   60.0   16.666666666666668
300.0   60.0   33.333333333333336
350.0   90.0   33.333333333333336
350.0   60.0   16.666666666666668
300.0   90.0   16.666666666666668
300.0   60.0   33.333333333333336
350.0   60.0   33.333333333333336
300.0   90.0   33.333333333333336
300.0   60.0   50.0
350.0   60.0   33.333333333333336
350.0   90.0   33.333333333333336
300.0   90.0   33.333333333333336
350.0   90.0   50.0
300.0   60.0   50.0
300.0   90.0   50.0
350.0   90.0   50.0
300.0   90.0   33.333333333333336
300.0   60.0   50.0
350.0   90.0   50.0
350.0   60.0   50.0
350.0   60.0   33.333333333333336
300.0   60.0   50.0
350.0   90.0   50.0
350.0   60.0   33.333333333333336
300.0   90.0   33.333333333333336
300.0   90.0   0.0
350.0   90.0   0.0
300.0   120.0   0.0
300.0   90.0   16.666666666666668
350.0   90.0   0.0
350.0   120.0   0.0
300.0   120.0   0.0
350.0   120.0   16.666666666666668
300.0   90.0   16.666666666666668
300.0   120.0   16.666666666666668
350.0   120.0   16.666666666666668
300.0   120.0   0.0
300.0   90.0   16.666666666666668
350.0   120.0   16.666666666666668
350.0   90.0   16.666666666666668
350.0   90.0   0.0
300.0   90.0   16.666666666666668
350.0   120.0   16.666666666666668
350.0   90.0   0.0
300.0   120.0   0.0
300.0   90.0   16.666666666666668
350.0   90.0   16.666666666666668
300.0   120.0   16.666666666666668
300.0   90.0   33.333333333333336
350.0   90.0   16.666666666666668
350.0   120.0   16.666666666666668
300.0   120.0   16.666666666666668
350.0   120.0   33.333333333333336
300.0   90.0   33.333333333333336
300.0   120.0   33.333333333333336
350.0   120.0   33.333333333333336
300.0   120.0   16.666666666666668
300.0   90.0   33.333333333333336
350.0   120.0   33.333333333333336
350.0   90.0   33.333333333333336
350.0   90.0   16.666666666666668
300.0   90.0   33.333333333333336
350.0   120.0   33.333333333333336
350.0   90.0   16.666666666666668
300.0   120.0   16.666666666666668
300.0   90.0   33.333333333333336
350.0   90.0   33.333333333333336
300.0   120.0   33.333333333333336
300.0   90.0   50.0
350.0   90.0   33.333333333333336
350.0   120.0   33.333333333333336
300.0   120.0   33.333333333333336
350.0   120.0   50.0
300.0   90.0   50.0
300.0   120.0   50.0
350.0   120.0   50.0
300.0   120.0   33.333333333333336
300.0   90.0   50.0
350.0   120.0   50.0
350.0   90.0   50.0
350.0   90.0   33.333333333333336
300.0   90.0   50.0
350.0   120.0   50.0
350.0   90.0   33.333333333333336
300.0   120.0   33.333333333333336
300.0   120.0   0.0
350.0   120.0   0.0
300.0   150.0   0.0
300.0   120.0   16.666666666666668
350.0   120.0   0.0
350.0   150.0   0.0
300.0   150.0   0.0
350.0   150.0   16.666666666666668
300.0   120.0   16.666666666666668
300.0   150.0   16.666666666666668
350.0   150.0   16.666666666666668
300.0   150.0   0.0
300.0   120.0   16.666666666666668
350.0   150.0   16.666666666666668
350.0   120.0   16.666666666666668
350.0   120.0   0.0
300.0   120.0   16.666666666666668
350.0   150.0   16.666666666666668
350.0   120.0   0.0
300.0   150.0   0.0
300.0   120.0   16.666666666666668
350.0   120.0   16.666666666666668
300.0   150.0   16.666666666666668
300.0   120.0   33.333333333333336
350.0   120.0   16.666666666666668
350.0   150.0   16.666666666666668
300.0   150.0   16.666666666666668
350.0   150.0   33.333333333333336
300.0   120.0   33.333333333333336
300.0   150.0   33.333333333333336
350.0   150.0   33.333333333333336
300.0   150.0   16.666666666666668
300.0   120.0   33.333333333333336
350.0   150.0   33.333333333333336
350.0   120.0   33.333333333333336
350.0   120.0   16.666666666666668
300.0   120.0   33.333333333333336
350.0   150.0   33.333333333333336
350.0   120.0   16.666666666666668
300.0   150.0   16.666666666666668
300.0   120.0   33.333333333333336
350.0   120.0   33.333333333333336
300.0   150.0   33.333333333333336
300.0   120.0   50.0
350.0   120.0   33.333333333333336
350.0   150.0   33.333333333333336
300.0   150.0   33.333333333333336
350.0   150.0   50.0
300.0   120.0   50.0
300.0   150.0   50.0
350.0   150.0   50.0
300.0   150.0   33.333333333333336
300.0   120.0   50.0
350.0   150.0   50.0
350.0   120.0   50.0
350.0   120.0   33.333333333333336
300.0   120.0   50.0
350.0   150.0   50.0
350.0   120.0   33.333333333333336
300.0   150.0   33.333333333333336
350.0   0.0   0.0
400.0   0.0   0.0
350.0   30.0   0.0
350.0   0.0   16.666666666666668
400.0   0.0   0.0
400.0   30.0   0.0
350.0   30.0   0.0
400.0   30.0   16.666666666666668
350.0   0.0   16.666666666666668
350.0   30.0   16.666666666666668
400.0   30.0   16.666666666666668
350.0   30.0   0.0
350.0   0.0   16.666666666666668
400.0   30.0   16.666666666666668
400.0   0.0   16.666666666666668
400.0   0.0   0.0
350.0   0.0   16.666666666666668
400.0   30.0   16.666666666666668
400.0   0.0   0.0
350.0   30.0   0.0
350.0   0.0   16.666666666666668
400.0   0.0   16.666666666666668
350.0   30.0   16.666666666666668
350.0   0.0   33.333333333333336
400.0   0.0   16.666666666666668
400.0   30.0   16.666666666666668
350.0   30.0   16.666666666666668
400.0   30.0   33.333333333333336
350.0   0.0   33.333333333333336
350.0   30.0   33.333333333333336
400.0   30.0   33.333333333333336
350.0   30.0   16.666666666666668
350.0   0.0   33.333333333333336
400.0   30.0   33.333333333333336
400.0   0.0   33.333333333333336
400.0   0.0   16.666666666666668
350.0   0.0   33.333333333333336
400.0   30.0   33.333333333333336
400.0   0.0   16.666666666666668
350.0   30.0   16.666666666666668
350.0   0.0   33.333333333333336
400.0   0.0   33.333333333333336
350.0   30.0   33.333333333333336
350.0   0.0   50.0
400.0   0.0   33.333333333333336
400.0   30.0   33.333333333333336
350.0   30.0   33.333333333333336
400.0   30.0   50.0
350.0   0.0   50.0
350.0   30.0   50.0
400.0   30.0   50.0
350.0   30.0   33.333333333333336
350.0   0.0   50.0
400.0   30.0   50.0
400.0   0.0   50.0
400.0   0.0   33.333333333333336
350.0   0.0   50.0
400.0   30.0   50.0
400.0   0.0   33.333333333333336
350.0   30.0   33.333333333333336
350.0   30.0   0.0
400.0   30.0   0.0
350.0   60.0   0.0
350.0   30.0   16.666666666666668
400.0   30.0   0.0
400.0   60.0   0.0
350.0   60.0   0.0
400.0   60.0   16.666666666666668
350.0   30.0   16.666666666666668
350.0   60.0   16.666666666666668
400.0   60.0   16.666666666666668
350.0   60.0   0.0
350.0   30.0   16.666666666666668
400.0   60.0   16.666666666666668
400.0   30.0   16.666666666666668
400.0   30.0   0.0
350.0   30.0   16.666666666666668
400.0   60.0   16.666666666666668
400.0   30.0   0.0
350.0   60.0   0.0
350.0   30.0   16.666666666666668
400.0   30.0   16.666666666666668
350.0   60.0   16.666666666666668
350.0   30.0   33.333333333333336
400.0   30.0   16.666666666666668
400.0   60.0   16.666666666666668
350.0   60.0   16.666666666666668
400.0   60.0   33.333333333333336
350.0   30.0   33.333333333333336
350.0   60.0   33.333333333333336
400.0   60.0   33.333333333333336
350.0   60.0   16.666666666666668
350.0   30.0   33.333333333333336
400.0   60.0   33.333333333333336
400.0   30.0   33.333333333333336
400.0   30.0   16.666666666666668
350.0   30.0   33.333333333333336
400.0   60.0   33.333333333333336
400.0   30.0   16.666666666666668
350.0   60.0   16.666666666666668
350.0   30.0   33.333333333333336
400.0   30.0   33.333333333333336
350.0   60.0   33.333333333333336
350.0   30.0   50.0
400.0   30.0   33.333333333333336
400.0   60.0   33.333333333333336
350.0   60.0   33.333333333333336
400.0   60.0   50.0
350.0   30.0   50.0
350.0   60.0   50.0
400.0   60.0   50.0
350.0   60.0   33.333333333333336
350.0   30.0   50.0
400.0   60.0   50.0
400.0   30.0   50.0
400.0   30.0   33.333333333333336
350.0   30.0   50.0
400.0   60.0   50.0
400.0   30.0   33.333333333333336
350.0   60.0   33.333333333333336
350.0   60.0   0.0
400.0   60.0   0.0
350.0   90.0   0.0
350.0   60.0   16.666666666666668
400.0   60.0   0.0
400.0   90.0   0.0
350.0   90.0   0.0
400.0   90.0   16.666666666666668
350.0   60.0   16.666666666666668
350.0   90.0   16.666666666666668
400.0   90.0   16.666666666666668
350.0   90.0   0.0
350.0   60.0   16.666666666666668
400.0   90.0   16.666666666666668
400.0   60.0   16.666666666666668
400.0   60.0   0.0
350.0   60.0   16.666666666666668
400.0   90.0   16.666666666666668
400.0   60.0   0.0
350.0   90.0   0.0
350.0   60.0   16.666666666666668
400.0   60.0   16.666666666666668
350.0   90.0   16.666666666666668
350.0   60.0   33.333333333333336
400.0   60.0   16.666666666666668
400.0   90.0   16.666666666666668
350.0   90.0   16.666666666666668
400.0   90.0   33.333333333333336
350.0   60.0   33.333333333333336
350.0   90.0   33.333333333333336
400.0   90.0   33.333333333333336
350.0   90.0   16.666666666666668
350.0   60.0   33.333333333333336
400.0   90.0   33.333333333333336
400.0   60.0   33.333333333333336
400.0   60.0   16.666666666666668
350.0   60.0   33.333333333333336
400.0   90.0   33.333333333333336
400.0   60.0   16.666666666666668
350.0   90.0   16.666666666666668
350.0   60.0   33.333333333333336
400.0   60.0   33.333333333333336
350.0   90.0   33.333333333333336
350.0   60.0   50.0
400.0   60.0   33.333333333333336
400.0   90.0   33.333333333333336
350.0   90.0   33.333333333333336
400.0   90.0   50.0
350.0   60.0   50.0
350.0   90.0   50.0
400.0   90.0   50.0
350.0   90.0   33.333333333333336
350.0   60.0   50.0
400.0   90.0   50.0
400.0   60.0   50.0
400.0   60.0   33.333333333333336
350.0   60.0   50.0
400.0   90.0   50.0
400.0   60.0   33.333333333333336
350.0   90.0   33.333333333333336
350.0   90.0   0.0
400.0   90.0   0.0
350.0   120.0   0.0
350.0   90.0   16.666666666666668
400.0   90.0   0.0
400.0   120.0   0.0
350.0   120.0   0.0
400.0   120.0   16.666666666666668
350.0   90.0   16.666666666666668
350.0   120.0   16.666666666666668
400.0   120.0   16.666666666666668
350.0   120.0   0.0
350.0   90.0   16.666666666666668
400.0   120.0   16.666666666666668
400.0   90.0   16.666666666666668
400.0   90.0   0.0
350.0   90.0   16.666666666666668
400.0   120.0   16.666666666666668
400.0   90.0   0.0
350.0   120.0   0.0
350.0   90.0   16.666666666666668
400.0   90.0   16.666666666666668
350.0   120.0   16.666666666666668
350.0   90.0   33.333333333333336
400.0   90.0   16.666666666666668
400.0   120.0   16.666666666666668
350.0   120.0   16.666666666666668
400.0   120.0   33.333333333333336
350.0   90.0   33.333333333333336
350.0   120.0   33.333333333333336
400.0   120.0   33.333333333333336
350.0   120.0   16.666666666666668
350.0   90.0   33.333333333333336
400.0   120.0   33.333333333333336
400.0   90.0   33.333333333333336
400.0   90.0   16.666666666666668
350.0   90.0   33.333333333333336
400.0   120.0   33.333333333333336
400.0   90.0   16.666666666666668
350.0   120.0   16.666666666666668
350.0   90.0   33.333333333333336
400.0   90.0   33.333333333333336
350.0   120.0   33.333333333333336
350.0   90.0   50.0
400.0   90.0   33.333333333333336
400.0   120.0   33.333333333333336
350.0   120.0   33.333333333333336
400.0   120.0   50.0
350.0   90.0   50.0
350.0   120.0   50.0
400.0   120.0   50.0
350.0   120.0   33.333333333333336
350.0   90.0   50.0
400.0   120.0   50.0
400.0   90.0   50.0
400.0   90.0   33.333333333333336
350.0   90.0   50.0
400.0   120.0   50.0
400.0   90.0   33.333333333333336
350.0   120.0   33.333333333333336
350.0   120.0   0.0
400.0   120.0   0.0
350.0   150.0   0.0
350.0   120.0   16.666666666666668
400.0   120.0   0.0
400.0   150.0   0.0
350.0   150.0   0.0
400.0   150.0   16.666666666666668
350.0   120.0   16.666666666666668
350.0   150.0   16.666666666666668
400.0   150.0   16.666666666666668
350.0   150.0   0.0
350.0   120.0   16.666666666666668
400.0   150.0   16.666666666666668
400.0   120.0   16.666666666666668
400.0   120.0   0.0
350.0   120.0   16.666666666666668
400.0   150.0   16.666666666666668
400.0   120.0   0.0
350.0   150.0   0.0
350.0   120.0   16.666666666666668
400.0   120.0   16.666666666666668
350.0   150.0   16.666666666666668
350.0   120.0   33.333333333333336
400.0   120.0   16.666666666666668
400.0   150.0   16.666666666666668
350.0   150.0   16.666666666666668
400.0   150.0   33.333333333333336
350.0   120.0   33.333333333333336
350.0   150.0   33.333333333333336
400.0   150.0   33.333333333333336
350.0   150.0   16.666666666666668
350.0   120.0   33.333333333333336
400.0   150.0   33.333333333333336
400.0   120.0   33.333333333333336
400.0   120.0   16.666666666666668
350.0   120.0   33.333333333333336
400.0   150.0   33.333333333333336
400.0   120.0   16.666666666666668
350.0   150.0   16.666666666666668
350.0   120.0   33.333333333333336
400.0   120.0   33.333333333333336
350.0   150.0   33.333333333333336
350.0   120.0   50.0
400.0   120.0   33.333333333333336
400.0   150.0   33.333333333333336
350.0   150.0   33.333333333333336
400.0   150.0   50.0
350.0   120.0   50.0
350.0   150.0   50.0
400.0   150.0   50.0
350.0   150.0   33.333333333333336
350.0   120.0   50.0
400.0   150.0   50.0
400.0   120.0   50.0
400.0   120.0   33.333333333333336
350.0   120.0   50.0
400.0   150.0   50.0
400.0   120.0   33.333333333333336
350.0   150.0   33.333333333333336
400.0   0.0   0.0
450.0   0.0   0.0
400.0   30.0   0.0
400.0   0.0   16.666666666666668
450.0   0.0   0.0
450.0   30.0   0.0
400.0   30.0   0.0
450.0   30.0   16.666666666666668
400.0   0.0   16.666666666666668
400.0   30.0   16.666666666666668
450.0   30.0   16.666666666666668
400.0   30.0   0.0
400.0   0.0   16.666666666666668
450.0   30.0   16.666666666666668
450.0   0.0   16.666666666666668
450.0   0.0   0.0
400.0   0.0   16.666666666666668
450.0   30.0   16.666666666666668
450.0   0.0   0.0
400.0   30.0   0.0
400.0   0.0   16.666666666666668
450.0   0.0   16.666666666666668
400.0   30.0   16.666666666666668
400.0   0.0   33.333333333333336
450.0   0.0   16.666666666666668
450.0   30.0   16.666666666666668
400.0   30.0   16.666666666666668
450.0   30.0   33.333333333333336
400.0   0.0   33.333333333333336
400.0   30.0   33.333333333333336
450.0   30.0   33.333333333333336
400.0   30.0   16.666666666666668
400.0   0.0   33.333333333333336
450.0   30.0   33.333333333333336
450.0   0.0   33.333333333333336
450.0   0.0   16.666666666666668
400.0   0.0   33.333333333333336
450.0   30.0   33.333333333333336
450.0   0.0   16.666666666666668
400.0   30.0   16.666666666666668
400.0   0.0   33.333333333333336
450.0   0.0   33.333333333333336
400.0   30.0   33.333333333333336
400.0   0.0   50.0
450.0   0.0   33.333333333333336
450.0   30.0   33.333333333333336
400.0   30.0   33.333333333333336
450.0   30.0   50.0
400.0   0.0   50.0
400.0   30.0   50.0
450.0   30.0   50.0
400.0   30.0   33.333333333333336
400.0   0.0   50.0
450.0   30.0   50.0
450.0   0.0   50.0
450.0   0.0   33.333333333333336
400.0   0.0   50.0
450.0   30.0   50.0
450.0   0.0   33.333333333333336
400.0   30.0   33.333333333333336
400.0   30.0   0.0
450.0   30.0   0.0
400.0   60.0   0.0
400.0   30.0   16.666666666666668
450.0   30.0   0.0
450.0   60.0   0.0
400.0   60.0   0.0
450.0   60.0   16.666666666666668
400.0   30.0   16.666666666666668
400.0   60.0   16.666666666666668
450.0   60.0   16.666666666666668
400.0   60.0   0.0
400.0   30.0   16.666666666666668
450.0   60.0   16.666666666666668
450.0   30.0   16.666666666666668
450.0   30.0   0.0
400.0   30.0   16.666666666666668
450.0   60.0   16.666666666666668
450.0   30.0   0.0
400.0   60.0   0.0
400.0   30.0   16.666666666666668
450.0   30.0   16.666666666666668
400.0   60.0   16.666666666666668
400.0   30.0   33.333333333333336
450.0   30.0   16.666666666666668
450.0   60.0   16.666666666666668
400.0   60.0   16.666666666666668
450.0   60.0   33.333333333333336
400.0   30.0   33.333333333333336
400.0   60.0   33.333333333333336
450.0   60.0   33.333333333333336
400.0   60.0   16.666666666666668
400.0   30.0   33.333333333333336
450.0   60.0   33.333333333333336
450.0   30.0   33.333333333333336
450.0   30.0   16.666666666666668
400.0   30.0   33.333333333333336
450.0   60.0   33.333333333333336
450.0   30.0   16.666666666666668
400.0   60.0   16.666666666666668
400.0   30.0   33.333333333333336
450.0   30.0   33.333333333333336
400.0   60.0   33.333333333333336
400.0   30.0   50.0
450.0   30.0   33.333333333333336
450.0   60.0   33.333333333333336
400.0   60.0   33.333333333333336
450.0   60.0   50.0
400.0   30.0   50.0
400.0   60.0   50.0
450.0   60.0   50.0
400.0   60.0   33.333333333333336
400.0   30.0   50.0
450.0   60.0   50.0
450.0   30.0   50.0
450.0   30.0   33.333333333333336
400.0   30.0   50.0
450.0   60.0   50.0
450.0   30.0   33.333333333333336
400.0   60.0   33.333333333333336
400.0   60.0   0.0
450.0   60.0   0.0
400.0   90.0   0.0
400.0   60.0   16.666666666666668
450.0   60.0   0.0
450.0   90.0   0.0
400.0   90.0   0.0
450.0   90.0   16.666666666666668
400.0   60.0   16.666666666666668
400.0   90.0   16.666666666666668
450.0   90.0   16.666666666666668
400.0   90.0   0.0
400.0   60.0   16.666666666666668
450.0   90.0   16.666666666666668
450.0   60.0   16.666666666666668
450.0   60.0   0.0
400.0   60.0   16.666666666666668
450.0   90.0   16.666666666666668
450.0   60.0   0.0
400.0   90.0   0.0
400.0   60.0   16.666666666666668
450.0   60.0   16.666666666666668
400.0   90.0   16.666666666666668
400.0   60.0   33.333333333333336
450.0   60.0   16.666666666666668
450.0   90.0   16.666666666666668
400.0   90.0   16.666666666666668
450.0   90.0   33.333333333333336
400.0   60.0   33.333333333333336
400.0   90.0   33.333333333333336
450.0   90.0   33.333333333333336
400.0   90.0   16.666666666666668
400.0   60.0   33.333333333333336
450.0   90.0   33.333333333333336
450.0   60.0   33.333333333333336
450.0   60.0   16.666666666666668
400.0   60.0   33.333333333333336
450.0   90.0   33.333333333333336
450.0   60.0   16.666666666666668
400.0   90.0   16.666666666666668
400.0   60.0   33.333333333333336
450.0   60.0   33.333333333333336
400.0   90.0   33.333333333333336
400.0   60.0   50.0
450.0   60.0   33.333333333333336
450.0   90.0   33.333333333333336
400.0   90.0   33.333333333333336
450.0   90.0   50.0
400.0   60.0   50.0
400.0   90.0   50.0
450.0   90.0   50.0
400.0   90.0   33.333333333333336
400.0   60.0   50.0
450.0   90.0   50.0
450.0   60.0   50.0
450.0   60.0   33.333333333333336
400.0   60.0   50.0
450.0   90.0   50.0
450.0   60.0   33.333333333333336
400.0   90.0   33.333333333333336
400.0   90.0   0.0
450.0   90.0   0.0
400.0   120.0   0.0
400.0   90.0   16.666666666666668
450.0   90.0   0.0
450.0   120.0   0.0
400.0   120.0   0.0
450.0   120.0   16.666666666666668
400.0   90.0   16.666666666666668
400.0   120.0   16.666666666666668
450.0   120.0   16.666666666666668
400.0   120.0   0.0
400.0   90.0   16.666666666666668
450.0   120.0   16.666666666666668
450.0   90.0   16.666666666666668
450.0   90.0   0.0
400.0   90.0   16.666666666666668
450.0   120.0   16.666666666666668
450.0   90.0   0.0
400.0   120.0   0.0
400.0   90.0   16.666666666666668
450.0   90.0   16.666666666666668
400.0   120.0   16.666666666666668
400.0   90.0   33.333333333333336
450.0   90.0   16.666666666666668
450.0   120.0   16.666666666666668
400.0   120.0   16.666666666666668
450.0   120.0   33.333333333333336
400.0   90.0   33.333333333333336
400.0   120.0   33.333333333333336
450.0   120.0   33.333333333333336
400.0   120.0   16.666666666666668
400.0   90.0   33.333333333333336
450.0   120.0   33.333333333333336
450.0   90.0   33.333333333333336
450.0   90.0   16.666666666666668
400.0   90.0   33.333333333333336
450.0   120.0   33.333333333333336
450.0   90.0   16.666666666666668
400.0   120.0   16.666666666666668
400.0   90.0   33.333333333333336
450.0   90.0   33.333333333333336
400.0   120.0   33.333333333333336
400.0   90.0   50.0
450.0   90.0   33.333333333333336
450.0   120.0   33.333333333333336
400.0   120.0   33.333333333333336
450.0   120.0   50.0
400.0   90.0   50.0
400.0   120.0   50.0
450.0   120.0   50.0
400.0   120.0   33.333333333333336
400.0   90.0   50.0
450.0   120.0   50.0
450.0   90.0   50.0
450.0   90.0   33.333333333333336
400.0   90.0   50.0
450.0   120.0   50.0
450.0   90.0   33.333333333333336
400.0   120.0   33.333333333333336
400.0   120.0   0.0
450.0   120.0   0.0
400.0   150.0   0.0
400.0   120.0   16.666666666666668
450.0   120.0   0.0
450.0   150.0   0.0
400.0   150.0   0.0
450.0   150.0   16.666666666666668
400.0   120.0   16.666666666666668
400.0   150.0   16.666666666666668
450.0   150.0   16.666666666666668
400.0   150.0   0.0
400.0   120.0   16.666666666666668
450.0   150.0   16.666666666666668
450.0   120.0   16.666666666666668
450.0   120.0   0.0
400.0   120.0   16.666666666666668
450.0   150.0   16.666666666666668
450.0   120.0   0.0
400.0   150.0   0.0
400.0   120.0   16.666666666666668
450.0   120.0   16.666666666666668
400.0   150.0   16.666666666666668
400.0   120.0   33.333333333333336
450.0   120.0   16.666666666666668
450.0   150.0   16.666666666666668
400.0   150.0   16.666666666666668
450.0   150.0   33.333333333333336
400.0   120.0   33.333333333333336
400.0   150.0   33.333333333333336
450.0   150.0   33.333333333333336
400.0   150.0   16.666666666666668
400.0   120.0   33.333333333333336
450.0   150.0   33.333333333333336
450.0   120.0   33.333333333333336
450.0   120.0   16.666666666666668
400.0   120.0   33.333333333333336
450.0   150.0   33.333333333333336
450.0   120.0   16.666666666666668
400.0   150.0   16.666666666666668
400.0   120.0   33.333333333333336
450.0   120.0   33.333333333333336
400.0   150.0   33.333333333333336
400.0   120.0   50.0
450.0   120.0   33.333333333333336
450.0   150.0   33.333333333333336
400.0   150.0   33.333333333333336
450.0   150.0   50.0
400.0   120.0   50.0
400.0   150.0   50.0
450.0   150.0   50.0
400.0   150.0   33.333333333333336
400.0   120.0   50.0
450.0   150.0   50.0
450.0   120.0   50.0
450.0   120.0   33.333333333333336
400.0   120.0   50.0
450.0   150.0   50.0
450.0   120.0   33.333333333333336
400.0   150.0   33.333333333333336
450.0   0.0   0.0
500.0   0.0   0.0
450.0   30.0   0.0
450.0   0.0   16.666666666666668
500.0   0.0   0.0
500.0   30.0   0.0
450.0   30.0   0.0
500.0   30.0   16.666666666666668
450.0   0.0   16.666666666666668
450.0   30.0   16.666666666666668
500.0   30.0   16.666666666666668
450.0   30.0   0.0
450.0   0.0   16.666666666666668
500.0   30.0   16.666666666666668
500.0   0.0   16.666666666666668
500.0   0.0   0.0
450.0   0.0   16.666666666666668
500.0   30.0   16.666666666666668
500.0   0.0   0.0
450.0   30.0   0.0
450.0   0.0   16.666666666666668
500.0   0.0   16.666666666666668
450.0   30.0   16.666666666666668
450.0   0.0   33.333333333333336
500.0   0.0   16.666666666666668
500.0   30.0   16.666666666666668
450.0   30.0   16.666666666666668
500.0   30.0   33.333333333333336
450.0   0.0   33.333333333333336
450.0   30.0   33.333333333333336
500.0   30.0   33.333333333333336
450.0   30.0   16.666666666666668
450.0   0.0   33.333333333333336
500.0   30.0   33.333333333333336
500.0   0.0   33.333333333333336
500.0   0.0   16.666666666666668
450.0   0.0   33.333333333333336
500.0   30.0   33.333333333333336
500.0   0.0   16.666666666666668
450.0   30.0   16.666666666666668
450.0   0.0   33.333333333333336
500.0   0.0   33.333333333333336
450.0   30.0   33.333333333333336
450.0   0.0   50.0
500.0   0.0   33.333333333333336
500.0   30.0   33.333333333333336
450.0   30.0   33.333333333333336
500.0   30.0   50.0
450.0   0.0   50.0
450.0   30.0   50.0
500.0   30.0   50.0
450.0   30.0   33.333333333333336
450.0   0.0   50.0
500.0   30.0   50.0
500.0   0.0   50.0
500.0   0.0   33.333333333333336
450.0   0.0   50.0
500.0   30.0   50.0
500.0   0.0   33.333333333333336
450.0   30.0   33.333333333333336
450.0   30.0   0.0
500.0   30.0   0.0
450.0   60.0   0.0
450.0   30.0   16.666666666666668
500.0   30.0   0.0
500.0   60.0   0.0
450.0   60.0   0.0
500.0   60.0   16.666666666666668
450.0   30.0   16.666666666666668
450.0   60.0   16.666666666666668
500.0   60.0   16.666666666666668
450.0   60.0   0.0
450.0   30.0   16.666666666666668
500.0   60.0   16.666666666666668
500.0   30.0   16.666666666666668
500.0   30.0   0.0
450.0   30.0   16.666666666666668
500.0   60.0   16.666666666666668
500.0   30.0   0.0
450.0   60.0   0.0
450.0   30.0   16.666666666666668
500.0   30.0   16.666666666666668
450.0   60.0   16.666666666666668
450.0   30.0   33.333333333333336
500.0   30.0   16.666666666666668
500.0   60.0   16.666666666666668
450.0   60.0   16.666666666666668
500.0   60.0   33.333333333333336
450.0   30.0   33.333333333333336
450.0   60.0   33.333333333333336
500.0   60.0   33.333333333333336
450.0   60.0   16.666666666666668
450.0   30.0   33.333333333333336
500.0   60.0   33.333333333333336
500.0   30.0   33.333333333333336
500.0   30.0   16.666666666666668
450.0   30.0   33.333333333333336
500.0   60.0   33.333333333333336
500.0   30.0   16.666666666666668
450.0   60.0   16.666666666666668
450.0   30.0   33.333333333333336
500.0   30.0   33.333333333333336
450.0   60.0   33.333333333333336
450.0   30.0   50.0
500.0   30.0   33.333333333333336
500.0   60.0   33.333333333333336
450.0   60.0   33.333333333333336
500.0   60.0   50.0
450.0   30.0   50.0
450.0   60.0   50.0
500.0   60.0   50.0
450.0   60.0   33.333333333333336
450.0   30.0   50.0
500.0   60.0   50.0
500.0   30.0   50.0
500.0   30.0   33.333333333333336
450.0   30.0   50.0
500.0   60.0   50.0
500.0   30.0   33.333333333333336
450.0   60.0   33.333333333333336
450.0   60.0   0.0
500.0   60.0   0.0
450.0   90.0   0.0
450.0   60.0   16.666666666666668
500.0   60.0   0.0
500.0   90.0   0.0
450.0   90.0   0.0
500.0   90.0   16.666666666666668
450.0   60.0   16.666666666666668
450.0   90.0   16.666666666666668
500.0   90.0   16.666666666666668
450.0   90.0   0.0
450.0   60.0   16.666666666666668
500.0   90.0   16.666666666666668
500.0   60.0   16.666666666666668
500.0   60.0   0.0
450.0   60.0   16.666666666666668
500.0   90.0   16.666666666666668
500.0   60.0   0.0
450.0   90.0   0.0
450.0   60.0   16.666666666666668
500.0   60.0   16.666666666666668
450.0   90.0   16.666666666666668
450.0   60.0   33.333333333333336
500.0   60.0   16.666666666666668
500.0   90.0   16.666666666666668
450.0   90.0   16.666666666666668
500.0   90.0   33.333333333333336
450.0   60.0   33.333333333333336
450.0   90.0   33.333333333333336
500.0   90.0   33.333333333333336
450.0   90.0   16.666666666666668
450.0   60.0   33.333333333333336
500.0   90.0   33.333333333333336
500.0   60.0   33.333333333333336
500.0   60.0   16.666666666666668
450.0   60.0   33.333333333333336
500.0   90.0   33.333333333333336
500.0   60.0   16.666666666666668
450.0   90.0   16.666666666666668
450.0   60.0   33.333333333333336
500.0   60.0   33.333333333333336
450.0   90.0   33.333333333333336
450.0   60.0   50.0
500.0   60.0   33.333333333333336
500.0   90.0   33.333333333333336
450.0   90.0   33.333333333333336
500.0   90.0   50.0
450.0   60.0   50.0
450.0   90.0   50.0
500.0   90.0   50.0
450.0   90.0   33.333333333333336
450.0   60.0   50.0
500.0   90.0   50.0
500.0   60.0   50.0
500.0   60.0   33.333333333333336
450.0   60.0   50.0
500.0   90.0   50.0
500.0   60.0   33.333333333333336
450.0   90.0   33.333333333333336
450.0   90.0   0.0
500.0   90.0   0.0
450.0   120.0   0.0
450.0   90.0   16.666666666666668
500.0   90.0   0.0
500.0   120.0   0.0
450.0   120.0   0.0
500.0   120.0   16.666666666666668
450.0   90.0   16.666666666666668
450.0   120.0   16.666666666666668
500.0   120.0   16.666666666666668
450.0   120.0   0.0
450.0   90.0   16.666666666666668
500.0   120.0   16.666666666666668
500.0   90.0   16.666666666666668
500.0   90.0   0.0
450.0   90.0   16.666666666666668
500.0   120.0   16.666666666666668
500.0   90.0   0.0
450.0   120.0   0.0
450.0   90.0   16.666666666666668
500.0   90.0   16.666666666666668
450.0   120.0   16.666666666666668
450.0   90.0   33.333333333333336
500.0   90.0   16.666666666666668
500.0   120.0   16.666666666666668
450.0   120.0   16.666666666666668
500.0   120.0   33.333333333333336
450.0   90.0   33.333333333333336
450.0   120.0   33.333333333333336
500.0   120.0   33.333333333333336
450.0   120.0   16.666666666666668
450.0   90.0   33.333333333333336
500.0   120.0   33.333333333333336
500.0   90.0   33.333333333333336
500.0   90.0   16.666666666666668
450.0   90.0   33.333333333333336
500.0   120.0   33.333333333333336
500.0   90.0   16.666666666666668
450.0   120.0   16.666666666666668
450.0   90.0   33.333333333333336
500.0   90.0   33.333333333333336
450.0   120.0   33.333333333333336
450.0   90.0   50.0
500.0   90.0   33.333333333333336
500.0   120.0   33.333333333333336
450.0   120.0   33.333333333333336
500.0   120.0   50.0
450.0   90.0   50.0
450.0   120.0   50.0
500.0   120.0   50.0
450.0   120.0   33.333333333333336
450.0   90.0   50.0
500.0   120.0   50.0
500.0   90.0   50.0
500.0   90.0   33.333333333333336
450.0   90.0   50.0
500.0   120.0   50.0
500.0   90.0   33.333333333333336
450.0   120.0   33.333333333333336
450.0   120.0   0.0
500.0   120.0   0.0
450.0   150.0   0.0
450.0   120.0   16.666666666666668
500.0   120.0   0.0
500.0   150.0   0.0
450.0   150.0   0.0
500.0   150.0   16.666666666666668
450.0   120.0   16.666666666666668
450.0   150.0   16.666666666666668
500.0   150.0   16.666666666666668
450.0   150.0   0.0
450.0   120.0   16.666666666666668
500.0   150.0   16.666666666666668
500.0   120.0   16.666666666666668
500.0   120.0   0.0
450.0   120.0   16.666666666666668
500.0   150.0   16.666666666666668
500.0   120.0   0.0
450.0   150.0   0.0
450.0   120.0   16.666666666666668
500.0   120.0   16.666666666666668
450.0   150.0   16.666666666666668
450.0   120.0   33.333333333333336
500.0   120.0   16.666666666666668
500.0   150.0   16.666666666666668
450.0   150.0   16.666666666666668
500.0   150.0   33.333333333333336
450.0   120.0   33.333333333333336
450.0   150.0   33.333333333333336
500.0   150.0   33.333333333333336
450.0   150.0   16.666666666666668
450.0   120.0   33.333333333333336
500.0   150.0   33.333333333333336
500.0   120.0   33.333333333333336
500.0   120.0   16.666666666666668
450.0   120.0   33.333333333333336
500.0   150.0   33.333333333333336
500.0   120.0   16.666666666666668
450.0   150.0   16.666666666666668
450.0   120.0   33.333333333333336
500.0   120.0   33.333333333333336
450.0   150.0   33.333333333333336
450.0   120.0   50.0
500.0   120.0   33.333333333333336
500.0   150.0   33.333333333333336
450.0   150.0   33.333333333333336
500.0   150.0   50.0
450.0   120.0   50.0
450.0   150.0   50.0
500.0   150.0   50.0
450.0   150.0   33.333333333333336
450.0   120.0   50.0
500.0   150.0   50.0
500.0   120.0   50.0
500.0   120.0   33.333333333333336
450.0   120.0   50.0
500.0   150.0   50.0
500.0   120.0   33.333333333333336
450.0   150.0   33.333333333333336
             </DataArray>   
          </Points>  
          <Cells>  
             <DataArray type="Int32" Name="connectivity" format="ascii">   
0   1   2   3
4   5   6   7
8   9   10   11
12   13   14   15
16   17   18   19
20   21   22   23
24   25   26   27
28   29   30   31
32   33   34   35
36   37   38   39
40   41   42   43
44   45   46   47
48   49   50   51
52   53   54   55
56   57   58   59
60   61   62   63
64   65   66   67
68   69   70   71
72   73   74   75
76   77   78   79
80   81   82   83
84   85   86   87
88   89   90   91
92   93   94   95
96   97   98   99
100   101   102   103
104   105   106   107
108   109   110   111
112   113   114   115
116   117   118   119
120   121   122   123
124   125   126   127
128   129   130   131
132   133   134   135
136   137   138   139
140   141   142   143
144   145   146   147
148   149   150   151
152   153   154   155
156   157   158   159
160   161   162   163
164   165   166   167
168   169   170   171
172   173   174   175
176   177   178   179
180   181   182   183
184   185   186   187
188   189   190   191
192   193   194   195
196   197   198   199
200   201   202   203
204   205   206   207
208   209   210   211
212   213   214   215
216   217   218   219
220   221   222   223
224   225   226   227
228   229   230   231
232   233   234   235
236   237   238   239
240   241   242   243
244   245   246   247
248   249   250   251
252   253   254   255
256   257   258   259
260   261   262   263
264   265   266   267
268   269   270   271
272   273   274   275
276   277   278   279
280   281   282   283
284   285   286   287
288   289   290   291
292   293   294   295
296   297   298   299
300   301   302   303
304   305   306   307
308   309   310   311
312   313   314   315
316   317   318   319
320   321   322   323
324   325   326   327
328   329   330   331
332   333   334   335
336   337   338   339
340   341   342   343
344   345   346   347
348   349   350   351
352   353   354   355
356   357   358   359
360   361   362   363
364   365   366   367
368   369   370   371
372   373   374   375
376   377   378   379
380   381   382   383
384   385   386   387
388   389   390   391
392   393   394   395
396   397   398   399
400   401   402   403
404   405   406   407
408   409   410   411
412   413   414   415
416   417   418   419
420   421   422   423
424   425   426   427
428   429   430   431
432   433   434   435
436   437   438   439
440   441   442   443
444   445   446   447
448   449   450   451
452   453   454   455
456   457   458   459
460   461   462   463
464   465   466   467
468   469   470   471
472   473   474   475
476   477   478   479
480   481   482   483
484   485   486   487
488   489   490   491
492   493   494   495
496   497   498   499
500   501   502   503
504   505   506   507
508   509   510   511
512   513   514   515
516   517   518   519
520   521   522   523
524   525   526   527
528   529   530   531
532   533   534   535
536   537   538   539
540   541   542   543
544   545   546   547
548   549   550   551
552   553   554   555
556   557   558   559
560   561   562   563
564   565   566   567
568   569   570   571
572   573   574   575
576   577   578   579
580   581   582   583
584   585   586   587
588   589   590   591
592   593   594   595
596   597   598   599
600   601   602   603
604   605   606   607
608   609   610   611
612   613   614   615
616   617   618   619
620   621   622   623
624   625   626   627
628   629   630   631
632   633   634   635
636   637   638   639
640   641   642   643
644   645   646   647
648   649   650   651
652   653   654   655
656   657   658   659
660   661   662   663
664   665   666   667
668   669   670   671
672   673   674   675
676   677   678   679
680   681   682   683
684   685   686   687
688   689   690   691
692   693   694   695
696   697   698   699
700   701   702   703
704   705   706   707
708   709   710   711
712   713   714   715
716   717   718   719
720   721   722   723
724   725   726   727
728   729   730   731
732   733   734   735
736   737   738   739
740   741   742   743
744   745   746   747
748   749   750   751
752   753   754   755
756   757   758   759
760   761   762   763
764   765   766   767
768   769   770   771
772   773   774   775
776   777   778   779
780   781   782   783
784   785   786   787
788   789   790   791
792   793   794   795
796   797   798   799
800   801   802   803
804   805   806   807
808   809   810   811
812   813   814   815
816   817   818   819
820   821   822   823
824   825   826   827
828   829   830   831
832   833   834   835
836   837   838   839
840   841   842   843
844   845   846   847
848   849   850   851
852   853   854   855
856   857   858   859
860   861   862   863
864   865   866   867
868   869   870   871
872   873   874   875
876   877   878   879
880   881   882   883
884   885   886   887
888   889   890   891
892   893   894   895
896   897   898   899
900   901   902   903
904   905   906   907
908   909   910   911
912   913   914   915
916   917   918   919
920   921   922   923
924   925   926   927
928   929   930   931
932   933   934   935
936   937   938   939
940   941   942   943
944   945   946   947
948   949   950   951
952   953   954   955
956   957   958   959
960   961   962   963
964   965   966   967
968   969   970   971
972   973   974   975
976   977   978   979
980   981   982   983
984   985   986   987
988   989   990   991
992   993   994   995
996   997   998   999
1000   1001   1002   1003
1004   1005   1006   1007
1008   1009   1010   1011
1012   1013   1014   1015
1016   1017   1018   1019
1020   1021   1022   1023
1024   1025   1026   1027
1028   1029   1030   1031
1032   1033   1034   1035
1036   1037   1038   1039
1040   1041   1042   1043
1044   1045   1046   1047
1048   1049   1050   1051
1052   1053   1054   1055
1056   1057   1058   1059
1060   1061   1062   1063
1064   1065   1066   1067
1068   1069   1070   1071
1072   1073   1074   1075
1076   1077   1078   1079
1080   1081   1082   1083
1084   1085   1086   1087
1088   1089   1090   1091
1092   1093   1094   1095
1096   1097   1098   1099
1100   1101   1102   1103
1104   1105   1106   1107
1108   1109   1110   1111
1112   1113   1114   1115
1116   1117   1118   1119
1120   1121   1122   1123
1124   1125   1126   1127
1128   1129   1130   1131
1132   1133   1134   1135
1136   1137   1138   1139
1140   1141   1142   1143
1144   1145   1146   1147
1148   1149   1150   1151
1152   1153   1154   1155
1156   1157   1158   1159
1160   1161   1162   1163
1164   1165   1166   1167
1168   1169   1170   1171
1172   1173   1174   1175
1176   1177   1178   1179
1180   1181   1182   1183
1184   1185   1186   1187
1188   1189   1190   1191
1192   1193   1194   1195
1196   1197   1198   1199
1200   1201   1202   1203
1204   1205   1206   1207
1208   1209   1210   1211
1212   1213   1214   1215
1216   1217   1218   1219
1220   1221   1222   1223
1224   1225   1226   1227
1228   1229   1230   1231
1232   1233   1234   1235
1236   1237   1238   1239
1240   1241   1242   1243
1244   1245   1246   1247
1248   1249   1250   1251
1252   1253   1254   1255
1256   1257   1258   1259
1260   1261   1262   1263
1264   1265   1266   1267
1268   1269   1270   1271
1272   1273   1274   1275
1276   1277   1278   1279
1280   1281   1282   1283
1284   1285   1286   1287
1288   1289   1290   1291
1292   1293   1294   1295
1296   1297   1298   1299
1300   1301   1302   1303
1304   1305   1306   1307
1308   1309   1310   1311
1312   1313   1314   1315
1316   1317   1318   1319
1320   1321   1322   1323
1324   1325   1326   1327
1328   1329   1330   1331
1332   1333   1334   1335
1336   1337   1338   1339
1340   1341   1342   1343
1344   1345   1346   1347
1348   1349   1350   1351
1352   1353   1354   1355
1356   1357   1358   1359
1360   1361   1362   1363
1364   1365   1366   1367
1368   1369   1370   1371
1372   1373   1374   1375
1376   1377   1378   1379
1380   1381   1382   1383
1384   1385   1386   1387
1388   1389   1390   1391
1392   1393   1394   1395
1396   1397   1398   1399
1400   1401   1402   1403
1404   1405   1406   1407
1408   1409   1410   1411
1412   1413   1414   1415
1416   1417   1418   1419
1420   1421   1422   1423
1424   1425   1426   1427
1428   1429   1430   1431
1432   1433   1434   1435
1436   1437   1438   1439
1440   1441   1442   1443
1444   1445   1446   1447
1448   1449   1450   1451
1452   1453   1454   1455
1456   1457   1458   1459
1460   1461   1462   1463
1464   1465   1466   1467
1468   1469   1470   1471
1472   1473   1474   1475
1476   1477   1478   1479
1480   1481   1482   1483
1484   1485   1486   1487
1488   1489   1490   1491
1492   1493   1494   1495
1496   1497   1498   1499
1500   1501   1502   1503
1504   1505   1506   1507
1508   1509   1510   1511
1512   1513   1514   1515
1516   1517   1518   1519
1520   1521   1522   1523
1524   1525   1526   1527
1528   1529   1530   1531
1532   1533   1534   1535
1536   1537   1538   1539
1540   1541   1542   1543
1544   1545   1546   1547
1548   1549   1550   1551
1552   1553   1554   1555
1556   1557   1558   1559
1560   1561   1562   1563
1564   1565   1566   1567
1568   1569   1570   1571
1572   1573   1574   1575
1576   1577   1578   1579
1580   1581   1582   1583
1584   1585   1586   1587
1588   1589   1590   1591
1592   1593   1594   1595
1596   1597   1598   1599
1600   1601   1602   1603
1604   1605   1606   1607
1608   1609   1610   1611
1612   1613   1614   1615
1616   1617   1618   1619
1620   1621   1622   1623
1624   1625   1626   1627
1628   1629   1630   1631
1632   1633   1634   1635
1636   1637   1638   1639
1640   1641   1642   1643
1644   1645   1646   1647
1648   1649   1650   1651
1652   1653   1654   1655
1656   1657   1658   1659
1660   1661   1662   1663
1664   1665   1666   1667
1668   1669   1670   1671
1672   1673   1674   1675
1676   1677   1678   1679
1680   1681   1682   1683
1684   1685   1686   1687
1688   1689   1690   1691
1692   1693   1694   1695
1696   1697   1698   1699
1700   1701   1702   1703
1704   1705   1706   1707
1708   1709   1710   1711
1712   1713   1714   1715
1716   1717   1718   1719
1720   1721   1722   1723
1724   1725   1726   1727
1728   1729   1730   1731
1732   1733   1734   1735
1736   1737   1738   1739
1740   1741   1742   1743
1744   1745   1746   1747
1748   1749   1750   1751
1752   1753   1754   1755
1756   1757   1758   1759
1760   1761   1762   1763
1764   1765   1766   1767
1768   1769   1770   1771
1772   1773   1774   1775
1776   1777   1778   1779
1780   1781   1782   1783
1784   1785   1786   1787
1788   1789   1790   1791
1792   1793   1794   1795
1796   1797   1798   1799
1800   1801   1802   1803
1804   1805   1806   1807
1808   1809   1810   1811
1812   1813   1814   1815
1816   1817   1818   1819
1820   1821   1822   1823
1824   1825   1826   1827
1828   1829   1830   1831
1832   1833   1834   1835
1836   1837   1838   1839
1840   1841   1842   1843
1844   1845   1846   1847
1848   1849   1850   1851
1852   1853   1854   1855
1856   1857   1858   1859
1860   1861   1862   1863
1864   1865   1866   1867
1868   1869   1870   1871
1872   1873   1874   1875
1876   1877   1878   1879
1880   1881   1882   1883
1884   1885   1886   1887
1888   1889   1890   1891
1892   1893   1894   1895
1896   1897   1898   1899
1900   1901   1902   1903
1904   1905   1906   1907
1908   1909   1910   1911
1912   1913   1914   1915
1916   1917   1918   1919
1920   1921   1922   1923
1924   1925   1926   1927
1928   1929   1930   1931
1932   1933   1934   1935
1936   1937   1938   1939
1940   1941   1942   1943
1944   1945   1946   1947
1948   1949   1950   1951
1952   1953   1954   1955
1956   1957   1958   1959
1960   1961   1962   1963
1964   1965   1966   1967
1968   1969   1970   1971
1972   1973   1974   1975
1976   1977   1978   1979
1980   1981   1982   1983
1984   1985   1986   1987
1988   1989   1990   1991
1992   1993   1994   1995
1996   1997   1998   1999
2000   2001   2002   2003
2004   2005   2006   2007
2008   2009   2010   2011
2012   2013   2014   2015
2016   2017   2018   2019
2020   2021   2022   2023
2024   2025   2026   2027
2028   2029   2030   2031
2032   2033   2034   2035
2036   2037   2038   2039
2040   2041   2042   2043
2044   2045   2046   2047
2048   2049   2050   2051
2052   2053   2054   2055
2056   2057   2058   2059
2060   2061   2062   2063
2064   2065   2066   2067
2068   2069   2070   2071
2072   2073   2074   2075
2076   2077   2078   2079
2080   2081   2082   2083
2084   2085   2086   2087
2088   2089   2090   2091
2092   2093   2094   2095
2096   2097   2098   2099
2100   2101   2102   2103
2104   2105   2106   2107
2108   2109   2110   2111
2112   2113   2114   2115
2116   2117   2118   2119
2120   2121   2122   2123
2124   2125   2126   2127
2128   2129   2130   2131
2132   2133   2134   2135
2136   2137   2138   2139
2140   2141   2142   2143
2144   2145   2146   2147
2148   2149   2150   2151
2152   2153   2154   2155
2156   2157   2158   2159
2160   2161   2162   2163
2164   2165   2166   2167
2168   2169   2170   2171
2172   2173   2174   2175
2176   2177   2178   2179
2180   2181   2182   2183
2184   2185   2186   2187
2188   2189   2190   2191
2192   2193   2194   2195
2196   2197   2198   2199
2200   2201   2202   2203
2204   2205   2206   2207
2208   2209   2210   2211
2212   2213   2214   2215
2216   2217   2218   2219
2220   2221   2222   2223
2224   2225   2226   2227
2228   2229   2230   2231
2232   2233   2234   2235
2236   2237   2238   2239
2240   2241   2242   2243
2244   2245   2246   2247
2248   2249   2250   2251
2252   2253   2254   2255
2256   2257   2258   2259
2260   2261   2262   2263
2264   2265   2266   2267
2268   2269   2270   2271
2272   2273   2274   2275
2276   2277   2278   2279
2280   2281   2282   2283
2284   2285   2286   2287
2288   2289   2290   2291
2292   2293   2294   2295
2296   2297   2298   2299
2300   2301   2302   2303
2304   2305   2306   2307
2308   2309   2310   2311
2312   2313   2314   2315
2316   2317   2318   2319
2320   2321   2322   2323
2324   2325   2326   2327
2328   2329   2330   2331
2332   2333   2334   2335
2336   2337   2338   2339
2340   2341   2342   2343
2344   2345   2346   2347
2348   2349   2350   2351
2352   2353   2354   2355
2356   2357   2358   2359
2360   2361   2362   2363
2364   2365   2366   2367
2368   2369   2370   2371
2372   2373   2374   2375
2376   2377   2378   2379
2380   2381   2382   2383
2384   2385   2386   2387
2388   2389   2390   2391
2392   2393   2394   2395
2396   2397   2398   2399
2400   2401   2402   2403
2404   2405   2406   2407
2408   2409   2410   2411
2412   2413   2414   2415
2416   2417   2418   2419
2420   2421   2422   2423
2424   2425   2426   2427
2428   2429   2430   2431
2432   2433   2434   2435
2436   2437   2438   2439
2440   2441   2442   2443
2444   2445   2446   2447
2448   2449   2450   2451
2452   2453   2454   2455
2456   2457   2458   2459
2460   2461   2462   2463
2464   2465   2466   2467
2468   2469   2470   2471
2472   2473   2474   2475
2476   2477   2478   2479
2480   2481   2482   2483
2484   2485   2486   2487
2488   2489   2490   2491
2492   2493   2494   2495
2496   2497   2498   2499
2500   2501   2502   2503
2504   2505   2506   2507
2508   2509   2510   2511
2512   2513   2514   2515
2516   2517   2518   2519
2520   2521   2522   2523
2524   2525   2526   2527
2528   2529   2530   2531
2532   2533   2534   2535
2536   2537   2538   2539
2540   2541   2542   2543
2544   2545   2546   2547
2548   2549   2550   2551
2552   2553   2554   2555
2556   2557   2558   2559
2560   2561   2562   2563
2564   2565   2566   2567
2568   2569   2570   2571
2572   2573   2574   2575
2576   2577   2578   2579
2580   2581   2582   2583
2584   2585   2586   2587
2588   2589   2590   2591
2592   2593   2594   2595
2596   2597   2598   2599
2600   2601   2602   2603
2604   2605   2606   2607
2608   2609   2610   2611
2612   2613   2614   2615
2616   2617   2618   2619
2620   2621   2622   2623
2624   2625   2626   2627
2628   2629   2630   2631
2632   2633   2634   2635
2636   2637   2638   2639
2640   2641   2642   2643
2644   2645   2646   2647
2648   2649   2650   2651
2652   2653   2654   2655
2656   2657   2658   2659
2660   2661   2662   2663
2664   2665   2666   2667
2668   2669   2670   2671
2672   2673   2674   2675
2676   2677   2678   2679
2680   2681   2682   2683
2684   2685   2686   2687
2688   2689   2690   2691
2692   2693   2694   2695
2696   2697   2698   2699
2700   2701   2702   2703
2704   2705   2706   2707
2708   2709   2710   2711
2712   2713   2714   2715
2716   2717   2718   2719
2720   2721   2722   2723
2724   2725   2726   2727
2728   2729   2730   2731
2732   2733   2734   2735
2736   2737   2738   2739
2740   2741   2742   2743
2744   2745   2746   2747
2748   2749   2750   2751
2752   2753   2754   2755
2756   2757   2758   2759
2760   2761   2762   2763
2764   2765   2766   2767
2768   2769   2770   2771
2772   2773   2774   2775
2776   2777   2778   2779
2780   2781   2782   2783
2784   2785   2786   2787
2788   2789   2790   2791
2792   2793   2794   2795
2796   2797   2798   2799
2800   2801   2802   2803
2804   2805   2806   2807
2808   2809   2810   2811
2812   2813   2814   2815
2816   2817   2818   2819
2820   2821   2822   2823
2824   2825   2826   2827
2828   2829   2830   2831
2832   2833   2834   2835
2836   2837   2838   2839
2840   2841   2842   2843
2844   2845   2846   2847
2848   2849   2850   2851
2852   2853   2854   2855
2856   2857   2858   2859
2860   2861   2862   2863
2864   2865   2866   2867
2868   2869   2870   2871
2872   2873   2874   2875
2876   2877   2878   2879
2880   2881   2882   2883
2884   2885   2886   2887
2888   2889   2890   2891
2892   2893   2894   2895
2896   2897   2898   2899
2900   2901   2902   2903
2904   2905   2906   2907
2908   2909   2910   2911
2912   2913   2914   2915
2916   2917   2918   2919
2920   2921   2922   2923
2924   2925   2926   2927
2928   2929   2930   2931
2932   2933   2934   2935
2936   2937   2938   2939
2940   2941   2942   2943
2944   2945   2946   2947
2948   2949   2950   2951
2952   2953   2954   2955
2956   2957   2958   2959
2960   2961   2962   2963
2964   2965   2966   2967
2968   2969   2970   2971
2972   2973   2974   2975
2976   2977   2978   2979
2980   2981   2982   2983
2984   2985   2986   2987
2988   2989   2990   2991
2992   2993   2994   2995
2996   2997   2998   2999
3000   3001   3002   3003
3004   3005   3006   3007
3008   3009   3010   3011
3012   3013   3014   3015
3016   3017   3018   3019
3020   3021   3022   3023
3024   3025   3026   3027
3028   3029   3030   3031
3032   3033   3034   3035
3036   3037   3038   3039
3040   3041   3042   3043
3044   3045   3046   3047
3048   3049   3050   3051
3052   3053   3054   3055
3056   3057   3058   3059
3060   3061   3062   3063
3064   3065   3066   3067
3068   3069   3070   3071
3072   3073   3074   3075
3076   3077   3078   3079
3080   3081   3082   3083
3084   3085   3086   3087
3088   3089   3090   3091
3092   3093   3094   3095
3096   3097   3098   3099
3100   3101   3102   3103
3104   3105   3106   3107
3108   3109   3110   3111
3112   3113   3114   3115
3116   3117   3118   3119
3120   3121   3122   3123
3124   3125   3126   3127
3128   3129   3130   3131
3132   3133   3134   3135
3136   3137   3138   3139
3140   3141   3142   3143
3144   3145   3146   3147
3148   3149   3150   3151
3152   3153   3154   3155
3156   3157   3158   3159
3160   3161   3162   3163
3164   3165   3166   3167
3168   3169   3170   3171
3172   3173   3174   3175
3176   3177   3178   3179
3180   3181   3182   3183
3184   3185   3186   3187
3188   3189   3190   3191
3192   3193   3194   3195
3196   3197   3198   3199
3200   3201   3202   3203
3204   3205   3206   3207
3208   3209   3210   3211
3212   3213   3214   3215
3216   3217   3218   3219
3220   3221   3222   3223
3224   3225   3226   3227
3228   3229   3230   3231
3232   3233   3234   3235
3236   3237   3238   3239
3240   3241   3242   3243
3244   3245   3246   3247
3248   3249   3250   3251
3252   3253   3254   3255
3256   3257   3258   3259
3260   3261   3262   3263
3264   3265   3266   3267
3268   3269   3270   3271
3272   3273   3274   3275
3276   3277   3278   3279
3280   3281   3282   3283
3284   3285   3286   3287
3288   3289   3290   3291
3292   3293   3294   3295
3296   3297   3298   3299
3300   3301   3302   3303
3304   3305   3306   3307
3308   3309   3310   3311
3312   3313   3314   3315
3316   3317   3318   3319
3320   3321   3322   3323
3324   3325   3326   3327
3328   3329   3330   3331
3332   3333   3334   3335
3336   3337   3338   3339
3340   3341   3342   3343
3344   3345   3346   3347
3348   3349   3350   3351
3352   3353   3354   3355
3356   3357   3358   3359
3360   3361   3362   3363
3364   3365   3366   3367
3368   3369   3370   3371
3372   3373   3374   3375
3376   3377   3378   3379
3380   3381   3382   3383
3384   3385   3386   3387
3388   3389   3390   3391
3392   3393   3394   3395
3396   3397   3398   3399
3400   3401   3402   3403
3404   3405   3406   3407
3408   3409   3410   3411
3412   3413   3414   3415
3416   3417   3418   3419
3420   3421   3422   3423
3424   3425   3426   3427
3428   3429   3430   3431
3432   3433   3434   3435
3436   3437   3438   3439
3440   3441   3442   3443
3444   3445   3446   3447
3448   3449   3450   3451
3452   3453   3454   3455
3456   3457   3458   3459
3460   3461   3462   3463
3464   3465   3466   3467
3468   3469   3470   3471
3472   3473   3474   3475
3476   3477   3478   3479
3480   3481   3482   3483
3484   3485   3486   3487
3488   3489   3490   3491
3492   3493   3494   3495
3496   3497   3498   3499
3500   3501   3502   3503
3504   3505   3506   3507
3508   3509   3510   3511
3512   3513   3514   3515
3516   3517   3518   3519
3520   3521   3522   3523
3524   3525   3526   3527
3528   3529   3530   3531
3532   3533   3534   3535
3536   3537   3538   3539
3540   3541   3542   3543
3544   3545   3546   3547
3548   3549   3550   3551
3552   3553   3554   3555
3556   3557   3558   3559
3560   3561   3562   3563
3564   3565   3566   3567
3568   3569   3570   3571
3572   3573   3574   3575
3576   3577   3578   3579
3580   3581   3582   3583
3584   3585   3586   3587
3588   3589   3590   3591
3592   3593   3594   3595
3596   3597   3598   3599
3600   3601   3602   3603
3604   3605   3606   3607
3608   3609   3610   3611
3612   3613   3614   3615
3616   3617   3618   3619
3620   3621   3622   3623
3624   3625   3626   3627
3628   3629   3630   3631
3632   3633   3634   3635
3636   3637   3638   3639
3640   3641   3642   3643
3644   3645   3646   3647
3648   3649   3650   3651
3652   3653   3654   3655
3656   3657   3658   3659
3660   3661   3662   3663
3664   3665   3666   3667
3668   3669   3670   3671
3672   3673   3674   3675
3676   3677   3678   3679
3680   3681   3682   3683
3684   3685   3686   3687
3688   3689   3690   3691
3692   3693   3694   3695
3696   3697   3698   3699
3700   3701   3702   3703
3704   3705   3706   3707
3708   3709   3710   3711
3712   3713   3714   3715
3716   3717   3718   3719
3720   3721   3722   3723
3724   3725   3726   3727
3728   3729   3730   3731
3732   3733   3734   3735
3736   3737   3738   3739
3740   3741   3742   3743
3744   3745   3746   3747
3748   3749   3750   3751
3752   3753   3754   3755
3756   3757   3758   3759
3760   3761   3762   3763
3764   3765   3766   3767
3768   3769   3770   3771
3772   3773   3774   3775
3776   3777   3778   3779
3780   3781   3782   3783
3784   3785   3786   3787
3788   3789   3790   3791
3792   3793   3794   3795
3796   3797   3798   3799
3800   3801   3802   3803
3804   3805   3806   3807
3808   3809   3810   3811
3812   3813   3814   3815
3816   3817   3818   3819
3820   3821   3822   3823
3824   3825   3826   3827
3828   3829   3830   3831
3832   3833   3834   3835
3836   3837   3838   3839
3840   3841   3842   3843
3844   3845   3846   3847
3848   3849   3850   3851
3852   3853   3854   3855
3856   3857   3858   3859
3860   3861   3862   3863
3864   3865   3866   3867
3868   3869   3870   3871
3872   3873   3874   3875
3876   3877   3878   3879
3880   3881   3882   3883
3884   3885   3886   3887
3888   3889   3890   3891
3892   3893   3894   3895
3896   3897   3898   3899
3900   3901   3902   3903
3904   3905   3906   3907
3908   3909   3910   3911
3912   3913   3914   3915
3916   3917   3918   3919
3920   3921   3922   3923
3924   3925   3926   3927
3928   3929   3930   3931
3932   3933   3934   3935
3936   3937   3938   3939
3940   3941   3942   3943
3944   3945   3946   3947
3948   3949   3950   3951
3952   3953   3954   3955
3956   3957   3958   3959
3960   3961   3962   3963
3964   3965   3966   3967
3968   3969   3970   3971
3972   3973   3974   3975
3976   3977   3978   3979
3980   3981   3982   3983
3984   3985   3986   3987
3988   3989   3990   3991
3992   3993   3994   3995
3996   3997   3998   3999
4000   4001   4002   4003
4004   4005   4006   4007
4008   4009   4010   4011
4012   4013   4014   4015
4016   4017   4018   4019
4020   4021   4022   4023
4024   4025   4026   4027
4028   4029   4030   4031
4032   4033   4034   4035
4036   4037   4038   4039
4040   4041   4042   4043
4044   4045   4046   4047
4048   4049   4050   4051
4052   4053   4054   4055
4056   4057   4058   4059
4060   4061   4062   4063
4064   4065   4066   4067
4068   4069   4070   4071
4072   4073   4074   4075
4076   4077   4078   4079
4080   4081   4082   4083
4084   4085   4086   4087
4088   4089   4090   4091
4092   4093   4094   4095
4096   4097   4098   4099
4100   4101   4102   4103
4104   4105   4106   4107
4108   4109   4110   4111
4112   4113   4114   4115
4116   4117   4118   4119
4120   4121   4122   4123
4124   4125   4126   4127
4128   4129   4130   4131
4132   4133   4134   4135
4136   4137   4138   4139
4140   4141   4142   4143
4144   4145   4146   4147
4148   4149   4150   4151
4152   4153   4154   4155
4156   4157   4158   4159
4160   4161   4162   4163
4164   4165   4166   4167
4168   4169   4170   4171
4172   4173   4174   4175
4176   4177   4178   4179
4180   4181   4182   4183
4184   4185   4186   4187
4188   4189   4190   4191
4192   4193   4194   4195
4196   4197   4198   4199
4200   4201   4202   4203
4204   4205   4206   4207
4208   4209   4210   4211
4212   4213   4214   4215
4216   4217   4218   4219
4220   4221   4222   4223
4224   4225   4226   4227
4228   4229   4230   4231
4232   4233   4234   4235
4236   4237   4238   4239
4240   4241   4242   4243
4244   4245   4246   4247
4248   4249   4250   4251
4252   4253   4254   4255
4256   4257   4258   4259
4260   4261   4262   4263
4264   4265   4266   4267
4268   4269   4270   4271
4272   4273   4274   4275
4276   4277   4278   4279
4280   4281   4282   4283
4284   4285   4286   4287
4288   4289   4290   4291
4292   4293   4294   4295
4296   4297   4298   4299
4300   4301   4302   4303
4304   4305   4306   4307
4308   4309   4310   4311
4312   4313   4314   4315
4316   4317   4318   4319
4320   4321   4322   4323
4324   4325   4326   4327
4328   4329   4330   4331
4332   4333   4334   4335
4336   4337   4338   4339
4340   4341   4342   4343
4344   4345   4346   4347
4348   4349   4350   4351
4352   4353   4354   4355
4356   4357   4358   4359
4360   4361   4362   4363
4364   4365   4366   4367
4368   4369   4370   4371
4372   4373   4374   4375
4376   4377   4378   4379
4380   4381   4382   4383
4384   4385   4386   4387
4388   4389   4390   4391
4392   4393   4394   4395
4396   4397   4398   4399
4400   4401   4402   4403
4404   4405   4406   4407
4408   4409   4410   4411
4412   4413   4414   4415
4416   4417   4418   4419
4420   4421   4422   4423
4424   4425   4426   4427
4428   4429   4430   4431
4432   4433   4434   4435
4436   4437   4438   4439
4440   4441   4442   4443
4444   4445   4446   4447
4448   4449   4450   4451
4452   4453   4454   4455
4456   4457   4458   4459
4460   4461   4462   4463
4464   4465   4466   4467
4468   4469   4470   4471
4472   4473   4474   4475
4476   4477   4478   4479
4480   4481   4482   4483
4484   4485   4486   4487
4488   4489   4490   4491
4492   4493   4494   4495
4496   4497   4498   4499
4500   4501   4502   4503
4504   4505   4506   4507
4508   4509   4510   4511
4512   4513   4514   4515
4516   4517   4518   4519
4520   4521   4522   4523
4524   4525   4526   4527
4528   4529   4530   4531
4532   4533   4534   4535
4536   4537   4538   4539
4540   4541   4542   4543
4544   4545   4546   4547
4548   4549   4550   4551
4552   4553   4554   4555
4556   4557   4558   4559
4560   4561   4562   4563
4564   4565   4566   4567
4568   4569   4570   4571
4572   4573   4574   4575
4576   4577   4578   4579
4580   4581   4582   4583
4584   4585   4586   4587
4588   4589   4590   4591
4592   4593   4594   4595
4596   4597   4598   4599
4600   4601   4602   4603
4604   4605   4606   4607
4608   4609   4610   4611
4612   4613   4614   4615
4616   4617   4618   4619
4620   4621   4622   4623
4624   4625   4626   4627
4628   4629   4630   4631
4632   4633   4634   4635
4636   4637   4638   4639
4640   4641   4642   4643
4644   4645   4646   4647
4648   4649   4650   4651
4652   4653   4654   4655
4656   4657   4658   4659
4660   4661   4662   4663
4664   4665   4666   4667
4668   4669   4670   4671
4672   4673   4674   4675
4676   4677   4678   4679
4680   4681   4682   4683
4684   4685   4686   4687
4688   4689   4690   4691
4692   4693   4694   4695
4696   4697   4698   4699
4700   4701   4702   4703
4704   4705   4706   4707
4708   4709   4710   4711
4712   4713   4714   4715
4716   4717   4718   4719
4720   4721   4722   4723
4724   4725   4726   4727
4728   4729   4730   4731
4732   4733   4734   4735
4736   4737   4738   4739
4740   4741   4742   4743
4744   4745   4746   4747
4748   4749   4750   4751
4752   4753   4754   4755
4756   4757   4758   4759
4760   4761   4762   4763
4764   4765   4766   4767
4768   4769   4770   4771
4772   4773   4774   4775
4776   4777   4778   4779
4780   4781   4782   4783
4784   4785   4786   4787
4788   4789   4790   4791
4792   4793   4794   4795
4796   4797   4798   4799
4800   4801   4802   4803
4804   4805   4806   4807
4808   4809   4810   4811
4812   4813   4814   4815
4816   4817   4818   4819
4820   4821   4822   4823
4824   4825   4826   4827
4828   4829   4830   4831
4832   4833   4834   4835
4836   4837   4838   4839
4840   4841   4842   4843
4844   4845   4846   4847
4848   4849   4850   4851
4852   4853   4854   4855
4856   4857   4858   4859
4860   4861   4862   4863
4864   4865   4866   4867
4868   4869   4870   4871
4872   4873   4874   4875
4876   4877   4878   4879
4880   4881   4882   4883
4884   4885   4886   4887
4888   4889   4890   4891
4892   4893   4894   4895
4896   4897   4898   4899
4900   4901   4902   4903
4904   4905   4906   4907
4908   4909   4910   4911
4912   4913   4914   4915
4916   4917   4918   4919
4920   4921   4922   4923
4924   4925   4926   4927
4928   4929   4930   4931
4932   4933   4934   4935
4936   4937   4938   4939
4940   4941   4942   4943
4944   4945   4946   4947
4948   4949   4950   4951
4952   4953   4954   4955
4956   4957   4958   4959
4960   4961   4962   4963
4964   4965   4966   4967
4968   4969   4970   4971
4972   4973   4974   4975
4976   4977   4978   4979
4980   4981   4982   4983
4984   4985   4986   4987
4988   4989   4990   4991
4992   4993   4994   4995
4996   4997   4998   4999
5000   5001   5002   5003
5004   5005   5006   5007
5008   5009   5010   5011
5012   5013   5014   5015
5016   5017   5018   5019
5020   5021   5022   5023
5024   5025   5026   5027
5028   5029   5030   5031
5032   5033   5034   5035
5036   5037   5038   5039
5040   5041   5042   5043
5044   5045   5046   5047
5048   5049   5050   5051
5052   5053   5054   5055
5056   5057   5058   5059
5060   5061   5062   5063
5064   5065   5066   5067
5068   5069   5070   5071
5072   5073   5074   5075
5076   5077   5078   5079
5080   5081   5082   5083
5084   5085   5086   5087
5088   5089   5090   5091
5092   5093   5094   5095
5096   5097   5098   5099
5100   5101   5102   5103
5104   5105   5106   5107
5108   5109   5110   5111
5112   5113   5114   5115
5116   5117   5118   5119
5120   5121   5122   5123
5124   5125   5126   5127
5128   5129   5130   5131
5132   5133   5134   5135
5136   5137   5138   5139
5140   5141   5142   5143
5144   5145   5146   5147
5148   5149   5150   5151
5152   5153   5154   5155
5156   5157   5158   5159
5160   5161   5162   5163
5164   5165   5166   5167
5168   5169   5170   5171
5172   5173   5174   5175
5176   5177   5178   5179
5180   5181   5182   5183
5184   5185   5186   5187
5188   5189   5190   5191
5192   5193   5194   5195
5196   5197   5198   5199
5200   5201   5202   5203
5204   5205   5206   5207
5208   5209   5210   5211
5212   5213   5214   5215
5216   5217   5218   5219
5220   5221   5222   5223
5224   5225   5226   5227
5228   5229   5230   5231
5232   5233   5234   5235
5236   5237   5238   5239
5240   5241   5242   5243
5244   5245   5246   5247
5248   5249   5250   5251
5252   5253   5254   5255
5256   5257   5258   5259
5260   5261   5262   5263
5264   5265   5266   5267
5268   5269   5270   5271
5272   5273   5274   5275
5276   5277   5278   5279
5280   5281   5282   5283
5284   5285   5286   5287
5288   5289   5290   5291
5292   5293   5294   5295
5296   5297   5298   5299
5300   5301   5302   5303
5304   5305   5306   5307
5308   5309   5310   5311
5312   5313   5314   5315
5316   5317   5318   5319
5320   5321   5322   5323
5324   5325   5326   5327
5328   5329   5330   5331
5332   5333   5334   5335
5336   5337   5338   5339
5340   5341   5342   5343
5344   5345   5346   5347
5348   5349   5350   5351
5352   5353   5354   5355
5356   5357   5358   5359
5360   5361   5362   5363
5364   5365   5366   5367
5368   5369   5370   5371
5372   5373   5374   5375
5376   5377   5378   5379
5380   5381   5382   5383
5384   5385   5386   5387
5388   5389   5390   5391
5392   5393   5394   5395
5396   5397   5398   5399
5400   5401   5402   5403
5404   5405   5406   5407
5408   5409   5410   5411
5412   5413   5414   5415
5416   5417   5418   5419
5420   5421   5422   5423
5424   5425   5426   5427
5428   5429   5430   5431
5432   5433   5434   5435
5436   5437   5438   5439
5440   5441   5442   5443
5444   5445   5446   5447
5448   5449   5450   5451
5452   5453   5454   5455
5456   5457   5458   5459
5460   5461   5462   5463
5464   5465   5466   5467
5468   5469   5470   5471
5472   5473   5474   5475
5476   5477   5478   5479
5480   5481   5482   5483
5484   5485   5486   5487
5488   5489   5490   5491
5492   5493   5494   5495
5496   5497   5498   5499
5500   5501   5502   5503
5504   5505   5506   5507
5508   5509   5510   5511
5512   5513   5514   5515
5516   5517   5518   5519
5520   5521   5522   5523
5524   5525   5526   5527
5528   5529   5530   5531
5532   5533   5534   5535
5536   5537   5538   5539
5540   5541   5542   5543
5544   5545   5546   5547
5548   5549   5550   5551
5552   5553   5554   5555
5556   5557   5558   5559
5560   5561   5562   5563
5564   5565   5566   5567
5568   5569   5570   5571
5572   5573   5574   5575
5576   5577   5578   5579
5580   5581   5582   5583
5584   5585   5586   5587
5588   5589   5590   5591
5592   5593   5594   5595
5596   5597   5598   5599
5600   5601   5602   5603
5604   5605   5606   5607
5608   5609   5610   5611
5612   5613   5614   5615
5616   5617   5618   5619
5620   5621   5622   5623
5624   5625   5626   5627
5628   5629   5630   5631
5632   5633   5634   5635
5636   5637   5638   5639
5640   5641   5642   5643
5644   5645   5646   5647
5648   5649   5650   5651
5652   5653   5654   5655
5656   5657   5658   5659
5660   5661   5662   5663
5664   5665   5666   5667
5668   5669   5670   5671
5672   5673   5674   5675
5676   5677   5678   5679
5680   5681   5682   5683
5684   5685   5686   5687
5688   5689   5690   5691
5692   5693   5694   5695
5696   5697   5698   5699
5700   5701   5702   5703
5704   5705   5706   5707
5708   5709   5710   5711
5712   5713   5714   5715
5716   5717   5718   5719
5720   5721   5722   5723
5724   5725   5726   5727
5728   5729   5730   5731
5732   5733   5734   5735
5736   5737   5738   5739
5740   5741   5742   5743
5744   5745   5746   5747
5748   5749   5750   5751
5752   5753   5754   5755
5756   5757   5758   5759
5760   5761   5762   5763
5764   5765   5766   5767
5768   5769   5770   5771
5772   5773   5774   5775
5776   5777   5778   5779
5780   5781   5782   5783
5784   5785   5786   5787
5788   5789   5790   5791
5792   5793   5794   5795
5796   5797   5798   5799
5800   5801   5802   5803
5804   5805   5806   5807
5808   5809   5810   5811
5812   5813   5814   5815
5816   5817   5818   5819
5820   5821   5822   5823
5824   5825   5826   5827
5828   5829   5830   5831
5832   5833   5834   5835
5836   5837   5838   5839
5840   5841   5842   5843
5844   5845   5846   5847
5848   5849   5850   5851
5852   5853   5854   5855
5856   5857   5858   5859
5860   5861   5862   5863
5864   5865   5866   5867
5868   5869   5870   5871
5872   5873   5874   5875
5876   5877   5878   5879
5880   5881   5882   5883
5884   5885   5886   5887
5888   5889   5890   5891
5892   5893   5894   5895
5896   5897   5898   5899
5900   5901   5902   5903
5904   5905   5906   5907
5908   5909   5910   5911
5912   5913   5914   5915
5916   5917   5918   5919
5920   5921   5922   5923
5924   5925   5926   5927
5928   5929   5930   5931
5932   5933   5934   5935
5936   5937   5938   5939
5940   5941   5942   5943
5944   5945   5946   5947
5948   5949   5950   5951
5952   5953   5954   5955
5956   5957   5958   5959
5960   5961   5962   5963
5964   5965   5966   5967
5968   5969   5970   5971
5972   5973   5974   5975
5976   5977   5978   5979
5980   5981   5982   5983
5984   5985   5986   5987
5988   5989   5990   5991
5992   5993   5994   5995
5996   5997   5998   5999
              </DataArray>   
              <DataArray type="Int32" Name="offsets" format="ascii">   
4
8
12
16
20
24
28
32
36
40
44
48
52
56
60
64
68
72
76
80
84
88
92
96
100
104
108
112
116
120
124
128
132
136
140
144
148
152
156
160
164
168
172
176
180
184
188
192
196
200
204
208
212
216
220
224
228
232
236
240
244
248
252
256
260
264
268
272
276
280
284
288
292
296
300
304
308
312
316
320
324
328
332
336
340
344
348
352
356
360
364
368
372
376
380
384
388
392
396
400
404
408
412
416
420
424
428
432
436
440
444
448
452
456
460
464
468
472
476
480
484
488
492
496
500
504
508
512
516
520
524
528
532
536
540
544
548
552
556
560
564
568
572
576
580
584
588
592
596
600
604
608
612
616
620
624
628
632
636
640
644
648
652
656
660
664
668
672
676
680
684
688
692
696
700
704
708
712
716
720
724
728
732
736
740
744
748
752
756
760
764
768
772
776
780
784
788
792
796
800
804
808
812
816
820
824
828
832
836
840
844
848
852
856
860
864
868
872
876
880
884
888
892
896
900
904
908
912
916
920
924
928
932
936
940
944
948
952
956
960
964
968
972
976
980
984
988
992
996
1000
1004
1008
1012
1016
1020
1024
1028
1032
1036
1040
1044
1048
1052
1056
1060
1064
1068
1072
1076
1080
1084
1088
1092
1096
1100
1104
1108
1112
1116
1120
1124
1128
1132
1136
1140
1144
1148
1152
1156
1160
1164
1168
1172
1176
1180
1184
1188
1192
1196
1200
1204
1208
1212
1216
1220
1224
1228
1232
1236
1240
1244
1248
1252
1256
1260
1264
1268
1272
1276
1280
1284
1288
1292
1296
1300
1304
1308
1312
1316
1320
1324
1328
1332
1336
1340
1344
1348
1352
1356
1360
1364
1368
1372
1376
1380
1384
1388
1392
1396
1400
1404
1408
1412
1416
1420
1424
1428
1432
1436
1440
1444
1448
1452
1456
1460
1464
1468
1472
1476
1480
1484
1488
1492
1496
1500
1504
1508
1512
1516
1520
1524
1528
1532
1536
1540
1544
1548
1552
1556
1560
1564
1568
1572
1576
1580
1584
1588
1592
1596
1600
1604
1608
1612
1616
1620
1624
1628
1632
1636
1640
1644
1648
1652
1656
1660
1664
1668
1672
1676
1680
1684
1688
1692
1696
1700
1704
1708
1712
1716
1720
1724
1728
1732
1736
1740
1744
1748
1752
1756
1760
1764
1768
1772
1776
1780
1784
1788
1792
1796
1800
1804
1808
1812
1816
1820
1824
1828
1832
1836
1840
1844
1848
1852
1856
1860
1864
1868
1872
1876
1880
1884
1888
1892
1896
1900
1904
1908
1912
1916
1920
1924
1928
1932
1936
1940
1944
1948
1952
1956
1960
1964
1968
1972
1976
1980
1984
1988
1992
1996
2000
2004
2008
2012
2016
2020
2024
2028
2032
2036
2040
2044
2048
2052
2056
2060
2064
2068
2072
2076
2080
2084
2088
2092
2096
2100
2104
2108
2112
2116
2120
2124
2128
2132
2136
2140
2144
2148
2152
2156
2160
2164
2168
2172
2176
2180
2184
2188
2192
2196
2200
2204
2208
2212
2216
2220
2224
2228
2232
2236
2240
2244
2248
2252
2256
2260
2264
2268
2272
2276
2280
2284
2288
2292
2296
2300
2304
2308
2312
2316
2320
2324
2328
2332
2336
2340
2344
2348
2352
2356
2360
2364
2368
2372
2376
2380
2384
2388
2392
2396
2400
2404
2408
2412
2416
2420
2424
2428
2432
2436
2440
2444
2448
2452
2456
2460
2464
2468
2472
2476
2480
2484
2488
2492
2496
2500
2504
2508
2512
2516
2520
2524
2528
2532
2536
2540
2544
2548
2552
2556
2560
2564
2568
2572
2576
2580
2584
2588
2592
2596
2600
2604
2608
2612
2616
2620
2624
2628
2632
2636
2640
2644
2648
2652
2656
2660
2664
2668
2672
2676
2680
2684
2688
2692
2696
2700
2704
2708
2712
2716
2720
2724
2728
2732
2736
2740
2744
2748
2752
2756
2760
2764
2768
2772
2776
2780
2784
2788
2792
2796
2800
2804
2808
2812
2816
2820
2824
2828
2832
2836
2840
2844
2848
2852
2856
2860
2864
2868
2872
2876
2880
2884
2888
2892
2896
2900
2904
2908
2912
2916
2920
2924
2928
2932
2936
2940
2944
2948
2952
2956
2960
2964
2968
2972
2976
2980
2984
2988
2992
2996
3000
3004
3008
3012
3016
3020
3024
3028
3032
3036
3040
3044
3048
3052
3056
3060
3064
3068
3072
3076
3080
3084
3088
3092
3096
3100
3104
3108
3112
3116
3120
3124
3128
3132
3136
3140
3144
3148
3152
3156
3160
3164
3168
3172
3176
3180
3184
3188
3192
3196
3200
3204
3208
3212
3216
3220
3224
3228
3232
3236
3240
3244
3248
3252
3256
3260
3264
3268
3272
3276
3280
3284
3288
3292
3296
3300
3304
3308
3312
3316
3320
3324
3328
3332
3336
3340
3344
3348
3352
3356
3360
3364
3368
3372
3376
3380
3384
3388
3392
3396
3400
3404
3408
3412
3416
3420
3424
3428
3432
3436
3440
3444
3448
3452
3456
3460
3464
3468
3472
3476
3480
3484
3488
3492
3496
3500
3504
3508
3512
3516
3520
3524
3528
3532
3536
3540
3544
3548
3552
3556
3560
3564
3568
3572
3576
3580
3584
3588
3592
3596
3600
3604
3608
3612
3616
3620
3624
3628
3632
3636
3640
3644
3648
3652
3656
3660
3664
3668
3672
3676
3680
3684
3688
3692
3696
3700
3704
3708
3712
3716
3720
3724
3728
3732
3736
3740
3744
3748
3752
3756
3760
3764
3768
3772
3776
3780
3784
3788
3792
3796
3800
3804
3808
3812
3816
3820
3824
3828
3832
3836
3840
3844
3848
3852
3856
3860
3864
3868
3872
3876
3880
3884
3888
3892
3896
3900
3904
3908
3912
3916
3920
3924
3928
3932
3936
3940
3944
3948
3952
3956
3960
3964
3968
3972
3976
3980
3984
3988
3992
3996
4000
4004
4008
4012
4016
4020
4024
4028
4032
4036
4040
4044
4048
4052
4056
4060
4064
4068
4072
4076
4080
4084
4088
4092
4096
4100
4104
4108
4112
4116
4120
4124
4128
4132
4136
4140
4144
4148
4152
4156
4160
4164
4168
4172
4176
4180
4184
4188
4192
4196
4200
4204
4208
4212
4216
4220
4224
4228
4232
4236
4240
4244
4248
4252
4256
4260
4264
4268
4272
4276
4280
4284
4288
4292
4296
4300
4304
4308
4312
4316
4320
4324
4328
4332
4336
4340
4344
4348
4352
4356
4360
4364
4368
4372
4376
4380
4384
4388
4392
4396
4400
4404
4408
4412
4416
4420
4424
4428
4432
4436
4440
4444
4448
4452
4456
4460
4464
4468
4472
4476
4480
4484
4488
4492
4496
4500
4504
4508
4512
4516
4520
4524
4528
4532
4536
4540
4544
4548
4552
4556
4560
4564
4568
4572
4576
4580
4584
4588
4592
4596
4600
4604
4608
4612
4616
4620
4624
4628
4632
4636
4640
4644
4648
4652
4656
4660
4664
4668
4672
4676
4680
4684
4688
4692
4696
4700
4704
4708
4712
4716
4720
4724
4728
4732
4736
4740
4744
4748
4752
4756
4760
4764
4768
4772
4776
4780
4784
4788
4792
4796
4800
4804
4808
4812
4816
4820
4824
4828
4832
4836
4840
4844
4848
4852
4856
4860
4864
4868
4872
4876
4880
4884
4888
4892
4896
4900
4904
4908
4912
4916
4920
4924
4928
4932
4936
4940
4944
4948
4952
4956
4960
4964
4968
4972
4976
4980
4984
4988
4992
4996
5000
5004
5008
5012
5016
5020
5024
5028
5032
5036
5040
5044
5048
5052
5056
5060
5064
5068
5072
5076
5080
5084
5088
5092
5096
5100
5104
5108
5112
5116
5120
5124
5128
5132
5136
5140
5144
5148
5152
5156
5160
5164
5168
5172
5176
5180
5184
5188
5192
5196
5200
5204
5208
5212
5216
5220
5224
5228
5232
5236
5240
5244
5248
5252
5256
5260
5264
5268
5272
5276
5280
5284
5288
5292
5296
5300
5304
5308
5312
5316
5320
5324
5328
5332
5336
5340
5344
5348
5352
5356
5360
5364
5368
5372
5376
5380
5384
5388
5392
5396
5400
5404
5408
5412
5416
5420
5424
5428
5432
5436
5440
5444
5448
5452
5456
5460
5464
5468
5472
5476
5480
5484
5488
5492
5496
5500
5504
5508
5512
5516
5520
5524
5528
5532
5536
5540
5544
5548
5552
5556
5560
5564
5568
5572
5576
5580
5584
5588
5592
5596
5600
5604
5608
5612
5616
5620
5624
5628
5632
5636
5640
5644
5648
5652
5656
5660
5664
5668
5672
5676
5680
5684
5688
5692
5696
5700
5704
5708
5712
5716
5720
5724
5728
5732
5736
5740
5744
5748
5752
5756
5760
5764
5768
5772
5776
5780
5784
5788
5792
5796
5800
5804
5808
5812
5816
5820
5824
5828
5832
5836
5840
5844
5848
5852
5856
5860
5864
5868
5872
5876
5880
5884
5888
5892
5896
5900
5904
5908
5912
5916
5920
5924
5928
5932
5936
5940
5944
5948
5952
5956
5960
5964
5968
5972
5976
5980
5984
5988
5992
5996
6000
              </DataArray>   
              <DataArray type="UInt8" Name="types" format="ascii">   
10
10
10
10
10
10
10
10
10
10
10
10
10
10
10
10
10
10
10
10
10
10
10
10
10
10
10
10
10
10
10
10
10
10
10
10
10
10
10
10
10
10
10
10
10
10
10
10
10
10
10
10
10
10
10
10
10
10
10
10
10
10
10
10
10
10
10
10
10
10
10
10
10
10
10
10
10
10
10
10
10
10
10
10
10
10
10
10
10
10
10
10
10
10
10
10
10
10
10
10
10
10
10
10
10
10
10
10
10
10
10
10
10
10
10
10
10
10
10
10
10
10
10
10
10
10
10
10
10
10
10
10
10
10
10
10
10
10
10
10
10
10
10
10
10
10
10
10
10
10
10
10
10
10
10
10
10
10
10
10
10
10
10
10
10
10
10
10
10
10
10
10
10
10
10
10
10
10
10
10
10
10
10
10
10
10
10
10
10
10
10
10
10
10
10
10
10
10
10
10
10
10
10
10
10
10
10
10
10
10
10
10
10
10
10
10
10
10
10
10
10
10
10
10
10
10
10
10
10
10
10
10
10
10
10
10
10
10
10
10
10
10
10
10
10
10
10
10
10
10
10
10
10
10
10
10
10
10
10
10
10
10
10
10
10
10
10
10
10
10
10
10
10
10
10
10
10
10
10
10
10
10
10
10
10
10
10
10
10
10
10
10
10
10
10
10
10
10
10
10
10
10
10
10
10
10
10
10
10
10
10
10
10
10
10
10
10
10
10
10
10
10
10
10
10
10
10
10
10
10
10
10
10
10
10
10
10
10
10
10
10
10
10
10
10
10
10
10
10
10
10
10
10
10
10
10
10
10
10
10
10
10
10
10
10
10
10
10
10
10
10
10
10
10
10
10
10
10
10
10
10
10
10
10
10
10
10
10
10
10
10
10
10
10
10
10
10
10
10
10
10
10
10
10
10
10
10
10
10
10
10
10
10
10
10
10
10
10
10
10
10
10
10
10
10
10
10
10
10
10
10
10
10
10
10
10
10
10
10
10
10
10
10
10
10
10
10
10
10
10
10
10
10
10
10
10
10
10
10
10
10
10
10
10
10
10
10
10
10
10
10
10
10
10
10
10
10
10
10
10
10
10
10
10
10
10
10
10
10
10
10
10
10
10
10
10
10
10
10
10
10
10
10
10
10
10
10
10
10
10
10
10
10
10
10
10
10
10
10
10
10
10
10
10
10
10
10
10
10
10
10
10
10
10
10
10
10
10
10
10
10
10
10
10
10
10
10
10
10
10
10
10
10
10
10
10
10
10
10
10
10
10
10
10
10
10
10
10
10
10
10
10
10
10
10
10
10
10
10
10
10
10
10
10
10
10
10
10
10
10
10
10
10
10
10
10
10
10
10
10
10
10
10
10
10
10
10
10
10
10
10
10
10
10
10
10
10
10
10
10
10
10
10
10
10
10
10
10
10
10
10
10
10
10
10
10
10
10
10
10
10
10
10
10
10
10
10
10
10
10
10
10
10
10
10
10
10
10
10
10
10
10
10
10
10
10
10
10
10
10
10
10
10
10
10
10
10
10
10
10
10
10
10
10
10
10
10
10
10
10
10
10
10
10
10
10
10
10
10
10
10
10
10
10
10
10
10
10
10
10
10
10
10
10
10
10
10
10
10
10
10
10
10
10
10
10
10
10
10
10
10
10
10
10
10
10
10
10
10
10
10
10
10
10
10
10
10
10
10
10
10
10
10
10
10
10
10
10
10
10
10
10
10
10
10
10
10
10
10
10
10
10
10
10
10
10
10
10
10
10
10
10
10
10
10
10
10
10
10
10
10
10
10
10
10
10
10
10
10
10
10
10
10
10
10
10
10
10
10
10
10
10
10
10
10
10
10
10
10
10
10
10
10
10
10
10
10
10
10
10
10
10
10
10
10
10
10
10
10
10
10
10
10
10
10
10
10
10
10
10
10
10
10
10
10
10
10
10
10
10
10
10
10
10
10
10
10
10
10
10
10
10
10
10
10
10
10
10
10
10
10
10
10
10
10
10
10
10
10
10
10
10
10
10
10
10
10
10
10
10
10
10
10
10
10
10
10
10
10
10
10
10
10
10
10
10
10
10
10
10
10
10
10
10
10
10
10
10
10
10
10
10
10
10
10
10
10
10
10
10
10
10
10
10
10
10
10
10
10
10
10
10
10
10
10
10
10
10
10
10
10
10
10
10
10
10
10
10
10
10
10
10
10
10
10
10
10
10
10
10
10
10
10
10
10
10
10
10
10
10
10
10
10
10
10
10
10
10
10
10
10
10
10
10
10
10
10
10
10
10
10
10
10
10
10
10
10
10
10
10
10
10
10
10
10
10
10
10
10
10
10
10
10
10
10
10
10
10
10
10
10
10
10
10
10
10
10
10
10
10
10
10
10
10
10
10
10
10
10
10
10
10
10
10
10
10
10
10
10
10
10
10
10
10
10
10
10
10
10
10
10
10
10
10
10
10
10
10
10
10
10
10
10
10
10
10
10
10
10
10
10
10
10
10
10
10
10
10
10
10
10
10
10
10
10
10
10
10
10
10
10
10
10
10
10
10
10
10
10
10
10
10
10
10
10
10
10
10
10
10
10
10
10
10
10
10
10
10
10
10
10
10
10
10
10
10
10
10
10
10
10
10
10
10
10
10
10
10
10
10
10
10
10
10
10
10
10
10
10
10
10
10
10
10
10
10
10
10
10
10
10
10
10
10
10
10
10
10
10
10
10
10
10
10
10
10
10
10
10
10
10
10
10
10
10
10
10
10
10
10
10
10
10
10
10
10
10
10
10
10
10
10
10
10
10
10
10
10
10
10
10
10
10
10
10
10
10
10
10
10
10
10
10
10
10
10
10
10
10
10
10
10
10
10
10
10
10
10
10
10
10
10
10
10
10
10
10
10
10
10
10
10
10
10
10
10
10
10
10
10
10
10
10
10
10
10
10
10
10
10
10
10
10
10
10
10
10
10
10
10
10
10
10
10
10
10
10
10
10
10
10
10
10
10
10
10
10
10
10
10
10
10
10
10
10
10
10
10
10
10
10
10
10
10
10
10
10
10
10
10
10
10
10
10
10
10
10
10
10
10
10
10
10
10
10
10
10
10
10
10
10
10
10
10
10
10
10
10
10
10
10
10
10
10
10
10
10
10
10
10
10
10
10
10
10
10
10
10
10
10
10
10
10
10
10
10
10
10
10
10
10
10
10
10
10
10
10
10
10
10
10
10
10
10
10
10
10
10
10
10
10
10
10
10
10
10
10
10
10
10
10
10
10
10
10
10
10
10
10
10
10
10
10
10
10
10
10
10
10
10
10
10
10
10
10
10
10
10
10
10
10
10
10
10
10
10
10
10
10
10
10
10
10
10
10
10
10
10
10
10
10
10
10
10
10
10
10
10
10
10
              </DataArray>   
          </Cells>  
          <PointData>  
             <DataArray type="Float64" NumberOfComponents="3" Name="Strains" format="ascii">   
-7.559751794597891e-05   0.0   -4.9667250200055014e-05
-7.559751794597891e-05   0.0   -4.9667250200055014e-05
-7.559751794597891e-05   0.0   -4.9667250200055014e-05
-7.559751794597891e-05   0.0   -4.9667250200055014e-05
-4.8098975547875906e-05   8.36779369523521e-06   1.184330013924358e-06
-4.8098975547875906e-05   8.36779369523521e-06   1.184330013924358e-06
-4.8098975547875906e-05   8.36779369523521e-06   1.184330013924358e-06
-4.8098975547875906e-05   8.36779369523521e-06   1.184330013924358e-06
-4.714428092673471e-05   0.0   -4.688299571181364e-05
-4.714428092673471e-05   0.0   -4.688299571181364e-05
-4.714428092673471e-05   0.0   -4.688299571181364e-05
-4.714428092673471e-05   0.0   -4.688299571181364e-05
-7.91121108639224e-05   1.0045100136218154e-05   3.696607684351488e-07
-7.91121108639224e-05   1.0045100136218154e-05   3.696607684351488e-07
-7.91121108639224e-05   1.0045100136218154e-05   3.696607684351488e-07
-7.91121108639224e-05   1.0045100136218154e-05   3.696607684351488e-07
-6.137089943635671e-05   2.320212073534479e-06   -2.45640921065641e-05
-6.137089943635671e-05   2.320212073534479e-06   -2.45640921065641e-05
-6.137089943635671e-05   2.320212073534479e-06   -2.45640921065641e-05
-6.137089943635671e-05   2.320212073534479e-06   -2.45640921065641e-05
-7.911211086392253e-05   0.0   -5.291005579354454e-05
-7.911211086392253e-05   0.0   -5.291005579354454e-05
-7.911211086392253e-05   0.0   -5.291005579354454e-05
-7.911211086392253e-05   0.0   -5.291005579354454e-05
-4.714428092673471e-05   1.0045100136218168e-05   6.396720850166055e-06
-4.714428092673471e-05   1.0045100136218168e-05   6.396720850166055e-06
-4.714428092673471e-05   1.0045100136218168e-05   6.396720850166055e-06
-4.714428092673471e-05   1.0045100136218168e-05   6.396720850166055e-06
-4.727350281216378e-05   0.0   -4.8029521847662796e-05
-4.727350281216378e-05   0.0   -4.8029521847662796e-05
-4.727350281216378e-05   0.0   -4.8029521847662796e-05
-4.727350281216378e-05   0.0   -4.8029521847662796e-05
-8.15786611359852e-05   1.0762715138609995e-05   2.6881129422071397e-06
-8.15786611359852e-05   1.0762715138609995e-05   2.6881129422071397e-06
-8.15786611359852e-05   1.0762715138609995e-05   2.6881129422071397e-06
-8.15786611359852e-05   1.0762715138609995e-05   2.6881129422071397e-06
-6.319280683804305e-05   4.067111621568115e-06   -2.3937615444137986e-05
-6.319280683804305e-05   4.067111621568115e-06   -2.3937615444137986e-05
-6.319280683804305e-05   4.067111621568115e-06   -2.3937615444137986e-05
-6.319280683804305e-05   4.067111621568115e-06   -2.3937615444137986e-05
-8.157866113598534e-05   0.0   -5.4487150930828804e-05
-8.157866113598534e-05   0.0   -5.4487150930828804e-05
-8.157866113598534e-05   0.0   -5.4487150930828804e-05
-8.157866113598534e-05   0.0   -5.4487150930828804e-05
-4.72735028121637e-05   1.0762715138609995e-05   9.145742025373134e-06
-4.72735028121637e-05   1.0762715138609995e-05   9.145742025373134e-06
-4.72735028121637e-05   1.0762715138609995e-05   9.145742025373134e-06
-4.72735028121637e-05   1.0762715138609995e-05   9.145742025373134e-06
-4.72444463102474e-05   0.0   -4.832472204489536e-05
-4.72444463102474e-05   0.0   -4.832472204489536e-05
-4.72444463102474e-05   0.0   -4.832472204489536e-05
-4.72444463102474e-05   0.0   -4.832472204489536e-05
-8.689599485992491e-05   1.2263762306799974e-05   1.040293482048739e-05
-8.689599485992491e-05   1.2263762306799974e-05   1.040293482048739e-05
-8.689599485992491e-05   1.2263762306799974e-05   1.040293482048739e-05
-8.689599485992491e-05   1.2263762306799974e-05   1.040293482048739e-05
-6.441155372311626e-05   5.135357404944532e-06   -2.2794090799747067e-05
-6.441155372311626e-05   5.135357404944532e-06   -2.2794090799747067e-05
-6.441155372311626e-05   5.135357404944532e-06   -2.2794090799747067e-05
-6.441155372311626e-05   5.135357404944532e-06   -2.2794090799747067e-05
-4.809897554787599e-05   0.0   -4.464657398291389e-05
-4.809897554787599e-05   0.0   -4.464657398291389e-05
-4.809897554787599e-05   0.0   -4.464657398291389e-05
-4.809897554787599e-05   0.0   -4.464657398291389e-05
-2.1908850886844048e-05   3.0676345000517184e-06   8.442144855036858e-07
-2.1908850886844048e-05   3.0676345000517184e-06   8.442144855036858e-07
-2.1908850886844048e-05   3.0676345000517184e-06   8.442144855036858e-07
-2.1908850886844048e-05   3.0676345000517184e-06   8.442144855036858e-07
-2.1067984187190834e-05   0.0   -4.426120294235666e-05
-2.1067984187190834e-05   0.0   -4.426120294235666e-05
-2.1067984187190834e-05   0.0   -4.426120294235666e-05
-2.1067984187190834e-05   0.0   -4.426120294235666e-05
-4.714428092673471e-05   4.3696546157615115e-06   -3.422501145907252e-06
-4.714428092673471e-05   4.3696546157615115e-06   -3.422501145907252e-06
-4.714428092673471e-05   4.3696546157615115e-06   -3.422501145907252e-06
-4.714428092673471e-05   4.3696546157615115e-06   -3.422501145907252e-06
-3.458347986753337e-05   3.211425337976232e-07   -2.1928062328730997e-05
-3.458347986753337e-05   3.211425337976232e-07   -2.1928062328730997e-05
-3.458347986753337e-05   3.211425337976232e-07   -2.1928062328730997e-05
-3.458347986753337e-05   3.211425337976232e-07   -2.1928062328730997e-05
-4.714428092673467e-05   0.0   -4.68829957118136e-05
-4.714428092673467e-05   0.0   -4.68829957118136e-05
-4.714428092673467e-05   0.0   -4.68829957118136e-05
-4.714428092673467e-05   0.0   -4.68829957118136e-05
-2.1067984187190834e-05   4.369654615761498e-06   -8.007083764503451e-07
-2.1067984187190834e-05   4.369654615761498e-06   -8.007083764503451e-07
-2.1067984187190834e-05   4.369654615761498e-06   -8.007083764503451e-07
-2.1067984187190834e-05   4.369654615761498e-06   -8.007083764503451e-07
-2.0594201467592486e-05   0.0   -4.481602839127134e-05
-2.0594201467592486e-05   0.0   -4.481602839127134e-05
-2.0594201467592486e-05   0.0   -4.481602839127134e-05
-2.0594201467592486e-05   0.0   -4.481602839127134e-05
-4.727350281216378e-05   5.3558224273189746e-06   -3.5640196067107e-06
-4.727350281216378e-05   5.3558224273189746e-06   -3.5640196067107e-06
-4.727350281216378e-05   5.3558224273189746e-06   -3.5640196067107e-06
-4.727350281216378e-05   5.3558224273189746e-06   -3.5640196067107e-06
-3.386924119716361e-05   1.7224727671185186e-06   -2.3724445835590673e-05
-3.386924119716361e-05   1.7224727671185186e-06   -2.3724445835590673e-05
-3.386924119716361e-05   1.7224727671185186e-06   -2.3724445835590673e-05
-3.386924119716361e-05   1.7224727671185186e-06   -2.3724445835590673e-05
-4.727350281216378e-05   0.0   -4.8029521847662796e-05
-4.727350281216378e-05   0.0   -4.8029521847662796e-05
-4.727350281216378e-05   0.0   -4.8029521847662796e-05
-4.727350281216378e-05   0.0   -4.8029521847662796e-05
-2.0594201467592524e-05   5.3558224273189746e-06   -3.50526150319326e-07
-2.0594201467592524e-05   5.3558224273189746e-06   -3.50526150319326e-07
-2.0594201467592524e-05   5.3558224273189746e-06   -3.50526150319326e-07
-2.0594201467592524e-05   5.3558224273189746e-06   -3.50526150319326e-07
-2.016216846586005e-05   0.0   -4.458491603551595e-05
-2.016216846586005e-05   0.0   -4.458491603551595e-05
-2.016216846586005e-05   0.0   -4.458491603551595e-05
-2.016216846586005e-05   0.0   -4.458491603551595e-05
-4.724444631024728e-05   6.233010015632264e-06   -3.18759230424975e-06
-4.724444631024728e-05   6.233010015632264e-06   -3.18759230424975e-06
-4.724444631024728e-05   6.233010015632264e-06   -3.18759230424975e-06
-4.724444631024728e-05   6.233010015632264e-06   -3.18759230424975e-06
-3.37178356390119e-05   2.870504843455673e-06   -2.3714440319669595e-05
-3.37178356390119e-05   2.870504843455673e-06   -2.3714440319669595e-05
-3.37178356390119e-05   2.870504843455673e-06   -2.3714440319669595e-05
-3.37178356390119e-05   2.870504843455673e-06   -2.3714440319669595e-05
-2.1908850886844085e-05   0.0   -4.280599328288286e-05
-2.1908850886844085e-05   0.0   -4.280599328288286e-05
-2.1908850886844085e-05   0.0   -4.280599328288286e-05
-2.1908850886844085e-05   0.0   -4.280599328288286e-05
2.8327063272831824e-06   -3.9402000814901057e-07   -1.8064765975601083e-06
2.8327063272831824e-06   -3.9402000814901057e-07   -1.8064765975601083e-06
2.8327063272831824e-06   -3.9402000814901057e-07   -1.8064765975601083e-06
2.8327063272831824e-06   -3.9402000814901057e-07   -1.8064765975601083e-06
3.3711607618810806e-06   0.0   -4.3796130219144684e-05
3.3711607618810806e-06   0.0   -4.3796130219144684e-05
3.3711607618810806e-06   0.0   -4.3796130219144684e-05
3.3711607618810806e-06   0.0   -4.3796130219144684e-05
-2.1067984187190834e-05   7.751212053531731e-07   -3.529294693903462e-06
-2.1067984187190834e-05   7.751212053531731e-07   -3.529294693903462e-06
-2.1067984187190834e-05   7.751212053531731e-07   -3.529294693903462e-06
-2.1067984187190834e-05   7.751212053531731e-07   -3.529294693903462e-06
-9.26884506248148e-06   -8.251141135516495e-07   -2.2234385377076145e-05
-9.26884506248148e-06   -8.251141135516495e-07   -2.2234385377076145e-05
-9.26884506248148e-06   -8.251141135516495e-07   -2.2234385377076145e-05
-9.26884506248148e-06   -8.251141135516495e-07   -2.2234385377076145e-05
-2.106798418719087e-05   0.0   -4.4261202942356735e-05
-2.106798418719087e-05   0.0   -4.4261202942356735e-05
-2.106798418719087e-05   0.0   -4.4261202942356735e-05
-2.106798418719087e-05   0.0   -4.4261202942356735e-05
3.3711607618810865e-06   7.751212053531731e-07   -3.0642219706915593e-06
3.3711607618810865e-06   7.751212053531731e-07   -3.0642219706915593e-06
3.3711607618810865e-06   7.751212053531731e-07   -3.0642219706915593e-06
3.3711607618810865e-06   7.751212053531731e-07   -3.0642219706915593e-06
3.7966365835918707e-06   0.0   -4.373318655434825e-05
3.7966365835918707e-06   0.0   -4.373318655434825e-05
3.7966365835918707e-06   0.0   -4.373318655434825e-05
3.7966365835918707e-06   0.0   -4.373318655434825e-05
-2.0594201467592453e-05   1.8047363948718099e-06   -4.164631639297408e-06
-2.0594201467592453e-05   1.8047363948718099e-06   -4.164631639297408e-06
-2.0594201467592453e-05   1.8047363948718099e-06   -4.164631639297408e-06
-2.0594201467592453e-05   1.8047363948718099e-06   -4.164631639297408e-06
-8.635673801799483e-06   4.400136566736813e-07   -2.3276677439366853e-05
-8.635673801799483e-06   4.400136566736813e-07   -2.3276677439366853e-05
-8.635673801799483e-06   4.400136566736813e-07   -2.3276677439366853e-05
-8.635673801799483e-06   4.400136566736813e-07   -2.3276677439366853e-05
-2.0594201467592524e-05   0.0   -4.4816028391271416e-05
-2.0594201467592524e-05   0.0   -4.4816028391271416e-05
-2.0594201467592524e-05   0.0   -4.4816028391271416e-05
-2.0594201467592524e-05   0.0   -4.4816028391271416e-05
3.796636583591877e-06   1.8047363948718099e-06   -3.0817898023743284e-06
3.796636583591877e-06   1.8047363948718099e-06   -3.0817898023743284e-06
3.796636583591877e-06   1.8047363948718099e-06   -3.0817898023743284e-06
3.796636583591877e-06   1.8047363948718099e-06   -3.0817898023743284e-06
4.367877033096276e-06   0.0   -4.278667330203894e-05
4.367877033096276e-06   0.0   -4.278667330203894e-05
4.367877033096276e-06   0.0   -4.278667330203894e-05
4.367877033096276e-06   0.0   -4.278667330203894e-05
-2.0162168465860034e-05   2.9970712224616292e-06   -3.7015068705887317e-06
-2.0162168465860034e-05   2.9970712224616292e-06   -3.7015068705887317e-06
-2.0162168465860034e-05   2.9970712224616292e-06   -3.7015068705887317e-06
-2.0162168465860034e-05   2.9970712224616292e-06   -3.7015068705887317e-06
-8.113162217248106e-06   1.6911292410270003e-06   -2.299961876274782e-05
-8.113162217248106e-06   1.6911292410270003e-06   -2.299961876274782e-05
-8.113162217248106e-06   1.6911292410270003e-06   -2.299961876274782e-05
-8.113162217248106e-06   1.6911292410270003e-06   -2.299961876274782e-05
2.8327063272831874e-06   0.0   -4.304240528777226e-05
2.8327063272831874e-06   0.0   -4.304240528777226e-05
2.8327063272831874e-06   0.0   -4.304240528777226e-05
2.8327063272831874e-06   0.0   -4.304240528777226e-05
2.9692468548139587e-05   -3.482642950291157e-06   -3.657206898527603e-07
2.9692468548139587e-05   -3.482642950291157e-06   -3.657206898527603e-07
2.9692468548139587e-05   -3.482642950291157e-06   -3.657206898527603e-07
2.9692468548139587e-05   -3.482642950291157e-06   -3.657206898527603e-07
2.974950275252028e-05   0.0   -4.537076997999567e-05
2.974950275252028e-05   0.0   -4.537076997999567e-05
2.974950275252028e-05   0.0   -4.537076997999567e-05
2.974950275252028e-05   0.0   -4.537076997999567e-05
3.3711607618810865e-06   -2.624399601418057e-06   1.6777309858713522e-07
3.3711607618810865e-06   -2.624399601418057e-06   1.6777309858713522e-07
3.3711607618810865e-06   -2.624399601418057e-06   1.6777309858713522e-07
3.3711607618810865e-06   -2.624399601418057e-06   1.6777309858713522e-07
1.6291104539901733e-05   -1.9403039101861794e-06   -2.177592394618638e-05
1.6291104539901733e-05   -1.9403039101861794e-06   -2.177592394618638e-05
1.6291104539901733e-05   -1.9403039101861794e-06   -2.177592394618638e-05
1.6291104539901733e-05   -1.9403039101861794e-06   -2.177592394618638e-05
3.3711607618810924e-06   0.0   -4.379613021914483e-05
3.3711607618810924e-06   0.0   -4.379613021914483e-05
3.3711607618810924e-06   0.0   -4.379613021914483e-05
3.3711607618810924e-06   0.0   -4.379613021914483e-05
2.9749502752520224e-05   -2.624399601418057e-06   -1.4068666622636962e-06
2.9749502752520224e-05   -2.624399601418057e-06   -1.4068666622636962e-06
2.9749502752520224e-05   -2.624399601418057e-06   -1.4068666622636962e-06
2.9749502752520224e-05   -2.624399601418057e-06   -1.4068666622636962e-06
2.9625740450810307e-05   0.0   -4.472292286245701e-05
2.9625740450810307e-05   0.0   -4.472292286245701e-05
2.9625740450810307e-05   0.0   -4.472292286245701e-05
2.9625740450810307e-05   0.0   -4.472292286245701e-05
3.796636583591877e-06   -1.649560513514479e-06   -6.846801089842834e-07
3.796636583591877e-06   -1.649560513514479e-06   -6.846801089842834e-07
3.796636583591877e-06   -1.649560513514479e-06   -6.846801089842834e-07
3.796636583591877e-06   -1.649560513514479e-06   -6.846801089842834e-07
1.64984506063457e-05   -7.723272027601447e-07   -2.2380710133359894e-05
1.64984506063457e-05   -7.723272027601447e-07   -2.2380710133359894e-05
1.64984506063457e-05   -7.723272027601447e-07   -2.2380710133359894e-05
1.64984506063457e-05   -7.723272027601447e-07   -2.2380710133359894e-05
3.796636583591877e-06   0.0   -4.373318655434833e-05
3.796636583591877e-06   0.0   -4.373318655434833e-05
3.796636583591877e-06   0.0   -4.373318655434833e-05
3.796636583591877e-06   0.0   -4.373318655434833e-05
2.9625740450810256e-05   -1.6495605135144654e-06   -1.6744164170929646e-06
2.9625740450810256e-05   -1.6495605135144654e-06   -1.6744164170929646e-06
2.9625740450810256e-05   -1.6495605135144654e-06   -1.6744164170929646e-06
2.9625740450810256e-05   -1.6495605135144654e-06   -1.6744164170929646e-06
3.020300954799602e-05   0.0   -4.2990563441200265e-05
3.020300954799602e-05   0.0   -4.2990563441200265e-05
3.020300954799602e-05   0.0   -4.2990563441200265e-05
3.020300954799602e-05   0.0   -4.2990563441200265e-05
4.367877033096282e-06   -3.39816898602092e-07   2.718808894605347e-07
4.367877033096282e-06   -3.39816898602092e-07   2.718808894605347e-07
4.367877033096282e-06   -3.39816898602092e-07   2.718808894605347e-07
4.367877033096282e-06   -3.39816898602092e-07   2.718808894605347e-07
1.6999823065793947e-05   6.188525942900494e-07   -2.1356564194104166e-05
1.6999823065793947e-05   6.188525942900494e-07   -2.1356564194104166e-05
1.6999823065793947e-05   6.188525942900494e-07   -2.1356564194104166e-05
1.6999823065793947e-05   6.188525942900494e-07   -2.1356564194104166e-05
2.969246854813969e-05   0.0   -4.5131991057946963e-05
2.969246854813969e-05   0.0   -4.5131991057946963e-05
2.969246854813969e-05   0.0   -4.5131991057946963e-05
2.969246854813969e-05   0.0   -4.5131991057946963e-05
6.705738513660049e-05   -8.831333522782618e-06   1.1844069809151668e-05
6.705738513660049e-05   -8.831333522782618e-06   1.1844069809151668e-05
6.705738513660049e-05   -8.831333522782618e-06   1.1844069809151668e-05
6.705738513660049e-05   -8.831333522782618e-06   1.1844069809151668e-05
6.298320852315875e-05   0.0   -4.987786328827468e-05
6.298320852315875e-05   0.0   -4.987786328827468e-05
6.298320852315875e-05   0.0   -4.987786328827468e-05
6.298320852315875e-05   0.0   -4.987786328827468e-05
2.9749502752520224e-05   -7.511822180465003e-06   1.0018739637735097e-05
2.9749502752520224e-05   -7.511822180465003e-06   1.0018739637735097e-05
2.9749502752520224e-05   -7.511822180465003e-06   1.0018739637735097e-05
2.9749502752520224e-05   -7.511822180465003e-06   1.0018739637735097e-05
4.6337838535649215e-05   -3.954893525273109e-06   -1.976264386059492e-05
4.6337838535649215e-05   -3.954893525273109e-06   -1.976264386059492e-05
4.6337838535649215e-05   -3.954893525273109e-06   -1.976264386059492e-05
4.6337838535649215e-05   -3.954893525273109e-06   -1.976264386059492e-05
2.974950275252025e-05   0.0   -4.537076997999563e-05
2.974950275252025e-05   0.0   -4.537076997999563e-05
2.974950275252025e-05   0.0   -4.537076997999563e-05
2.974950275252025e-05   0.0   -4.537076997999563e-05
6.298320852315875e-05   -7.511822180465003e-06   5.5116463294560964e-06
6.298320852315875e-05   -7.511822180465003e-06   5.5116463294560964e-06
6.298320852315875e-05   -7.511822180465003e-06   5.5116463294560964e-06
6.298320852315875e-05   -7.511822180465003e-06   5.5116463294560964e-06
6.110609167844563e-05   0.0   -4.884091523118472e-05
6.110609167844563e-05   0.0   -4.884091523118472e-05
6.110609167844563e-05   0.0   -4.884091523118472e-05
6.110609167844563e-05   0.0   -4.884091523118472e-05
2.9625740450810256e-05   -6.863320614546161e-06   7.744329183601844e-06
2.9625740450810256e-05   -6.863320614546161e-06   7.744329183601844e-06
2.9625740450810256e-05   -6.863320614546161e-06   7.744329183601844e-06
2.9625740450810256e-05   -6.863320614546161e-06   7.744329183601844e-06
4.542779721548293e-05   -2.8917877093242037e-06   -2.097535183398569e-05
4.542779721548293e-05   -2.8917877093242037e-06   -2.097535183398569e-05
4.542779721548293e-05   -2.8917877093242037e-06   -2.097535183398569e-05
4.542779721548293e-05   -2.8917877093242037e-06   -2.097535183398569e-05
2.9625740450810307e-05   0.0   -4.472292286245701e-05
2.9625740450810307e-05   0.0   -4.472292286245701e-05
2.9625740450810307e-05   0.0   -4.472292286245701e-05
2.9625740450810307e-05   0.0   -4.472292286245701e-05
6.110609167844552e-05   -6.863320614546161e-06   3.62633681487415e-06
6.110609167844552e-05   -6.863320614546161e-06   3.62633681487415e-06
6.110609167844552e-05   -6.863320614546161e-06   3.62633681487415e-06
6.110609167844552e-05   -6.863320614546161e-06   3.62633681487415e-06
5.830904119643248e-05   0.0   -4.6189588486468216e-05
5.830904119643248e-05   0.0   -4.6189588486468216e-05
5.830904119643248e-05   0.0   -4.6189588486468216e-05
5.830904119643248e-05   0.0   -4.6189588486468216e-05
3.020300954799594e-05   -5.331708408779913e-06   3.8528226395272e-06
3.020300954799594e-05   -5.331708408779913e-06   3.8528226395272e-06
3.020300954799594e-05   -5.331708408779913e-06   3.8528226395272e-06
3.020300954799594e-05   -5.331708408779913e-06   3.8528226395272e-06
4.396739082362132e-05   -1.2222213533426746e-06   -2.1553505053110748e-05
4.396739082362132e-05   -1.2222213533426746e-06   -2.1553505053110748e-05
4.396739082362132e-05   -1.2222213533426746e-06   -2.1553505053110748e-05
4.396739082362132e-05   -1.2222213533426746e-06   -2.1553505053110748e-05
-6.555275043412921e-05   8.367793695235182e-06   -4.304596421235333e-05
-6.555275043412921e-05   8.367793695235182e-06   -4.304596421235333e-05
-6.555275043412921e-05   8.367793695235182e-06   -4.304596421235333e-05
-6.555275043412921e-05   8.367793695235182e-06   -4.304596421235333e-05
-4.198949419499525e-05   7.522661766480197e-06   -4.280949637716397e-06
-4.198949419499525e-05   7.522661766480197e-06   -4.280949637716397e-06
-4.198949419499525e-05   7.522661766480197e-06   -4.280949637716397e-06
-4.198949419499525e-05   7.522661766480197e-06   -4.280949637716397e-06
-4.3044103967566344e-05   1.0045100136218141e-05   -3.6155007535880105e-05
-4.3044103967566344e-05   1.0045100136218141e-05   -3.6155007535880105e-05
-4.3044103967566344e-05   1.0045100136218141e-05   -3.6155007535880105e-05
-4.3044103967566344e-05   1.0045100136218141e-05   -3.6155007535880105e-05
-6.62584627754329e-05   9.031043934157285e-06   3.1440241984673494e-06
-6.62584627754329e-05   9.031043934157285e-06   3.1440241984673494e-06
-6.62584627754329e-05   9.031043934157285e-06   3.1440241984673494e-06
-6.62584627754329e-05   9.031043934157285e-06   3.1440241984673494e-06
-5.206378343130542e-05   8.741567008503155e-06   -2.0340088553019476e-05
-5.206378343130542e-05   8.741567008503155e-06   -2.0340088553019476e-05
-5.206378343130542e-05   8.741567008503155e-06   -2.0340088553019476e-05
-5.206378343130542e-05   8.741567008503155e-06   -2.0340088553019476e-05
-6.625846277543288e-05   1.0045100136218143e-05   -3.5546573814643596e-05
-6.625846277543288e-05   1.0045100136218143e-05   -3.5546573814643596e-05
-6.625846277543288e-05   1.0045100136218143e-05   -3.5546573814643596e-05
-6.625846277543288e-05   1.0045100136218143e-05   -3.5546573814643596e-05
-4.304410396756649e-05   9.031043934157313e-06   2.535590477230942e-06
-4.304410396756649e-05   9.031043934157313e-06   2.535590477230942e-06
-4.304410396756649e-05   9.031043934157313e-06   2.535590477230942e-06
-4.304410396756649e-05   9.031043934157313e-06   2.535590477230942e-06
-4.326307576952718e-05   1.0762715138609981e-05   -3.250783306639517e-05
-4.326307576952718e-05   1.0762715138609981e-05   -3.250783306639517e-05
-4.326307576952718e-05   1.0762715138609981e-05   -3.250783306639517e-05
-4.326307576952718e-05   1.0762715138609981e-05   -3.250783306639517e-05
-6.672139760512573e-05   9.711900971845879e-06   7.219858492994101e-06
-6.672139760512573e-05   9.711900971845879e-06   7.219858492994101e-06
-6.672139760512573e-05   9.711900971845879e-06   7.219858492994101e-06
-6.672139760512573e-05   9.711900971845879e-06   7.219858492994101e-06
-5.3592105079163264e-05   9.689902168407615e-06   -1.4649096434880333e-05
-5.3592105079163264e-05   9.689902168407615e-06   -1.4649096434880333e-05
-5.3592105079163264e-05   9.689902168407615e-06   -1.4649096434880333e-05
-5.3592105079163264e-05   9.689902168407615e-06   -1.4649096434880333e-05
-6.672139760512561e-05   1.0762715138609986e-05   -3.1877344566336685e-05
-6.672139760512561e-05   1.0762715138609986e-05   -3.1877344566336685e-05
-6.672139760512561e-05   1.0762715138609986e-05   -3.1877344566336685e-05
-6.672139760512561e-05   1.0762715138609986e-05   -3.1877344566336685e-05
-4.326307576952726e-05   9.711900971845852e-06   6.5893699929355415e-06
-4.326307576952726e-05   9.711900971845852e-06   6.5893699929355415e-06
-4.326307576952726e-05   9.711900971845852e-06   6.5893699929355415e-06
-4.326307576952726e-05   9.711900971845852e-06   6.5893699929355415e-06
-4.301513301232292e-05   1.2263762306799947e-05   -2.402684667752108e-05
-4.301513301232292e-05   1.2263762306799947e-05   -2.402684667752108e-05
-4.301513301232292e-05   1.2263762306799947e-05   -2.402684667752108e-05
-4.301513301232292e-05   1.2263762306799947e-05   -2.402684667752108e-05
-6.486629999496154e-05   1.0254447128944181e-05   1.3597354066923254e-05
-6.486629999496154e-05   1.0254447128944181e-05   1.3597354066923254e-05
-6.486629999496154e-05   1.0254447128944181e-05   1.3597354066923254e-05
-6.486629999496154e-05   1.0254447128944181e-05   1.3597354066923254e-05
-5.2195070195796323e-05   1.0629778316362351e-05   -7.746560977469653e-06
-5.2195070195796323e-05   1.0629778316362351e-05   -7.746560977469653e-06
-5.2195070195796323e-05   1.0629778316362351e-05   -7.746560977469653e-06
-5.2195070195796323e-05   1.0629778316362351e-05   -7.746560977469653e-06
-4.198949419499525e-05   3.0676345000517133e-06   -4.5733739598058026e-05
-4.198949419499525e-05   3.0676345000517133e-06   -4.5733739598058026e-05
-4.198949419499525e-05   3.0676345000517133e-06   -4.5733739598058026e-05
-4.198949419499525e-05   3.0676345000517133e-06   -4.5733739598058026e-05
-1.9903235544186138e-05   3.500484184035615e-06   -8.663598702985766e-06
-1.9903235544186138e-05   3.500484184035615e-06   -8.663598702985766e-06
-1.9903235544186138e-05   3.500484184035615e-06   -8.663598702985766e-06
-1.9903235544186138e-05   3.500484184035615e-06   -8.663598702985766e-06
-2.0376776614827127e-05   4.369654615761498e-06   -4.5663528774417007e-05
-2.0376776614827127e-05   4.369654615761498e-06   -4.5663528774417007e-05
-2.0376776614827127e-05   4.369654615761498e-06   -4.5663528774417007e-05
-2.0376776614827127e-05   4.369654615761498e-06   -4.5663528774417007e-05
-4.304410396756634e-05   4.887489211655556e-06   -8.195350610721295e-06
-4.304410396756634e-05   4.887489211655556e-06   -8.195350610721295e-06
-4.304410396756634e-05   4.887489211655556e-06   -8.195350610721295e-06
-4.304410396756634e-05   4.887489211655556e-06   -8.195350610721295e-06
-3.124004936565526e-05   3.935247913007582e-06   -2.7297430168051116e-05
-3.124004936565526e-05   3.935247913007582e-06   -2.7297430168051116e-05
-3.124004936565526e-05   3.935247913007582e-06   -2.7297430168051116e-05
-3.124004936565526e-05   3.935247913007582e-06   -2.7297430168051116e-05
-4.304410396756631e-05   4.369654615761493e-06   -4.5974229531953296e-05
-4.304410396756631e-05   4.369654615761493e-06   -4.5974229531953296e-05
-4.304410396756631e-05   4.369654615761493e-06   -4.5974229531953296e-05
-4.304410396756631e-05   4.369654615761493e-06   -4.5974229531953296e-05
-2.0376776614827097e-05   4.887489211655556e-06   -7.884649853184754e-06
-2.0376776614827097e-05   4.887489211655556e-06   -7.884649853184754e-06
-2.0376776614827097e-05   4.887489211655556e-06   -7.884649853184754e-06
-2.0376776614827097e-05   4.887489211655556e-06   -7.884649853184754e-06
-2.0524306244771853e-05   5.355822427318961e-06   -4.480960054981006e-05
-2.0524306244771853e-05   5.355822427318961e-06   -4.480960054981006e-05
-2.0524306244771853e-05   5.355822427318961e-06   -4.480960054981006e-05
-2.0524306244771853e-05   5.355822427318961e-06   -4.480960054981006e-05
-4.326307576952718e-05   6.035812675100601e-06   -7.319645490553358e-06
-4.326307576952718e-05   6.035812675100601e-06   -7.319645490553358e-06
-4.326307576952718e-05   6.035812675100601e-06   -7.319645490553358e-06
-4.326307576952718e-05   6.035812675100601e-06   -7.319645490553358e-06
-3.148270280365541e-05   4.99575627745501e-06   -2.6329566595085626e-05
-3.148270280365541e-05   4.99575627745501e-06   -2.6329566595085626e-05
-3.148270280365541e-05   4.99575627745501e-06   -2.6329566595085626e-05
-3.148270280365541e-05   4.99575627745501e-06   -2.6329566595085626e-05
-4.326307576952718e-05   5.355822427318954e-06   -4.521759469847896e-05
-4.326307576952718e-05   5.355822427318954e-06   -4.521759469847896e-05
-4.326307576952718e-05   5.355822427318954e-06   -4.521759469847896e-05
-4.326307576952718e-05   5.355822427318954e-06   -4.521759469847896e-05
-2.0524306244771884e-05   6.035812675100601e-06   -6.911651341884428e-06
-2.0524306244771884e-05   6.035812675100601e-06   -6.911651341884428e-06
-2.0524306244771884e-05   6.035812675100601e-06   -6.911651341884428e-06
-2.0524306244771884e-05   6.035812675100601e-06   -6.911651341884428e-06
-2.0472550502336445e-05   6.233010015632278e-06   -4.435249168583866e-05
-2.0472550502336445e-05   6.233010015632278e-06   -4.435249168583866e-05
-2.0472550502336445e-05   6.233010015632278e-06   -4.435249168583866e-05
-2.0472550502336445e-05   6.233010015632278e-06   -4.435249168583866e-05
-4.3015133012322884e-05   7.271575849798149e-06   -7.404660336360677e-06
-4.3015133012322884e-05   7.271575849798149e-06   -7.404660336360677e-06
-4.3015133012322884e-05   7.271575849798149e-06   -7.404660336360677e-06
-4.3015133012322884e-05   7.271575849798149e-06   -7.404660336360677e-06
-3.166632488602379e-05   5.955645815597973e-06   -2.5529782526339197e-05
-3.166632488602379e-05   5.955645815597973e-06   -2.5529782526339197e-05
-3.166632488602379e-05   5.955645815597973e-06   -2.5529782526339197e-05
-3.166632488602379e-05   5.955645815597973e-06   -2.5529782526339197e-05
-1.990323554418611e-05   -3.9402000814900713e-07   -4.788830886584207e-05
-1.990323554418611e-05   -3.9402000814900713e-07   -4.788830886584207e-05
-1.990323554418611e-05   -3.9402000814900713e-07   -4.788830886584207e-05
-1.990323554418611e-05   -3.9402000814900713e-07   -4.788830886584207e-05
1.9040803651890348e-06   -1.0488253995470176e-07   -1.1369299869300255e-05
1.9040803651890348e-06   -1.0488253995470176e-07   -1.1369299869300255e-05
1.9040803651890348e-06   -1.0488253995470176e-07   -1.1369299869300255e-05
1.9040803651890348e-06   -1.0488253995470176e-07   -1.1369299869300255e-05
1.8159731047570043e-06   7.751212053531595e-07   -4.8153291565249156e-05
1.8159731047570043e-06   7.751212053531595e-07   -4.8153291565249156e-05
1.8159731047570043e-06   7.751212053531595e-07   -4.8153291565249156e-05
1.8159731047570043e-06   7.751212053531595e-07   -4.8153291565249156e-05
-2.0376776614827093e-05   1.1731604163880017e-06   -1.14041988925632e-05
-2.0376776614827093e-05   1.1731604163880017e-06   -1.14041988925632e-05
-2.0376776614827093e-05   1.1731604163880017e-06   -1.14041988925632e-05
-2.0376776614827093e-05   1.1731604163880017e-06   -1.14041988925632e-05
-9.194837352242205e-06   3.897487172285416e-07   -2.957071731070902e-05
-9.194837352242205e-06   3.897487172285416e-07   -2.957071731070902e-05
-9.194837352242205e-06   3.897487172285416e-07   -2.957071731070902e-05
-9.194837352242205e-06   3.897487172285416e-07   -2.957071731070902e-05
-2.0376776614827097e-05   7.751212053531639e-07   -4.839211509187005e-05
-2.0376776614827097e-05   7.751212053531639e-07   -4.839211509187005e-05
-2.0376776614827097e-05   7.751212053531639e-07   -4.839211509187005e-05
-2.0376776614827097e-05   7.751212053531639e-07   -4.839211509187005e-05
1.8159731047570077e-06   1.1731604163880017e-06   -1.116537536594224e-05
1.8159731047570077e-06   1.1731604163880017e-06   -1.116537536594224e-05
1.8159731047570077e-06   1.1731604163880017e-06   -1.116537536594224e-05
1.8159731047570077e-06   1.1731604163880017e-06   -1.116537536594224e-05
1.6956100947145704e-06   1.8047363948718099e-06   -4.825336287459077e-05
1.6956100947145704e-06   1.8047363948718099e-06   -4.825336287459077e-05
1.6956100947145704e-06   1.8047363948718099e-06   -4.825336287459077e-05
1.6956100947145704e-06   1.8047363948718099e-06   -4.825336287459077e-05
-2.0524306244771816e-05   2.421975001867311e-06   -1.1590512139644064e-05
-2.0524306244771816e-05   2.421975001867311e-06   -1.1590512139644064e-05
-2.0524306244771816e-05   2.421975001867311e-06   -1.1590512139644064e-05
-2.0524306244771816e-05   2.421975001867311e-06   -1.1590512139644064e-05
-9.36473670900006e-06   1.47264856157798e-06   -2.9620198835090114e-05
-9.36473670900006e-06   1.47264856157798e-06   -2.9620198835090114e-05
-9.36473670900006e-06   1.47264856157798e-06   -2.9620198835090114e-05
-9.36473670900006e-06   1.47264856157798e-06   -2.9620198835090114e-05
-2.0524306244771813e-05   1.804736394871806e-06   -4.862370603878807e-05
-2.0524306244771813e-05   1.804736394871806e-06   -4.862370603878807e-05
-2.0524306244771813e-05   1.804736394871806e-06   -4.862370603878807e-05
-2.0524306244771813e-05   1.804736394871806e-06   -4.862370603878807e-05
1.6956100947145704e-06   2.421975001867284e-06   -1.1220168975446832e-05
1.6956100947145704e-06   2.421975001867284e-06   -1.1220168975446832e-05
1.6956100947145704e-06   2.421975001867284e-06   -1.1220168975446832e-05
1.6956100947145704e-06   2.421975001867284e-06   -1.1220168975446832e-05
1.451218519828281e-06   2.9970712224616157e-06   -4.817063495760258e-05
1.451218519828281e-06   2.9970712224616157e-06   -4.817063495760258e-05
1.451218519828281e-06   2.9970712224616157e-06   -4.817063495760258e-05
1.451218519828281e-06   2.9970712224616157e-06   -4.817063495760258e-05
-2.0472550502336424e-05   3.7230333957189072e-06   -1.2066597224615834e-05
-2.0472550502336424e-05   3.7230333957189072e-06   -1.2066597224615834e-05
-2.0472550502336424e-05   3.7230333957189072e-06   -1.2066597224615834e-05
-2.0472550502336424e-05   3.7230333957189072e-06   -1.2066597224615834e-05
-9.466940138585793e-06   2.5851193655268925e-06   -2.972653274608498e-05
-9.466940138585793e-06   2.5851193655268925e-06   -2.972653274608498e-05
-9.466940138585793e-06   2.5851193655268925e-06   -2.972653274608498e-05
-9.466940138585793e-06   2.5851193655268925e-06   -2.972653274608498e-05
1.9040803651890348e-06   -3.482642950291155e-06   -4.4184484707043466e-05
1.9040803651890348e-06   -3.482642950291155e-06   -4.4184484707043466e-05
1.9040803651890348e-06   -3.482642950291155e-06   -4.4184484707043466e-05
1.9040803651890348e-06   -3.482642950291155e-06   -4.4184484707043466e-05
2.4376758342127702e-05   -3.5803255267530037e-06   -6.788630958022758e-06
2.4376758342127702e-05   -3.5803255267530037e-06   -6.788630958022758e-06
2.4376758342127702e-05   -3.5803255267530037e-06   -6.788630958022758e-06
2.4376758342127702e-05   -3.5803255267530037e-06   -6.788630958022758e-06
2.4578528533596596e-05   -2.6243996014180433e-06   -4.4797844812132324e-05
2.4578528533596596e-05   -2.6243996014180433e-06   -4.4797844812132324e-05
2.4578528533596596e-05   -2.6243996014180433e-06   -4.4797844812132324e-05
2.4578528533596596e-05   -2.6243996014180433e-06   -4.4797844812132324e-05
1.8159731047570072e-06   -2.418646795021177e-06   -6.98370411457113e-06
1.8159731047570072e-06   -2.418646795021177e-06   -6.98370411457113e-06
1.8159731047570072e-06   -2.418646795021177e-06   -6.98370411457113e-06
1.8159731047570072e-06   -2.418646795021177e-06   -6.98370411457113e-06
1.3000594334284157e-05   -2.8960154881268205e-06   -2.5338318281252977e-05
1.3000594334284157e-05   -2.8960154881268205e-06   -2.5338318281252977e-05
1.3000594334284157e-05   -2.8960154881268205e-06   -2.5338318281252977e-05
1.3000594334284157e-05   -2.8960154881268205e-06   -2.5338318281252977e-05
1.8159731047570043e-06   -2.6243996014180497e-06   -4.492129649597045e-05
1.8159731047570043e-06   -2.6243996014180497e-06   -4.492129649597045e-05
1.8159731047570043e-06   -2.6243996014180497e-06   -4.492129649597045e-05
1.8159731047570043e-06   -2.6243996014180497e-06   -4.492129649597045e-05
2.4578528533596596e-05   -2.418646795021177e-06   -6.860252430732891e-06
2.4578528533596596e-05   -2.418646795021177e-06   -6.860252430732891e-06
2.4578528533596596e-05   -2.418646795021177e-06   -6.860252430732891e-06
2.4578528533596596e-05   -2.418646795021177e-06   -6.860252430732891e-06
2.4459080374046463e-05   -1.649560513514479e-06   -4.563512085101337e-05
2.4459080374046463e-05   -1.649560513514479e-06   -4.563512085101337e-05
2.4459080374046463e-05   -1.649560513514479e-06   -4.563512085101337e-05
2.4459080374046463e-05   -1.649560513514479e-06   -4.563512085101337e-05
1.6956100947145707e-06   -1.2810066298687766e-06   -7.917136048980953e-06
1.6956100947145707e-06   -1.2810066298687766e-06   -7.917136048980953e-06
1.6956100947145707e-06   -1.2810066298687766e-06   -7.917136048980953e-06
1.6956100947145707e-06   -1.2810066298687766e-06   -7.917136048980953e-06
1.2862907677691358e-05   -1.9690029596953356e-06   -2.6116500889379658e-05
1.2862907677691358e-05   -1.9690029596953356e-06   -2.6116500889379658e-05
1.2862907677691358e-05   -1.9690029596953356e-06   -2.6116500889379658e-05
1.2862907677691358e-05   -1.9690029596953356e-06   -2.6116500889379658e-05
1.6956100947145704e-06   -1.649560513514475e-06   -4.585625318120073e-05
1.6956100947145704e-06   -1.649560513514475e-06   -4.585625318120073e-05
1.6956100947145704e-06   -1.649560513514475e-06   -4.585625318120073e-05
1.6956100947145704e-06   -1.649560513514475e-06   -4.585625318120073e-05
2.4459080374046463e-05   -1.2810066298687495e-06   -7.696003718793572e-06
2.4459080374046463e-05   -1.2810066298687495e-06   -7.696003718793572e-06
2.4459080374046463e-05   -1.2810066298687495e-06   -7.696003718793572e-06
2.4459080374046463e-05   -1.2810066298687495e-06   -7.696003718793572e-06
2.3745279737535027e-05   -3.39816898602092e-07   -4.5716142208801295e-05
2.3745279737535027e-05   -3.39816898602092e-07   -4.5716142208801295e-05
2.3745279737535027e-05   -3.39816898602092e-07   -4.5716142208801295e-05
2.3745279737535027e-05   -3.39816898602092e-07   -4.5716142208801295e-05
1.4512185198282815e-06   1.257626384462533e-07   -8.838721234852436e-06
1.4512185198282815e-06   1.257626384462533e-07   -8.838721234852436e-06
1.4512185198282815e-06   1.257626384462533e-07   -8.838721234852436e-06
1.4512185198282815e-06   1.257626384462533e-07   -8.838721234852436e-06
1.2723459239965473e-05   -8.863026841716905e-07   -2.701854990817697e-05
1.2723459239965473e-05   -8.863026841716905e-07   -2.701854990817697e-05
1.2723459239965473e-05   -8.863026841716905e-07   -2.701854990817697e-05
1.2723459239965473e-05   -8.863026841716905e-07   -2.701854990817697e-05
2.4376758342127702e-05   -8.831333522782597e-06   -2.67345036402466e-05
2.4376758342127702e-05   -8.831333522782597e-06   -2.67345036402466e-05
2.4376758342127702e-05   -8.831333522782597e-06   -2.67345036402466e-05
2.4376758342127702e-05   -8.831333522782597e-06   -2.67345036402466e-05
4.655221101574592e-05   -6.652621116498081e-06   1.153181159288782e-05
4.655221101574592e-05   -6.652621116498081e-06   1.153181159288782e-05
4.655221101574592e-05   -6.652621116498081e-06   1.153181159288782e-05
4.655221101574592e-05   -6.652621116498081e-06   1.153181159288782e-05
4.8326835891242994e-05   -7.511822180465003e-06   -3.2485110928196965e-05
4.8326835891242994e-05   -7.511822180465003e-06   -3.2485110928196965e-05
4.8326835891242994e-05   -7.511822180465003e-06   -3.2485110928196965e-05
4.8326835891242994e-05   -7.511822180465003e-06   -3.2485110928196965e-05
2.457852853359664e-05   -6.033276207237273e-06   6.208273750610361e-06
2.457852853359664e-05   -6.033276207237273e-06   6.208273750610361e-06
2.457852853359664e-05   -6.033276207237273e-06   6.208273750610361e-06
2.457852853359664e-05   -6.033276207237273e-06   6.208273750610361e-06
3.428619170777416e-05   -7.225957789051276e-06   -9.255555923930471e-06
3.428619170777416e-05   -7.225957789051276e-06   -9.255555923930471e-06
3.428619170777416e-05   -7.225957789051276e-06   -9.255555923930471e-06
3.428619170777416e-05   -7.225957789051276e-06   -9.255555923930471e-06
2.4578528533596572e-05   -7.511822180465e-06   -3.3372238512133456e-05
2.4578528533596572e-05   -7.511822180465e-06   -3.3372238512133456e-05
2.4578528533596572e-05   -7.511822180465e-06   -3.3372238512133456e-05
2.4578528533596572e-05   -7.511822180465e-06   -3.3372238512133456e-05
4.832683589124291e-05   -6.033276207237273e-06   7.09540133454707e-06
4.832683589124291e-05   -6.033276207237273e-06   7.09540133454707e-06
4.832683589124291e-05   -6.033276207237273e-06   7.09540133454707e-06
4.832683589124291e-05   -6.033276207237273e-06   7.09540133454707e-06
4.814787701439761e-05   -6.863320614546148e-06   -3.532557135452259e-05
4.814787701439761e-05   -6.863320614546148e-06   -3.532557135452259e-05
4.814787701439761e-05   -6.863320614546148e-06   -3.532557135452259e-05
4.814787701439761e-05   -6.863320614546148e-06   -3.532557135452259e-05
2.4459080374046463e-05   -5.378647454886337e-06   3.2649524836001853e-06
2.4459080374046463e-05   -5.378647454886337e-06   3.2649524836001853e-06
2.4459080374046463e-05   -5.378647454886337e-06   3.2649524836001853e-06
2.4459080374046463e-05   -5.378647454886337e-06   3.2649524836001853e-06
3.548652550249555e-05   -6.380134123103198e-06   -1.4513230729551541e-05
3.548652550249555e-05   -6.380134123103198e-06   -1.4513230729551541e-05
3.548652550249555e-05   -6.380134123103198e-06   -1.4513230729551541e-05
3.548652550249555e-05   -6.380134123103198e-06   -1.4513230729551541e-05
2.445908037404642e-05   -6.863320614546147e-06   -3.621637525031849e-05
2.445908037404642e-05   -6.863320614546147e-06   -3.621637525031849e-05
2.445908037404642e-05   -6.863320614546147e-06   -3.621637525031849e-05
2.445908037404642e-05   -6.863320614546147e-06   -3.621637525031849e-05
4.814787701439761e-05   -5.37864745488631e-06   4.1557563793960094e-06
4.814787701439761e-05   -5.37864745488631e-06   4.1557563793960094e-06
4.814787701439761e-05   -5.37864745488631e-06   4.1557563793960094e-06
4.814787701439761e-05   -5.37864745488631e-06   4.1557563793960094e-06
4.785895363929259e-05   -5.3317084087799e-06   -4.1114339821000115e-05
4.785895363929259e-05   -5.3317084087799e-06   -4.1114339821000115e-05
4.785895363929259e-05   -5.3317084087799e-06   -4.1114339821000115e-05
4.785895363929259e-05   -5.3317084087799e-06   -4.1114339821000115e-05
2.3745279737535044e-05   -3.9700909111577295e-06   -1.7418538166441046e-06
2.3745279737535044e-05   -3.9700909111577295e-06   -1.7418538166441046e-06
2.3745279737535044e-05   -3.9700909111577295e-06   -1.7418538166441046e-06
2.3745279737535044e-05   -3.9700909111577295e-06   -1.7418538166441046e-06
3.4471857217070164e-05   -5.492596682788202e-06   -1.8705979486224365e-05
3.4471857217070164e-05   -5.492596682788202e-06   -1.8705979486224365e-05
3.4471857217070164e-05   -5.492596682788202e-06   -1.8705979486224365e-05
3.4471857217070164e-05   -5.492596682788202e-06   -1.8705979486224365e-05
-5.218675469575567e-05   7.522661766480217e-06   -3.604509916304961e-05
-5.218675469575567e-05   7.522661766480217e-06   -3.604509916304961e-05
-5.218675469575567e-05   7.522661766480217e-06   -3.604509916304961e-05
-5.218675469575567e-05   7.522661766480217e-06   -3.604509916304961e-05
-3.422090207381008e-05   5.745292388467096e-06   -7.168433086614812e-06
-3.422090207381008e-05   5.745292388467096e-06   -7.168433086614812e-06
-3.422090207381008e-05   5.745292388467096e-06   -7.168433086614812e-06
-3.422090207381008e-05   5.745292388467096e-06   -7.168433086614812e-06
-3.43853678476563e-05   9.031043934157285e-06   -2.9929771476100387e-05
-3.43853678476563e-05   9.031043934157285e-06   -2.9929771476100387e-05
-3.43853678476563e-05   9.031043934157285e-06   -2.9929771476100387e-05
-3.43853678476563e-05   9.031043934157285e-06   -2.9929771476100387e-05
-5.1393145251855324e-05   6.9516630866798515e-06   -3.3584729394888586e-07
-5.1393145251855324e-05   6.9516630866798515e-06   -3.3584729394888586e-07
-5.1393145251855324e-05   6.9516630866798515e-06   -3.3584729394888586e-07
-5.1393145251855324e-05   6.9516630866798515e-06   -3.3584729394888586e-07
-4.122586621779731e-05   7.650195217474398e-06   -1.7700431629189066e-05
-4.122586621779731e-05   7.650195217474398e-06   -1.7700431629189066e-05
-4.122586621779731e-05   7.650195217474398e-06   -1.7700431629189066e-05
-4.122586621779731e-05   7.650195217474398e-06   -1.7700431629189066e-05
-5.139314525185533e-05   9.031043934157287e-06   -2.868214296761391e-05
-5.139314525185533e-05   9.031043934157287e-06   -2.868214296761391e-05
-5.139314525185533e-05   9.031043934157287e-06   -2.868214296761391e-05
-5.139314525185533e-05   9.031043934157287e-06   -2.868214296761391e-05
-3.43853678476563e-05   6.9516630866798515e-06   -1.583475802435376e-06
-3.43853678476563e-05   6.9516630866798515e-06   -1.583475802435376e-06
-3.43853678476563e-05   6.9516630866798515e-06   -1.583475802435376e-06
-3.43853678476563e-05   6.9516630866798515e-06   -1.583475802435376e-06
-3.43495006420185e-05   9.711900971845852e-06   -2.5606340815694634e-05
-3.43495006420185e-05   9.711900971845852e-06   -2.5606340815694634e-05
-3.43495006420185e-05   9.711900971845852e-06   -2.5606340815694634e-05
-3.43495006420185e-05   9.711900971845852e-06   -2.5606340815694634e-05
-5.0620139709329974e-05   7.481957244972245e-06   2.8493571992819523e-06
-5.0620139709329974e-05   7.481957244972245e-06   2.8493571992819523e-06
-5.0620139709329974e-05   7.481957244972245e-06   2.8493571992819523e-06
-5.0620139709329974e-05   7.481957244972245e-06   2.8493571992819523e-06
-4.158067723975411e-05   8.349513948537643e-06   -1.27369476054837e-05
-4.158067723975411e-05   8.349513948537643e-06   -1.27369476054837e-05
-4.158067723975411e-05   8.349513948537643e-06   -1.27369476054837e-05
-4.158067723975411e-05   8.349513948537643e-06   -1.27369476054837e-05
-5.062013970932999e-05   9.711900971845853e-06   -2.4268374579570465e-05
-5.062013970932999e-05   9.711900971845853e-06   -2.4268374579570465e-05
-5.062013970932999e-05   9.711900971845853e-06   -2.4268374579570465e-05
-5.062013970932999e-05   9.711900971845853e-06   -2.4268374579570465e-05
-3.434950064201857e-05   7.481957244972299e-06   1.5113909631580267e-06
-3.434950064201857e-05   7.481957244972299e-06   1.5113909631580267e-06
-3.434950064201857e-05   7.481957244972299e-06   1.5113909631580267e-06
-3.434950064201857e-05   7.481957244972299e-06   1.5113909631580267e-06
-3.438374624797296e-05   1.0254447128944181e-05   -1.955428159383264e-05
-3.438374624797296e-05   1.0254447128944181e-05   -1.955428159383264e-05
-3.438374624797296e-05   1.0254447128944181e-05   -1.955428159383264e-05
-3.438374624797296e-05   1.0254447128944181e-05   -1.955428159383264e-05
-4.9611533734120394e-05   8.004801392753143e-06   7.175151658127515e-06
-4.9611533734120394e-05   8.004801392753143e-06   7.175151658127515e-06
-4.9611533734120394e-05   8.004801392753143e-06   7.175151658127515e-06
-4.9611533734120394e-05   8.004801392753143e-06   7.175151658127515e-06
-4.0632325292203384e-05   8.718202409487778e-06   -8.2182363551076e-06
-4.0632325292203384e-05   8.718202409487778e-06   -8.2182363551076e-06
-4.0632325292203384e-05   8.718202409487778e-06   -8.2182363551076e-06
-4.0632325292203384e-05   8.718202409487778e-06   -8.2182363551076e-06
-3.422090207381008e-05   3.500484184035596e-06   -4.175387966551722e-05
-3.422090207381008e-05   3.500484184035596e-06   -4.175387966551722e-05
-3.422090207381008e-05   3.500484184035596e-06   -4.175387966551722e-05
-3.422090207381008e-05   3.500484184035596e-06   -4.175387966551722e-05
-1.7425598115550587e-05   2.865832721917253e-06   -1.4142497279022384e-05
-1.7425598115550587e-05   2.865832721917253e-06   -1.4142497279022384e-05
-1.7425598115550587e-05   2.865832721917253e-06   -1.4142497279022384e-05
-1.7425598115550587e-05   2.865832721917253e-06   -1.4142497279022384e-05
-1.7636486859114112e-05   4.887489211655556e-06   -4.116169819896393e-05
-1.7636486859114112e-05   4.887489211655556e-06   -4.116169819896393e-05
-1.7636486859114112e-05   4.887489211655556e-06   -4.116169819896393e-05
-1.7636486859114112e-05   4.887489211655556e-06   -4.116169819896393e-05
-3.438536784765631e-05   4.0525131534699605e-06   -1.2745910916482232e-05
-3.438536784765631e-05   4.0525131534699605e-06   -1.2745910916482232e-05
-3.438536784765631e-05   4.0525131534699605e-06   -1.2745910916482232e-05
-3.438536784765631e-05   4.0525131534699605e-06   -1.2745910916482232e-05
-2.569507407624107e-05   4.038525724914927e-06   -2.722134141170792e-05
-2.569507407624107e-05   4.038525724914927e-06   -2.722134141170792e-05
-2.569507407624107e-05   4.038525724914927e-06   -2.722134141170792e-05
-2.569507407624107e-05   4.038525724914927e-06   -2.722134141170792e-05
-3.438536784765627e-05   4.8874892116555655e-06   -4.066071256405245e-05
-3.438536784765627e-05   4.8874892116555655e-06   -4.066071256405245e-05
-3.438536784765627e-05   4.8874892116555655e-06   -4.066071256405245e-05
-3.438536784765627e-05   4.8874892116555655e-06   -4.066071256405245e-05
-1.763648685911414e-05   4.0525131534699605e-06   -1.32468965513936e-05
-1.763648685911414e-05   4.0525131534699605e-06   -1.32468965513936e-05
-1.763648685911414e-05   4.0525131534699605e-06   -1.32468965513936e-05
-1.763648685911414e-05   4.0525131534699605e-06   -1.32468965513936e-05
-1.7772982559210493e-05   6.035812675100601e-06   -4.00725728738845e-05
-1.7772982559210493e-05   6.035812675100601e-06   -4.00725728738845e-05
-1.7772982559210493e-05   6.035812675100601e-06   -4.00725728738845e-05
-1.7772982559210493e-05   6.035812675100601e-06   -4.00725728738845e-05
-3.4349500642018516e-05   5.107118383932449e-06   -1.1887826161170186e-05
-3.4349500642018516e-05   5.107118383932449e-06   -1.1887826161170186e-05
-3.4349500642018516e-05   5.107118383932449e-06   -1.1887826161170186e-05
-3.4349500642018516e-05   5.107118383932449e-06   -1.1887826161170186e-05
-2.5741951814911606e-05   5.015035717068821e-06   -2.6178491272896704e-05
-2.5741951814911606e-05   5.015035717068821e-06   -2.6178491272896704e-05
-2.5741951814911606e-05   5.015035717068821e-06   -2.6178491272896704e-05
-2.5741951814911606e-05   5.015035717068821e-06   -2.6178491272896704e-05
-3.43495006420185e-05   6.035812675100603e-06   -3.9515356299183574e-05
-3.43495006420185e-05   6.035812675100603e-06   -3.9515356299183574e-05
-3.43495006420185e-05   6.035812675100603e-06   -3.9515356299183574e-05
-3.43495006420185e-05   6.035812675100603e-06   -3.9515356299183574e-05
-1.7772982559210527e-05   5.107118383932449e-06   -1.2445042735870913e-05
-1.7772982559210527e-05   5.107118383932449e-06   -1.2445042735870913e-05
-1.7772982559210527e-05   5.107118383932449e-06   -1.2445042735870913e-05
-1.7772982559210527e-05   5.107118383932449e-06   -1.2445042735870913e-05
-1.7949887648580243e-05   7.271575849798149e-06   -3.997606426549039e-05
-1.7949887648580243e-05   7.271575849798149e-06   -3.997606426549039e-05
-1.7949887648580243e-05   7.271575849798149e-06   -3.997606426549039e-05
-1.7949887648580243e-05   7.271575849798149e-06   -3.997606426549039e-05
-3.438374624797293e-05   6.2293135579860105e-06   -1.1960942558082027e-05
-3.438374624797293e-05   6.2293135579860105e-06   -1.1960942558082027e-05
-3.438374624797293e-05   6.2293135579860105e-06   -1.1960942558082027e-05
-3.438374624797293e-05   6.2293135579860105e-06   -1.1960942558082027e-05
-2.6046299402775746e-05   5.982563339072843e-06   -2.5708637168728984e-05
-2.6046299402775746e-05   5.982563339072843e-06   -2.5708637168728984e-05
-2.6046299402775746e-05   5.982563339072843e-06   -2.5708637168728984e-05
-2.6046299402775746e-05   5.982563339072843e-06   -2.5708637168728984e-05
-1.742559811555056e-05   -1.0488253995469747e-07   -4.501385419001925e-05
-1.742559811555056e-05   -1.0488253995469747e-07   -4.501385419001925e-05
-1.742559811555056e-05   -1.0488253995469747e-07   -4.501385419001925e-05
-1.742559811555056e-05   -1.0488253995469747e-07   -4.501385419001925e-05
-8.173670624281033e-07   1.527838057881854e-07   -1.7178869294036105e-05
-8.173670624281033e-07   1.527838057881854e-07   -1.7178869294036105e-05
-8.173670624281033e-07   1.527838057881854e-07   -1.7178869294036105e-05
-8.173670624281033e-07   1.527838057881854e-07   -1.7178869294036105e-05
-9.864814028476986e-07   1.1731604163880288e-06   -4.459241757556588e-05
-9.864814028476986e-07   1.1731604163880288e-06   -4.459241757556588e-05
-9.864814028476986e-07   1.1731604163880288e-06   -4.459241757556588e-05
-9.864814028476986e-07   1.1731604163880288e-06   -4.459241757556588e-05
-1.7636486859114078e-05   1.3212098543486164e-06   -1.6931238144564904e-05
-1.7636486859114078e-05   1.3212098543486164e-06   -1.6931238144564904e-05
-1.7636486859114078e-05   1.3212098543486164e-06   -1.6931238144564904e-05
-1.7636486859114078e-05   1.3212098543486164e-06   -1.6931238144564904e-05
-9.164528986622303e-06   7.700284153255204e-07   -3.07204590686374e-05
-9.164528986622303e-06   7.700284153255204e-07   -3.07204590686374e-05
-9.164528986622303e-06   7.700284153255204e-07   -3.07204590686374e-05
-9.164528986622303e-06   7.700284153255204e-07   -3.07204590686374e-05
-1.7636486859114112e-05   1.1731604163880246e-06   -4.468124723834224e-05
-1.7636486859114112e-05   1.1731604163880246e-06   -4.468124723834224e-05
-1.7636486859114112e-05   1.1731604163880246e-06   -4.468124723834224e-05
-1.7636486859114112e-05   1.1731604163880246e-06   -4.468124723834224e-05
-9.864814028476986e-07   1.3212098543486164e-06   -1.6842408481788527e-05
-9.864814028476986e-07   1.3212098543486164e-06   -1.6842408481788527e-05
-9.864814028476986e-07   1.3212098543486164e-06   -1.6842408481788527e-05
-9.864814028476986e-07   1.3212098543486164e-06   -1.6842408481788527e-05
-1.1084171304359852e-06   2.421975001867311e-06   -4.471290724411938e-05
-1.1084171304359852e-06   2.421975001867311e-06   -4.471290724411938e-05
-1.1084171304359852e-06   2.421975001867311e-06   -4.471290724411938e-05
-1.1084171304359852e-06   2.421975001867311e-06   -4.471290724411938e-05
-1.7772982559210493e-05   2.486185714408644e-06   -1.6977157957020006e-05
-1.7772982559210493e-05   2.486185714408644e-06   -1.6977157957020006e-05
-1.7772982559210493e-05   2.486185714408644e-06   -1.6977157957020006e-05
-1.7772982559210493e-05   2.486185714408644e-06   -1.6977157957020006e-05
-9.383022133767685e-06   1.800545868181863e-06   -3.0549041425021936e-05
-9.383022133767685e-06   1.800545868181863e-06   -3.0549041425021936e-05
-9.383022133767685e-06   1.800545868181863e-06   -3.0549041425021936e-05
-9.383022133767685e-06   1.800545868181863e-06   -3.0549041425021936e-05
-1.7772982559210493e-05   2.421975001867314e-06   -4.475143367164416e-05
-1.7772982559210493e-05   2.421975001867314e-06   -4.475143367164416e-05
-1.7772982559210493e-05   2.421975001867314e-06   -4.475143367164416e-05
-1.7772982559210493e-05   2.421975001867314e-06   -4.475143367164416e-05
-1.1084171304359852e-06   2.486185714408644e-06   -1.6938631529495046e-05
-1.1084171304359852e-06   2.486185714408644e-06   -1.6938631529495046e-05
-1.1084171304359852e-06   2.486185714408644e-06   -1.6938631529495046e-05
-1.1084171304359852e-06   2.486185714408644e-06   -1.6938631529495046e-05
-1.3004347186393085e-06   3.7230333957189343e-06   -4.528803535673728e-05
-1.3004347186393085e-06   3.7230333957189343e-06   -4.528803535673728e-05
-1.3004347186393085e-06   3.7230333957189343e-06   -4.528803535673728e-05
-1.3004347186393085e-06   3.7230333957189343e-06   -4.528803535673728e-05
-1.794988764858026e-05   3.6782088915653013e-06   -1.751205243767694e-05
-1.794988764858026e-05   3.6782088915653013e-06   -1.751205243767694e-05
-1.794988764858026e-05   3.6782088915653013e-06   -1.751205243767694e-05
-1.794988764858026e-05   3.6782088915653013e-06   -1.751205243767694e-05
-9.615178573699766e-06   2.8433081689237965e-06   -3.090229379555921e-05
-9.615178573699766e-06   2.8433081689237965e-06   -3.090229379555921e-05
-9.615178573699766e-06   2.8433081689237965e-06   -3.090229379555921e-05
-9.615178573699766e-06   2.8433081689237965e-06   -3.090229379555921e-05
-8.173670624281042e-07   -3.5803255267529906e-06   -4.021997592541893e-05
-8.173670624281042e-07   -3.5803255267529906e-06   -4.021997592541893e-05
-8.173670624281042e-07   -3.5803255267529906e-06   -4.021997592541893e-05
-8.173670624281042e-07   -3.5803255267529906e-06   -4.021997592541893e-05
1.5705206773019205e-05   -2.3988715372845883e-06   -1.1973480472659138e-05
1.5705206773019205e-05   -2.3988715372845883e-06   -1.1973480472659138e-05
1.5705206773019205e-05   -2.3988715372845883e-06   -1.1973480472659138e-05
1.5705206773019205e-05   -2.3988715372845883e-06   -1.1973480472659138e-05
1.5693909895806914e-05   -2.418646795021177e-06   -3.975600408253691e-05
1.5693909895806914e-05   -2.418646795021177e-06   -3.975600408253691e-05
1.5693909895806914e-05   -2.418646795021177e-06   -3.975600408253691e-05
1.5693909895806914e-05   -2.418646795021177e-06   -3.975600408253691e-05
-9.864814028476986e-07   -1.327409725591477e-06   -1.2610094159770385e-05
-9.864814028476986e-07   -1.327409725591477e-06   -1.2610094159770385e-05
-9.864814028476986e-07   -1.327409725591477e-06   -1.2610094159770385e-05
-9.864814028476986e-07   -1.327409725591477e-06   -1.2610094159770385e-05
7.342500027531209e-06   -2.3468113219348406e-06   -2.5880088919262554e-05
7.342500027531209e-06   -2.3468113219348406e-06   -2.5880088919262554e-05
7.342500027531209e-06   -2.3468113219348406e-06   -2.5880088919262554e-05
7.342500027531209e-06   -2.3468113219348406e-06   -2.5880088919262554e-05
-9.864814028476986e-07   -2.418646795021171e-06   -4.041074632419472e-05
-9.864814028476986e-07   -2.418646795021171e-06   -4.041074632419472e-05
-9.864814028476986e-07   -2.418646795021171e-06   -4.041074632419472e-05
-9.864814028476986e-07   -2.418646795021171e-06   -4.041074632419472e-05
1.569390989580694e-05   -1.327409725591477e-06   -1.1955351918112615e-05
1.569390989580694e-05   -1.327409725591477e-06   -1.1955351918112615e-05
1.569390989580694e-05   -1.327409725591477e-06   -1.1955351918112615e-05
1.569390989580694e-05   -1.327409725591477e-06   -1.1955351918112615e-05
1.576929074540877e-05   -1.2810066298687495e-06   -4.080623928575712e-05
1.576929074540877e-05   -1.2810066298687495e-06   -4.080623928575712e-05
1.576929074540877e-05   -1.2810066298687495e-06   -4.080623928575712e-05
1.576929074540877e-05   -1.2810066298687495e-06   -4.080623928575712e-05
-1.1084171304359877e-06   -2.7494824337469465e-07   -1.3280361191245683e-05
-1.1084171304359877e-06   -2.7494824337469465e-07   -1.3280361191245683e-05
-1.1084171304359877e-06   -2.7494824337469465e-07   -1.3280361191245683e-05
-1.1084171304359877e-06   -2.7494824337469465e-07   -1.3280361191245683e-05
7.117243034816303e-06   -1.4178440791240638e-06   -2.630405729854984e-05
7.117243034816303e-06   -1.4178440791240638e-06   -2.630405729854984e-05
7.117243034816303e-06   -1.4178440791240638e-06   -2.630405729854984e-05
7.117243034816303e-06   -1.4178440791240638e-06   -2.630405729854984e-05
-1.1084171304359852e-06   -1.2810066298687533e-06   -4.140987431765358e-05
-1.1084171304359852e-06   -1.2810066298687533e-06   -4.140987431765358e-05
-1.1084171304359852e-06   -1.2810066298687533e-06   -4.140987431765358e-05
-1.1084171304359852e-06   -1.2810066298687533e-06   -4.140987431765358e-05
1.5769290745408798e-05   -2.7494824337469465e-07   -1.2676726159349e-05
1.5769290745408798e-05   -2.7494824337469465e-07   -1.2676726159349e-05
1.5769290745408798e-05   -2.7494824337469465e-07   -1.2676726159349e-05
1.5769290745408798e-05   -2.7494824337469465e-07   -1.2676726159349e-05
1.564908918565544e-05   1.257626384462533e-07   -4.199806687179536e-05
1.564908918565544e-05   1.257626384462533e-07   -4.199806687179536e-05
1.564908918565544e-05   1.257626384462533e-07   -4.199806687179536e-05
1.564908918565544e-05   1.257626384462533e-07   -4.199806687179536e-05
-1.3004347186393104e-06   9.552123036677762e-07   -1.4246530163770512e-05
-1.3004347186393104e-06   9.552123036677762e-07   -1.4246530163770512e-05
-1.3004347186393104e-06   9.552123036677762e-07   -1.4246530163770512e-05
-1.3004347186393104e-06   9.552123036677762e-07   -1.4246530163770512e-05
7.038645820637824e-06   -4.2419854924042504e-07   -2.731735121748722e-05
7.038645820637824e-06   -4.2419854924042504e-07   -2.731735121748722e-05
7.038645820637824e-06   -4.2419854924042504e-07   -2.731735121748722e-05
7.038645820637824e-06   -4.2419854924042504e-07   -2.731735121748722e-05
1.570520677301917e-05   -6.6526211164980795e-06   -2.2497888424598007e-05
1.570520677301917e-05   -6.6526211164980795e-06   -2.2497888424598007e-05
1.570520677301917e-05   -6.6526211164980795e-06   -2.2497888424598007e-05
1.570520677301917e-05   -6.6526211164980795e-06   -2.2497888424598007e-05
3.116877759954419e-05   -4.347846621528069e-06   4.657594316592392e-06
3.116877759954419e-05   -4.347846621528069e-06   4.657594316592392e-06
3.116877759954419e-05   -4.347846621528069e-06   4.657594316592392e-06
3.116877759954419e-05   -4.347846621528069e-06   4.657594316592392e-06
3.222322289036721e-05   -6.033276207237273e-06   -2.5305324938711845e-05
3.222322289036721e-05   -6.033276207237273e-06   -2.5305324938711845e-05
3.222322289036721e-05   -6.033276207237273e-06   -2.5305324938711845e-05
3.222322289036721e-05   -6.033276207237273e-06   -2.5305324938711845e-05
1.5693909895806914e-05   -3.7296879364344393e-06   8.613770897403374e-07
1.5693909895806914e-05   -3.7296879364344393e-06   8.613770897403374e-07
1.5693909895806914e-05   -3.7296879364344393e-06   8.613770897403374e-07
1.5693909895806914e-05   -3.7296879364344393e-06   8.613770897403374e-07
2.2685036764796066e-05   -5.129206682248232e-06   -9.950789777753285e-06
2.2685036764796066e-05   -5.129206682248232e-06   -9.950789777753285e-06
2.2685036764796066e-05   -5.129206682248232e-06   -9.950789777753285e-06
2.2685036764796066e-05   -5.129206682248232e-06   -9.950789777753285e-06
1.5693909895806907e-05   -6.033276207237275e-06   -2.6687477901193483e-05
1.5693909895806907e-05   -6.033276207237275e-06   -2.6687477901193483e-05
1.5693909895806907e-05   -6.033276207237275e-06   -2.6687477901193483e-05
1.5693909895806907e-05   -6.033276207237275e-06   -2.6687477901193483e-05
3.222322289036721e-05   -3.729687936434385e-06   2.2435300522220293e-06
3.222322289036721e-05   -3.729687936434385e-06   2.2435300522220293e-06
3.222322289036721e-05   -3.729687936434385e-06   2.2435300522220293e-06
3.222322289036721e-05   -3.729687936434385e-06   2.2435300522220293e-06
3.303440325529386e-05   -5.378647454886337e-06   -2.853831338299445e-05
3.303440325529386e-05   -5.378647454886337e-06   -2.853831338299445e-05
3.303440325529386e-05   -5.378647454886337e-06   -2.853831338299445e-05
3.303440325529386e-05   -5.378647454886337e-06   -2.853831338299445e-05
1.576929074540875e-05   -3.2003646209380126e-06   -1.070095566888294e-06
1.576929074540875e-05   -3.2003646209380126e-06   -1.070095566888294e-06
1.576929074540875e-05   -3.2003646209380126e-06   -1.070095566888294e-06
1.576929074540875e-05   -3.2003646209380126e-06   -1.070095566888294e-06
2.345772394540118e-05   -4.730456315481593e-06   -1.2966095883482846e-05
2.345772394540118e-05   -4.730456315481593e-06   -1.2966095883482846e-05
2.345772394540118e-05   -4.730456315481593e-06   -1.2966095883482846e-05
2.345772394540118e-05   -4.730456315481593e-06   -1.2966095883482846e-05
1.576929074540877e-05   -5.378647454886329e-06   -2.9845283083363387e-05
1.576929074540877e-05   -5.378647454886329e-06   -2.9845283083363387e-05
1.576929074540877e-05   -5.378647454886329e-06   -2.9845283083363387e-05
1.576929074540877e-05   -5.378647454886329e-06   -2.9845283083363387e-05
3.3034403255293804e-05   -3.2003646209380126e-06   2.3687413348090665e-07
3.3034403255293804e-05   -3.2003646209380126e-06   2.3687413348090665e-07
3.3034403255293804e-05   -3.2003646209380126e-06   2.3687413348090665e-07
3.3034403255293804e-05   -3.2003646209380126e-06   2.3687413348090665e-07
3.389944023041803e-05   -3.9700909111577566e-06   -3.404068951822685e-05
3.389944023041803e-05   -3.9700909111577566e-06   -3.404068951822685e-05
3.389944023041803e-05   -3.9700909111577566e-06   -3.404068951822685e-05
3.389944023041803e-05   -3.9700909111577566e-06   -3.404068951822685e-05
1.564908918565537e-05   -2.0703281485090833e-06   -4.763295434544919e-06
1.564908918565537e-05   -2.0703281485090833e-06   -4.763295434544919e-06
1.564908918565537e-05   -2.0703281485090833e-06   -4.763295434544919e-06
1.564908918565537e-05   -2.0703281485090833e-06   -4.763295434544919e-06
2.3359644329017242e-05   -4.074093548473942e-06   -1.6411961433502367e-05
2.3359644329017242e-05   -4.074093548473942e-06   -1.6411961433502367e-05
2.3359644329017242e-05   -4.074093548473942e-06   -1.6411961433502367e-05
2.3359644329017242e-05   -4.074093548473942e-06   -1.6411961433502367e-05
-3.747384069807729e-05   5.745292388467085e-06   -2.8528358552539976e-05
-3.747384069807729e-05   5.745292388467085e-06   -2.8528358552539976e-05
-3.747384069807729e-05   5.745292388467085e-06   -2.8528358552539976e-05
-3.747384069807729e-05   5.745292388467085e-06   -2.8528358552539976e-05
-2.5527062245115083e-05   3.65207570335454e-06   -9.872991142003848e-06
-2.5527062245115083e-05   3.65207570335454e-06   -9.872991142003848e-06
-2.5527062245115083e-05   3.65207570335454e-06   -9.872991142003848e-06
-2.5527062245115083e-05   3.65207570335454e-06   -9.872991142003848e-06
-2.5433921213982265e-05   6.9516630866798515e-06   -2.4236556516393478e-05
-2.5433921213982265e-05   6.9516630866798515e-06   -2.4236556516393478e-05
-2.5433921213982265e-05   6.9516630866798515e-06   -2.4236556516393478e-05
-2.5433921213982265e-05   6.9516630866798515e-06   -2.4236556516393478e-05
-3.635032337489437e-05   4.650013582768839e-06   -4.661563212526626e-06
-3.635032337489437e-05   4.650013582768839e-06   -4.661563212526626e-06
-3.635032337489437e-05   4.650013582768839e-06   -4.661563212526626e-06
-3.635032337489437e-05   4.650013582768839e-06   -4.661563212526626e-06
-2.987272351099431e-05   5.532875420374904e-06   -1.5987280088257025e-05
-2.987272351099431e-05   5.532875420374904e-06   -1.5987280088257025e-05
-2.987272351099431e-05   5.532875420374904e-06   -1.5987280088257025e-05
-2.987272351099431e-05   5.532875420374904e-06   -1.5987280088257025e-05
-3.635032337489437e-05   6.951663086679841e-06   -2.2855566814046827e-05
-3.635032337489437e-05   6.951663086679841e-06   -2.2855566814046827e-05
-3.635032337489437e-05   6.951663086679841e-06   -2.2855566814046827e-05
-3.635032337489437e-05   6.951663086679841e-06   -2.2855566814046827e-05
-2.5433921213982293e-05   4.650013582768839e-06   -6.042552914873187e-06
-2.5433921213982293e-05   4.650013582768839e-06   -6.042552914873187e-06
-2.5433921213982293e-05   4.650013582768839e-06   -6.042552914873187e-06
-2.5433921213982293e-05   4.650013582768839e-06   -6.042552914873187e-06
-2.52408868557491e-05   7.481957244972245e-06   -2.11343833396207e-05
-2.52408868557491e-05   7.481957244972245e-06   -2.11343833396207e-05
-2.52408868557491e-05   7.481957244972245e-06   -2.11343833396207e-05
-2.52408868557491e-05   7.481957244972245e-06   -2.11343833396207e-05
-3.551094300599638e-05   5.115386373706664e-06   -2.5976805664491864e-06
-3.551094300599638e-05   5.115386373706664e-06   -2.5976805664491864e-06
-3.551094300599638e-05   5.115386373706664e-06   -2.5976805664491864e-06
-3.551094300599638e-05   5.115386373706664e-06   -2.5976805664491864e-06
-2.987352857658277e-05   6.089806009128285e-06   -1.2578023063391597e-05
-2.987352857658277e-05   6.089806009128285e-06   -1.2578023063391597e-05
-2.987352857658277e-05   6.089806009128285e-06   -1.2578023063391597e-05
-2.987352857658277e-05   6.089806009128285e-06   -1.2578023063391597e-05
-3.551094300599639e-05   7.4819572449722465e-06   -1.971444081686136e-05
-3.551094300599639e-05   7.4819572449722465e-06   -1.971444081686136e-05
-3.551094300599639e-05   7.4819572449722465e-06   -1.971444081686136e-05
-3.551094300599639e-05   7.4819572449722465e-06   -1.971444081686136e-05
-2.5240886855749153e-05   5.1153863737067725e-06   -4.017623089208353e-06
-2.5240886855749153e-05   5.1153863737067725e-06   -4.017623089208353e-06
-2.5240886855749153e-05   5.1153863737067725e-06   -4.017623089208353e-06
-2.5240886855749153e-05   5.1153863737067725e-06   -4.017623089208353e-06
-2.5163927431259722e-05   8.004801392753197e-06   -1.6841691847186606e-05
-2.5163927431259722e-05   8.004801392753197e-06   -1.6841691847186606e-05
-2.5163927431259722e-05   8.004801392753197e-06   -1.6841691847186606e-05
-2.5163927431259722e-05   8.004801392753197e-06   -1.6841691847186606e-05
-3.441324030600032e-05   5.7012113570118535e-06   -4.401636784082726e-08
-3.441324030600032e-05   5.7012113570118535e-06   -4.401636784082726e-08
-3.441324030600032e-05   5.7012113570118535e-06   -4.401636784082726e-08
-3.441324030600032e-05   5.7012113570118535e-06   -4.401636784082726e-08
-2.8989243322761987e-05   6.392359305074872e-06   -9.498700108742447e-06
-2.8989243322761987e-05   6.392359305074872e-06   -9.498700108742447e-06
-2.8989243322761987e-05   6.392359305074872e-06   -9.498700108742447e-06
-2.8989243322761987e-05   6.392359305074872e-06   -9.498700108742447e-06
-2.552706224511503e-05   2.865832721917262e-06   -3.637756187874409e-05
-2.552706224511503e-05   2.865832721917262e-06   -3.637756187874409e-05
-2.552706224511503e-05   2.865832721917262e-06   -3.637756187874409e-05
-2.552706224511503e-05   2.865832721917262e-06   -3.637756187874409e-05
-1.469491277907378e-05   1.8899969625817527e-06   -1.890948089094331e-05
-1.469491277907378e-05   1.8899969625817527e-06   -1.890948089094331e-05
-1.469491277907378e-05   1.8899969625817527e-06   -1.890948089094331e-05
-1.469491277907378e-05   1.8899969625817527e-06   -1.890948089094331e-05
-1.4702159557883801e-05   4.0525131534699605e-06   -3.6064202517900655e-05
-1.4702159557883801e-05   4.0525131534699605e-06   -3.6064202517900655e-05
-1.4702159557883801e-05   4.0525131534699605e-06   -3.6064202517900655e-05
-1.4702159557883801e-05   4.0525131534699605e-06   -3.6064202517900655e-05
-2.5433921213982252e-05   2.9438283410361055e-06   -1.7512722203609488e-05
-2.5433921213982252e-05   2.9438283410361055e-06   -1.7512722203609488e-05
-2.5433921213982252e-05   2.9438283410361055e-06   -1.7512722203609488e-05
-2.5433921213982252e-05   2.9438283410361055e-06   -1.7512722203609488e-05
-1.9904201996137086e-05   3.1358365568344686e-06   -2.68441258294972e-05
-1.9904201996137086e-05   3.1358365568344686e-06   -2.68441258294972e-05
-1.9904201996137086e-05   3.1358365568344686e-06   -2.68441258294972e-05
-1.9904201996137086e-05   3.1358365568344686e-06   -2.68441258294972e-05
-2.543392121398224e-05   4.052513153469985e-06   -3.539899163044016e-05
-2.543392121398224e-05   4.052513153469985e-06   -3.539899163044016e-05
-2.543392121398224e-05   4.052513153469985e-06   -3.539899163044016e-05
-2.543392121398224e-05   4.052513153469985e-06   -3.539899163044016e-05
-1.4702159557883747e-05   2.943828341035997e-06   -1.8177933091069823e-05
-1.4702159557883747e-05   2.943828341035997e-06   -1.8177933091069823e-05
-1.4702159557883747e-05   2.943828341035997e-06   -1.8177933091069823e-05
-1.4702159557883747e-05   2.943828341035997e-06   -1.8177933091069823e-05
-1.4691435363489589e-05   5.107118383932449e-06   -3.525598046996237e-05
-1.4691435363489589e-05   5.107118383932449e-06   -3.525598046996237e-05
-1.4691435363489589e-05   5.107118383932449e-06   -3.525598046996237e-05
-1.4691435363489589e-05   5.107118383932449e-06   -3.525598046996237e-05
-2.5240886855749105e-05   3.903151707242993e-06   -1.6951181310182817e-05
-2.5240886855749105e-05   3.903151707242993e-06   -1.6951181310182817e-05
-2.5240886855749105e-05   3.903151707242993e-06   -1.6951181310182817e-05
-2.5240886855749105e-05   3.903151707242993e-06   -1.6951181310182817e-05
-1.9811636353081205e-05   4.001653025614274e-06   -2.6059032938985187e-05
-1.9811636353081205e-05   4.001653025614274e-06   -2.6059032938985187e-05
-1.9811636353081205e-05   4.001653025614274e-06   -2.6059032938985187e-05
-1.9811636353081205e-05   4.001653025614274e-06   -2.6059032938985187e-05
-2.52408868557491e-05   5.10711838393243e-06   -3.453360046394864e-05
-2.52408868557491e-05   5.10711838393243e-06   -3.453360046394864e-05
-2.52408868557491e-05   5.10711838393243e-06   -3.453360046394864e-05
-2.52408868557491e-05   5.10711838393243e-06   -3.453360046394864e-05
-1.4691435363489589e-05   3.903151707242993e-06   -1.7673561316196382e-05
-1.4691435363489589e-05   3.903151707242993e-06   -1.7673561316196382e-05
-1.4691435363489589e-05   3.903151707242993e-06   -1.7673561316196382e-05
-1.4691435363489589e-05   3.903151707242993e-06   -1.7673561316196382e-05
-1.4703404965153179e-05   6.2293135579860105e-06   -3.539822772737658e-05
-1.4703404965153179e-05   6.2293135579860105e-06   -3.539822772737658e-05
-1.4703404965153179e-05   6.2293135579860105e-06   -3.539822772737658e-05
-1.4703404965153179e-05   6.2293135579860105e-06   -3.539822772737658e-05
-2.516392743125969e-05   4.945598381827718e-06   -1.7193794511503988e-05
-2.516392743125969e-05   4.945598381827718e-06   -1.7193794511503988e-05
-2.516392743125969e-05   4.945598381827718e-06   -1.7193794511503988e-05
-2.516392743125969e-05   4.945598381827718e-06   -1.7193794511503988e-05
-1.994008090963515e-05   4.858623804724943e-06   -2.58480206346166e-05
-1.994008090963515e-05   4.858623804724943e-06   -2.58480206346166e-05
-1.994008090963515e-05   4.858623804724943e-06   -2.58480206346166e-05
-1.994008090963515e-05   4.858623804724943e-06   -2.58480206346166e-05
-1.4694912779073793e-05   1.5278380578818711e-07   -4.015403515680491e-05
-1.4694912779073793e-05   1.5278380578818711e-07   -4.015403515680491e-05
-1.4694912779073793e-05   1.5278380578818711e-07   -4.015403515680491e-05
-1.4694912779073793e-05   1.5278380578818711e-07   -4.015403515680491e-05
-4.011562768597199e-06   3.2655182585479645e-07   -2.2244190993970625e-05
-4.011562768597199e-06   3.2655182585479645e-07   -2.2244190993970625e-05
-4.011562768597199e-06   3.2655182585479645e-07   -2.2244190993970625e-05
-4.011562768597199e-06   3.2655182585479645e-07   -2.2244190993970625e-05
-4.019362172255928e-06   1.3212098543486164e-06   -3.970935358701971e-05
-4.019362172255928e-06   1.3212098543486164e-06   -3.970935358701971e-05
-4.019362172255928e-06   1.3212098543486164e-06   -3.970935358701971e-05
-4.019362172255928e-06   1.3212098543486164e-06   -3.970935358701971e-05
-1.4702159557883745e-05   1.3865273944357707e-06   -2.1943881801692202e-05
-1.4702159557883745e-05   1.3865273944357707e-06   -2.1943881801692202e-05
-1.4702159557883745e-05   1.3865273944357707e-06   -2.1943881801692202e-05
-1.4702159557883745e-05   1.3865273944357707e-06   -2.1943881801692202e-05
-9.294739501516056e-06   9.342370989206443e-07   -3.068487438499592e-05
-9.294739501516056e-06   9.342370989206443e-07   -3.068487438499592e-05
-9.294739501516056e-06   9.342370989206443e-07   -3.068487438499592e-05
-9.294739501516056e-06   9.342370989206443e-07   -3.068487438499592e-05
-1.4702159557883767e-05   1.3212098543486401e-06   -3.974854411107194e-05
-1.4702159557883767e-05   1.3212098543486401e-06   -3.974854411107194e-05
-1.4702159557883767e-05   1.3212098543486401e-06   -3.974854411107194e-05
-1.4702159557883767e-05   1.3212098543486401e-06   -3.974854411107194e-05
-4.019362172255928e-06   1.3865273944357707e-06   -2.1904691277639947e-05
-4.019362172255928e-06   1.3865273944357707e-06   -2.1904691277639947e-05
-4.019362172255928e-06   1.3865273944357707e-06   -2.1904691277639947e-05
-4.019362172255928e-06   1.3865273944357707e-06   -2.1904691277639947e-05
-4.005403813454287e-06   2.486185714408644e-06   -3.980986816026392e-05
-4.005403813454287e-06   2.486185714408644e-06   -3.980986816026392e-05
-4.005403813454287e-06   2.486185714408644e-06   -3.980986816026392e-05
-4.005403813454287e-06   2.486185714408644e-06   -3.980986816026392e-05
-1.4691435363489589e-05   2.449898265820846e-06   -2.1978043107719053e-05
-1.4691435363489589e-05   2.449898265820846e-06   -2.1978043107719053e-05
-1.4691435363489589e-05   2.449898265820846e-06   -2.1978043107719053e-05
-1.4691435363489589e-05   2.449898265820846e-06   -2.1978043107719053e-05
-9.357071838407617e-06   1.8617337232147008e-06   -3.0515750257291997e-05
-9.357071838407617e-06   1.8617337232147008e-06   -3.0515750257291997e-05
-9.357071838407617e-06   1.8617337232147008e-06   -3.0515750257291997e-05
-9.357071838407617e-06   1.8617337232147008e-06   -3.0515750257291997e-05
-1.4691435363489589e-05   2.486185714408628e-06   -3.978809569111125e-05
-1.4691435363489589e-05   2.486185714408628e-06   -3.978809569111125e-05
-1.4691435363489589e-05   2.486185714408628e-06   -3.978809569111125e-05
-1.4691435363489589e-05   2.486185714408628e-06   -3.978809569111125e-05
-4.005403813454287e-06   2.449898265820846e-06   -2.199981557687164e-05
-4.005403813454287e-06   2.449898265820846e-06   -2.199981557687164e-05
-4.005403813454287e-06   2.449898265820846e-06   -2.199981557687164e-05
-4.005403813454287e-06   2.449898265820846e-06   -2.199981557687164e-05
-4.011749798852215e-06   3.6782088915653013e-06   -4.041178904050092e-05
-4.011749798852215e-06   3.6782088915653013e-06   -4.041178904050092e-05
-4.011749798852215e-06   3.6782088915653013e-06   -4.041178904050092e-05
-4.011749798852215e-06   3.6782088915653013e-06   -4.041178904050092e-05
-1.4703404965153184e-05   3.5318608772042437e-06   -2.2504554954715848e-05
-1.4703404965153184e-05   3.5318608772042437e-06   -2.2504554954715848e-05
-1.4703404965153184e-05   3.5318608772042437e-06   -2.2504554954715848e-05
-1.4703404965153184e-05   3.5318608772042437e-06   -2.2504554954715848e-05
-9.437618765362544e-06   2.8014144679168853e-06   -3.0842597442127895e-05
-9.437618765362544e-06   2.8014144679168853e-06   -3.0842597442127895e-05
-9.437618765362544e-06   2.8014144679168853e-06   -3.0842597442127895e-05
-9.437618765362544e-06   2.8014144679168853e-06   -3.0842597442127895e-05
-4.011562768597192e-06   -2.3988715372845675e-06   -3.555325791706896e-05
-4.011562768597192e-06   -2.3988715372845675e-06   -3.555325791706896e-05
-4.011562768597192e-06   -2.3988715372845675e-06   -3.555325791706896e-05
-4.011562768597192e-06   -2.3988715372845675e-06   -3.555325791706896e-05
6.51361986161814e-06   -1.1029633944238107e-06   -1.723374198099359e-05
6.51361986161814e-06   -1.1029633944238107e-06   -1.723374198099359e-05
6.51361986161814e-06   -1.1029633944238107e-06   -1.723374198099359e-05
6.51361986161814e-06   -1.1029633944238107e-06   -1.723374198099359e-05
6.599460776302363e-06   -1.327409725591477e-06   -3.474307941485485e-05
6.599460776302363e-06   -1.327409725591477e-06   -3.474307941485485e-05
6.599460776302363e-06   -1.327409725591477e-06   -3.474307941485485e-05
6.599460776302363e-06   -1.327409725591477e-06   -3.474307941485485e-05
-4.019362172255921e-06   -1.041433086803635e-07   -1.7779001017404365e-05
-4.019362172255921e-06   -1.041433086803635e-07   -1.7779001017404365e-05
-4.019362172255921e-06   -1.041433086803635e-07   -1.7779001017404365e-05
-4.019362172255921e-06   -1.041433086803635e-07   -1.7779001017404365e-05
1.2770863462980546e-06   -1.1411511641637277e-06   -2.5984210501704318e-05
1.2770863462980546e-06   -1.1411511641637277e-06   -2.5984210501704318e-05
1.2770863462980546e-06   -1.1411511641637277e-06   -2.5984210501704318e-05
1.2770863462980546e-06   -1.1411511641637277e-06   -2.5984210501704318e-05
-4.019362172255928e-06   -1.3274097255914924e-06   -3.5477039265001474e-05
-4.019362172255928e-06   -1.3274097255914924e-06   -3.5477039265001474e-05
-4.019362172255928e-06   -1.3274097255914924e-06   -3.5477039265001474e-05
-4.019362172255928e-06   -1.3274097255914924e-06   -3.5477039265001474e-05
6.599460776302363e-06   -1.0414330868047193e-07   -1.7045041167257683e-05
6.599460776302363e-06   -1.0414330868047193e-07   -1.7045041167257683e-05
6.599460776302363e-06   -1.0414330868047193e-07   -1.7045041167257683e-05
6.599460776302363e-06   -1.0414330868047193e-07   -1.7045041167257683e-05
6.802456706307016e-06   -2.7494824337469465e-07   -3.547281301230493e-05
6.802456706307016e-06   -2.7494824337469465e-07   -3.547281301230493e-05
6.802456706307016e-06   -2.7494824337469465e-07   -3.547281301230493e-05
6.802456706307016e-06   -2.7494824337469465e-07   -3.547281301230493e-05
-4.00540381345428e-06   8.563597728077164e-07   -1.8138496955745498e-05
-4.00540381345428e-06   8.563597728077164e-07   -1.8138496955745498e-05
-4.00540381345428e-06   8.563597728077164e-07   -1.8138496955745498e-05
-4.00540381345428e-06   8.563597728077164e-07   -1.8138496955745498e-05
1.2160439191563683e-06   -3.1014780759938687e-07   -2.614100529518569e-05
1.2160439191563683e-06   -3.1014780759938687e-07   -2.614100529518569e-05
1.2160439191563683e-06   -3.1014780759938687e-07   -2.614100529518569e-05
1.2160439191563683e-06   -3.1014780759938687e-07   -2.614100529518569e-05
-4.005403813454287e-06   -2.749482433746851e-07   -3.6151597822014386e-05
-4.005403813454287e-06   -2.749482433746851e-07   -3.6151597822014386e-05
-4.005403813454287e-06   -2.749482433746851e-07   -3.6151597822014386e-05
-4.005403813454287e-06   -2.749482433746851e-07   -3.6151597822014386e-05
6.80245670630703e-06   8.563597728077164e-07   -1.7459712146035986e-05
6.80245670630703e-06   8.563597728077164e-07   -1.7459712146035986e-05
6.80245670630703e-06   8.563597728077164e-07   -1.7459712146035986e-05
6.80245670630703e-06   8.563597728077164e-07   -1.7459712146035986e-05
6.901980308449536e-06   9.552123036678305e-07   -3.6518427410555385e-05
6.901980308449536e-06   9.552123036678305e-07   -3.6518427410555385e-05
6.901980308449536e-06   9.552123036678305e-07   -3.6518427410555385e-05
6.901980308449536e-06   9.552123036678305e-07   -3.6518427410555385e-05
-4.011749798852215e-06   1.956786726245896e-06   -1.8929821885265867e-05
-4.011749798852215e-06   1.956786726245896e-06   -1.8929821885265867e-05
-4.011749798852215e-06   1.956786726245896e-06   -1.8929821885265867e-05
-4.011749798852215e-06   1.956786726245896e-06   -1.8929821885265867e-05
1.252506054750705e-06   5.78280130659331e-07   -2.687647768391888e-05
1.252506054750705e-06   5.78280130659331e-07   -2.687647768391888e-05
1.252506054750705e-06   5.78280130659331e-07   -2.687647768391888e-05
1.252506054750705e-06   5.78280130659331e-07   -2.687647768391888e-05
6.51361986161814e-06   -4.347846621528043e-06   -1.952750293908299e-05
6.51361986161814e-06   -4.347846621528043e-06   -1.952750293908299e-05
6.51361986161814e-06   -4.347846621528043e-06   -1.952750293908299e-05
6.51361986161814e-06   -4.347846621528043e-06   -1.952750293908299e-05
1.5851278065121704e-05   -2.024315412704628e-06   -2.5706205412828797e-06
1.5851278065121704e-05   -2.024315412704628e-06   -2.5706205412828797e-06
1.5851278065121704e-05   -2.024315412704628e-06   -2.5706205412828797e-06
1.5851278065121704e-05   -2.024315412704628e-06   -2.5706205412828797e-06
1.696399838207186e-05   -3.7296879364344393e-06   -2.049688080496735e-05
1.696399838207186e-05   -3.7296879364344393e-06   -2.049688080496735e-05
1.696399838207186e-05   -3.7296879364344393e-06   -2.049688080496735e-05
1.696399838207186e-05   -3.7296879364344393e-06   -2.049688080496735e-05
6.59946077630237e-06   -1.347238599710152e-06   -4.6521210640528075e-06
6.59946077630237e-06   -1.347238599710152e-06   -4.6521210640528075e-06
6.59946077630237e-06   -1.347238599710152e-06   -4.6521210640528075e-06
6.59946077630237e-06   -1.347238599710152e-06   -4.6521210640528075e-06
1.0992502138965488e-05   -2.77350721477514e-06   -1.1118095499452324e-05
1.0992502138965488e-05   -2.77350721477514e-06   -1.1118095499452324e-05
1.0992502138965488e-05   -2.77350721477514e-06   -1.1118095499452324e-05
1.0992502138965488e-05   -2.77350721477514e-06   -1.1118095499452324e-05
6.599460776302363e-06   -3.729687936434453e-06   -2.192635040700172e-05
6.599460776302363e-06   -3.729687936434453e-06   -2.192635040700172e-05
6.599460776302363e-06   -3.729687936434453e-06   -2.192635040700172e-05
6.599460776302363e-06   -3.729687936434453e-06   -2.192635040700172e-05
1.696399838207186e-05   -1.347238599710152e-06   -3.222651462018219e-06
1.696399838207186e-05   -1.347238599710152e-06   -3.222651462018219e-06
1.696399838207186e-05   -1.347238599710152e-06   -3.222651462018219e-06
1.696399838207186e-05   -1.347238599710152e-06   -3.222651462018219e-06
1.7820935991820876e-05   -3.2003646209380126e-06   -2.247414388452924e-05
1.7820935991820876e-05   -3.2003646209380126e-06   -2.247414388452924e-05
1.7820935991820876e-05   -3.2003646209380126e-06   -2.247414388452924e-05
1.7820935991820876e-05   -3.2003646209380126e-06   -2.247414388452924e-05
6.802456706307029e-06   -8.803003954133831e-07   -5.502050277320883e-06
6.802456706307029e-06   -8.803003954133831e-07   -5.502050277320883e-06
6.802456706307029e-06   -8.803003954133831e-07   -5.502050277320883e-06
6.802456706307029e-06   -8.803003954133831e-07   -5.502050277320883e-06
1.1671665511574769e-05   -2.425596197495796e-06   -1.269022080485109e-05
1.1671665511574769e-05   -2.425596197495796e-06   -1.269022080485109e-05
1.1671665511574769e-05   -2.425596197495796e-06   -1.269022080485109e-05
1.1671665511574769e-05   -2.425596197495796e-06   -1.269022080485109e-05
6.802456706307016e-06   -3.2003646209380232e-06   -2.3866182419844033e-05
6.802456706307016e-06   -3.2003646209380232e-06   -2.3866182419844033e-05
6.802456706307016e-06   -3.2003646209380232e-06   -2.3866182419844033e-05
6.802456706307016e-06   -3.2003646209380232e-06   -2.3866182419844033e-05
1.7820935991820822e-05   -8.803003954133831e-07   -4.110011742006008e-06
1.7820935991820822e-05   -8.803003954133831e-07   -4.110011742006008e-06
1.7820935991820822e-05   -8.803003954133831e-07   -4.110011742006008e-06
1.7820935991820822e-05   -8.803003954133831e-07   -4.110011742006008e-06
1.8960410648190062e-05   -2.0703281485091375e-06   -2.6268649007131836e-05
1.8960410648190062e-05   -2.0703281485091375e-06   -2.6268649007131836e-05
1.8960410648190062e-05   -2.0703281485091375e-06   -2.6268649007131836e-05
1.8960410648190062e-05   -2.0703281485091375e-06   -2.6268649007131836e-05
6.901980308449556e-06   3.669430704287321e-08   -7.435478580895195e-06
6.901980308449556e-06   3.669430704287321e-08   -7.435478580895195e-06
6.901980308449556e-06   3.669430704287321e-08   -7.435478580895195e-06
6.901980308449556e-06   3.669430704287321e-08   -7.435478580895195e-06
1.1899331785791169e-05   -1.909341064526039e-06   -1.4596776486856767e-05
1.1899331785791169e-05   -1.909341064526039e-06   -1.4596776486856767e-05
1.1899331785791169e-05   -1.909341064526039e-06   -1.4596776486856767e-05
1.1899331785791169e-05   -1.909341064526039e-06   -1.4596776486856767e-05
-2.2657656065811226e-05   3.65207570335449e-06   -2.1251571457885858e-05
-2.2657656065811226e-05   3.65207570335449e-06   -2.1251571457885858e-05
-2.2657656065811226e-05   3.65207570335449e-06   -2.1251571457885858e-05
-2.2657656065811226e-05   3.65207570335449e-06   -2.1251571457885858e-05
-1.6746425719040632e-05   1.4852214736197885e-06   -1.269963341777569e-05
-1.6746425719040632e-05   1.4852214736197885e-06   -1.269963341777569e-05
-1.6746425719040632e-05   1.4852214736197885e-06   -1.269963341777569e-05
-1.6746425719040632e-05   1.4852214736197885e-06   -1.269963341777569e-05
-1.650103523942776e-05   4.650013582768839e-06   -1.8747833443682614e-05
-1.650103523942776e-05   4.650013582768839e-06   -1.8747833443682614e-05
-1.650103523942776e-05   4.650013582768839e-06   -1.8747833443682614e-05
-1.650103523942776e-05   4.650013582768839e-06   -1.8747833443682614e-05
-2.1424470162125883e-05   2.315019162763194e-06   -9.141111920515552e-06
-2.1424470162125883e-05   2.315019162763194e-06   -9.141111920515552e-06
-2.1424470162125883e-05   2.315019162763194e-06   -9.141111920515552e-06
-2.1424470162125883e-05   2.315019162763194e-06   -9.141111920515552e-06
-1.851337635360912e-05   3.2764671576458737e-06   -1.4569803731640679e-05
-1.851337635360912e-05   3.2764671576458737e-06   -1.4569803731640679e-05
-1.851337635360912e-05   3.2764671576458737e-06   -1.4569803731640679e-05
-1.851337635360912e-05   3.2764671576458737e-06   -1.4569803731640679e-05
-2.1424470162125897e-05   4.6500135827688195e-06   -1.734683679167925e-05
-2.1424470162125897e-05   4.6500135827688195e-06   -1.734683679167925e-05
-2.1424470162125897e-05   4.6500135827688195e-06   -1.734683679167925e-05
-2.1424470162125897e-05   4.6500135827688195e-06   -1.734683679167925e-05
-1.6501035239427787e-05   2.3150191627633026e-06   -1.0542108572519026e-05
-1.6501035239427787e-05   2.3150191627633026e-06   -1.0542108572519026e-05
-1.6501035239427787e-05   2.3150191627633026e-06   -1.0542108572519026e-05
-1.6501035239427787e-05   2.3150191627633026e-06   -1.0542108572519026e-05
-1.615052416099446e-05   5.115386373706664e-06   -1.674041269174168e-05
-1.615052416099446e-05   5.115386373706664e-06   -1.674041269174168e-05
-1.615052416099446e-05   5.115386373706664e-06   -1.674041269174168e-05
-1.615052416099446e-05   5.115386373706664e-06   -1.674041269174168e-05
-2.044162433431458e-05   2.734797588707324e-06   -8.160225798541922e-06
-2.044162433431458e-05   2.734797588707324e-06   -8.160225798541922e-06
-2.044162433431458e-05   2.734797588707324e-06   -8.160225798541922e-06
-2.044162433431458e-05   2.734797588707324e-06   -8.160225798541922e-06
-1.8188593628153608e-05   3.724432468722922e-06   -1.2509057903486325e-05
-1.8188593628153608e-05   3.724432468722922e-06   -1.2509057903486325e-05
-1.8188593628153608e-05   3.724432468722922e-06   -1.2509057903486325e-05
-1.8188593628153608e-05   3.724432468722922e-06   -1.2509057903486325e-05
-2.0441624334314556e-05   5.115386373706688e-06   -1.5312059420742163e-05
-2.0441624334314556e-05   5.115386373706688e-06   -1.5312059420742163e-05
-2.0441624334314556e-05   5.115386373706688e-06   -1.5312059420742163e-05
-2.0441624334314556e-05   5.115386373706688e-06   -1.5312059420742163e-05
-1.6150524160994515e-05   2.734797588707324e-06   -9.588579069541548e-06
-1.6150524160994515e-05   2.734797588707324e-06   -9.588579069541548e-06
-1.6150524160994515e-05   2.734797588707324e-06   -9.588579069541548e-06
-1.6150524160994515e-05   2.734797588707324e-06   -9.588579069541548e-06
-1.5912464668024984e-05   5.701211357011745e-06   -1.4166291237429382e-05
-1.5912464668024984e-05   5.701211357011745e-06   -1.4166291237429382e-05
-1.5912464668024984e-05   5.701211357011745e-06   -1.4166291237429382e-05
-1.5912464668024984e-05   5.701211357011745e-06   -1.4166291237429382e-05
-1.9190311919654623e-05   3.4000028938318497e-06   -7.322487406805382e-06
-1.9190311919654623e-05   3.4000028938318497e-06   -7.322487406805382e-06
-1.9190311919654623e-05   3.4000028938318497e-06   -7.322487406805382e-06
-1.9190311919654623e-05   3.4000028938318497e-06   -7.322487406805382e-06
-1.733922424305709e-05   4.035827190029145e-06   -1.078912811218626e-05
-1.733922424305709e-05   4.035827190029145e-06   -1.078912811218626e-05
-1.733922424305709e-05   4.035827190029145e-06   -1.078912811218626e-05
-1.733922424305709e-05   4.035827190029145e-06   -1.078912811218626e-05
-1.6746425719040632e-05   1.8899969625817038e-06   -3.1002672289064885e-05
-1.6746425719040632e-05   1.8899969625817038e-06   -3.1002672289064885e-05
-1.6746425719040632e-05   1.8899969625817038e-06   -3.1002672289064885e-05
-1.6746425719040632e-05   1.8899969625817038e-06   -3.1002672289064885e-05
-1.1941431565353467e-05   8.555123955320551e-07   -2.361503943981621e-05
-1.1941431565353467e-05   8.555123955320551e-07   -2.361503943981621e-05
-1.1941431565353467e-05   8.555123955320551e-07   -2.361503943981621e-05
-1.1941431565353467e-05   8.555123955320551e-07   -2.361503943981621e-05
-1.1781393085528484e-05   2.943828341035997e-06   -3.0899925614812584e-05
-1.1781393085528484e-05   2.943828341035997e-06   -3.0899925614812584e-05
-1.1781393085528484e-05   2.943828341035997e-06   -3.0899925614812584e-05
-1.1781393085528484e-05   2.943828341035997e-06   -3.0899925614812584e-05
-1.6501035239427824e-05   1.8072902037134277e-06   -2.2351932475919928e-05
-1.6501035239427824e-05   1.8072902037134277e-06   -2.2351932475919928e-05
-1.6501035239427824e-05   1.8072902037134277e-06   -2.2351932475919928e-05
-1.6501035239427824e-05   1.8072902037134277e-06   -2.2351932475919928e-05
-1.4103694401893578e-05   2.0574932125992044e-06   -2.6497622343809083e-05
-1.4103694401893578e-05   2.0574932125992044e-06   -2.6497622343809083e-05
-1.4103694401893578e-05   2.0574932125992044e-06   -2.6497622343809083e-05
-1.4103694401893578e-05   2.0574932125992044e-06   -2.6497622343809083e-05
-1.650103523942776e-05   2.943828341036055e-06   -3.021800273241877e-05
-1.650103523942776e-05   2.943828341036055e-06   -3.021800273241877e-05
-1.650103523942776e-05   2.943828341036055e-06   -3.021800273241877e-05
-1.650103523942776e-05   2.943828341036055e-06   -3.021800273241877e-05
-1.1781393085528498e-05   1.8072902037134277e-06   -2.3033855358313632e-05
-1.1781393085528498e-05   1.8072902037134277e-06   -2.3033855358313632e-05
-1.1781393085528498e-05   1.8072902037134277e-06   -2.3033855358313632e-05
-1.1781393085528498e-05   1.8072902037134277e-06   -2.3033855358313632e-05
-1.160455848026669e-05   3.903151707242885e-06   -3.0400222035629663e-05
-1.160455848026669e-05   3.903151707242885e-06   -3.0400222035629663e-05
-1.160455848026669e-05   3.903151707242885e-06   -3.0400222035629663e-05
-1.160455848026669e-05   3.903151707242885e-06   -3.0400222035629663e-05
-1.6150524160994522e-05   2.6927331690538908e-06   -2.2097361444836357e-05
-1.6150524160994522e-05   2.6927331690538908e-06   -2.2097361444836357e-05
-1.6150524160994522e-05   2.6927331690538908e-06   -2.2097361444836357e-05
-1.6150524160994522e-05   2.6927331690538908e-06   -2.2097361444836357e-05
-1.3892910006112011e-05   2.8275104555328286e-06   -2.5940918074861046e-05
-1.3892910006112011e-05   2.8275104555328286e-06   -2.5940918074861046e-05
-1.3892910006112011e-05   2.8275104555328286e-06   -2.5940918074861046e-05
-1.3892910006112011e-05   2.8275104555328286e-06   -2.5940918074861046e-05
-1.615052416099446e-05   3.9031517072429684e-06   -2.9673970912716082e-05
-1.615052416099446e-05   3.9031517072429684e-06   -2.9673970912716082e-05
-1.615052416099446e-05   3.9031517072429684e-06   -2.9673970912716082e-05
-1.615052416099446e-05   3.9031517072429684e-06   -2.9673970912716082e-05
-1.1604558480266664e-05   2.692733169053999e-06   -2.2823612567749666e-05
-1.1604558480266664e-05   2.692733169053999e-06   -2.2823612567749666e-05
-1.1604558480266664e-05   2.692733169053999e-06   -2.2823612567749666e-05
-1.1604558480266664e-05   2.692733169053999e-06   -2.2823612567749666e-05
-1.1447543588386815e-05   4.945598381827718e-06   -3.0695048999792576e-05
-1.1447543588386815e-05   4.945598381827718e-06   -3.0695048999792576e-05
-1.1447543588386815e-05   4.945598381827718e-06   -3.0695048999792576e-05
-1.1447543588386815e-05   4.945598381827718e-06   -3.0695048999792576e-05
-1.5912464668025e-05   3.6770423149196877e-06   -2.2492380226917376e-05
-1.5912464668025e-05   3.6770423149196877e-06   -2.2492380226917376e-05
-1.5912464668025e-05   3.6770423149196877e-06   -2.2492380226917376e-05
-1.5912464668025e-05   3.6770423149196877e-06   -2.2492380226917376e-05
-1.3811433386951167e-05   3.6079197282508964e-06   -2.5952625476705787e-05
-1.3811433386951167e-05   3.6079197282508964e-06   -2.5952625476705787e-05
-1.3811433386951167e-05   3.6079197282508964e-06   -2.5952625476705787e-05
-1.3811433386951167e-05   3.6079197282508964e-06   -2.5952625476705787e-05
-1.1941431565353427e-05   3.265518258547827e-07   -3.506233394436189e-05
-1.1941431565353427e-05   3.265518258547827e-07   -3.506233394436189e-05
-1.1941431565353427e-05   3.265518258547827e-07   -3.506233394436189e-05
-1.1941431565353427e-05   3.265518258547827e-07   -3.506233394436189e-05
-7.257454461033816e-06   4.921825622718808e-07   -2.715632699531236e-05
-7.257454461033816e-06   4.921825622718808e-07   -2.715632699531236e-05
-7.257454461033816e-06   4.921825622718808e-07   -2.715632699531236e-05
-7.257454461033816e-06   4.921825622718808e-07   -2.715632699531236e-05
-7.101637603068593e-06   1.3865273944357707e-06   -3.462054367062801e-05
-7.101637603068593e-06   1.3865273944357707e-06   -3.462054367062801e-05
-7.101637603068593e-06   1.3865273944357707e-06   -3.462054367062801e-05
-7.101637603068593e-06   1.3865273944357707e-06   -3.462054367062801e-05
-1.178139308552849e-05   1.4620784857807346e-06   -2.686628185466817e-05
-1.178139308552849e-05   1.4620784857807346e-06   -2.686628185466817e-05
-1.178139308552849e-05   1.4620784857807346e-06   -2.686628185466817e-05
-1.178139308552849e-05   1.4620784857807346e-06   -2.686628185466817e-05
-9.459412922486609e-06   1.052138000132998e-06   -3.049028450168332e-05
-9.459412922486609e-06   1.052138000132998e-06   -3.049028450168332e-05
-9.459412922486609e-06   1.052138000132998e-06   -3.049028450168332e-05
-9.459412922486609e-06   1.052138000132998e-06   -3.049028450168332e-05
-1.178139308552847e-05   1.3865273944356869e-06   -3.466587432543483e-05
-1.178139308552847e-05   1.3865273944356869e-06   -3.466587432543483e-05
-1.178139308552847e-05   1.3865273944356869e-06   -3.466587432543483e-05
-1.178139308552847e-05   1.3865273944356869e-06   -3.466587432543483e-05
-7.101637603068581e-06   1.462078485780843e-06   -2.682095119986127e-05
-7.101637603068581e-06   1.462078485780843e-06   -2.682095119986127e-05
-7.101637603068581e-06   1.462078485780843e-06   -2.682095119986127e-05
-7.101637603068581e-06   1.462078485780843e-06   -2.682095119986127e-05
-6.926051195119164e-06   2.449898265820846e-06   -3.4710373631986e-05
-6.926051195119164e-06   2.449898265820846e-06   -3.4710373631986e-05
-6.926051195119164e-06   2.449898265820846e-06   -3.4710373631986e-05
-6.926051195119164e-06   2.449898265820846e-06   -3.4710373631986e-05
-1.1604558480266662e-05   2.4404485910978994e-06   -2.690719168523949e-05
-1.1604558480266662e-05   2.4404485910978994e-06   -2.690719168523949e-05
-1.1604558480266662e-05   2.4404485910978994e-06   -2.690719168523949e-05
-1.1604558480266662e-05   2.4404485910978994e-06   -2.690719168523949e-05
-9.35539521085868e-06   1.885777492821616e-06   -3.0322994475287078e-05
-9.35539521085868e-06   1.885777492821616e-06   -3.0322994475287078e-05
-9.35539521085868e-06   1.885777492821616e-06   -3.0322994475287078e-05
-9.35539521085868e-06   1.885777492821616e-06   -3.0322994475287078e-05
-1.1604558480266637e-05   2.4498982658208063e-06   -3.470470382715209e-05
-1.1604558480266637e-05   2.4498982658208063e-06   -3.470470382715209e-05
-1.1604558480266637e-05   2.4498982658208063e-06   -3.470470382715209e-05
-1.1604558480266637e-05   2.4498982658208063e-06   -3.470470382715209e-05
-6.926051195119139e-06   2.4404485910978994e-06   -2.6912861490073264e-05
-6.926051195119139e-06   2.4404485910978994e-06   -2.6912861490073264e-05
-6.926051195119139e-06   2.4404485910978994e-06   -2.6912861490073264e-05
-6.926051195119139e-06   2.4404485910978994e-06   -2.6912861490073264e-05
-6.7683811178217374e-06   3.5318608772041352e-06   -3.529453085227409e-05
-6.7683811178217374e-06   3.5318608772041352e-06   -3.529453085227409e-05
-6.7683811178217374e-06   3.5318608772041352e-06   -3.529453085227409e-05
-6.7683811178217374e-06   3.5318608772041352e-06   -3.529453085227409e-05
-1.1447543588386852e-05   3.433610018929961e-06   -2.74369762197009e-05
-1.1447543588386852e-05   3.433610018929961e-06   -2.74369762197009e-05
-1.1447543588386852e-05   3.433610018929961e-06   -2.74369762197009e-05
-1.1447543588386852e-05   3.433610018929961e-06   -2.74369762197009e-05
-9.269684175103011e-06   2.730508095185333e-06   -3.0644880754260594e-05
-9.269684175103011e-06   2.730508095185333e-06   -3.0644880754260594e-05
-9.269684175103011e-06   2.730508095185333e-06   -3.0644880754260594e-05
-9.269684175103011e-06   2.730508095185333e-06   -3.0644880754260594e-05
-7.257454461033791e-06   -1.1029633944237848e-06   -3.073005137525114e-05
-7.257454461033791e-06   -1.1029633944237848e-06   -3.073005137525114e-05
-7.257454461033791e-06   -1.1029633944237848e-06   -3.073005137525114e-05
-7.257454461033791e-06   -1.1029633944237848e-06   -3.073005137525114e-05
-2.718335102106271e-06   2.13750418343343e-07   -2.2374824156045194e-05
-2.718335102106271e-06   2.13750418343343e-07   -2.2374824156045194e-05
-2.718335102106271e-06   2.13750418343343e-07   -2.2374824156045194e-05
-2.718335102106271e-06   2.13750418343343e-07   -2.2374824156045194e-05
-2.484848633714867e-06   -1.0414330868047193e-07   -2.974018690677998e-05
-2.484848633714867e-06   -1.0414330868047193e-07   -2.974018690677998e-05
-2.484848633714867e-06   -1.0414330868047193e-07   -2.974018690677998e-05
-2.484848633714867e-06   -1.0414330868047193e-07   -2.974018690677998e-05
-7.101637603068581e-06   1.1536341973401995e-06   -2.2800205128135816e-05
-7.101637603068581e-06   1.1536341973401995e-06   -2.2800205128135816e-05
-7.101637603068581e-06   1.1536341973401995e-06   -2.2800205128135816e-05
-7.101637603068581e-06   1.1536341973401995e-06   -2.2800205128135816e-05
-4.841194045757375e-06   1.381184232373666e-07   -2.5958301592526633e-05
-4.841194045757375e-06   1.381184232373666e-07   -2.5958301592526633e-05
-4.841194045757375e-06   1.381184232373666e-07   -2.5958301592526633e-05
-4.841194045757375e-06   1.381184232373666e-07   -2.5958301592526633e-05
-7.101637603068568e-06   -1.0414330868036748e-07   -3.049485341039221e-05
-7.101637603068568e-06   -1.0414330868036748e-07   -3.049485341039221e-05
-7.101637603068568e-06   -1.0414330868036748e-07   -3.049485341039221e-05
-7.101637603068568e-06   -1.0414330868036748e-07   -3.049485341039221e-05
-2.4848486337148535e-06   1.153634197340091e-06   -2.2045538624523614e-05
-2.4848486337148535e-06   1.153634197340091e-06   -2.2045538624523614e-05
-2.4848486337148535e-06   1.153634197340091e-06   -2.2045538624523614e-05
-2.4848486337148535e-06   1.153634197340091e-06   -2.2045538624523614e-05
-2.1370920628689216e-06   8.563597728078248e-07   -3.0139496542906934e-05
-2.1370920628689216e-06   8.563597728078248e-07   -3.0139496542906934e-05
-2.1370920628689216e-06   8.563597728078248e-07   -3.0139496542906934e-05
-2.1370920628689216e-06   8.563597728078248e-07   -3.0139496542906934e-05
-6.926051195119152e-06   2.038957219395541e-06   -2.286745645710918e-05
-6.926051195119152e-06   2.038957219395541e-06   -2.286745645710918e-05
-6.926051195119152e-06   2.038957219395541e-06   -2.286745645710918e-05
-6.926051195119152e-06   2.038957219395541e-06   -2.286745645710918e-05
-4.700349395236424e-06   8.971960723783059e-07   -2.5891902768703393e-05
-4.700349395236424e-06   8.971960723783059e-07   -2.5891902768703393e-05
-4.700349395236424e-06   8.971960723783059e-07   -2.5891902768703393e-05
-4.700349395236424e-06   8.971960723783059e-07   -2.5891902768703393e-05
-6.926051195119139e-06   8.563597728076884e-07   -3.0849055010859585e-05
-6.926051195119139e-06   8.563597728076884e-07   -3.0849055010859585e-05
-6.926051195119139e-06   8.563597728076884e-07   -3.0849055010859585e-05
-6.926051195119139e-06   8.563597728076884e-07   -3.0849055010859585e-05
-2.1370920628689216e-06   2.0389572193956493e-06   -2.215789798915653e-05
-2.1370920628689216e-06   2.0389572193956493e-06   -2.215789798915653e-05
-2.1370920628689216e-06   2.0389572193956493e-06   -2.215789798915653e-05
-2.1370920628689216e-06   2.0389572193956493e-06   -2.215789798915653e-05
-1.8944749591625818e-06   1.956786726245896e-06   -3.098233541444929e-05
-1.8944749591625818e-06   1.956786726245896e-06   -3.098233541444929e-05
-1.8944749591625818e-06   1.956786726245896e-06   -3.098233541444929e-05
-1.8944749591625818e-06   1.956786726245896e-06   -3.098233541444929e-05
-6.7683811178217374e-06   3.039542659176095e-06   -2.3508812043108668e-05
-6.7683811178217374e-06   3.039542659176095e-06   -2.3508812043108668e-05
-6.7683811178217374e-06   3.039542659176095e-06   -2.3508812043108668e-05
-6.7683811178217374e-06   3.039542659176095e-06   -2.3508812043108668e-05
-4.553110476117556e-06   1.6923045770262215e-06   -2.6392586929992476e-05
-4.553110476117556e-06   1.6923045770262215e-06   -2.6392586929992476e-05
-4.553110476117556e-06   1.6923045770262215e-06   -2.6392586929992476e-05
-4.553110476117556e-06   1.6923045770262215e-06   -2.6392586929992476e-05
-2.718335102106271e-06   -2.02431541270461e-06   -1.6671020373174288e-05
-2.718335102106271e-06   -2.02431541270461e-06   -1.6671020373174288e-05
-2.718335102106271e-06   -2.02431541270461e-06   -1.6671020373174288e-05
-2.718335102106271e-06   -2.02431541270461e-06   -1.6671020373174288e-05
6.250994997051347e-07   3.0016988091050717e-07   -9.70393819398627e-06
6.250994997051347e-07   3.0016988091050717e-07   -9.70393819398627e-06
6.250994997051347e-07   3.0016988091050717e-07   -9.70393819398627e-06
6.250994997051347e-07   3.0016988091050717e-07   -9.70393819398627e-06
1.864199086177578e-06   -1.347238599710152e-06   -1.591281398898969e-05
1.864199086177578e-06   -1.347238599710152e-06   -1.591281398898969e-05
1.864199086177578e-06   -1.347238599710152e-06   -1.591281398898969e-05
1.864199086177578e-06   -1.347238599710152e-06   -1.591281398898969e-05
-2.4848486337148577e-06   1.0435160912654774e-06   -1.0098853937087326e-05
-2.4848486337148577e-06   1.0435160912654774e-06   -1.0098853937087326e-05
-2.4848486337148577e-06   1.0435160912654774e-06   -1.0098853937087326e-05
-2.4848486337148577e-06   1.0435160912654774e-06   -1.0098853937087326e-05
-6.599352897109054e-07   -4.070847923136984e-07   -1.2270015646946835e-05
-6.599352897109054e-07   -4.070847923136984e-07   -1.2270015646946835e-05
-6.599352897109054e-07   -4.070847923136984e-07   -1.2270015646946835e-05
-6.599352897109054e-07   -4.070847923136984e-07   -1.2270015646946835e-05
-2.484848633714867e-06   -1.3472385997101661e-06   -1.734726680357486e-05
-2.484848633714867e-06   -1.3472385997101661e-06   -1.734726680357486e-05
-2.484848633714867e-06   -1.3472385997101661e-06   -1.734726680357486e-05
-2.484848633714867e-06   -1.3472385997101661e-06   -1.734726680357486e-05
1.864199086177551e-06   1.0435160912654774e-06   -8.664401122502208e-06
1.864199086177551e-06   1.0435160912654774e-06   -8.664401122502208e-06
1.864199086177551e-06   1.0435160912654774e-06   -8.664401122502208e-06
1.864199086177551e-06   1.0435160912654774e-06   -8.664401122502208e-06
2.842752340369932e-06   -8.803003954133831e-07   -1.677685521435157e-05
2.842752340369932e-06   -8.803003954133831e-07   -1.677685521435157e-05
2.842752340369932e-06   -8.803003954133831e-07   -1.677685521435157e-05
2.842752340369932e-06   -8.803003954133831e-07   -1.677685521435157e-05
-2.137092062868921e-06   1.461332037653684e-06   -9.882094002126908e-06
-2.137092062868921e-06   1.461332037653684e-06   -9.882094002126908e-06
-2.137092062868921e-06   1.461332037653684e-06   -9.882094002126908e-06
-2.137092062868921e-06   1.461332037653684e-06   -9.882094002126908e-06
-3.26101792871252e-08   -5.075419372388597e-08   -1.2482312069269968e-05
-3.26101792871252e-08   -5.075419372388597e-08   -1.2482312069269968e-05
-3.26101792871252e-08   -5.075419372388597e-08   -1.2482312069269968e-05
-3.26101792871252e-08   -5.075419372388597e-08   -1.2482312069269968e-05
-2.137092062868908e-06   -8.803003954134083e-07   -1.8181834674191777e-05
-2.137092062868908e-06   -8.803003954134083e-07   -1.8181834674191777e-05
-2.137092062868908e-06   -8.803003954134083e-07   -1.8181834674191777e-05
-2.137092062868908e-06   -8.803003954134083e-07   -1.8181834674191777e-05
2.842752340369959e-06   1.461332037653684e-06   -8.477114542286687e-06
2.842752340369959e-06   1.461332037653684e-06   -8.477114542286687e-06
2.842752340369959e-06   1.461332037653684e-06   -8.477114542286687e-06
2.842752340369959e-06   1.461332037653684e-06   -8.477114542286687e-06
4.078490325892299e-06   3.669430704276479e-08   -1.8790261617960343e-05
4.078490325892299e-06   3.669430704276479e-08   -1.8790261617960343e-05
4.078490325892299e-06   3.669430704276479e-08   -1.8790261617960343e-05
4.078490325892299e-06   3.669430704276479e-08   -1.8790261617960343e-05
-1.8944749591625758e-06   2.2011528831515203e-06   -1.0133994621867173e-05
-1.8944749591625758e-06   2.2011528831515203e-06   -1.0133994621867173e-05
-1.8944749591625758e-06   2.2011528831515203e-06   -1.0133994621867173e-05
-1.8944749591625758e-06   2.2011528831515203e-06   -1.0133994621867173e-05
5.085727671676349e-07   3.5485884807473413e-07   -1.3031297744704913e-05
5.085727671676349e-07   3.5485884807473413e-07   -1.3031297744704913e-05
5.085727671676349e-07   3.5485884807473413e-07   -1.3031297744704913e-05
5.085727671676349e-07   3.5485884807473413e-07   -1.3031297744704913e-05
-7.864158554289982e-06   1.4852214736197739e-06   -1.4142928335636636e-05
-7.864158554289982e-06   1.4852214736197739e-06   -1.4142928335636636e-05
-7.864158554289982e-06   1.4852214736197739e-06   -1.4142928335636636e-05
-7.864158554289982e-06   1.4852214736197739e-06   -1.4142928335636636e-05
-7.998103743534542e-06   -6.950650458395838e-07   -1.5674342229386512e-05
-7.998103743534542e-06   -6.950650458395838e-07   -1.5674342229386512e-05
-7.998103743534542e-06   -6.950650458395838e-07   -1.5674342229386512e-05
-7.998103743534542e-06   -6.950650458395838e-07   -1.5674342229386512e-05
-7.599135840065033e-06   2.315019162763194e-06   -1.328900552932926e-05
-7.599135840065033e-06   2.315019162763194e-06   -1.328900552932926e-05
-7.599135840065033e-06   2.315019162763194e-06   -1.328900552932926e-05
-7.599135840065033e-06   2.315019162763194e-06   -1.328900552932926e-05
-6.485345444784712e-06   -2.4346520990665282e-08   -1.3741703444544045e-05
-6.485345444784712e-06   -2.4346520990665282e-08   -1.3741703444544045e-05
-6.485345444784712e-06   -2.4346520990665282e-08   -1.3741703444544045e-05
-6.485345444784712e-06   -2.4346520990665282e-08   -1.3741703444544045e-05
-7.159575610203355e-06   1.0226349151855763e-06   -1.3246175363885971e-05
-7.159575610203355e-06   1.0226349151855763e-06   -1.3246175363885971e-05
-7.159575610203355e-06   1.0226349151855763e-06   -1.3246175363885971e-05
-7.159575610203355e-06   1.0226349151855763e-06   -1.3246175363885971e-05
-6.485345444784678e-06   2.3150191627631726e-06   -1.1885386119076923e-05
-6.485345444784678e-06   2.3150191627631726e-06   -1.1885386119076923e-05
-6.485345444784678e-06   2.3150191627631726e-06   -1.1885386119076923e-05
-6.485345444784678e-06   2.3150191627631726e-06   -1.1885386119076923e-05
-7.59913584006506e-06   -2.4346520990665282e-08   -1.51453228547966e-05
-7.59913584006506e-06   -2.4346520990665282e-08   -1.51453228547966e-05
-7.59913584006506e-06   -2.4346520990665282e-08   -1.51453228547966e-05
-7.59913584006506e-06   -2.4346520990665282e-08   -1.51453228547966e-05
-7.095519414542287e-06   2.7347975887074324e-06   -1.2332036173304467e-05
-7.095519414542287e-06   2.7347975887074324e-06   -1.2332036173304467e-05
-7.095519414542287e-06   2.7347975887074324e-06   -1.2332036173304467e-05
-7.095519414542287e-06   2.7347975887074324e-06   -1.2332036173304467e-05
-5.34609573552143e-06   3.556725823681151e-07   -1.3820267301202168e-05
-5.34609573552143e-06   3.556725823681151e-07   -1.3820267301202168e-05
-5.34609573552143e-06   3.556725823681151e-07   -1.3820267301202168e-05
-5.34609573552143e-06   3.556725823681151e-07   -1.3820267301202168e-05
-6.507696270945919e-06   1.3673217785518856e-06   -1.2491255926538913e-05
-6.507696270945919e-06   1.3673217785518856e-06   -1.2491255926538913e-05
-6.507696270945919e-06   1.3673217785518856e-06   -1.2491255926538913e-05
-6.507696270945919e-06   1.3673217785518856e-06   -1.2491255926538913e-05
-5.346095735521384e-06   2.7347975887074104e-06   -1.090456116950079e-05
-5.346095735521384e-06   2.7347975887074104e-06   -1.090456116950079e-05
-5.346095735521384e-06   2.7347975887074104e-06   -1.090456116950079e-05
-5.346095735521384e-06   2.7347975887074104e-06   -1.090456116950079e-05
-7.095519414542314e-06   3.556725823681151e-07   -1.5247742305005846e-05
-7.095519414542314e-06   3.556725823681151e-07   -1.5247742305005846e-05
-7.095519414542314e-06   3.556725823681151e-07   -1.5247742305005846e-05
-7.095519414542314e-06   3.556725823681151e-07   -1.5247742305005846e-05
-6.703509935076878e-06   3.4000028938318497e-06   -1.144337736773914e-05
-6.703509935076878e-06   3.4000028938318497e-06   -1.144337736773914e-05
-6.703509935076878e-06   3.4000028938318497e-06   -1.144337736773914e-05
-6.703509935076878e-06   3.4000028938318497e-06   -1.144337736773914e-05
-3.939486952086759e-06   1.113386777072678e-06   -1.4678112669334051e-05
-3.939486952086759e-06   1.113386777072678e-06   -1.4678112669334051e-05
-3.939486952086759e-06   1.113386777072678e-06   -1.4678112669334051e-05
-3.939486952086759e-06   1.113386777072678e-06   -1.4678112669334051e-05
-5.693609038031697e-06   1.6984039725507875e-06   -1.210558617671209e-05
-5.693609038031697e-06   1.6984039725507875e-06   -1.210558617671209e-05
-5.693609038031697e-06   1.6984039725507875e-06   -1.210558617671209e-05
-5.693609038031697e-06   1.6984039725507875e-06   -1.210558617671209e-05
-7.998103743534488e-06   8.555123955319583e-07   -2.5745815529122835e-05
-7.998103743534488e-06   8.555123955319583e-07   -2.5745815529122835e-05
-7.998103743534488e-06   8.555123955319583e-07   -2.5745815529122835e-05
-7.998103743534488e-06   8.555123955319583e-07   -2.5745815529122835e-05
-9.237319285648071e-06   -1.4860071194128938e-07   -2.8413642630462706e-05
-9.237319285648071e-06   -1.4860071194128938e-07   -2.8413642630462706e-05
-9.237319285648071e-06   -1.4860071194128938e-07   -2.8413642630462706e-05
-9.237319285648071e-06   -1.4860071194128938e-07   -2.8413642630462706e-05
-8.915600680468045e-06   1.8072902037134277e-06   -2.576436266682751e-05
-8.915600680468045e-06   1.8072902037134277e-06   -2.576436266682751e-05
-8.915600680468045e-06   1.8072902037134277e-06   -2.576436266682751e-05
-8.915600680468045e-06   1.8072902037134277e-06   -2.576436266682751e-05
-7.599135840065059e-06   6.980681468847678e-07   -2.7292937500068566e-05
-7.599135840065059e-06   6.980681468847678e-07   -2.7292937500068566e-05
-7.599135840065059e-06   6.980681468847678e-07   -2.7292937500068566e-05
-7.599135840065059e-06   6.980681468847678e-07   -2.7292937500068566e-05
-8.339313211504254e-06   9.894481279321826e-07   -2.6234136536298794e-05
-8.339313211504254e-06   9.894481279321826e-07   -2.6234136536298794e-05
-8.339313211504254e-06   9.894481279321826e-07   -2.6234136536298794e-05
-8.339313211504254e-06   9.894481279321826e-07   -2.6234136536298794e-05
-7.599135840065006e-06   1.8072902037134294e-06   -2.5098829432730054e-05
-7.599135840065006e-06   1.8072902037134294e-06   -2.5098829432730054e-05
-7.599135840065006e-06   1.8072902037134294e-06   -2.5098829432730054e-05
-7.599135840065006e-06   1.8072902037134294e-06   -2.5098829432730054e-05
-8.915600680468031e-06   6.980681468847678e-07   -2.795847073416586e-05
-8.915600680468031e-06   6.980681468847678e-07   -2.795847073416586e-05
-8.915600680468031e-06   6.980681468847678e-07   -2.795847073416586e-05
-8.915600680468031e-06   6.980681468847678e-07   -2.795847073416586e-05
-8.580942343225712e-06   2.6927331690538908e-06   -2.5548287315833797e-05
-8.580942343225712e-06   2.6927331690538908e-06   -2.5548287315833797e-05
-8.580942343225712e-06   2.6927331690538908e-06   -2.5548287315833797e-05
-8.580942343225712e-06   2.6927331690538908e-06   -2.5548287315833797e-05
-7.095519414542316e-06   1.5136185569962837e-06   -2.7316523429738186e-05
-7.095519414542316e-06   1.5136185569962837e-06   -2.7316523429738186e-05
-7.095519414542316e-06   1.5136185569962837e-06   -2.7316523429738186e-05
-7.095519414542316e-06   1.5136185569962837e-06   -2.7316523429738186e-05
-8.01699047449588e-06   1.6725506250484662e-06   -2.5876097570646964e-05
-8.01699047449588e-06   1.6725506250484662e-06   -2.5876097570646964e-05
-8.01699047449588e-06   1.6725506250484662e-06   -2.5876097570646964e-05
-8.01699047449588e-06   1.6725506250484662e-06   -2.5876097570646964e-05
-7.095519414542287e-06   2.6927331690538823e-06   -2.4840818548599276e-05
-7.095519414542287e-06   2.6927331690538823e-06   -2.4840818548599276e-05
-7.095519414542287e-06   2.6927331690538823e-06   -2.4840818548599276e-05
-7.095519414542287e-06   2.6927331690538823e-06   -2.4840818548599276e-05
-8.580942343225685e-06   1.5136185569962837e-06   -2.80239921969726e-05
-8.580942343225685e-06   1.5136185569962837e-06   -2.80239921969726e-05
-8.580942343225685e-06   1.5136185569962837e-06   -2.80239921969726e-05
-8.580942343225685e-06   1.5136185569962837e-06   -2.80239921969726e-05
-8.265978181382143e-06   3.6770423149196877e-06   -2.5971592023008917e-05
-8.265978181382143e-06   3.6770423149196877e-06   -2.5971592023008917e-05
-8.265978181382143e-06   3.6770423149196877e-06   -2.5971592023008917e-05
-8.265978181382143e-06   3.6770423149196877e-06   -2.5971592023008917e-05
-6.7035099350768865e-06   2.4452974598100467e-06   -2.7836658853785435e-05
-6.7035099350768865e-06   2.4452974598100467e-06   -2.7836658853785435e-05
-6.7035099350768865e-06   2.4452974598100467e-06   -2.7836658853785435e-05
-6.7035099350768865e-06   2.4452974598100467e-06   -2.7836658853785435e-05
-7.733670610767567e-06   2.389581548882828e-06   -2.6086294847744128e-05
-7.733670610767567e-06   2.389581548882828e-06   -2.6086294847744128e-05
-7.733670610767567e-06   2.389581548882828e-06   -2.6086294847744128e-05
-7.733670610767567e-06   2.389581548882828e-06   -2.6086294847744128e-05
-9.237319285648044e-06   4.92182562271992e-07   -2.998894939095322e-05
-9.237319285648044e-06   4.92182562271992e-07   -2.998894939095322e-05
-9.237319285648044e-06   4.92182562271992e-07   -2.998894939095322e-05
-9.237319285648044e-06   4.92182562271992e-07   -2.998894939095322e-05
-1.053923823845213e-05   7.048604609156527e-07   -3.2031207573107105e-05
-1.053923823845213e-05   7.048604609156527e-07   -3.2031207573107105e-05
-1.053923823845213e-05   7.048604609156527e-07   -3.2031207573107105e-05
-1.053923823845213e-05   7.048604609156527e-07   -3.2031207573107105e-05
-1.0223216874911046e-05   1.462078485780843e-06   -2.9525751031383432e-05
-1.0223216874911046e-05   1.462078485780843e-06   -2.9525751031383432e-05
-1.0223216874911046e-05   1.462078485780843e-06   -2.9525751031383432e-05
-1.0223216874911046e-05   1.462078485780843e-06   -2.9525751031383432e-05
-8.915600680468024e-06   1.5804753721122746e-06   -3.177614948725378e-05
-8.915600680468024e-06   1.5804753721122746e-06   -3.177614948725378e-05
-8.915600680468024e-06   1.5804753721122746e-06   -3.177614948725378e-05
-8.915600680468024e-06   1.5804753721122746e-06   -3.177614948725378e-05
-9.670257229485002e-06   1.1964323492379744e-06   -3.0287962758501506e-05
-9.670257229485002e-06   1.1964323492379744e-06   -3.0287962758501506e-05
-9.670257229485002e-06   1.1964323492379744e-06   -3.0287962758501506e-05
-9.670257229485002e-06   1.1964323492379744e-06   -3.0287962758501506e-05
-8.91560068046799e-06   1.4620784857808256e-06   -2.9596789163182182e-05
-8.91560068046799e-06   1.4620784857808256e-06   -2.9596789163182182e-05
-8.91560068046799e-06   1.4620784857808256e-06   -2.9596789163182182e-05
-8.91560068046799e-06   1.4620784857808256e-06   -2.9596789163182182e-05
-1.0223216874911046e-05   1.5804753721120578e-06   -3.1705111355455166e-05
-1.0223216874911046e-05   1.5804753721120578e-06   -3.1705111355455166e-05
-1.0223216874911046e-05   1.5804753721120578e-06   -3.1705111355455166e-05
-1.0223216874911046e-05   1.5804753721120578e-06   -3.1705111355455166e-05
-9.890603817516202e-06   2.4404485910978994e-06   -2.9610980914823444e-05
-9.890603817516202e-06   2.4404485910978994e-06   -2.9610980914823444e-05
-9.890603817516202e-06   2.4404485910978994e-06   -2.9610980914823444e-05
-9.890603817516202e-06   2.4404485910978994e-06   -2.9610980914823444e-05
-8.580942343225698e-06   2.4752577885980235e-06   -3.181463555714084e-05
-8.580942343225698e-06   2.4752577885980235e-06   -3.181463555714084e-05
-8.580942343225698e-06   2.4752577885980235e-06   -3.181463555714084e-05
-8.580942343225698e-06   2.4752577885980235e-06   -3.181463555714084e-05
-9.405399418183173e-06   1.945818104268516e-06   -3.012287662161458e-05
-9.405399418183173e-06   1.945818104268516e-06   -3.012287662161458e-05
-9.405399418183173e-06   1.945818104268516e-06   -3.012287662161458e-05
-9.405399418183173e-06   1.945818104268516e-06   -3.012287662161458e-05
-8.580942343225685e-06   2.4404485910978977e-06   -2.963186643332343e-05
-8.580942343225685e-06   2.4404485910978977e-06   -2.963186643332343e-05
-8.580942343225685e-06   2.4404485910978977e-06   -2.963186643332343e-05
-8.580942343225685e-06   2.4404485910978977e-06   -2.963186643332343e-05
-9.890603817516188e-06   2.4752577885980235e-06   -3.17937500386408e-05
-9.890603817516188e-06   2.4752577885980235e-06   -3.17937500386408e-05
-9.890603817516188e-06   2.4752577885980235e-06   -3.17937500386408e-05
-9.890603817516188e-06   2.4752577885980235e-06   -3.17937500386408e-05
-9.576964608069542e-06   3.433610018929961e-06   -3.018574259169794e-05
-9.576964608069542e-06   3.433610018929961e-06   -3.018574259169794e-05
-9.576964608069542e-06   3.433610018929961e-06   -3.018574259169794e-05
-9.576964608069542e-06   3.433610018929961e-06   -3.018574259169794e-05
-8.265978181382145e-06   3.3824629921798757e-06   -3.234003175346003e-05
-8.265978181382145e-06   3.3824629921798757e-06   -3.234003175346003e-05
-8.265978181382145e-06   3.3824629921798757e-06   -3.234003175346003e-05
-8.265978181382145e-06   3.3824629921798757e-06   -3.234003175346003e-05
-9.161840258997624e-06   2.705706904563513e-06   -3.0440874638197507e-05
-9.161840258997624e-06   2.705706904563513e-06   -3.0440874638197507e-05
-9.161840258997624e-06   2.705706904563513e-06   -3.0440874638197507e-05
-9.161840258997624e-06   2.705706904563513e-06   -3.0440874638197507e-05
-1.0539238238452114e-05   2.1375041834327283e-07   -2.5869868100159986e-05
-1.0539238238452114e-05   2.1375041834327283e-07   -2.5869868100159986e-05
-1.0539238238452114e-05   2.1375041834327283e-07   -2.5869868100159986e-05
-1.0539238238452114e-05   2.1375041834327283e-07   -2.5869868100159986e-05
-1.1916106667702868e-05   1.5655425615482364e-06   -2.73535735296549e-05
-1.1916106667702868e-05   1.5655425615482364e-06   -2.73535735296549e-05
-1.1916106667702868e-05   1.5655425615482364e-06   -2.73535735296549e-05
-1.1916106667702868e-05   1.5655425615482364e-06   -2.73535735296549e-05
-1.1533275545790652e-05   1.1536341973401995e-06   -2.4730554718789067e-05
-1.1533275545790652e-05   1.1536341973401995e-06   -2.4730554718789067e-05
-1.1533275545790652e-05   1.1536341973401995e-06   -2.4730554718789067e-05
-1.1533275545790652e-05   1.1536341973401995e-06   -2.4730554718789067e-05
-1.0223216874911047e-05   2.444384598788681e-06   -2.7688436077790668e-05
-1.0223216874911047e-05   2.444384598788681e-06   -2.7688436077790668e-05
-1.0223216874911047e-05   2.444384598788681e-06   -2.7688436077790668e-05
-1.0223216874911047e-05   2.444384598788681e-06   -2.7688436077790668e-05
-1.0967464585291352e-05   1.4420303844557385e-06   -2.5846610698557563e-05
-1.0967464585291352e-05   1.4420303844557385e-06   -2.5846610698557563e-05
-1.0967464585291352e-05   1.4420303844557385e-06   -2.5846610698557563e-05
-1.0967464585291352e-05   1.4420303844557385e-06   -2.5846610698557563e-05
-1.0223216874911029e-05   1.1536341973401423e-06   -2.5505004959658112e-05
-1.0223216874911029e-05   1.1536341973401423e-06   -2.5505004959658112e-05
-1.0223216874911029e-05   1.1536341973401423e-06   -2.5505004959658112e-05
-1.0223216874911029e-05   1.1536341973401423e-06   -2.5505004959658112e-05
-1.1533275545790652e-05   2.444384598788681e-06   -2.69139858369218e-05
-1.1533275545790652e-05   2.444384598788681e-06   -2.69139858369218e-05
-1.1533275545790652e-05   2.444384598788681e-06   -2.69139858369218e-05
-1.1533275545790652e-05   2.444384598788681e-06   -2.69139858369218e-05
-1.1037500275797794e-05   2.038957219395541e-06   -2.483606851802489e-05
-1.1037500275797794e-05   2.038957219395541e-06   -2.483606851802489e-05
-1.1037500275797794e-05   2.038957219395541e-06   -2.483606851802489e-05
-1.1037500275797794e-05   2.038957219395541e-06   -2.483606851802489e-05
-9.890603817516187e-06   3.2548028257863796e-06   -2.747706997899526e-05
-9.890603817516187e-06   3.2548028257863796e-06   -2.747706997899526e-05
-9.890603817516187e-06   3.2548028257863796e-06   -2.747706997899526e-05
-9.890603817516187e-06   3.2548028257863796e-06   -2.747706997899526e-05
-1.0625258056173837e-05   2.1395746342266642e-06   -2.5583509332963767e-05
-1.0625258056173837e-05   2.1395746342266642e-06   -2.5583509332963767e-05
-1.0625258056173837e-05   2.1395746342266642e-06   -2.5583509332963767e-05
-1.0625258056173837e-05   2.1395746342266642e-06   -2.5583509332963767e-05
-9.890603817516168e-06   2.0389572193955616e-06   -2.5565575881859415e-05
-9.890603817516168e-06   2.0389572193955616e-06   -2.5565575881859415e-05
-9.890603817516168e-06   2.0389572193955616e-06   -2.5565575881859415e-05
-9.890603817516168e-06   2.0389572193955616e-06   -2.5565575881859415e-05
-1.1037500275797808e-05   3.2548028257863796e-06   -2.6747562615160765e-05
-1.1037500275797808e-05   3.2548028257863796e-06   -2.6747562615160765e-05
-1.1037500275797808e-05   3.2548028257863796e-06   -2.6747562615160765e-05
-1.1037500275797808e-05   3.2548028257863796e-06   -2.6747562615160765e-05
-1.0648286121604284e-05   3.039542659176095e-06   -2.552484264197591e-05
-1.0648286121604284e-05   3.039542659176095e-06   -2.552484264197591e-05
-1.0648286121604284e-05   3.039542659176095e-06   -2.552484264197591e-05
-1.0648286121604284e-05   3.039542659176095e-06   -2.552484264197591e-05
-9.57696460806954e-06   4.162518089451377e-06   -2.798416375603245e-05
-9.57696460806954e-06   4.162518089451377e-06   -2.798416375603245e-05
-9.57696460806954e-06   4.162518089451377e-06   -2.798416375603245e-05
-9.57696460806954e-06   4.162518089451377e-06   -2.798416375603245e-05
-1.036981885533246e-05   2.852010655223034e-06   -2.5876435550056905e-05
-1.036981885533246e-05   2.852010655223034e-06   -2.5876435550056905e-05
-1.036981885533246e-05   2.852010655223034e-06   -2.5876435550056905e-05
-1.036981885533246e-05   2.852010655223034e-06   -2.5876435550056905e-05
-1.1916106667702827e-05   3.0016988091048663e-07   -1.3782598028347164e-05
-1.1916106667702827e-05   3.0016988091048663e-07   -1.3782598028347164e-05
-1.1916106667702827e-05   3.0016988091048663e-07   -1.3782598028347164e-05
-1.1916106667702827e-05   3.0016988091048663e-07   -1.3782598028347164e-05
-1.4451044042444348e-05   2.6328081202484782e-06   -1.6607910709313597e-05
-1.4451044042444348e-05   2.6328081202484782e-06   -1.6607910709313597e-05
-1.4451044042444348e-05   2.6328081202484782e-06   -1.6607910709313597e-05
-1.4451044042444348e-05   2.6328081202484782e-06   -1.6607910709313597e-05
-1.3084642973458667e-05   1.0435160912654774e-06   -1.1351970551949783e-05
-1.3084642973458667e-05   1.0435160912654774e-06   -1.1351970551949783e-05
-1.3084642973458667e-05   1.0435160912654774e-06   -1.1351970551949783e-05
-1.3084642973458667e-05   1.0435160912654774e-06   -1.1351970551949783e-05
-1.1533275545790642e-05   3.4300152236038575e-06   -1.5369482410799494e-05
-1.1533275545790642e-05   3.4300152236038575e-06   -1.5369482410799494e-05
-1.1533275545790642e-05   3.4300152236038575e-06   -1.5369482410799494e-05
-1.1533275545790642e-05   3.4300152236038575e-06   -1.5369482410799494e-05
-1.223043554328681e-05   1.9475345572686487e-06   -1.331806068183839e-05
-1.223043554328681e-05   1.9475345572686487e-06   -1.331806068183839e-05
-1.223043554328681e-05   1.9475345572686487e-06   -1.331806068183839e-05
-1.223043554328681e-05   1.9475345572686487e-06   -1.331806068183839e-05
-1.1533275545790598e-05   1.043516091265482e-06   -1.278387003135267e-05
-1.1533275545790598e-05   1.043516091265482e-06   -1.278387003135267e-05
-1.1533275545790598e-05   1.043516091265482e-06   -1.278387003135267e-05
-1.1533275545790598e-05   1.043516091265482e-06   -1.278387003135267e-05
-1.3084642973458667e-05   3.4300152236040743e-06   -1.3937582931396403e-05
-1.3084642973458667e-05   3.4300152236040743e-06   -1.3937582931396403e-05
-1.3084642973458667e-05   3.4300152236040743e-06   -1.3937582931396403e-05
-1.3084642973458667e-05   3.4300152236040743e-06   -1.3937582931396403e-05
-1.1973267590148718e-05   1.461332037653684e-06   -1.1160068603968448e-05
-1.1973267590148718e-05   1.461332037653684e-06   -1.1160068603968448e-05
-1.1973267590148718e-05   1.461332037653684e-06   -1.1160068603968448e-05
-1.1973267590148718e-05   1.461332037653684e-06   -1.1160068603968448e-05
-1.1037500275797789e-05   3.79499191603184e-06   -1.4119876721580078e-05
-1.1037500275797789e-05   3.79499191603184e-06   -1.4119876721580078e-05
-1.1037500275797789e-05   3.79499191603184e-06   -1.4119876721580078e-05
-1.1037500275797789e-05   3.79499191603184e-06   -1.4119876721580078e-05
-1.164943525891113e-05   2.3171577287833204e-06   -1.2213284570708889e-05
-1.164943525891113e-05   2.3171577287833204e-06   -1.2213284570708889e-05
-1.164943525891113e-05   2.3171577287833204e-06   -1.2213284570708889e-05
-1.164943525891113e-05   2.3171577287833204e-06   -1.2213284570708889e-05
-1.103750027579778e-05   1.461332037653693e-06   -1.256026453099531e-05
-1.103750027579778e-05   1.461332037653693e-06   -1.256026453099531e-05
-1.103750027579778e-05   1.461332037653693e-06   -1.256026453099531e-05
-1.103750027579778e-05   1.461332037653693e-06   -1.256026453099531e-05
-1.1973267590148772e-05   3.79499191603184e-06   -1.271968079455323e-05
-1.1973267590148772e-05   3.79499191603184e-06   -1.271968079455323e-05
-1.1973267590148772e-05   3.79499191603184e-06   -1.271968079455323e-05
-1.1973267590148772e-05   3.79499191603184e-06   -1.271968079455323e-05
-1.0612865529887195e-05   2.2011528831516287e-06   -1.1504806500565676e-05
-1.0612865529887195e-05   2.2011528831516287e-06   -1.1504806500565676e-05
-1.0612865529887195e-05   2.2011528831516287e-06   -1.1504806500565676e-05
-1.0612865529887195e-05   2.2011528831516287e-06   -1.1504806500565676e-05
-1.0648286121604276e-05   4.359273349696614e-06   -1.2740644460964158e-05
-1.0648286121604276e-05   4.359273349696614e-06   -1.2740644460964158e-05
-1.0648286121604276e-05   4.359273349696614e-06   -1.2740644460964158e-05
-1.0648286121604276e-05   4.359273349696614e-06   -1.2740644460964158e-05
-1.079074882627854e-05   2.615140606417217e-06   -1.145672697387264e-05
-1.079074882627854e-05   2.615140606417217e-06   -1.145672697387264e-05
-1.079074882627854e-05   2.615140606417217e-06   -1.145672697387264e-05
-1.079074882627854e-05   2.615140606417217e-06   -1.145672697387264e-05
7.031903579122665e-06   -6.95065045839618e-07   -7.134578260282543e-06
7.031903579122665e-06   -6.95065045839618e-07   -7.134578260282543e-06
7.031903579122665e-06   -6.95065045839618e-07   -7.134578260282543e-06
7.031903579122665e-06   -6.95065045839618e-07   -7.134578260282543e-06
7.267089916659605e-07   -2.9116004788369825e-06   -1.8973157165842118e-05
7.267089916659605e-07   -2.9116004788369825e-06   -1.8973157165842118e-05
7.267089916659605e-07   -2.9116004788369825e-06   -1.8973157165842118e-05
7.267089916659605e-07   -2.9116004788369825e-06   -1.8973157165842118e-05
1.2732914085505692e-06   -2.4346520990665282e-08   -7.88840153893985e-06
1.2732914085505692e-06   -2.4346520990665282e-08   -7.88840153893985e-06
1.2732914085505692e-06   -2.4346520990665282e-08   -7.88840153893985e-06
1.2732914085505692e-06   -2.4346520990665282e-08   -7.88840153893985e-06
8.564211952151335e-06   -2.3934048972592235e-06   -1.8618500752513216e-05
8.564211952151335e-06   -2.3934048972592235e-06   -1.8618500752513216e-05
8.564211952151335e-06   -2.3934048972592235e-06   -1.8618500752513216e-05
8.564211952151335e-06   -2.3934048972592235e-06   -1.8618500752513216e-05
4.2347464777928985e-06   -1.2160834710634588e-06   -1.2109117817633202e-05
4.2347464777928985e-06   -1.2160834710634588e-06   -1.2109117817633202e-05
4.2347464777928985e-06   -1.2160834710634588e-06   -1.2109117817633202e-05
4.2347464777928985e-06   -1.2160834710634588e-06   -1.2109117817633202e-05
8.564211952151327e-06   -2.4346520990716356e-08   -6.466966513178521e-06
8.564211952151327e-06   -2.4346520990716356e-08   -6.466966513178521e-06
8.564211952151327e-06   -2.4346520990716356e-08   -6.466966513178521e-06
8.564211952151327e-06   -2.4346520990716356e-08   -6.466966513178521e-06
1.2732914085505692e-06   -2.3934048972592235e-06   -2.0039935778274492e-05
1.2732914085505692e-06   -2.3934048972592235e-06   -2.0039935778274492e-05
1.2732914085505692e-06   -2.3934048972592235e-06   -2.0039935778274492e-05
1.2732914085505692e-06   -2.3934048972592235e-06   -2.0039935778274492e-05
1.917925767528462e-06   3.556725823681151e-07   -7.95091511848799e-06
1.917925767528462e-06   3.556725823681151e-07   -7.95091511848799e-06
1.917925767528462e-06   3.556725823681151e-07   -7.95091511848799e-06
1.917925767528462e-06   3.556725823681151e-07   -7.95091511848799e-06
9.858393855892249e-06   -2.047239878543274e-06   -1.9743281122547405e-05
9.858393855892249e-06   -2.047239878543274e-06   -1.9743281122547405e-05
9.858393855892249e-06   -2.047239878543274e-06   -1.9743281122547405e-05
9.858393855892249e-06   -2.047239878543274e-06   -1.9743281122547405e-05
5.205988376687206e-06   -9.73515020534499e-07   -1.2633506905344969e-05
5.205988376687206e-06   -9.73515020534499e-07   -1.2633506905344969e-05
5.205988376687206e-06   -9.73515020534499e-07   -1.2633506905344969e-05
5.205988376687206e-06   -9.73515020534499e-07   -1.2633506905344969e-05
9.858393855892249e-06   3.5567258236803243e-07   -6.509167641941156e-06
9.858393855892249e-06   3.5567258236803243e-07   -6.509167641941156e-06
9.858393855892249e-06   3.5567258236803243e-07   -6.509167641941156e-06
9.858393855892249e-06   3.5567258236803243e-07   -6.509167641941156e-06
1.917925767528462e-06   -2.047239878543274e-06   -2.1185028599094292e-05
1.917925767528462e-06   -2.047239878543274e-06   -2.1185028599094292e-05
1.917925767528462e-06   -2.047239878543274e-06   -2.1185028599094292e-05
1.917925767528462e-06   -2.047239878543274e-06   -2.1185028599094292e-05
2.4478013431143003e-06   1.113386777072678e-06   -8.717663456352673e-06
2.4478013431143003e-06   1.113386777072678e-06   -8.717663456352673e-06
2.4478013431143003e-06   1.113386777072678e-06   -8.717663456352673e-06
2.4478013431143003e-06   1.113386777072678e-06   -8.717663456352673e-06
1.1413119542871455e-05   -1.1756670501982414e-06   -2.228642815958542e-05
1.1413119542871455e-05   -1.1756670501982414e-06   -2.228642815958542e-05
1.1413119542871455e-05   -1.1756670501982414e-06   -2.228642815958542e-05
1.1413119542871455e-05   -1.1756670501982414e-06   -2.228642815958542e-05
5.976991744786077e-06   -6.167005691859375e-07   -1.3561595051383806e-05
5.976991744786077e-06   -6.167005691859375e-07   -1.3561595051383806e-05
5.976991744786077e-06   -6.167005691859375e-07   -1.3561595051383806e-05
5.976991744786077e-06   -6.167005691859375e-07   -1.3561595051383806e-05
7.267089916659605e-07   -1.4860071194115025e-07   -2.0601332056673148e-05
7.267089916659605e-07   -1.4860071194115025e-07   -2.0601332056673148e-05
7.267089916659605e-07   -1.4860071194115025e-07   -2.0601332056673148e-05
7.267089916659605e-07   -1.4860071194115025e-07   -2.0601332056673148e-05
-6.618623261767768e-06   -1.1488324829877876e-06   -3.3443691541690745e-05
-6.618623261767768e-06   -1.1488324829877876e-06   -3.3443691541690745e-05
-6.618623261767768e-06   -1.1488324829877876e-06   -3.3443691541690745e-05
-6.618623261767768e-06   -1.1488324829877876e-06   -3.3443691541690745e-05
-6.139768045643283e-06   6.980681468847678e-07   -2.07174273548921e-05
-6.139768045643283e-06   6.980681468847678e-07   -2.07174273548921e-05
-6.139768045643283e-06   6.980681468847678e-07   -2.07174273548921e-05
-6.139768045643283e-06   6.980681468847678e-07   -2.07174273548921e-05
1.2732914085505616e-06   -4.376171375824068e-07   -3.2391115274534976e-05
1.2732914085505616e-06   -4.376171375824068e-07   -3.2391115274534976e-05
1.2732914085505616e-06   -4.376171375824068e-07   -3.2391115274534976e-05
1.2732914085505616e-06   -4.376171375824068e-07   -3.2391115274534976e-05
-2.6276151756363523e-06   -4.1218895911483006e-08   -2.6127443245892575e-05
-2.6276151756363523e-06   -4.1218895911483006e-08   -2.6127443245892575e-05
-2.6276151756363523e-06   -4.1218895911483006e-08   -2.6127443245892575e-05
-2.6276151756363523e-06   -4.1218895911483006e-08   -2.6127443245892575e-05
1.273291408550542e-06   6.980681468847466e-07   -2.003601618421171e-05
1.273291408550542e-06   6.980681468847466e-07   -2.003601618421171e-05
1.273291408550542e-06   6.980681468847466e-07   -2.003601618421171e-05
1.273291408550542e-06   6.980681468847466e-07   -2.003601618421171e-05
-6.139768045643283e-06   -4.376171375824068e-07   -3.307252644521531e-05
-6.139768045643283e-06   -4.376171375824068e-07   -3.307252644521531e-05
-6.139768045643283e-06   -4.376171375824068e-07   -3.307252644521531e-05
-6.139768045643283e-06   -4.376171375824068e-07   -3.307252644521531e-05
-5.658156739757355e-06   1.5136185569962837e-06   -2.074904403139813e-05
-5.658156739757355e-06   1.5136185569962837e-06   -2.074904403139813e-05
-5.658156739757355e-06   1.5136185569962837e-06   -2.074904403139813e-05
-5.658156739757355e-06   1.5136185569962837e-06   -2.074904403139813e-05
1.9179257675284667e-06   2.9803891003332e-07   -3.264650042203009e-05
1.9179257675284667e-06   2.9803891003332e-07   -3.264650042203009e-05
1.9179257675284667e-06   2.9803891003332e-07   -3.264650042203009e-05
1.9179257675284667e-06   2.9803891003332e-07   -3.264650042203009e-05
-2.203863092594098e-06   5.434046653702077e-07   -2.592407177502793e-05
-2.203863092594098e-06   5.434046653702077e-07   -2.592407177502793e-05
-2.203863092594098e-06   5.434046653702077e-07   -2.592407177502793e-05
-2.203863092594098e-06   5.434046653702077e-07   -2.592407177502793e-05
1.917925767528462e-06   1.5136185569962606e-06   -2.001969624322033e-05
1.917925767528462e-06   1.5136185569962606e-06   -2.001969624322033e-05
1.917925767528462e-06   1.5136185569962606e-06   -2.001969624322033e-05
1.917925767528462e-06   1.5136185569962606e-06   -2.001969624322033e-05
-5.658156739757355e-06   2.9803891003310316e-07   -3.337584821020789e-05
-5.658156739757355e-06   2.9803891003310316e-07   -3.337584821020789e-05
-5.658156739757355e-06   2.9803891003310316e-07   -3.337584821020789e-05
-5.658156739757355e-06   2.9803891003310316e-07   -3.337584821020789e-05
-5.1981979711587535e-06   2.4452974598102636e-06   -2.1269648091832996e-05
-5.1981979711587535e-06   2.4452974598102636e-06   -2.1269648091832996e-05
-5.1981979711587535e-06   2.4452974598102636e-06   -2.1269648091832996e-05
-5.1981979711587535e-06   2.4452974598102636e-06   -2.1269648091832996e-05
2.4478013431142927e-06   1.1696172580028235e-06   -3.32475721612037e-05
2.4478013431142927e-06   1.1696172580028235e-06   -3.32475721612037e-05
2.4478013431142927e-06   1.1696172580028235e-06   -3.32475721612037e-05
2.4478013431142927e-06   1.1696172580028235e-06   -3.32475721612037e-05
-1.7315805734314115e-06   1.191843889048914e-06   -2.629527161225522e-05
-1.7315805734314115e-06   1.191843889048914e-06   -2.629527161225522e-05
-1.7315805734314115e-06   1.191843889048914e-06   -2.629527161225522e-05
-1.7315805734314115e-06   1.191843889048914e-06   -2.629527161225522e-05
-6.618623261767781e-06   7.048604609156193e-07   -2.494664280113185e-05
-6.618623261767781e-06   7.048604609156193e-07   -2.494664280113185e-05
-6.618623261767781e-06   7.048604609156193e-07   -2.494664280113185e-05
-6.618623261767781e-06   7.048604609156193e-07   -2.494664280113185e-05
-1.3899078789403543e-05   8.883545884847636e-07   -3.697063887064995e-05
-1.3899078789403543e-05   8.883545884847636e-07   -3.697063887064995e-05
-1.3899078789403543e-05   8.883545884847636e-07   -3.697063887064995e-05
-1.3899078789403543e-05   8.883545884847636e-07   -3.697063887064995e-05
-1.3416955320622585e-05   1.5804753721120578e-06   -2.449859762819061e-05
-1.3416955320622585e-05   1.5804753721120578e-06   -2.449859762819061e-05
-1.3416955320622585e-05   1.5804753721120578e-06   -2.449859762819061e-05
-1.3416955320622585e-05   1.5804753721120578e-06   -2.449859762819061e-05
-6.139768045643292e-06   1.641322838428225e-06   -3.6663751566279166e-05
-6.139768045643292e-06   1.641322838428225e-06   -3.6663751566279166e-05
-6.139768045643292e-06   1.641322838428225e-06   -3.6663751566279166e-05
-6.139768045643292e-06   1.641322838428225e-06   -3.6663751566279166e-05
-9.960627061220107e-06   1.3572549218119657e-06   -3.012521245701464e-05
-9.960627061220107e-06   1.3572549218119657e-06   -3.012521245701464e-05
-9.960627061220107e-06   1.3572549218119657e-06   -3.012521245701464e-05
-9.960627061220107e-06   1.3572549218119657e-06   -3.012521245701464e-05
-6.139768045643296e-06   1.5804753721121251e-06   -2.4535106107980375e-05
-6.139768045643296e-06   1.5804753721121251e-06   -2.4535106107980375e-05
-6.139768045643296e-06   1.5804753721121251e-06   -2.4535106107980375e-05
-6.139768045643296e-06   1.5804753721121251e-06   -2.4535106107980375e-05
-1.3416955320622568e-05   1.6413228384284419e-06   -3.662724308648943e-05
-1.3416955320622568e-05   1.6413228384284419e-06   -3.662724308648943e-05
-1.3416955320622568e-05   1.6413228384284419e-06   -3.662724308648943e-05
-1.3416955320622568e-05   1.6413228384284419e-06   -3.662724308648943e-05
-1.2926894025467292e-05   2.4752577885980235e-06   -2.456187033697294e-05
-1.2926894025467292e-05   2.4752577885980235e-06   -2.456187033697294e-05
-1.2926894025467292e-05   2.4752577885980235e-06   -2.456187033697294e-05
-1.2926894025467292e-05   2.4752577885980235e-06   -2.456187033697294e-05
-5.658156739757361e-06   2.4382862129207743e-06   -3.66542495344163e-05
-5.658156739757361e-06   2.4382862129207743e-06   -3.66542495344163e-05
-5.658156739757361e-06   2.4382862129207743e-06   -3.66542495344163e-05
-5.658156739757361e-06   2.4382862129207743e-06   -3.66542495344163e-05
-9.53665084467008e-06   2.0147847481794684e-06   -2.993599181405088e-05
-9.53665084467008e-06   2.0147847481794684e-06   -2.993599181405088e-05
-9.53665084467008e-06   2.0147847481794684e-06   -2.993599181405088e-05
-9.53665084467008e-06   2.0147847481794684e-06   -2.993599181405088e-05
-5.658156739757355e-06   2.475257788598018e-06   -2.453968739156648e-05
-5.658156739757355e-06   2.475257788598018e-06   -2.453968739156648e-05
-5.658156739757355e-06   2.475257788598018e-06   -2.453968739156648e-05
-5.658156739757355e-06   2.475257788598018e-06   -2.453968739156648e-05
-1.2926894025467269e-05   2.4382862129207743e-06   -3.66764324798226e-05
-1.2926894025467269e-05   2.4382862129207743e-06   -3.66764324798226e-05
-1.2926894025467269e-05   2.4382862129207743e-06   -3.66764324798226e-05
-1.2926894025467269e-05   2.4382862129207743e-06   -3.66764324798226e-05
-1.245962787465383e-05   3.382462992179659e-06   -2.5114022073316282e-05
-1.245962787465383e-05   3.382462992179659e-06   -2.5114022073316282e-05
-1.245962787465383e-05   3.382462992179659e-06   -2.5114022073316282e-05
-1.245962787465383e-05   3.382462992179659e-06   -2.5114022073316282e-05
-5.198197971158771e-06   3.2490496673894323e-06   -3.713635725093378e-05
-5.198197971158771e-06   3.2490496673894323e-06   -3.713635725093378e-05
-5.198197971158771e-06   3.2490496673894323e-06   -3.713635725093378e-05
-5.198197971158771e-06   3.2490496673894323e-06   -3.713635725093378e-05
-9.142441566754064e-06   2.68232943212085e-06   -3.0222585783780582e-05
-9.142441566754064e-06   2.68232943212085e-06   -3.0222585783780582e-05
-9.142441566754064e-06   2.68232943212085e-06   -3.0222585783780582e-05
-9.142441566754064e-06   2.68232943212085e-06   -3.0222585783780582e-05
-1.3899078789403567e-05   1.5655425615483348e-06   -2.0969987567061245e-05
-1.3899078789403567e-05   1.5655425615483348e-06   -2.0969987567061245e-05
-1.3899078789403567e-05   1.5655425615483348e-06   -2.0969987567061245e-05
-1.3899078789403567e-05   1.5655425615483348e-06   -2.0969987567061245e-05
-2.1097164398702725e-05   2.8668663623343266e-06   -3.2186002635421415e-05
-2.1097164398702725e-05   2.8668663623343266e-06   -3.2186002635421415e-05
-2.1097164398702725e-05   2.8668663623343266e-06   -3.2186002635421415e-05
-2.1097164398702725e-05   2.8668663623343266e-06   -3.2186002635421415e-05
-2.0545953183330735e-05   2.444384598788681e-06   -1.9746177616988456e-05
-2.0545953183330735e-05   2.444384598788681e-06   -1.9746177616988456e-05
-2.0545953183330735e-05   2.444384598788681e-06   -1.9746177616988456e-05
-2.0545953183330735e-05   2.444384598788681e-06   -1.9746177616988456e-05
-1.3416955320622564e-05   3.6706258213514437e-06   -3.2363585455039843e-05
-1.3416955320622564e-05   3.6706258213514437e-06   -3.2363585455039843e-05
-1.3416955320622564e-05   3.6706258213514437e-06   -3.2363585455039843e-05
-1.3416955320622564e-05   3.6706258213514437e-06   -3.2363585455039843e-05
-1.7120318800351524e-05   2.7409241329635035e-06   -2.563349197579208e-05
-1.7120318800351524e-05   2.7409241329635035e-06   -2.563349197579208e-05
-1.7120318800351524e-05   2.7409241329635035e-06   -2.563349197579208e-05
-1.7120318800351524e-05   2.7409241329635035e-06   -2.563349197579208e-05
-1.3416955320622585e-05   2.4443845987888237e-06   -2.0481922350526287e-05
-1.3416955320622585e-05   2.4443845987888237e-06   -2.0481922350526287e-05
-1.3416955320622585e-05   2.4443845987888237e-06   -2.0481922350526287e-05
-1.3416955320622585e-05   2.4443845987888237e-06   -2.0481922350526287e-05
-2.054595318333077e-05   3.6706258213516606e-06   -3.16278407215024e-05
-2.054595318333077e-05   3.6706258213516606e-06   -3.16278407215024e-05
-2.054595318333077e-05   3.6706258213516606e-06   -3.16278407215024e-05
-2.054595318333077e-05   3.6706258213516606e-06   -3.16278407215024e-05
-1.9885038790761927e-05   3.2548028257863796e-06   -1.9561459692300364e-05
-1.9885038790761927e-05   3.2548028257863796e-06   -1.9561459692300364e-05
-1.9885038790761927e-05   3.2548028257863796e-06   -1.9561459692300364e-05
-1.9885038790761927e-05   3.2548028257863796e-06   -1.9561459692300364e-05
-1.2926894025467292e-05   4.394353800831309e-06   -3.1842098219485006e-05
-1.2926894025467292e-05   4.394353800831309e-06   -3.1842098219485006e-05
-1.2926894025467292e-05   4.394353800831309e-06   -3.1842098219485006e-05
-1.2926894025467292e-05   4.394353800831309e-06   -3.1842098219485006e-05
-1.6564315430212677e-05   3.3758636344763393e-06   -2.516863511176342e-05
-1.6564315430212677e-05   3.3758636344763393e-06   -2.516863511176342e-05
-1.6564315430212677e-05   3.3758636344763393e-06   -2.516863511176342e-05
-1.6564315430212677e-05   3.3758636344763393e-06   -2.516863511176342e-05
-1.2926894025467292e-05   3.2548028257863927e-06   -2.024519027732732e-05
-1.2926894025467292e-05   3.2548028257863927e-06   -2.024519027732732e-05
-1.2926894025467292e-05   3.2548028257863927e-06   -2.024519027732732e-05
-1.2926894025467292e-05   3.2548028257863927e-06   -2.024519027732732e-05
-1.9885038790761927e-05   4.394353800831309e-06   -3.115836763445791e-05
-1.9885038790761927e-05   4.394353800831309e-06   -3.115836763445791e-05
-1.9885038790761927e-05   4.394353800831309e-06   -3.115836763445791e-05
-1.9885038790761927e-05   4.394353800831309e-06   -3.115836763445791e-05
-1.933465682872474e-05   4.162518089451377e-06   -2.01028639535396e-05
-1.933465682872474e-05   4.162518089451377e-06   -2.01028639535396e-05
-1.933465682872474e-05   4.162518089451377e-06   -2.01028639535396e-05
-1.933465682872474e-05   4.162518089451377e-06   -2.01028639535396e-05
-1.2459627874653832e-05   5.203521266615874e-06   -3.2185847449956676e-05
-1.2459627874653832e-05   5.203521266615874e-06   -3.2185847449956676e-05
-1.2459627874653832e-05   5.203521266615874e-06   -3.2185847449956676e-05
-1.2459627874653832e-05   5.203521266615874e-06   -3.2185847449956676e-05
-1.619336184049481e-05   4.001116875771869e-06   -2.524151487238182e-05
-1.619336184049481e-05   4.001116875771869e-06   -2.524151487238182e-05
-1.619336184049481e-05   4.001116875771869e-06   -2.524151487238182e-05
-1.619336184049481e-05   4.001116875771869e-06   -2.524151487238182e-05
-2.1097164398702725e-05   2.6328081202484642e-06   -1.0843113409851027e-05
-2.1097164398702725e-05   2.6328081202484642e-06   -1.0843113409851027e-05
-2.1097164398702725e-05   2.6328081202484642e-06   -1.0843113409851027e-05
-2.1097164398702725e-05   2.6328081202484642e-06   -1.0843113409851027e-05
-2.9305469223665475e-05   4.929660216466654e-06   -2.314551019372464e-05
-2.9305469223665475e-05   4.929660216466654e-06   -2.314551019372464e-05
-2.9305469223665475e-05   4.929660216466654e-06   -2.314551019372464e-05
-2.9305469223665475e-05   4.929660216466654e-06   -2.314551019372464e-05
-2.7784750692457487e-05   3.4300152236038575e-06   -6.8009223119700184e-06
-2.7784750692457487e-05   3.4300152236038575e-06   -6.8009223119700184e-06
-2.7784750692457487e-05   3.4300152236038575e-06   -6.8009223119700184e-06
-2.7784750692457487e-05   3.4300152236038575e-06   -6.8009223119700184e-06
-2.054595318333073e-05   5.7646016884314e-06   -2.0266336706077752e-05
-2.054595318333073e-05   5.7646016884314e-06   -2.0266336706077752e-05
-2.054595318333073e-05   5.7646016884314e-06   -2.0266336706077752e-05
-2.054595318333073e-05   5.7646016884314e-06   -2.0266336706077752e-05
-2.3679233294749426e-05   4.284003556741722e-06   -1.415584430803282e-05
-2.3679233294749426e-05   4.284003556741722e-06   -1.415584430803282e-05
-2.3679233294749426e-05   4.284003556741722e-06   -1.415584430803282e-05
-2.3679233294749426e-05   4.284003556741722e-06   -1.415584430803282e-05
-2.0545953183330748e-05   3.430015223603889e-06   -8.201674190866435e-06
-2.0545953183330748e-05   3.430015223603889e-06   -8.201674190866435e-06
-2.0545953183330748e-05   3.430015223603889e-06   -8.201674190866435e-06
-2.0545953183330748e-05   3.430015223603889e-06   -8.201674190866435e-06
-2.7784750692457405e-05   5.7646016884314e-06   -1.886558482718122e-05
-2.7784750692457405e-05   5.7646016884314e-06   -1.886558482718122e-05
-2.7784750692457405e-05   5.7646016884314e-06   -1.886558482718122e-05
-2.7784750692457405e-05   5.7646016884314e-06   -1.886558482718122e-05
-2.6527902805775056e-05   3.79499191603184e-06   -5.572414133770808e-06
-2.6527902805775056e-05   3.79499191603184e-06   -5.572414133770808e-06
-2.6527902805775056e-05   3.79499191603184e-06   -5.572414133770808e-06
-2.6527902805775056e-05   3.79499191603184e-06   -5.572414133770808e-06
-1.9885038790761883e-05   6.063924690946371e-06   -1.8005213823741456e-05
-1.9885038790761883e-05   6.063924690946371e-06   -1.8005213823741456e-05
-1.9885038790761883e-05   6.063924690946371e-06   -1.8005213823741456e-05
-1.9885038790761883e-05   6.063924690946371e-06   -1.8005213823741456e-05
-2.312529162883577e-05   4.6601192681826505e-06   -1.1762509173293467e-05
-2.312529162883577e-05   4.6601192681826505e-06   -1.1762509173293467e-05
-2.312529162883577e-05   4.6601192681826505e-06   -1.1762509173293467e-05
-2.312529162883577e-05   4.6601192681826505e-06   -1.1762509173293467e-05
-1.9885038790761927e-05   3.7949919160317565e-06   -6.933773798719635e-06
-1.9885038790761927e-05   3.7949919160317565e-06   -6.933773798719635e-06
-1.9885038790761927e-05   3.7949919160317565e-06   -6.933773798719635e-06
-1.9885038790761927e-05   3.7949919160317565e-06   -6.933773798719635e-06
-2.6527902805774975e-05   6.063924690946371e-06   -1.664385415879263e-05
-2.6527902805774975e-05   6.063924690946371e-06   -1.664385415879263e-05
-2.6527902805774975e-05   6.063924690946371e-06   -1.664385415879263e-05
-2.6527902805774975e-05   6.063924690946371e-06   -1.664385415879263e-05
-2.504032737120132e-05   4.359273349696614e-06   -4.283395534149812e-06
-2.504032737120132e-05   4.359273349696614e-06   -4.283395534149812e-06
-2.504032737120132e-05   4.359273349696614e-06   -4.283395534149812e-06
-2.504032737120132e-05   4.359273349696614e-06   -4.283395534149812e-06
-1.9334656828724726e-05   6.442163987174917e-06   -1.5042580820764025e-05
-1.9334656828724726e-05   6.442163987174917e-06   -1.5042580820764025e-05
-1.9334656828724726e-05   6.442163987174917e-06   -1.5042580820764025e-05
-1.9334656828724726e-05   6.442163987174917e-06   -1.5042580820764025e-05
-2.194265505138364e-05   4.841258882233796e-06   -9.735374053368304e-06
-2.194265505138364e-05   4.841258882233796e-06   -9.735374053368304e-06
-2.194265505138364e-05   4.841258882233796e-06   -9.735374053368304e-06
-2.194265505138364e-05   4.841258882233796e-06   -9.735374053368304e-06
2.2210383227031996e-05   -2.9116004788369995e-06   -1.2359324102605845e-07
2.2210383227031996e-05   -2.9116004788369995e-06   -1.2359324102605845e-07
2.2210383227031996e-05   -2.9116004788369995e-06   -1.2359324102605845e-07
2.2210383227031996e-05   -2.9116004788369995e-06   -1.2359324102605845e-07
9.457988046567185e-06   -5.246298500350506e-06   -2.2778404021375374e-05
9.457988046567185e-06   -5.246298500350506e-06   -2.2778404021375374e-05
9.457988046567185e-06   -5.246298500350506e-06   -2.2778404021375374e-05
9.457988046567185e-06   -5.246298500350506e-06   -2.2778404021375374e-05
1.0124362999763901e-05   -2.3934048972592235e-06   -2.4610145749411234e-06
1.0124362999763901e-05   -2.3934048972592235e-06   -2.4610145749411234e-06
1.0124362999763901e-05   -2.3934048972592235e-06   -2.4610145749411234e-06
1.0124362999763901e-05   -2.3934048972592235e-06   -2.4610145749411234e-06
2.388394380291325e-05   -4.879751046054726e-06   -2.3901841557579537e-05
2.388394380291325e-05   -4.879751046054726e-06   -2.3901841557579537e-05
2.388394380291325e-05   -4.879751046054726e-06   -2.3901841557579537e-05
2.388394380291325e-05   -4.879751046054726e-06   -2.3901841557579537e-05
1.5756659119282167e-05   -3.459481593766746e-06   -1.1208528756233695e-05
1.5756659119282167e-05   -3.459481593766746e-06   -1.1208528756233695e-05
1.5756659119282167e-05   -3.459481593766746e-06   -1.1208528756233695e-05
1.5756659119282167e-05   -3.459481593766746e-06   -1.1208528756233695e-05
2.388394380291328e-05   -2.3934048972593146e-06   -9.692068856638437e-07
2.388394380291328e-05   -2.3934048972593146e-06   -9.692068856638437e-07
2.388394380291328e-05   -2.3934048972593146e-06   -9.692068856638437e-07
2.388394380291328e-05   -2.3934048972593146e-06   -9.692068856638437e-07
1.0124362999763874e-05   -4.879751046054726e-06   -2.5393649246856654e-05
1.0124362999763874e-05   -4.879751046054726e-06   -2.5393649246856654e-05
1.0124362999763874e-05   -4.879751046054726e-06   -2.5393649246856654e-05
1.0124362999763874e-05   -4.879751046054726e-06   -2.5393649246856654e-05
1.0862767623110115e-05   -2.0472398785434907e-06   -3.4869491983306397e-06
1.0862767623110115e-05   -2.0472398785434907e-06   -3.4869491983306397e-06
1.0862767623110115e-05   -2.0472398785434907e-06   -3.4869491983306397e-06
1.0862767623110115e-05   -2.0472398785434907e-06   -3.4869491983306397e-06
2.528900324259761e-05   -4.563921379168671e-06   -2.6020666330434702e-05
2.528900324259761e-05   -4.563921379168671e-06   -2.6020666330434702e-05
2.528900324259761e-05   -4.563921379168671e-06   -2.6020666330434702e-05
2.528900324259761e-05   -4.563921379168671e-06   -2.6020666330434702e-05
1.7013501457477465e-05   -3.318845827528661e-06   -1.2975208686218402e-05
1.7013501457477465e-05   -3.318845827528661e-06   -1.2975208686218402e-05
1.7013501457477465e-05   -3.318845827528661e-06   -1.2975208686218402e-05
1.7013501457477465e-05   -3.318845827528661e-06   -1.2975208686218402e-05
2.528900324259766e-05   -2.0472398785434107e-06   -1.9769402979554884e-06
2.528900324259766e-05   -2.0472398785434107e-06   -1.9769402979554884e-06
2.528900324259766e-05   -2.0472398785434107e-06   -1.9769402979554884e-06
2.528900324259766e-05   -2.0472398785434107e-06   -1.9769402979554884e-06
1.0862767623110088e-05   -4.563921379168454e-06   -2.753067523080996e-05
1.0862767623110088e-05   -4.563921379168454e-06   -2.753067523080996e-05
1.0862767623110088e-05   -4.563921379168454e-06   -2.753067523080996e-05
1.0862767623110088e-05   -4.563921379168454e-06   -2.753067523080996e-05
1.1472487073285e-05   -1.1756670501982414e-06   -5.8521136772451184e-06
1.1472487073285e-05   -1.1756670501982414e-06   -5.8521136772451184e-06
1.1472487073285e-05   -1.1756670501982414e-06   -5.8521136772451184e-06
1.1472487073285e-05   -1.1756670501982414e-06   -5.8521136772451184e-06
2.69205517165729e-05   -3.5660541900324385e-06   -3.0164655798824267e-05
2.69205517165729e-05   -3.5660541900324385e-06   -3.0164655798824267e-05
2.69205517165729e-05   -3.5660541900324385e-06   -3.0164655798824267e-05
2.69205517165729e-05   -3.5660541900324385e-06   -3.0164655798824267e-05
1.7692214247527427e-05   -2.92817875151871e-06   -1.5166818613524186e-05
1.7692214247527427e-05   -2.92817875151871e-06   -1.5166818613524186e-05
1.7692214247527427e-05   -2.92817875151871e-06   -1.5166818613524186e-05
1.7692214247527427e-05   -2.92817875151871e-06   -1.5166818613524186e-05
9.457988046567185e-06   -1.1488324829877768e-06   -1.5394807367154857e-05
9.457988046567185e-06   -1.1488324829877768e-06   -1.5394807367154857e-05
9.457988046567185e-06   -1.1488324829877768e-06   -1.5394807367154857e-05
9.457988046567185e-06   -1.1488324829877768e-06   -1.5394807367154857e-05
-4.032865231106859e-06   -2.452648466482344e-06   -3.866185242004162e-05
-4.032865231106859e-06   -2.452648466482344e-06   -3.866185242004162e-05
-4.032865231106859e-06   -2.452648466482344e-06   -3.866185242004162e-05
-4.032865231106859e-06   -2.452648466482344e-06   -3.866185242004162e-05
-3.4133186081651762e-06   -4.376171375824068e-07   -1.571494775909018e-05
-3.4133186081651762e-06   -4.376171375824068e-07   -1.571494775909018e-05
-3.4133186081651762e-06   -4.376171375824068e-07   -1.571494775909018e-05
-3.4133186081651762e-06   -4.376171375824068e-07   -1.571494775909018e-05
1.01243629997639e-05   -1.942206617396372e-06   -3.7374996751083484e-05
1.01243629997639e-05   -1.942206617396372e-06   -3.7374996751083484e-05
1.01243629997639e-05   -1.942206617396372e-06   -3.7374996751083484e-05
1.01243629997639e-05   -1.942206617396372e-06   -3.7374996751083484e-05
3.0673854701732535e-06   -1.1851494451540698e-06   -2.6067601838444484e-05
3.0673854701732535e-06   -1.1851494451540698e-06   -2.6067601838444484e-05
3.0673854701732535e-06   -1.1851494451540698e-06   -2.6067601838444484e-05
3.0673854701732535e-06   -1.1851494451540698e-06   -2.6067601838444484e-05
1.0124362999763901e-05   -4.376171375824548e-07   -1.4812194071201607e-05
1.0124362999763901e-05   -4.376171375824548e-07   -1.4812194071201607e-05
1.0124362999763901e-05   -4.376171375824548e-07   -1.4812194071201607e-05
1.0124362999763901e-05   -4.376171375824548e-07   -1.4812194071201607e-05
-3.4133186081651627e-06   -1.942206617396372e-06   -3.827775043897179e-05
-3.4133186081651627e-06   -1.942206617396372e-06   -3.827775043897179e-05
-3.4133186081651627e-06   -1.942206617396372e-06   -3.827775043897179e-05
-3.4133186081651627e-06   -1.942206617396372e-06   -3.827775043897179e-05
-2.8217962520351377e-06   2.9803891003310316e-07   -1.5918275217250647e-05
-2.8217962520351377e-06   2.9803891003310316e-07   -1.5918275217250647e-05
-2.8217962520351377e-06   2.9803891003310316e-07   -1.5918275217250647e-05
-2.8217962520351377e-06   2.9803891003310316e-07   -1.5918275217250647e-05
1.0862767623110101e-05   -1.3183847499403933e-06   -3.775602747984187e-05
1.0862767623110101e-05   -1.3183847499403933e-06   -3.775602747984187e-05
1.0862767623110101e-05   -1.3183847499403933e-06   -3.775602747984187e-05
1.0862767623110101e-05   -1.3183847499403933e-06   -3.775602747984187e-05
3.5583414203276842e-06   -7.333513089911696e-07   -2.5933003873106897e-05
3.5583414203276842e-06   -7.333513089911696e-07   -2.5933003873106897e-05
3.5583414203276842e-06   -7.333513089911696e-07   -2.5933003873106897e-05
3.5583414203276842e-06   -7.333513089911696e-07   -2.5933003873106897e-05
1.0862767623110115e-05   2.9803891003334256e-07   -1.494842102126644e-05
1.0862767623110115e-05   2.9803891003334256e-07   -1.494842102126644e-05
1.0862767623110115e-05   2.9803891003334256e-07   -1.494842102126644e-05
1.0862767623110115e-05   2.9803891003334256e-07   -1.494842102126644e-05
-2.8217962520351377e-06   -1.3183847499403933e-06   -3.872588167582608e-05
-2.8217962520351377e-06   -1.3183847499403933e-06   -3.872588167582608e-05
-2.8217962520351377e-06   -1.3183847499403933e-06   -3.872588167582608e-05
-2.8217962520351377e-06   -1.3183847499403933e-06   -3.872588167582608e-05
-2.2663459123932472e-06   1.1696172580028235e-06   -1.64615092090399e-05
-2.2663459123932472e-06   1.1696172580028235e-06   -1.64615092090399e-05
-2.2663459123932472e-06   1.1696172580028235e-06   -1.64615092090399e-05
-2.2663459123932472e-06   1.1696172580028235e-06   -1.64615092090399e-05
1.1472487073284954e-05   -5.33189119562719e-07   -3.833788035863115e-05
1.1472487073284954e-05   -5.33189119562719e-07   -3.833788035863115e-05
1.1472487073284954e-05   -5.33189119562719e-07   -3.833788035863115e-05
1.1472487073284954e-05   -5.33189119562719e-07   -3.833788035863115e-05
4.171807980248532e-06   -1.7595964159995356e-07   -2.638441955701528e-05
4.171807980248532e-06   -1.7595964159995356e-07   -2.638441955701528e-05
4.171807980248532e-06   -1.7595964159995356e-07   -2.638441955701528e-05
4.171807980248532e-06   -1.7595964159995356e-07   -2.638441955701528e-05
-4.032865231106872e-06   8.883545884847898e-07   -1.9814140762752417e-05
-4.032865231106872e-06   8.883545884847898e-07   -1.9814140762752417e-05
-4.032865231106872e-06   8.883545884847898e-07   -1.9814140762752417e-05
-4.032865231106872e-06   8.883545884847898e-07   -1.9814140762752417e-05
-1.728606066208529e-05   4.5477368719373107e-07   -4.2162948355157744e-05
-1.728606066208529e-05   4.5477368719373107e-07   -4.2162948355157744e-05
-1.728606066208529e-05   4.5477368719373107e-07   -4.2162948355157744e-05
-1.728606066208529e-05   4.5477368719373107e-07   -4.2162948355157744e-05
-1.661927239782255e-05   1.6413228384284419e-06   -1.9673922003727706e-05
-1.661927239782255e-05   1.6413228384284419e-06   -1.9673922003727706e-05
-1.661927239782255e-05   1.6413228384284419e-06   -1.9673922003727706e-05
-1.661927239782255e-05   1.6413228384284419e-06   -1.9673922003727706e-05
-3.413318608165169e-06   1.0284076324721877e-06   -4.131609586291625e-05
-3.413318608165169e-06   1.0284076324721877e-06   -4.131609586291625e-05
-3.413318608165169e-06   1.0284076324721877e-06   -4.131609586291625e-05
-3.413318608165169e-06   1.0284076324721877e-06   -4.131609586291625e-05
-1.0267272458161384e-05   1.2183644673567813e-06   -3.0006813547186714e-05
-1.0267272458161384e-05   1.2183644673567813e-06   -3.0006813547186714e-05
-1.0267272458161384e-05   1.2183644673567813e-06   -3.0006813547186714e-05
-1.0267272458161384e-05   1.2183644673567813e-06   -3.0006813547186714e-05
-3.4133186081651762e-06   1.641322838428309e-06   -1.9306172880153953e-05
-3.4133186081651762e-06   1.641322838428309e-06   -1.9306172880153953e-05
-3.4133186081651762e-06   1.641322838428309e-06   -1.9306172880153953e-05
-3.4133186081651762e-06   1.641322838428309e-06   -1.9306172880153953e-05
-1.661927239782255e-05   1.0284076324721877e-06   -4.168384498648989e-05
-1.661927239782255e-05   1.0284076324721877e-06   -4.168384498648989e-05
-1.661927239782255e-05   1.0284076324721877e-06   -4.168384498648989e-05
-1.661927239782255e-05   1.0284076324721877e-06   -4.168384498648989e-05
-1.597603045115917e-05   2.4382862129207743e-06   -1.9644325727576507e-05
-1.597603045115917e-05   2.4382862129207743e-06   -1.9644325727576507e-05
-1.597603045115917e-05   2.4382862129207743e-06   -1.9644325727576507e-05
-1.597603045115917e-05   2.4382862129207743e-06   -1.9644325727576507e-05
-2.8217962520351538e-06   1.6922042360581566e-06   -4.112040020666581e-05
-2.8217962520351538e-06   1.6922042360581566e-06   -4.112040020666581e-05
-2.8217962520351538e-06   1.6922042360581566e-06   -4.112040020666581e-05
-2.8217962520351538e-06   1.6922042360581566e-06   -4.112040020666581e-05
-9.693769344142275e-06   1.755496081933764e-06   -2.9705086827345756e-05
-9.693769344142275e-06   1.755496081933764e-06   -2.9705086827345756e-05
-9.693769344142275e-06   1.755496081933764e-06   -2.9705086827345756e-05
-9.693769344142275e-06   1.755496081933764e-06   -2.9705086827345756e-05
-2.8217962520351512e-06   2.4382862129207278e-06   -1.9196676541459e-05
-2.8217962520351512e-06   2.4382862129207278e-06   -1.9196676541459e-05
-2.8217962520351512e-06   2.4382862129207278e-06   -1.9196676541459e-05
-2.8217962520351512e-06   2.4382862129207278e-06   -1.9196676541459e-05
-1.597603045115917e-05   1.6922042360581566e-06   -4.156804939278323e-05
-1.597603045115917e-05   1.6922042360581566e-06   -4.156804939278323e-05
-1.597603045115917e-05   1.6922042360581566e-06   -4.156804939278323e-05
-1.597603045115917e-05   1.6922042360581566e-06   -4.156804939278323e-05
-1.5381659576904857e-05   3.2490496673894323e-06   -2.010744123850071e-05
-1.5381659576904857e-05   3.2490496673894323e-06   -2.010744123850071e-05
-1.5381659576904857e-05   3.2490496673894323e-06   -2.010744123850071e-05
-1.5381659576904857e-05   3.2490496673894323e-06   -2.010744123850071e-05
-2.2663459123932426e-06   2.378124566030813e-06   -4.144374228520501e-05
-2.2663459123932426e-06   2.378124566030813e-06   -4.144374228520501e-05
-2.2663459123932426e-06   2.378124566030813e-06   -4.144374228520501e-05
-2.2663459123932426e-06   2.378124566030813e-06   -4.144374228520501e-05
-9.181623482911032e-06   2.3066294938445166e-06   -2.9875382624364153e-05
-9.181623482911032e-06   2.3066294938445166e-06   -2.9875382624364153e-05
-9.181623482911032e-06   2.3066294938445166e-06   -2.9875382624364153e-05
-9.181623482911032e-06   2.3066294938445166e-06   -2.9875382624364153e-05
-1.7286060662085324e-05   2.8668663623344287e-06   -1.607044734876998e-05
-1.7286060662085324e-05   2.8668663623344287e-06   -1.607044734876998e-05
-1.7286060662085324e-05   2.8668663623344287e-06   -1.607044734876998e-05
-1.7286060662085324e-05   2.8668663623344287e-06   -1.607044734876998e-05
-3.0298626947174772e-05   3.4663956974766673e-06   -3.739834022283375e-05
-3.0298626947174772e-05   3.4663956974766673e-06   -3.739834022283375e-05
-3.0298626947174772e-05   3.4663956974766673e-06   -3.739834022283375e-05
-3.0298626947174772e-05   3.4663956974766673e-06   -3.739834022283375e-05
-2.9494629796747806e-05   3.6706258213516606e-06   -1.5096094761942358e-05
-2.9494629796747806e-05   3.6706258213516606e-06   -1.5096094761942358e-05
-2.9494629796747806e-05   3.6706258213516606e-06   -1.5096094761942358e-05
-2.9494629796747806e-05   3.6706258213516606e-06   -1.5096094761942358e-05
-1.661927239782259e-05   4.194241838577709e-06   -3.6869193370486726e-05
-1.661927239782259e-05   4.194241838577709e-06   -3.6869193370486726e-05
-1.661927239782259e-05   4.194241838577709e-06   -3.6869193370486726e-05
-1.661927239782259e-05   4.194241838577709e-06   -3.6869193370486726e-05
-2.325360417010546e-05   3.7008703050020377e-06   -2.5515950829869777e-05
-2.325360417010546e-05   3.7008703050020377e-06   -2.5515950829869777e-05
-2.325360417010546e-05   3.7008703050020377e-06   -2.5515950829869777e-05
-2.325360417010546e-05   3.7008703050020377e-06   -2.5515950829869777e-05
-1.6619272397822585e-05   3.6706258213516047e-06   -1.5410264372278074e-05
-1.6619272397822585e-05   3.6706258213516047e-06   -1.5410264372278074e-05
-1.6619272397822585e-05   3.6706258213516047e-06   -1.5410264372278074e-05
-1.6619272397822585e-05   3.6706258213516047e-06   -1.5410264372278074e-05
-2.9494629796747806e-05   4.194241838577709e-06   -3.655502376015104e-05
-2.9494629796747806e-05   4.194241838577709e-06   -3.655502376015104e-05
-2.9494629796747806e-05   4.194241838577709e-06   -3.655502376015104e-05
-2.9494629796747806e-05   4.194241838577709e-06   -3.655502376015104e-05
-2.8604288507802893e-05   4.394353800831309e-06   -1.4554021575636632e-05
-2.8604288507802893e-05   4.394353800831309e-06   -1.4554021575636632e-05
-2.8604288507802893e-05   4.394353800831309e-06   -1.4554021575636632e-05
-2.8604288507802893e-05   4.394353800831309e-06   -1.4554021575636632e-05
-1.5976030451159197e-05   4.820970286835034e-06   -3.58570882283116e-05
-1.5976030451159197e-05   4.820970286835034e-06   -3.58570882283116e-05
-1.5976030451159197e-05   4.820970286835034e-06   -3.58570882283116e-05
-1.5976030451159197e-05   4.820970286835034e-06   -3.58570882283116e-05
-2.2439672278626387e-05   4.26794721333063e-06   -2.4752538005097012e-05
-2.2439672278626387e-05   4.26794721333063e-06   -2.4752538005097012e-05
-2.2439672278626387e-05   4.26794721333063e-06   -2.4752538005097012e-05
-2.2439672278626387e-05   4.26794721333063e-06   -2.4752538005097012e-05
-1.5976030451159194e-05   4.394353800831341e-06   -1.480999146723878e-05
-1.5976030451159194e-05   4.394353800831341e-06   -1.480999146723878e-05
-1.5976030451159194e-05   4.394353800831341e-06   -1.480999146723878e-05
-1.5976030451159194e-05   4.394353800831341e-06   -1.480999146723878e-05
-2.8604288507802893e-05   4.820970286835034e-06   -3.5601118336709586e-05
-2.8604288507802893e-05   4.820970286835034e-06   -3.5601118336709586e-05
-2.8604288507802893e-05   4.820970286835034e-06   -3.5601118336709586e-05
-2.8604288507802893e-05   4.820970286835034e-06   -3.5601118336709586e-05
-2.785213073493243e-05   5.203521266615874e-06   -1.489069846622598e-05
-2.785213073493243e-05   5.203521266615874e-06   -1.489069846622598e-05
-2.785213073493243e-05   5.203521266615874e-06   -1.489069846622598e-05
-2.785213073493243e-05   5.203521266615874e-06   -1.489069846622598e-05
-1.5381659576904884e-05   5.513829560655371e-06   -3.586100203936206e-05
-1.5381659576904884e-05   5.513829560655371e-06   -3.586100203936206e-05
-1.5381659576904884e-05   5.513829560655371e-06   -3.586100203936206e-05
-1.5381659576904884e-05   5.513829560655371e-06   -3.586100203936206e-05
-2.1935109100832775e-05   4.790094222864062e-06   -2.4504344963474653e-05
-2.1935109100832775e-05   4.790094222864062e-06   -2.4504344963474653e-05
-2.1935109100832775e-05   4.790094222864062e-06   -2.4504344963474653e-05
-2.1935109100832775e-05   4.790094222864062e-06   -2.4504344963474653e-05
-3.0298626947174772e-05   4.929660216466835e-06   -8.048348563718878e-06
-3.0298626947174772e-05   4.929660216466835e-06   -8.048348563718878e-06
-3.0298626947174772e-05   4.929660216466835e-06   -8.048348563718878e-06
-3.0298626947174772e-05   4.929660216466835e-06   -8.048348563718878e-06
-4.401166270053553e-05   6.806008199120679e-06   -2.9777599363061498e-05
-4.401166270053553e-05   6.806008199120679e-06   -2.9777599363061498e-05
-4.401166270053553e-05   6.806008199120679e-06   -2.9777599363061498e-05
-4.401166270053553e-05   6.806008199120679e-06   -2.9777599363061498e-05
-4.2160210247336376e-05   5.7646016884314e-06   -2.5294487058204673e-06
-4.2160210247336376e-05   5.7646016884314e-06   -2.5294487058204673e-06
-4.2160210247336376e-05   5.7646016884314e-06   -2.5294487058204673e-06
-4.2160210247336376e-05   5.7646016884314e-06   -2.5294487058204673e-06
-2.9494629796747752e-05   7.773171756260454e-06   -2.4843891497498845e-05
-2.9494629796747752e-05   7.773171756260454e-06   -2.4843891497498845e-05
-2.9494629796747752e-05   7.773171756260454e-06   -2.4843891497498845e-05
-2.9494629796747752e-05   7.773171756260454e-06   -2.4843891497498845e-05
-3.498294068850681e-05   6.483775531951428e-06   -1.4923068943314984e-05
-3.498294068850681e-05   6.483775531951428e-06   -1.4923068943314984e-05
-3.498294068850681e-05   6.483775531951428e-06   -1.4923068943314984e-05
-3.498294068850681e-05   6.483775531951428e-06   -1.4923068943314984e-05
-2.9494629796747782e-05   5.764601688431438e-06   -3.7345907465177047e-06
-2.9494629796747782e-05   5.764601688431438e-06   -3.7345907465177047e-06
-2.9494629796747782e-05   5.764601688431438e-06   -3.7345907465177047e-06
-2.9494629796747782e-05   5.764601688431438e-06   -3.7345907465177047e-06
-4.2160210247336295e-05   7.773171756260454e-06   -2.3638749456801394e-05
-4.2160210247336295e-05   7.773171756260454e-06   -2.3638749456801394e-05
-4.2160210247336295e-05   7.773171756260454e-06   -2.3638749456801394e-05
-4.2160210247336295e-05   7.773171756260454e-06   -2.3638749456801394e-05
-4.0636761927841615e-05   6.063924690946371e-06   -2.225171359011846e-07
-4.0636761927841615e-05   6.063924690946371e-06   -2.225171359011846e-07
-4.0636761927841615e-05   6.063924690946371e-06   -2.225171359011846e-07
-4.0636761927841615e-05   6.063924690946371e-06   -2.225171359011846e-07
-2.8604288507802893e-05   8.027842405977951e-06   -2.1454990131651414e-05
-2.8604288507802893e-05   8.027842405977951e-06   -2.1454990131651414e-05
-2.8604288507802893e-05   8.027842405977951e-06   -2.1454990131651414e-05
-2.8604288507802893e-05   8.027842405977951e-06   -2.1454990131651414e-05
-3.43560927495208e-05   6.869871440830797e-06   -1.1173867149699482e-05
-3.43560927495208e-05   6.869871440830797e-06   -1.1173867149699482e-05
-3.43560927495208e-05   6.869871440830797e-06   -1.1173867149699482e-05
-3.43560927495208e-05   6.869871440830797e-06   -1.1173867149699482e-05
-2.8604288507802893e-05   6.063924690946439e-06   -1.400867764920176e-06
-2.8604288507802893e-05   6.063924690946439e-06   -1.400867764920176e-06
-2.8604288507802893e-05   6.063924690946439e-06   -1.400867764920176e-06
-2.8604288507802893e-05   6.063924690946439e-06   -1.400867764920176e-06
-4.0636761927841466e-05   8.027842405977734e-06   -2.027663950263255e-05
-4.0636761927841466e-05   8.027842405977734e-06   -2.027663950263255e-05
-4.0636761927841466e-05   8.027842405977734e-06   -2.027663950263255e-05
-4.0636761927841466e-05   8.027842405977734e-06   -2.027663950263255e-05
-3.899200371178085e-05   6.442163987174917e-06   2.7101103134263144e-06
-3.899200371178085e-05   6.442163987174917e-06   2.7101103134263144e-06
-3.899200371178085e-05   6.442163987174917e-06   2.7101103134263144e-06
-3.899200371178085e-05   6.442163987174917e-06   2.7101103134263144e-06
-2.78521307349324e-05   8.245737415105581e-06   -1.693848870474627e-05
-2.78521307349324e-05   8.245737415105581e-06   -1.693848870474627e-05
-2.78521307349324e-05   8.245737415105581e-06   -1.693848870474627e-05
-2.78521307349324e-05   8.245737415105581e-06   -1.693848870474627e-05
-3.280952134392562e-05   6.932679499164693e-06   -7.88833627352712e-06
-3.280952134392562e-05   6.932679499164693e-06   -7.88833627352712e-06
-3.280952134392562e-05   6.932679499164693e-06   -7.88833627352712e-06
-3.280952134392562e-05   6.932679499164693e-06   -7.88833627352712e-06
3.764134248918137e-05   -5.246298500350603e-06   7.505112222026258e-06
3.764134248918137e-05   -5.246298500350603e-06   7.505112222026258e-06
3.764134248918137e-05   -5.246298500350603e-06   7.505112222026258e-06
3.764134248918137e-05   -5.246298500350603e-06   7.505112222026258e-06
1.813042215463302e-05   -7.761813294624147e-06   -2.6522397212118518e-05
1.813042215463302e-05   -7.761813294624147e-06   -2.6522397212118518e-05
1.813042215463302e-05   -7.761813294624147e-06   -2.6522397212118518e-05
1.813042215463302e-05   -7.761813294624147e-06   -2.6522397212118518e-05
1.8868673430056683e-05   -4.879751046054726e-06   3.64162707117339e-06
1.8868673430056683e-05   -4.879751046054726e-06   3.64162707117339e-06
1.8868673430056683e-05   -4.879751046054726e-06   3.64162707117339e-06
1.8868673430056683e-05   -4.879751046054726e-06   3.64162707117339e-06
3.935898540920569e-05   -7.58130264180072e-06   -2.8887961936627368e-05
3.935898540920569e-05   -7.58130264180072e-06   -2.8887961936627368e-05
3.935898540920569e-05   -7.58130264180072e-06   -2.8887961936627368e-05
3.935898540920569e-05   -7.58130264180072e-06   -2.8887961936627368e-05
2.7340701154160942e-05   -5.742854605974299e-06   -9.960556999715332e-06
2.7340701154160942e-05   -5.742854605974299e-06   -9.960556999715332e-06
2.7340701154160942e-05   -5.742854605974299e-06   -9.960556999715332e-06
2.7340701154160942e-05   -5.742854605974299e-06   -9.960556999715332e-06
3.935898540920573e-05   -4.879751046054708e-06   5.262558028620943e-06
3.935898540920573e-05   -4.879751046054708e-06   5.262558028620943e-06
3.935898540920573e-05   -4.879751046054708e-06   5.262558028620943e-06
3.935898540920573e-05   -4.879751046054708e-06   5.262558028620943e-06
1.886867343005663e-05   -7.58130264180072e-06   -3.050889289407503e-05
1.886867343005663e-05   -7.58130264180072e-06   -3.050889289407503e-05
1.886867343005663e-05   -7.58130264180072e-06   -3.050889289407503e-05
1.886867343005663e-05   -7.58130264180072e-06   -3.050889289407503e-05
1.960317525239705e-05   -4.563921379168671e-06   1.7496877110362297e-06
1.960317525239705e-05   -4.563921379168671e-06   1.7496877110362297e-06
1.960317525239705e-05   -4.563921379168671e-06   1.7496877110362297e-06
1.960317525239705e-05   -4.563921379168671e-06   1.7496877110362297e-06
4.0676835095324565e-05   -7.317847076651184e-06   -3.172072327535351e-05
4.0676835095324565e-05   -7.317847076651184e-06   -3.172072327535351e-05
4.0676835095324565e-05   -7.317847076651184e-06   -3.172072327535351e-05
4.0676835095324565e-05   -7.317847076651184e-06   -3.172072327535351e-05
2.8787898667098057e-05   -5.723723522534432e-06   -1.2862303360779408e-05
2.8787898667098057e-05   -5.723723522534432e-06   -1.2862303360779408e-05
2.8787898667098057e-05   -5.723723522534432e-06   -1.2862303360779408e-05
2.8787898667098057e-05   -5.723723522534432e-06   -1.2862303360779408e-05
4.067683509532456e-05   -4.563921379168668e-06   3.402043129525781e-06
4.067683509532456e-05   -4.563921379168668e-06   3.402043129525781e-06
4.067683509532456e-05   -4.563921379168668e-06   3.402043129525781e-06
4.067683509532456e-05   -4.563921379168668e-06   3.402043129525781e-06
1.960317525239705e-05   -7.317847076651184e-06   -3.337307869384306e-05
1.960317525239705e-05   -7.317847076651184e-06   -3.337307869384306e-05
1.960317525239705e-05   -7.317847076651184e-06   -3.337307869384306e-05
1.960317525239705e-05   -7.317847076651184e-06   -3.337307869384306e-05
2.010140838302319e-05   -3.5660541900324385e-06   -2.058104386698815e-06
2.010140838302319e-05   -3.5660541900324385e-06   -2.058104386698815e-06
2.010140838302319e-05   -3.5660541900324385e-06   -2.058104386698815e-06
2.010140838302319e-05   -3.5660541900324385e-06   -2.058104386698815e-06
4.20705868069483e-05   -6.291168725714022e-06   -3.70383330384984e-05
4.20705868069483e-05   -6.291168725714022e-06   -3.70383330384984e-05
4.20705868069483e-05   -6.291168725714022e-06   -3.70383330384984e-05
4.20705868069483e-05   -6.291168725714022e-06   -3.70383330384984e-05
2.9189676316859847e-05   -5.2833178750271055e-06   -1.617485939876367e-05
2.9189676316859847e-05   -5.2833178750271055e-06   -1.617485939876367e-05
2.9189676316859847e-05   -5.2833178750271055e-06   -1.617485939876367e-05
2.9189676316859847e-05   -5.2833178750271055e-06   -1.617485939876367e-05
1.8130422154633046e-05   -2.4526484664824715e-06   -9.105355463107437e-06
1.8130422154633046e-05   -2.4526484664824715e-06   -9.105355463107437e-06
1.8130422154633046e-05   -2.4526484664824715e-06   -9.105355463107437e-06
1.8130422154633046e-05   -2.4526484664824715e-06   -9.105355463107437e-06
-1.1139770755455813e-06   -5.020091881563233e-06   -4.271982022912028e-05
-1.1139770755455813e-06   -5.020091881563233e-06   -4.271982022912028e-05
-1.1139770755455813e-06   -5.020091881563233e-06   -4.271982022912028e-05
-1.1139770755455813e-06   -5.020091881563233e-06   -4.271982022912028e-05
-3.5652989588408346e-07   -1.942206617396155e-06   -1.0041426936742816e-05
-3.5652989588408346e-07   -1.942206617396155e-06   -1.0041426936742816e-05
-3.5652989588408346e-07   -1.942206617396155e-06   -1.0041426936742816e-05
-3.5652989588408346e-07   -1.942206617396155e-06   -1.0041426936742816e-05
1.886867343005668e-05   -4.778384123545459e-06   -4.038172597628807e-05
1.886867343005668e-05   -4.778384123545459e-06   -4.038172597628807e-05
1.886867343005668e-05   -4.778384123545459e-06   -4.038172597628807e-05
1.886867343005668e-05   -4.778384123545459e-06   -4.038172597628807e-05
8.90858271521923e-06   -3.037588730648872e-06   -2.4826052020630244e-05
8.90858271521923e-06   -3.037588730648872e-06   -2.4826052020630244e-05
8.90858271521923e-06   -3.037588730648872e-06   -2.4826052020630244e-05
8.90858271521923e-06   -3.037588730648872e-06   -2.4826052020630244e-05
1.886867343005663e-05   -1.9422066173962395e-06   -8.339720433053277e-06
1.886867343005663e-05   -1.9422066173962395e-06   -8.339720433053277e-06
1.886867343005663e-05   -1.9422066173962395e-06   -8.339720433053277e-06
1.886867343005663e-05   -1.9422066173962395e-06   -8.339720433053277e-06
-3.5652989588408346e-07   -4.778384123545459e-06   -4.2083432479977445e-05
-3.5652989588408346e-07   -4.778384123545459e-06   -4.2083432479977445e-05
-3.5652989588408346e-07   -4.778384123545459e-06   -4.2083432479977445e-05
-3.5652989588408346e-07   -4.778384123545459e-06   -4.2083432479977445e-05
3.1074377355179677e-07   -1.3183847499403933e-06   -1.0282265561303546e-05
3.1074377355179677e-07   -1.3183847499403933e-06   -1.0282265561303546e-05
3.1074377355179677e-07   -1.3183847499403933e-06   -1.0282265561303546e-05
3.1074377355179677e-07   -1.3183847499403933e-06   -1.0282265561303546e-05
1.9603175252397045e-05   -4.329386455453757e-06   -4.062971700273771e-05
1.9603175252397045e-05   -4.329386455453757e-06   -4.062971700273771e-05
1.9603175252397045e-05   -4.329386455453757e-06   -4.062971700273771e-05
1.9603175252397045e-05   -4.329386455453757e-06   -4.062971700273771e-05
9.423325514659435e-06   -2.786908048474585e-06   -2.4588787817361968e-05
9.423325514659435e-06   -2.786908048474585e-06   -2.4588787817361968e-05
9.423325514659435e-06   -2.786908048474585e-06   -2.4588787817361968e-05
9.423325514659435e-06   -2.786908048474585e-06   -2.4588787817361968e-05
1.960317525239705e-05   -1.3183847499403912e-06   -8.47566453799557e-06
1.960317525239705e-05   -1.3183847499403912e-06   -8.47566453799557e-06
1.960317525239705e-05   -1.3183847499403912e-06   -8.47566453799557e-06
1.960317525239705e-05   -1.3183847499403912e-06   -8.47566453799557e-06
3.107437735517832e-07   -4.3293864554535405e-06   -4.243631802604568e-05
3.107437735517832e-07   -4.3293864554535405e-06   -4.243631802604568e-05
3.107437735517832e-07   -4.3293864554535405e-06   -4.243631802604568e-05
3.107437735517832e-07   -4.3293864554535405e-06   -4.243631802604568e-05
7.855280158952893e-07   -5.33189119562719e-07   -1.0691474772231901e-05
7.855280158952893e-07   -5.33189119562719e-07   -1.0691474772231901e-05
7.855280158952893e-07   -5.33189119562719e-07   -1.0691474772231901e-05
7.855280158952893e-07   -5.33189119562719e-07   -1.0691474772231901e-05
2.010140838302324e-05   -3.690485968940423e-06   -4.09902306078184e-05
2.010140838302324e-05   -3.690485968940423e-06   -4.09902306078184e-05
2.010140838302324e-05   -3.690485968940423e-06   -4.09902306078184e-05
2.010140838302324e-05   -3.690485968940423e-06   -4.09902306078184e-05
1.0040814203769761e-05   -2.345802601125919e-06   -2.502938366308525e-05
1.0040814203769761e-05   -2.345802601125919e-06   -2.502938366308525e-05
1.0040814203769761e-05   -2.345802601125919e-06   -2.502938366308525e-05
1.0040814203769761e-05   -2.345802601125919e-06   -2.502938366308525e-05
-1.1139770755455813e-06   4.5477368719376283e-07   -1.3886768906497347e-05
-1.1139770755455813e-06   4.5477368719376283e-07   -1.3886768906497347e-05
-1.1139770755455813e-06   4.5477368719376283e-07   -1.3886768906497347e-05
-1.1139770755455813e-06   4.5477368719376283e-07   -1.3886768906497347e-05
-2.0074140151715724e-05   -2.620771001278282e-06   -4.7332367513197365e-05
-2.0074140151715724e-05   -2.620771001278282e-06   -4.7332367513197365e-05
-2.0074140151715724e-05   -2.620771001278282e-06   -4.7332367513197365e-05
-2.0074140151715724e-05   -2.620771001278282e-06   -4.7332367513197365e-05
-1.916521170914982e-05   1.028407632471971e-06   -1.5098146060080544e-05
-1.916521170914982e-05   1.028407632471971e-06   -1.5098146060080544e-05
-1.916521170914982e-05   1.028407632471971e-06   -1.5098146060080544e-05
-1.916521170914982e-05   1.028407632471971e-06   -1.5098146060080544e-05
-3.5652989588408955e-07   -2.335548533183296e-06   -4.4427575382796896e-05
-3.5652989588408955e-07   -2.335548533183296e-06   -4.4427575382796896e-05
-3.5652989588408955e-07   -2.335548533183296e-06   -4.4427575382796896e-05
-3.5652989588408955e-07   -2.335548533183296e-06   -4.4427575382796896e-05
-1.0057177215383854e-05   -4.96826904163852e-07   -2.936306282770892e-05
-1.0057177215383854e-05   -4.96826904163852e-07   -2.936306282770892e-05
-1.0057177215383854e-05   -4.96826904163852e-07   -2.936306282770892e-05
-1.0057177215383854e-05   -4.96826904163852e-07   -2.936306282770892e-05
-3.5652989588408346e-07   1.028407632472046e-06   -1.3079772360687384e-05
-3.5652989588408346e-07   1.028407632472046e-06   -1.3079772360687384e-05
-3.5652989588408346e-07   1.028407632472046e-06   -1.3079772360687384e-05
-3.5652989588408346e-07   1.028407632472046e-06   -1.3079772360687384e-05
-1.916521170914982e-05   -2.335548533183296e-06   -4.644594908219011e-05
-1.916521170914982e-05   -2.335548533183296e-06   -4.644594908219011e-05
-1.916521170914982e-05   -2.335548533183296e-06   -4.644594908219011e-05
-1.916521170914982e-05   -2.335548533183296e-06   -4.644594908219011e-05
-1.833133255491706e-05   1.6922042360583735e-06   -1.482789313136403e-05
-1.833133255491706e-05   1.6922042360583735e-06   -1.482789313136403e-05
-1.833133255491706e-05   1.6922042360583735e-06   -1.482789313136403e-05
-1.833133255491706e-05   1.6922042360583735e-06   -1.482789313136403e-05
3.1074377355178936e-07   -1.8929774959759553e-06   -4.3746911306258236e-05
3.1074377355178936e-07   -1.8929774959759553e-06   -4.3746911306258236e-05
3.1074377355178936e-07   -1.8929774959759553e-06   -4.3746911306258236e-05
3.1074377355178936e-07   -1.8929774959759553e-06   -4.3746911306258236e-05
-9.317166244614e-06   -1.7080854348354262e-07   -2.873369598081066e-05
-9.317166244614e-06   -1.7080854348354262e-07   -2.873369598081066e-05
-9.317166244614e-06   -1.7080854348354262e-07   -2.873369598081066e-05
-9.317166244614e-06   -1.7080854348354262e-07   -2.873369598081066e-05
3.107437735517832e-07   1.6922042360582894e-06   -1.267678409214352e-05
3.107437735517832e-07   1.6922042360582894e-06   -1.267678409214352e-05
3.107437735517832e-07   1.6922042360582894e-06   -1.267678409214352e-05
3.107437735517832e-07   1.6922042360582894e-06   -1.267678409214352e-05
-1.833133255491706e-05   -1.8929774959761721e-06   -4.5898020345478937e-05
-1.833133255491706e-05   -1.8929774959761721e-06   -4.5898020345478937e-05
-1.833133255491706e-05   -1.8929774959761721e-06   -4.5898020345478937e-05
-1.833133255491706e-05   -1.8929774959761721e-06   -4.5898020345478937e-05
-1.7769208468908245e-05   2.3781245660305962e-06   -1.508637940729929e-05
-1.7769208468908245e-05   2.3781245660305962e-06   -1.508637940729929e-05
-1.7769208468908245e-05   2.3781245660305962e-06   -1.508637940729929e-05
-1.7769208468908245e-05   2.3781245660305962e-06   -1.508637940729929e-05
7.855280158953072e-07   -1.4730863256910524e-06   -4.3700213680272375e-05
7.855280158953072e-07   -1.4730863256910524e-06   -4.3700213680272375e-05
7.855280158953072e-07   -1.4730863256910524e-06   -4.3700213680272375e-05
7.855280158953072e-07   -1.4730863256910524e-06   -4.3700213680272375e-05
-8.78966764881305e-06   1.9504414156597955e-07   -2.874243251944653e-05
-8.78966764881305e-06   1.9504414156597955e-07   -2.874243251944653e-05
-8.78966764881305e-06   1.9504414156597955e-07   -2.874243251944653e-05
-8.78966764881305e-06   1.9504414156597955e-07   -2.874243251944653e-05
-2.0074140151715724e-05   3.466395697476787e-06   -1.132720518834179e-05
-2.0074140151715724e-05   3.466395697476787e-06   -1.132720518834179e-05
-2.0074140151715724e-05   3.466395697476787e-06   -1.132720518834179e-05
-2.0074140151715724e-05   3.466395697476787e-06   -1.132720518834179e-05
-3.930068546358431e-05   6.979402256263294e-07   -4.5032520657899686e-05
-3.930068546358431e-05   6.979402256263294e-07   -4.5032520657899686e-05
-3.930068546358431e-05   6.979402256263294e-07   -4.5032520657899686e-05
-3.930068546358431e-05   6.979402256263294e-07   -4.5032520657899686e-05
-3.800656119817733e-05   4.1942418385779254e-06   -1.2066043891871938e-05
-3.800656119817733e-05   4.1942418385779254e-06   -1.2066043891871938e-05
-3.800656119817733e-05   4.1942418385779254e-06   -1.2066043891871938e-05
-3.800656119817733e-05   4.1942418385779254e-06   -1.2066043891871938e-05
-1.9165211709149815e-05   1.2233260922537431e-06   -4.168574359245655e-05
-1.9165211709149815e-05   1.2233260922537431e-06   -4.168574359245655e-05
-1.9165211709149815e-05   1.2233260922537431e-06   -4.168574359245655e-05
-1.9165211709149815e-05   1.2233260922537431e-06   -4.168574359245655e-05
-2.8835005172553308e-05   2.644215675104509e-06   -2.642195490316115e-05
-2.8835005172553308e-05   2.644215675104509e-06   -2.642195490316115e-05
-2.8835005172553308e-05   2.644215675104509e-06   -2.642195490316115e-05
-2.8835005172553308e-05   2.644215675104509e-06   -2.642195490316115e-05
-1.916521170914982e-05   4.194241838577901e-06   -1.0283494444077298e-05
-1.916521170914982e-05   4.194241838577901e-06   -1.0283494444077298e-05
-1.916521170914982e-05   4.194241838577901e-06   -1.0283494444077298e-05
-1.916521170914982e-05   4.194241838577901e-06   -1.0283494444077298e-05
-3.800656119817739e-05   1.2233260922537431e-06   -4.346829304025109e-05
-3.800656119817739e-05   1.2233260922537431e-06   -4.346829304025109e-05
-3.800656119817739e-05   1.2233260922537431e-06   -4.346829304025109e-05
-3.800656119817739e-05   1.2233260922537431e-06   -4.346829304025109e-05
-3.6754855161044266e-05   4.820970286834817e-06   -1.0985454029972721e-05
-3.6754855161044266e-05   4.820970286834817e-06   -1.0985454029972721e-05
-3.6754855161044266e-05   4.820970286834817e-06   -1.0985454029972721e-05
-3.6754855161044266e-05   4.820970286834817e-06   -1.0985454029972721e-05
-1.8331332554917094e-05   1.7067668483677651e-06   -3.982280297710461e-05
-1.8331332554917094e-05   1.7067668483677651e-06   -3.982280297710461e-05
-1.8331332554917094e-05   1.7067668483677651e-06   -3.982280297710461e-05
-1.8331332554917094e-05   1.7067668483677651e-06   -3.982280297710461e-05
-2.7664375589769926e-05   3.101367948551547e-06   -2.5104491912460054e-05
-2.7664375589769926e-05   3.101367948551547e-06   -2.5104491912460054e-05
-2.7664375589769926e-05   3.101367948551547e-06   -2.5104491912460054e-05
-2.7664375589769926e-05   3.101367948551547e-06   -2.5104491912460054e-05
-1.833133255491706e-05   4.82097028683488e-06   -9.116931966892533e-06
-1.833133255491706e-05   4.82097028683488e-06   -9.116931966892533e-06
-1.833133255491706e-05   4.82097028683488e-06   -9.116931966892533e-06
-1.833133255491706e-05   4.82097028683488e-06   -9.116931966892533e-06
-3.6754855161044334e-05   1.7067668483677651e-06   -4.169132504018493e-05
-3.6754855161044334e-05   1.7067668483677651e-06   -4.169132504018493e-05
-3.6754855161044334e-05   1.7067668483677651e-06   -4.169132504018493e-05
-3.6754855161044334e-05   1.7067668483677651e-06   -4.169132504018493e-05
-3.5806342378855385e-05   5.513829560655371e-06   -1.1020227859598634e-05
-3.5806342378855385e-05   5.513829560655371e-06   -1.1020227859598634e-05
-3.5806342378855385e-05   5.513829560655371e-06   -1.1020227859598634e-05
-3.5806342378855385e-05   5.513829560655371e-06   -1.1020227859598634e-05
-1.7769208468908276e-05   2.1152566290598158e-06   -3.9042973950553355e-05
-1.7769208468908276e-05   2.1152566290598158e-06   -3.9042973950553355e-05
-1.7769208468908276e-05   2.1152566290598158e-06   -3.9042973950553355e-05
-1.7769208468908276e-05   2.1152566290598158e-06   -3.9042973950553355e-05
-2.701097252536511e-05   3.420584064486084e-06   -2.442323031771473e-05
-2.701097252536511e-05   3.420584064486084e-06   -2.442323031771473e-05
-2.701097252536511e-05   3.420584064486084e-06   -2.442323031771473e-05
-2.701097252536511e-05   3.420584064486084e-06   -2.442323031771473e-05
-3.930068546358431e-05   6.806008199120433e-06   -6.4933464012720266e-06
-3.930068546358431e-05   6.806008199120433e-06   -6.4933464012720266e-06
-3.930068546358431e-05   6.806008199120433e-06   -6.4933464012720266e-06
-3.930068546358431e-05   6.806008199120433e-06   -6.4933464012720266e-06
-5.939423806385138e-05   6.431766854190059e-06   -4.0207145542009e-05
-5.939423806385138e-05   6.431766854190059e-06   -4.0207145542009e-05
-5.939423806385138e-05   6.431766854190059e-06   -4.0207145542009e-05
-5.939423806385138e-05   6.431766854190059e-06   -4.0207145542009e-05
-5.683577845513245e-05   7.773171756260454e-06   -1.387797627613093e-07
-5.683577845513245e-05   7.773171756260454e-06   -1.387797627613093e-07
-5.683577845513245e-05   7.773171756260454e-06   -1.387797627613093e-07
-5.683577845513245e-05   7.773171756260454e-06   -1.387797627613093e-07
-3.800656119817726e-05   8.133391533691114e-06   -3.1736940390811644e-05
-3.800656119817726e-05   8.133391533691114e-06   -3.1736940390811644e-05
-3.800656119817726e-05   8.133391533691114e-06   -3.1736940390811644e-05
-3.800656119817726e-05   8.133391533691114e-06   -3.1736940390811644e-05
-4.629802639922347e-05   7.667824509408278e-06   -1.763849150783167e-05
-4.629802639922347e-05   7.667824509408278e-06   -1.763849150783167e-05
-4.629802639922347e-05   7.667824509408278e-06   -1.763849150783167e-05
-4.629802639922347e-05   7.667824509408278e-06   -1.763849150783167e-05
-3.8006561198177354e-05   7.773171756260429e-06   -3.549116292195318e-07
-3.8006561198177354e-05   7.773171756260429e-06   -3.549116292195318e-07
-3.8006561198177354e-05   7.773171756260429e-06   -3.549116292195318e-07
-3.8006561198177354e-05   7.773171756260429e-06   -3.549116292195318e-07
-5.683577845513235e-05   8.133391533691114e-06   -3.1520808524353097e-05
-5.683577845513235e-05   8.133391533691114e-06   -3.1520808524353097e-05
-5.683577845513235e-05   8.133391533691114e-06   -3.1520808524353097e-05
-5.683577845513235e-05   8.133391533691114e-06   -3.1520808524353097e-05
-5.471463691261605e-05   8.027842405977951e-06   3.4536957023869165e-06
-5.471463691261605e-05   8.027842405977951e-06   3.4536957023869165e-06
-5.471463691261605e-05   8.027842405977951e-06   3.4536957023869165e-06
-5.471463691261605e-05   8.027842405977951e-06   3.4536957023869165e-06
-3.675485516104427e-05   8.51621161814713e-06   -2.6772295410867562e-05
-3.675485516104427e-05   8.51621161814713e-06   -2.6772295410867562e-05
-3.675485516104427e-05   8.51621161814713e-06   -2.6772295410867562e-05
-3.675485516104427e-05   8.51621161814713e-06   -2.6772295410867562e-05
-4.5334442427347786e-05   8.22391144621095e-06   -1.2297603197199642e-05
-4.5334442427347786e-05   8.22391144621095e-06   -1.2297603197199642e-05
-4.5334442427347786e-05   8.22391144621095e-06   -1.2297603197199642e-05
-4.5334442427347786e-05   8.22391144621095e-06   -1.2297603197199642e-05
-3.6754855161044334e-05   8.027842405977985e-06   3.160674175085431e-06
-3.6754855161044334e-05   8.027842405977985e-06   3.160674175085431e-06
-3.6754855161044334e-05   8.027842405977985e-06   3.160674175085431e-06
-3.6754855161044334e-05   8.027842405977985e-06   3.160674175085431e-06
-5.471463691261613e-05   8.51621161814713e-06   -2.647927388356626e-05
-5.471463691261613e-05   8.51621161814713e-06   -2.647927388356626e-05
-5.471463691261613e-05   8.51621161814713e-06   -2.647927388356626e-05
-5.471463691261613e-05   8.51621161814713e-06   -2.647927388356626e-05
-5.2495347854831885e-05   8.245737415105798e-06   8.271289897309624e-06
-5.2495347854831885e-05   8.245737415105798e-06   8.271289897309624e-06
-5.2495347854831885e-05   8.245737415105798e-06   8.271289897309624e-06
-5.2495347854831885e-05   8.245737415105798e-06   8.271289897309624e-06
-3.580634237885541e-05   9.171053079632579e-06   -2.0098908628034056e-05
-3.580634237885541e-05   9.171053079632579e-06   -2.0098908628034056e-05
-3.580634237885541e-05   9.171053079632579e-06   -2.0098908628034056e-05
-3.580634237885541e-05   9.171053079632579e-06   -2.0098908628034056e-05
-4.3190176520476755e-05   8.409733602779672e-06   -7.335726705887771e-06
-4.3190176520476755e-05   8.409733602779672e-06   -7.335726705887771e-06
-4.3190176520476755e-05   8.409733602779672e-06   -7.335726705887771e-06
-4.3190176520476755e-05   8.409733602779672e-06   -7.335726705887771e-06
5.170864429929946e-05   -7.761813294624144e-06   1.7673854284183058e-05
5.170864429929946e-05   -7.761813294624144e-06   1.7673854284183058e-05
5.170864429929946e-05   -7.761813294624144e-06   1.7673854284183058e-05
5.170864429929946e-05   -7.761813294624144e-06   1.7673854284183058e-05
2.5981781169872434e-05   -9.811066535091867e-06   -2.6433802875809316e-05
2.5981781169872434e-05   -9.811066535091867e-06   -2.6433802875809316e-05
2.5981781169872434e-05   -9.811066535091867e-06   -2.6433802875809316e-05
2.5981781169872434e-05   -9.811066535091867e-06   -2.6433802875809316e-05
2.661324461200094e-05   -7.581302641800937e-06   1.2685722454783624e-05
2.661324461200094e-05   -7.581302641800937e-06   1.2685722454783624e-05
2.661324461200094e-05   -7.581302641800937e-06   1.2685722454783624e-05
2.661324461200094e-05   -7.581302641800937e-06   1.2685722454783624e-05
5.2992821050175646e-05   -1.005653513907502e-05   -2.979509877714279e-05
5.2992821050175646e-05   -1.005653513907502e-05   -2.979509877714279e-05
5.2992821050175646e-05   -1.005653513907502e-05   -2.979509877714279e-05
5.2992821050175646e-05   -1.005653513907502e-05   -2.979509877714279e-05
3.775694182789179e-05   -7.928327193382993e-06   -5.678891507418353e-06
3.775694182789179e-05   -7.928327193382993e-06   -5.678891507418353e-06
3.775694182789179e-05   -7.928327193382993e-06   -5.678891507418353e-06
3.775694182789179e-05   -7.928327193382993e-06   -5.678891507418353e-06
5.299282105017565e-05   -7.581302641800861e-06   1.4170861953148378e-05
5.299282105017565e-05   -7.581302641800861e-06   1.4170861953148378e-05
5.299282105017565e-05   -7.581302641800861e-06   1.4170861953148378e-05
5.299282105017565e-05   -7.581302641800861e-06   1.4170861953148378e-05
2.661324461200094e-05   -1.005653513907502e-05   -3.1280238275507464e-05
2.661324461200094e-05   -1.005653513907502e-05   -3.1280238275507464e-05
2.661324461200094e-05   -1.005653513907502e-05   -3.1280238275507464e-05
2.661324461200094e-05   -1.005653513907502e-05   -3.1280238275507464e-05
2.714690835265816e-05   -7.317847076651184e-06   1.0013964234649713e-05
2.714690835265816e-05   -7.317847076651184e-06   1.0013964234649713e-05
2.714690835265816e-05   -7.317847076651184e-06   1.0013964234649713e-05
2.714690835265816e-05   -7.317847076651184e-06   1.0013964234649713e-05
5.379279214124795e-05   -9.964775440526354e-06   -3.280768506134157e-05
5.379279214124795e-05   -9.964775440526354e-06   -3.280768506134157e-05
5.379279214124795e-05   -9.964775440526354e-06   -3.280768506134157e-05
5.379279214124795e-05   -9.964775440526354e-06   -3.280768506134157e-05
3.90850091058244e-05   -8.177946303551415e-06   -9.366810817820618e-06
3.90850091058244e-05   -8.177946303551415e-06   -9.366810817820618e-06
3.90850091058244e-05   -8.177946303551415e-06   -9.366810817820618e-06
3.90850091058244e-05   -8.177946303551415e-06   -9.366810817820618e-06
5.379279214124796e-05   -7.317847076651151e-06   1.1602121252974771e-05
5.379279214124796e-05   -7.317847076651151e-06   1.1602121252974771e-05
5.379279214124796e-05   -7.317847076651151e-06   1.1602121252974771e-05
5.379279214124796e-05   -7.317847076651151e-06   1.1602121252974771e-05
2.714690835265816e-05   -9.964775440526354e-06   -3.439584207966663e-05
2.714690835265816e-05   -9.964775440526354e-06   -3.439584207966663e-05
2.714690835265816e-05   -9.964775440526354e-06   -3.439584207966663e-05
2.714690835265816e-05   -9.964775440526354e-06   -3.439584207966663e-05
2.7703972042805584e-05   -6.291168725714022e-06   4.833641888780937e-06
2.7703972042805584e-05   -6.291168725714022e-06   4.833641888780937e-06
2.7703972042805584e-05   -6.291168725714022e-06   4.833641888780937e-06
2.7703972042805584e-05   -6.291168725714022e-06   4.833641888780937e-06
5.458052847919118e-05   -9.408527396761925e-06   -3.8090203635899494e-05
5.458052847919118e-05   -9.408527396761925e-06   -3.8090203635899494e-05
5.458052847919118e-05   -9.408527396761925e-06   -3.8090203635899494e-05
5.458052847919118e-05   -9.408527396761925e-06   -3.8090203635899494e-05
3.9101177379213914e-05   -7.86933872464141e-06   -1.321479833920968e-05
3.9101177379213914e-05   -7.86933872464141e-06   -1.321479833920968e-05
3.9101177379213914e-05   -7.86933872464141e-06   -1.321479833920968e-05
3.9101177379213914e-05   -7.86933872464141e-06   -1.321479833920968e-05
2.5981781169872434e-05   -5.020091881563256e-06   1.7873453719494115e-06
2.5981781169872434e-05   -5.020091881563256e-06   1.7873453719494115e-06
2.5981781169872434e-05   -5.020091881563256e-06   1.7873453719494115e-06
2.5981781169872434e-05   -5.020091881563256e-06   1.7873453719494115e-06
3.055940164046282e-06   -9.8194726059638e-06   -3.930201807240117e-05
3.055940164046282e-06   -9.8194726059638e-06   -3.930201807240117e-05
3.055940164046282e-06   -9.8194726059638e-06   -3.930201807240117e-05
3.055940164046282e-06   -9.8194726059638e-06   -3.930201807240117e-05
3.7915901017596435e-06   -4.778384123545459e-06   -1.807051704133967e-07
3.7915901017596435e-06   -4.778384123545459e-06   -1.807051704133967e-07
3.7915901017596435e-06   -4.778384123545459e-06   -1.807051704133967e-07
3.7915901017596435e-06   -4.778384123545459e-06   -1.807051704133967e-07
2.661324461200098e-05   -9.767708361852184e-06   -3.5223201477831595e-05
2.661324461200098e-05   -9.767708361852184e-06   -3.5223201477831595e-05
2.661324461200098e-05   -9.767708361852184e-06   -3.5223201477831595e-05
2.661324461200098e-05   -9.767708361852184e-06   -3.5223201477831595e-05
1.4917920173779715e-05   -6.626042726644733e-06   -1.7615993461920652e-05
1.4917920173779715e-05   -6.626042726644733e-06   -1.7615993461920652e-05
1.4917920173779715e-05   -6.626042726644733e-06   -1.7615993461920652e-05
1.4917920173779715e-05   -6.626042726644733e-06   -1.7615993461920652e-05
2.6613244612000927e-05   -4.778384123545352e-06   2.812889372570855e-06
2.6613244612000927e-05   -4.778384123545352e-06   2.812889372570855e-06
2.6613244612000927e-05   -4.778384123545352e-06   2.812889372570855e-06
2.6613244612000927e-05   -4.778384123545352e-06   2.812889372570855e-06
3.7915901017596435e-06   -9.767708361852617e-06   -3.821679602081544e-05
3.7915901017596435e-06   -9.767708361852617e-06   -3.821679602081544e-05
3.7915901017596435e-06   -9.767708361852617e-06   -3.821679602081544e-05
3.7915901017596435e-06   -9.767708361852617e-06   -3.821679602081544e-05
4.4555954372841385e-06   -4.329386455453757e-06   -4.2587559894477316e-07
4.4555954372841385e-06   -4.329386455453757e-06   -4.2587559894477316e-07
4.4555954372841385e-06   -4.329386455453757e-06   -4.2587559894477316e-07
4.4555954372841385e-06   -4.329386455453757e-06   -4.2587559894477316e-07
2.7146908352658157e-05   -9.634722329952914e-06   -3.506152893320176e-05
2.7146908352658157e-05   -9.634722329952914e-06   -3.506152893320176e-05
2.7146908352658157e-05   -9.634722329952914e-06   -3.506152893320176e-05
2.7146908352658157e-05   -9.634722329952914e-06   -3.506152893320176e-05
1.5334422861045536e-05   -6.697308422437499e-06   -1.7136501458356345e-05
1.5334422861045536e-05   -6.697308422437499e-06   -1.7136501458356345e-05
1.5334422861045536e-05   -6.697308422437499e-06   -1.7136501458356345e-05
1.5334422861045536e-05   -6.697308422437499e-06   -1.7136501458356345e-05
2.714690835265816e-05   -4.329386455453621e-06   2.757325925754851e-06
2.714690835265816e-05   -4.329386455453621e-06   2.757325925754851e-06
2.714690835265816e-05   -4.329386455453621e-06   2.757325925754851e-06
2.714690835265816e-05   -4.329386455453621e-06   2.757325925754851e-06
4.4555954372841385e-06   -9.634722329952914e-06   -3.824473045790152e-05
4.4555954372841385e-06   -9.634722329952914e-06   -3.824473045790152e-05
4.4555954372841385e-06   -9.634722329952914e-06   -3.824473045790152e-05
4.4555954372841385e-06   -9.634722329952914e-06   -3.824473045790152e-05
5.446875419390178e-06   -3.69048596894064e-06   -8.910460835651751e-07
5.446875419390178e-06   -3.69048596894064e-06   -8.910460835651751e-07
5.446875419390178e-06   -3.69048596894064e-06   -8.910460835651751e-07
5.446875419390178e-06   -3.69048596894064e-06   -8.910460835651751e-07
2.7703972042805597e-05   -9.370251176332202e-06   -3.45783479981558e-05
2.7703972042805597e-05   -9.370251176332202e-06   -3.45783479981558e-05
2.7703972042805597e-05   -9.370251176332202e-06   -3.45783479981558e-05
2.7703972042805597e-05   -9.370251176332202e-06   -3.45783479981558e-05
1.613163001150643e-05   -6.591185457414418e-06   -1.6958550710674514e-05
1.613163001150643e-05   -6.591185457414418e-06   -1.6958550710674514e-05
1.613163001150643e-05   -6.591185457414418e-06   -1.6958550710674514e-05
1.613163001150643e-05   -6.591185457414418e-06   -1.6958550710674514e-05
3.055940164046282e-06   -2.6207710012782894e-06   -3.859503533684954e-06
3.055940164046282e-06   -2.6207710012782894e-06   -3.859503533684954e-06
3.055940164046282e-06   -2.6207710012782894e-06   -3.859503533684954e-06
3.055940164046282e-06   -2.6207710012782894e-06   -3.859503533684954e-06
-1.9631732817705676e-05   -1.1821193220545433e-05   -4.719254516816489e-05
-1.9631732817705676e-05   -1.1821193220545433e-05   -4.719254516816489e-05
-1.9631732817705676e-05   -1.1821193220545433e-05   -4.719254516816489e-05
-1.9631732817705676e-05   -1.1821193220545433e-05   -4.719254516816489e-05
-1.848552482032374e-05   -2.335548533183296e-06   -8.371847109812708e-06
-1.848552482032374e-05   -2.335548533183296e-06   -8.371847109812708e-06
-1.848552482032374e-05   -2.335548533183296e-06   -8.371847109812708e-06
-1.848552482032374e-05   -2.335548533183296e-06   -8.371847109812708e-06
3.7915901017596393e-06   -1.2080546927483154e-05   -3.965337294337183e-05
3.7915901017596393e-06   -1.2080546927483154e-05   -3.965337294337183e-05
3.7915901017596393e-06   -1.2080546927483154e-05   -3.965337294337183e-05
3.7915901017596393e-06   -1.2080546927483154e-05   -3.965337294337183e-05
-7.556634519722677e-06   -6.677773326270713e-06   -2.398132940162868e-05
-7.556634519722677e-06   -6.677773326270713e-06   -2.398132940162868e-05
-7.556634519722677e-06   -6.677773326270713e-06   -2.398132940162868e-05
-7.556634519722677e-06   -6.677773326270713e-06   -2.398132940162868e-05
3.7915901017596435e-06   -2.335548533183188e-06   -2.5248480732330096e-06
3.7915901017596435e-06   -2.335548533183188e-06   -2.5248480732330096e-06
3.7915901017596435e-06   -2.335548533183188e-06   -2.5248480732330096e-06
3.7915901017596435e-06   -2.335548533183188e-06   -2.5248480732330096e-06
-1.848552482032378e-05   -1.2080546927483587e-05   -4.55003719799518e-05
-1.848552482032378e-05   -1.2080546927483587e-05   -4.55003719799518e-05
-1.848552482032378e-05   -1.2080546927483587e-05   -4.55003719799518e-05
-1.848552482032378e-05   -1.2080546927483587e-05   -4.55003719799518e-05
-1.7497476214336287e-05   -1.8929774959761721e-06   -7.81359913095683e-06
-1.7497476214336287e-05   -1.8929774959761721e-06   -7.81359913095683e-06
-1.7497476214336287e-05   -1.8929774959761721e-06   -7.81359913095683e-06
-1.7497476214336287e-05   -1.8929774959761721e-06   -7.81359913095683e-06
4.455595437284133e-06   -1.2021527915642271e-05   -3.832492163185781e-05
4.455595437284133e-06   -1.2021527915642271e-05   -3.832492163185781e-05
4.455595437284133e-06   -1.2021527915642271e-05   -3.832492163185781e-05
4.455595437284133e-06   -1.2021527915642271e-05   -3.832492163185781e-05
-6.742875333103326e-06   -6.8272992381972035e-06   -2.277734088767928e-05
-6.742875333103326e-06   -6.8272992381972035e-06   -2.277734088767928e-05
-6.742875333103326e-06   -6.8272992381972035e-06   -2.277734088767928e-05
-6.742875333103326e-06   -6.8272992381972035e-06   -2.277734088767928e-05
4.4555954372841385e-06   -1.8929774959762376e-06   -1.7364688791573005e-06
4.4555954372841385e-06   -1.8929774959762376e-06   -1.7364688791573005e-06
4.4555954372841385e-06   -1.8929774959762376e-06   -1.7364688791573005e-06
4.4555954372841385e-06   -1.8929774959762376e-06   -1.7364688791573005e-06
-1.7497476214336355e-05   -1.2021527915642271e-05   -4.440205188365755e-05
-1.7497476214336355e-05   -1.2021527915642271e-05   -4.440205188365755e-05
-1.7497476214336355e-05   -1.2021527915642271e-05   -4.440205188365755e-05
-1.7497476214336355e-05   -1.2021527915642271e-05   -4.440205188365755e-05
-1.579251969617009e-05   -1.4730863256908356e-06   -7.781033203667354e-06
-1.579251969617009e-05   -1.4730863256908356e-06   -7.781033203667354e-06
-1.579251969617009e-05   -1.4730863256908356e-06   -7.781033203667354e-06
-1.579251969617009e-05   -1.4730863256908356e-06   -7.781033203667354e-06
5.446875419390194e-06   -1.1597056587816373e-05   -3.710564290565962e-05
5.446875419390194e-06   -1.1597056587816373e-05   -3.710564290565962e-05
5.446875419390194e-06   -1.1597056587816373e-05   -3.710564290565962e-05
5.446875419390194e-06   -1.1597056587816373e-05   -3.710564290565962e-05
-5.6852275087451675e-06   -6.673598349863806e-06   -2.1506212968205456e-05
-5.6852275087451675e-06   -6.673598349863806e-06   -2.1506212968205456e-05
-5.6852275087451675e-06   -6.673598349863806e-06   -2.1506212968205456e-05
-5.6852275087451675e-06   -6.673598349863806e-06   -2.1506212968205456e-05
-1.9631732817705636e-05   6.979402256262496e-07   -5.418836726836995e-06
-1.9631732817705636e-05   6.979402256262496e-07   -5.418836726836995e-06
-1.9631732817705636e-05   6.979402256262496e-07   -5.418836726836995e-06
-1.9631732817705636e-05   6.979402256262496e-07   -5.418836726836995e-06
-4.493393142094836e-05   -1.4715286426206318e-05   -5.6837103723341234e-05
-4.493393142094836e-05   -1.4715286426206318e-05   -5.6837103723341234e-05
-4.493393142094836e-05   -1.4715286426206318e-05   -5.6837103723341234e-05
-4.493393142094836e-05   -1.4715286426206318e-05   -5.6837103723341234e-05
-4.356316675823464e-05   1.2233260922537431e-06   -1.4210159786359885e-05
-4.356316675823464e-05   1.2233260922537431e-06   -1.4210159786359885e-05
-4.356316675823464e-05   1.2233260922537431e-06   -1.4210159786359885e-05
-4.356316675823464e-05   1.2233260922537431e-06   -1.4210159786359885e-05
-1.8485524820323735e-05   -1.6440870851547502e-05   -4.540771151659745e-05
-1.8485524820323735e-05   -1.6440870851547502e-05   -4.540771151659745e-05
-1.8485524820323735e-05   -1.6440870851547502e-05   -4.540771151659745e-05
-1.8485524820323735e-05   -1.6440870851547502e-05   -4.540771151659745e-05
-3.1199506374156416e-05   -7.4708677623672604e-06   -2.959974411371769e-05
-3.1199506374156416e-05   -7.4708677623672604e-06   -2.959974411371769e-05
-3.1199506374156416e-05   -7.4708677623672604e-06   -2.959974411371769e-05
-3.1199506374156416e-05   -7.4708677623672604e-06   -2.959974411371769e-05
-1.848552482032374e-05   1.2233260922537349e-06   -3.611641620079268e-06
-1.848552482032374e-05   1.2233260922537349e-06   -3.611641620079268e-06
-1.848552482032374e-05   1.2233260922537349e-06   -3.611641620079268e-06
-1.848552482032374e-05   1.2233260922537349e-06   -3.611641620079268e-06
-4.35631667582347e-05   -1.644087085154707e-05   -5.600622968287812e-05
-4.35631667582347e-05   -1.644087085154707e-05   -5.600622968287812e-05
-4.35631667582347e-05   -1.644087085154707e-05   -5.600622968287812e-05
-4.35631667582347e-05   -1.644087085154707e-05   -5.600622968287812e-05
-4.224937580678846e-05   1.7067668483675483e-06   -1.2680483459745918e-05
-4.224937580678846e-05   1.7067668483675483e-06   -1.2680483459745918e-05
-4.224937580678846e-05   1.7067668483675483e-06   -1.2680483459745918e-05
-4.224937580678846e-05   1.7067668483675483e-06   -1.2680483459745918e-05
-1.7497476214336325e-05   -1.6530069313571653e-05   -4.2991547750002753e-05
-1.7497476214336325e-05   -1.6530069313571653e-05   -4.2991547750002753e-05
-1.7497476214336325e-05   -1.6530069313571653e-05   -4.2991547750002753e-05
-1.7497476214336325e-05   -1.6530069313571653e-05   -4.2991547750002753e-05
-2.9862879026778842e-05   -7.493908637126387e-06   -2.7804239468465707e-05
-2.9862879026778842e-05   -7.493908637126387e-06   -2.7804239468465707e-05
-2.9862879026778842e-05   -7.493908637126387e-06   -2.7804239468465707e-05
-2.9862879026778842e-05   -7.493908637126387e-06   -2.7804239468465707e-05
-1.7497476214336328e-05   1.70676684836754e-06   -1.7383817625825273e-06
-1.7497476214336328e-05   1.70676684836754e-06   -1.7383817625825273e-06
-1.7497476214336328e-05   1.70676684836754e-06   -1.7383817625825273e-06
-1.7497476214336328e-05   1.70676684836754e-06   -1.7383817625825273e-06
-4.2249375806788536e-05   -1.653006931357122e-05   -5.3933649447166334e-05
-4.2249375806788536e-05   -1.653006931357122e-05   -5.3933649447166334e-05
-4.2249375806788536e-05   -1.653006931357122e-05   -5.3933649447166334e-05
-4.2249375806788536e-05   -1.653006931357122e-05   -5.3933649447166334e-05
-4.0094469531305464e-05   2.1152566290598158e-06   -1.1124478397580174e-05
-4.0094469531305464e-05   2.1152566290598158e-06   -1.1124478397580174e-05
-4.0094469531305464e-05   2.1152566290598158e-06   -1.1124478397580174e-05
-4.0094469531305464e-05   2.1152566290598158e-06   -1.1124478397580174e-05
-1.579251969617015e-05   -1.507042913538115e-05   -4.1316316664141126e-05
-1.579251969617015e-05   -1.507042913538115e-05   -4.1316316664141126e-05
-1.579251969617015e-05   -1.507042913538115e-05   -4.1316316664141126e-05
-1.579251969617015e-05   -1.507042913538115e-05   -4.1316316664141126e-05
-2.8544913583209744e-05   -6.608122372704379e-06   -2.5139710910014604e-05
-2.8544913583209744e-05   -6.608122372704379e-06   -2.5139710910014604e-05
-2.8544913583209744e-05   -6.608122372704379e-06   -2.5139710910014604e-05
-2.8544913583209744e-05   -6.608122372704379e-06   -2.5139710910014604e-05
-4.493393142094836e-05   6.431766854190207e-06   -9.61685279508807e-06
-4.493393142094836e-05   6.431766854190207e-06   -9.61685279508807e-06
-4.493393142094836e-05   6.431766854190207e-06   -9.61685279508807e-06
-4.493393142094836e-05   6.431766854190207e-06   -9.61685279508807e-06
-7.730869073421676e-05   0.0   -6.743384509638284e-05
-7.730869073421676e-05   0.0   -6.743384509638284e-05
-7.730869073421676e-05   0.0   -6.743384509638284e-05
-7.730869073421676e-05   0.0   -6.743384509638284e-05
-7.530481074161633e-05   8.133391533691114e-06   -7.358842057135018e-06
-7.530481074161633e-05   8.133391533691114e-06   -7.358842057135018e-06
-7.530481074161633e-05   8.133391533691114e-06   -7.358842057135018e-06
-7.530481074161633e-05   8.133391533691114e-06   -7.358842057135018e-06
-4.356316675823463e-05   0.0   -5.5381547109223205e-05
-4.356316675823463e-05   0.0   -5.5381547109223205e-05
-4.356316675823463e-05   0.0   -5.5381547109223205e-05
-4.356316675823463e-05   0.0   -5.5381547109223205e-05
-5.771699784949138e-05   2.4909958317043818e-06   -3.328642612281787e-05
-5.771699784949138e-05   2.4909958317043818e-06   -3.328642612281787e-05
-5.771699784949138e-05   2.4909958317043818e-06   -3.328642612281787e-05
-5.771699784949138e-05   2.4909958317043818e-06   -3.328642612281787e-05
-4.3563166758234665e-05   8.133391533691034e-06   -2.4788071369202195e-06
-4.3563166758234665e-05   8.133391533691034e-06   -2.4788071369202195e-06
-4.3563166758234665e-05   8.133391533691034e-06   -2.4788071369202195e-06
-4.3563166758234665e-05   8.133391533691034e-06   -2.4788071369202195e-06
-7.53048107416162e-05   0.0   -6.026158202943792e-05
-7.53048107416162e-05   0.0   -6.026158202943792e-05
-7.53048107416162e-05   0.0   -6.026158202943792e-05
-7.53048107416162e-05   0.0   -6.026158202943792e-05
-7.360845969290152e-05   8.51621161814713e-06   -2.8711808013170536e-06
-7.360845969290152e-05   8.51621161814713e-06   -2.8711808013170536e-06
-7.360845969290152e-05   8.51621161814713e-06   -2.8711808013170536e-06
-7.360845969290152e-05   8.51621161814713e-06   -2.8711808013170536e-06
-4.224937580678854e-05   0.0   -5.002659364061713e-05
-4.224937580678854e-05   0.0   -5.002659364061713e-05
-4.224937580678854e-05   0.0   -5.002659364061713e-05
-4.224937580678854e-05   0.0   -5.002659364061713e-05
-5.7124938844827466e-05   3.939839131309039e-06   -2.7597892056003827e-05
-5.7124938844827466e-05   3.939839131309039e-06   -2.7597892056003827e-05
-5.7124938844827466e-05   3.939839131309039e-06   -2.7597892056003827e-05
-5.7124938844827466e-05   3.939839131309039e-06   -2.7597892056003827e-05
-4.2249375806788536e-05   8.516211618147096e-06   2.2385461695712677e-06
-4.2249375806788536e-05   8.516211618147096e-06   2.2385461695712677e-06
-4.2249375806788536e-05   8.516211618147096e-06   2.2385461695712677e-06
-4.2249375806788536e-05   8.516211618147096e-06   2.2385461695712677e-06
-7.360845969290138e-05   0.0   -5.5136320611505344e-05
-7.360845969290138e-05   0.0   -5.5136320611505344e-05
-7.360845969290138e-05   0.0   -5.5136320611505344e-05
-7.360845969290138e-05   0.0   -5.5136320611505344e-05
-7.022270124002825e-05   9.171053079632579e-06   4.356098836116656e-06
-7.022270124002825e-05   9.171053079632579e-06   4.356098836116656e-06
-7.022270124002825e-05   9.171053079632579e-06   4.356098836116656e-06
-7.022270124002825e-05   9.171053079632579e-06   4.356098836116656e-06
-4.00944695313055e-05   0.0   -4.0354988830641785e-05
-4.00944695313055e-05   0.0   -4.0354988830641785e-05
-4.00944695313055e-05   0.0   -4.0354988830641785e-05
-4.00944695313055e-05   0.0   -4.0354988830641785e-05
-5.416572539814942e-05   4.857389778625213e-06   -1.9817329586410623e-05
-5.416572539814942e-05   4.857389778625213e-06   -1.9817329586410623e-05
-5.416572539814942e-05   4.857389778625213e-06   -1.9817329586410623e-05
-5.416572539814942e-05   4.857389778625213e-06   -1.9817329586410623e-05
5.7206443291084335e-05   -9.811066535092035e-06   3.4125561432915e-05
5.7206443291084335e-05   -9.811066535092035e-06   3.4125561432915e-05
5.7206443291084335e-05   -9.811066535092035e-06   3.4125561432915e-05
5.7206443291084335e-05   -9.811066535092035e-06   3.4125561432915e-05
2.966663300692125e-05   -7.5710870528276734e-06   -1.0430134684665188e-05
2.966663300692125e-05   -7.5710870528276734e-06   -1.0430134684665188e-05
2.966663300692125e-05   -7.5710870528276734e-06   -1.0430134684665188e-05
2.966663300692125e-05   -7.5710870528276734e-06   -1.0430134684665188e-05
2.8923153441951887e-05   -1.005653513907502e-05   3.01265029538679e-05
2.8923153441951887e-05   -1.005653513907502e-05   3.01265029538679e-05
2.8923153441951887e-05   -1.005653513907502e-05   3.01265029538679e-05
2.8923153441951887e-05   -1.005653513907502e-05   3.01265029538679e-05
5.659856532230335e-05   -8.322096774500149e-06   -1.7039846532129738e-05
5.659856532230335e-05   -8.322096774500149e-06   -1.7039846532129738e-05
5.659856532230335e-05   -8.322096774500149e-06   -1.7039846532129738e-05
5.659856532230335e-05   -8.322096774500149e-06   -1.7039846532129738e-05
4.133443908438587e-05   -8.459796008144106e-06   8.482983404585904e-06
4.133443908438587e-05   -8.459796008144106e-06   8.482983404585904e-06
4.133443908438587e-05   -8.459796008144106e-06   8.482983404585904e-06
4.133443908438587e-05   -8.459796008144106e-06   8.482983404585904e-06
5.659856532230335e-05   -1.005653513907513e-05   2.908583993512263e-05
5.659856532230335e-05   -1.005653513907513e-05   2.908583993512263e-05
5.659856532230335e-05   -1.005653513907513e-05   2.908583993512263e-05
5.659856532230335e-05   -1.005653513907513e-05   2.908583993512263e-05
2.8923153441951887e-05   -8.322096774500149e-06   -1.5999183513384875e-05
2.8923153441951887e-05   -8.322096774500149e-06   -1.5999183513384875e-05
2.8923153441951887e-05   -8.322096774500149e-06   -1.5999183513384875e-05
2.8923153441951887e-05   -8.322096774500149e-06   -1.5999183513384875e-05
2.8250314292218955e-05   -9.964775440526354e-06   2.7042096528193333e-05
2.8250314292218955e-05   -9.964775440526354e-06   2.7042096528193333e-05
2.8250314292218955e-05   -9.964775440526354e-06   2.7042096528193333e-05
2.8250314292218955e-05   -9.964775440526354e-06   2.7042096528193333e-05
5.5894500737438666e-05   -8.390362755285492e-06   -1.9976195158317105e-05
5.5894500737438666e-05   -8.390362755285492e-06   -1.9976195158317105e-05
5.5894500737438666e-05   -8.390362755285492e-06   -1.9976195158317105e-05
5.5894500737438666e-05   -8.390362755285492e-06   -1.9976195158317105e-05
4.1306430536461104e-05   -8.608193487796758e-06   4.46795361615243e-06
4.1306430536461104e-05   -8.608193487796758e-06   4.46795361615243e-06
4.1306430536461104e-05   -8.608193487796758e-06   4.46795361615243e-06
4.1306430536461104e-05   -8.608193487796758e-06   4.46795361615243e-06
5.589450073743878e-05   -9.964775440526247e-06   2.6097448917049033e-05
5.589450073743878e-05   -9.964775440526247e-06   2.6097448917049033e-05
5.589450073743878e-05   -9.964775440526247e-06   2.6097448917049033e-05
5.589450073743878e-05   -9.964775440526247e-06   2.6097448917049033e-05
2.8250314292218955e-05   -8.390362755285492e-06   -1.9031547547172616e-05
2.8250314292218955e-05   -8.390362755285492e-06   -1.9031547547172616e-05
2.8250314292218955e-05   -8.390362755285492e-06   -1.9031547547172616e-05
2.8250314292218955e-05   -8.390362755285492e-06   -1.9031547547172616e-05
2.7429286787867716e-05   -9.408527396761925e-06   2.202400913062447e-05
2.7429286787867716e-05   -9.408527396761925e-06   2.202400913062447e-05
2.7429286787867716e-05   -9.408527396761925e-06   2.202400913062447e-05
2.7429286787867716e-05   -9.408527396761925e-06   2.202400913062447e-05
5.4791260648915447e-05   -8.212435730807835e-06   -2.429693563736091e-05
5.4791260648915447e-05   -8.212435730807835e-06   -2.429693563736091e-05
5.4791260648915447e-05   -8.212435730807835e-06   -2.429693563736091e-05
5.4791260648915447e-05   -8.212435730807835e-06   -2.429693563736091e-05
3.989935272594247e-05   -8.185237249801365e-06   5.065918123234835e-07
3.989935272594247e-05   -8.185237249801365e-06   5.065918123234835e-07
3.989935272594247e-05   -8.185237249801365e-06   5.065918123234835e-07
3.989935272594247e-05   -8.185237249801365e-06   5.065918123234835e-07
2.966663300692125e-05   -9.819472605963586e-06   2.5480962360321675e-05
2.966663300692125e-05   -9.819472605963586e-06   2.5480962360321675e-05
2.966663300692125e-05   -9.819472605963586e-06   2.5480962360321675e-05
2.966663300692125e-05   -9.819472605963586e-06   2.5480962360321675e-05
6.279401776491876e-06   -4.668880883232883e-06   -1.0407401323422232e-05
6.279401776491876e-06   -4.668880883232883e-06   -1.0407401323422232e-05
6.279401776491876e-06   -4.668880883232883e-06   -1.0407401323422232e-05
6.279401776491876e-06   -4.668880883232883e-06   -1.0407401323422232e-05
5.102808146096639e-06   -9.767708361852617e-06   2.907348589303296e-05
5.102808146096639e-06   -9.767708361852617e-06   2.907348589303296e-05
5.102808146096639e-06   -9.767708361852617e-06   2.907348589303296e-05
5.102808146096639e-06   -9.767708361852617e-06   2.907348589303296e-05
2.892315344195188e-05   -4.9511314593703e-06   -1.3517035741548257e-05
2.892315344195188e-05   -4.9511314593703e-06   -1.3517035741548257e-05
2.892315344195188e-05   -4.9511314593703e-06   -1.3517035741548257e-05
2.892315344195188e-05   -4.9511314593703e-06   -1.3517035741548257e-05
1.7468048362265042e-05   -7.031286944860025e-06   6.822899349223454e-06
1.7468048362265042e-05   -7.031286944860025e-06   6.822899349223454e-06
1.7468048362265042e-05   -7.031286944860025e-06   6.822899349223454e-06
1.7468048362265042e-05   -7.031286944860025e-06   6.822899349223454e-06
2.892315344195186e-05   -9.767708361852492e-06   2.6183539751543743e-05
2.892315344195186e-05   -9.767708361852492e-06   2.6183539751543743e-05
2.892315344195186e-05   -9.767708361852492e-06   2.6183539751543743e-05
2.892315344195186e-05   -9.767708361852492e-06   2.6183539751543743e-05
5.102808146096653e-06   -4.951131459370733e-06   -1.0627089600059175e-05
5.102808146096653e-06   -4.951131459370733e-06   -1.0627089600059175e-05
5.102808146096653e-06   -4.951131459370733e-06   -1.0627089600059175e-05
5.102808146096653e-06   -4.951131459370733e-06   -1.0627089600059175e-05
4.263326901295079e-06   -9.634722329952914e-06   2.9111939220488126e-05
4.263326901295079e-06   -9.634722329952914e-06   2.9111939220488126e-05
4.263326901295079e-06   -9.634722329952914e-06   2.9111939220488126e-05
4.263326901295079e-06   -9.634722329952914e-06   2.9111939220488126e-05
2.825031429221895e-05   -5.075506420236693e-06   -1.3601902643548415e-05
2.825031429221895e-05   -5.075506420236693e-06   -1.3601902643548415e-05
2.825031429221895e-05   -5.075506420236693e-06   -1.3601902643548415e-05
2.825031429221895e-05   -5.075506420236693e-06   -1.3601902643548415e-05
1.645841380546009e-05   -6.886364771328379e-06   7.13777984503891e-06
1.645841380546009e-05   -6.886364771328379e-06   7.13777984503891e-06
1.645841380546009e-05   -6.886364771328379e-06   7.13777984503891e-06
1.645841380546009e-05   -6.886364771328379e-06   7.13777984503891e-06
2.825031429221901e-05   -9.63472232995318e-06   2.6376409674658393e-05
2.825031429221901e-05   -9.63472232995318e-06   2.6376409674658393e-05
2.825031429221901e-05   -9.63472232995318e-06   2.6376409674658393e-05
2.825031429221901e-05   -9.63472232995318e-06   2.6376409674658393e-05
4.263326901295079e-06   -5.075506420236693e-06   -1.086637309771852e-05
4.263326901295079e-06   -5.075506420236693e-06   -1.086637309771852e-05
4.263326901295079e-06   -5.075506420236693e-06   -1.086637309771852e-05
4.263326901295079e-06   -5.075506420236693e-06   -1.086637309771852e-05
3.3296659691407093e-06   -9.370251176332202e-06   3.005300398762115e-05
3.3296659691407093e-06   -9.370251176332202e-06   3.005300398762115e-05
3.3296659691407093e-06   -9.370251176332202e-06   3.005300398762115e-05
3.3296659691407093e-06   -9.370251176332202e-06   3.005300398762115e-05
2.7429286787867733e-05   -4.959044481958174e-06   -1.2759754726881568e-05
2.7429286787867733e-05   -4.959044481958174e-06   -1.2759754726881568e-05
2.7429286787867733e-05   -4.959044481958174e-06   -1.2759754726881568e-05
2.7429286787867733e-05   -4.959044481958174e-06   -1.2759754726881568e-05
1.584183640214142e-05   -6.582675579733417e-06   7.5268412413273804e-06
1.584183640214142e-05   -6.582675579733417e-06   7.5268412413273804e-06
1.584183640214142e-05   -6.582675579733417e-06   7.5268412413273804e-06
1.584183640214142e-05   -6.582675579733417e-06   7.5268412413273804e-06
6.27940177649189e-06   -1.1821193220545225e-05   2.6201043629756494e-05
6.27940177649189e-06   -1.1821193220545225e-05   2.6201043629756494e-05
6.27940177649189e-06   -1.1821193220545225e-05   2.6201043629756494e-05
6.27940177649189e-06   -1.1821193220545225e-05   2.6201043629756494e-05
-1.6189830545880433e-05   -1.943988409313941e-06   -5.321354020792254e-06
-1.6189830545880433e-05   -1.943988409313941e-06   -5.321354020792254e-06
-1.6189830545880433e-05   -1.943988409313941e-06   -5.321354020792254e-06
-1.6189830545880433e-05   -1.943988409313941e-06   -5.321354020792254e-06
-1.8019829048173622e-05   -1.2080546927483587e-05   3.365395736497855e-05
-1.8019829048173622e-05   -1.2080546927483587e-05   3.365395736497855e-05
-1.8019829048173622e-05   -1.2080546927483587e-05   3.365395736497855e-05
-1.8019829048173622e-05   -1.2080546927483587e-05   3.365395736497855e-05
5.10280814609665e-06   -2.0521329366471504e-06   -1.0900819686640307e-05
5.10280814609665e-06   -2.0521329366471504e-06   -1.0900819686640307e-05
5.10280814609665e-06   -2.0521329366471504e-06   -1.0900819686640307e-05
5.10280814609665e-06   -2.0521329366471504e-06   -1.0900819686640307e-05
-5.50677679759054e-06   -6.749655400913133e-06   9.600335364731417e-06
-5.50677679759054e-06   -6.749655400913133e-06   9.600335364731417e-06
-5.50677679759054e-06   -6.749655400913133e-06   9.600335364731417e-06
-5.50677679759054e-06   -6.749655400913133e-06   9.600335364731417e-06
5.102808146096639e-06   -1.2080546927483225e-05   2.7636908970476732e-05
5.102808146096639e-06   -1.2080546927483225e-05   2.7636908970476732e-05
5.102808146096639e-06   -1.2080546927483225e-05   2.7636908970476732e-05
5.102808146096639e-06   -1.2080546927483225e-05   2.7636908970476732e-05
-1.8019829048173595e-05   -2.0521329366471504e-06   -4.883771292138678e-06
-1.8019829048173595e-05   -2.0521329366471504e-06   -4.883771292138678e-06
-1.8019829048173595e-05   -2.0521329366471504e-06   -4.883771292138678e-06
-1.8019829048173595e-05   -2.0521329366471504e-06   -4.883771292138678e-06
-1.913906830191292e-05   -1.2021527915642271e-05   3.4933727410673375e-05
-1.913906830191292e-05   -1.2021527915642271e-05   3.4933727410673375e-05
-1.913906830191292e-05   -1.2021527915642271e-05   3.4933727410673375e-05
-1.913906830191292e-05   -1.2021527915642271e-05   3.4933727410673375e-05
4.263326901295082e-06   -2.1848956420727865e-06   -9.97224395881492e-06
4.263326901295082e-06   -2.1848956420727865e-06   -9.97224395881492e-06
4.263326901295082e-06   -2.1848956420727865e-06   -9.97224395881492e-06
4.263326901295082e-06   -2.1848956420727865e-06   -9.97224395881492e-06
-6.746040719491643e-06   -6.726159161444742e-06   1.1101460187452829e-05
-6.746040719491643e-06   -6.726159161444742e-06   1.1101460187452829e-05
-6.746040719491643e-06   -6.726159161444742e-06   1.1101460187452829e-05
-6.746040719491643e-06   -6.726159161444742e-06   1.1101460187452829e-05
4.263326901295079e-06   -1.202152791564201e-05   2.9031748046531728e-05
4.263326901295079e-06   -1.202152791564201e-05   2.9031748046531728e-05
4.263326901295079e-06   -1.202152791564201e-05   2.9031748046531728e-05
4.263326901295079e-06   -1.202152791564201e-05   2.9031748046531728e-05
-1.913906830191288e-05   -2.1848956420727865e-06   -4.070264594673327e-06
-1.913906830191288e-05   -2.1848956420727865e-06   -4.070264594673327e-06
-1.913906830191288e-05   -2.1848956420727865e-06   -4.070264594673327e-06
-1.913906830191288e-05   -2.1848956420727865e-06   -4.070264594673327e-06
-2.045457954234775e-05   -1.1597056587816373e-05   3.658956860636258e-05
-2.045457954234775e-05   -1.1597056587816373e-05   3.658956860636258e-05
-2.045457954234775e-05   -1.1597056587816373e-05   3.658956860636258e-05
-2.045457954234775e-05   -1.1597056587816373e-05   3.658956860636258e-05
3.3296659691407152e-06   -2.1703892514662523e-06   -8.706840981261742e-06
3.3296659691407152e-06   -2.1703892514662523e-06   -8.706840981261742e-06
3.3296659691407152e-06   -2.1703892514662523e-06   -8.706840981261742e-06
3.3296659691407152e-06   -2.1703892514662523e-06   -8.706840981261742e-06
-7.755553431798405e-06   -6.455755365003448e-06   1.2339744355092637e-05
-7.755553431798405e-06   -6.455755365003448e-06   1.2339744355092637e-05
-7.755553431798405e-06   -6.455755365003448e-06   1.2339744355092637e-05
-7.755553431798405e-06   -6.455755365003448e-06   1.2339744355092637e-05
-1.6189830545880446e-05   -1.4715286426206504e-05   3.1730743952418546e-05
-1.6189830545880446e-05   -1.4715286426206504e-05   3.1730743952418546e-05
-1.6189830545880446e-05   -1.4715286426206504e-05   3.1730743952418546e-05
-1.6189830545880446e-05   -1.4715286426206504e-05   3.1730743952418546e-05
-4.175456269902101e-05   2.145623334087743e-06   -7.60597113305889e-07
-4.175456269902101e-05   2.145623334087743e-06   -7.60597113305889e-07
-4.175456269902101e-05   2.145623334087743e-06   -7.60597113305889e-07
-4.175456269902101e-05   2.145623334087743e-06   -7.60597113305889e-07
-4.395638075883539e-05   -1.644087085154707e-05   4.482465554597032e-05
-4.395638075883539e-05   -1.644087085154707e-05   4.482465554597032e-05
-4.395638075883539e-05   -1.644087085154707e-05   4.482465554597032e-05
-4.395638075883539e-05   -1.644087085154707e-05   4.482465554597032e-05
-1.8019829048173595e-05   2.022525344515247e-06   -9.480968356103336e-06
-1.8019829048173595e-05   2.022525344515247e-06   -9.480968356103336e-06
-1.8019829048173595e-05   2.022525344515247e-06   -9.480968356103336e-06
-1.8019829048173595e-05   2.022525344515247e-06   -9.480968356103336e-06
-2.9562883905878316e-05   -6.083768273360338e-06   1.4621232577463264e-05
-2.9562883905878316e-05   -6.083768273360338e-06   1.4621232577463264e-05
-2.9562883905878316e-05   -6.083768273360338e-06   1.4621232577463264e-05
-2.9562883905878316e-05   -6.083768273360338e-06   1.4621232577463264e-05
-1.8019829048173595e-05   -1.6440870851547394e-05   3.3746617828332845e-05
-1.8019829048173595e-05   -1.6440870851547394e-05   3.3746617828332845e-05
-1.8019829048173595e-05   -1.6440870851547394e-05   3.3746617828332845e-05
-1.8019829048173595e-05   -1.6440870851547394e-05   3.3746617828332845e-05
-4.395638075883529e-05   2.022525344515247e-06   1.5970693615341945e-06
-4.395638075883529e-05   2.022525344515247e-06   1.5970693615341945e-06
-4.395638075883529e-05   2.022525344515247e-06   1.5970693615341945e-06
-4.395638075883529e-05   2.022525344515247e-06   1.5970693615341945e-06
-4.529786843320215e-05   -1.653006931357122e-05   4.7337556554331644e-05
-4.529786843320215e-05   -1.653006931357122e-05   4.7337556554331644e-05
-4.529786843320215e-05   -1.653006931357122e-05   4.7337556554331644e-05
-4.529786843320215e-05   -1.653006931357122e-05   4.7337556554331644e-05
-1.913906830191288e-05   1.792139036433868e-06   -7.253768674487214e-06
-1.913906830191288e-05   1.792139036433868e-06   -7.253768674487214e-06
-1.913906830191288e-05   1.792139036433868e-06   -7.253768674487214e-06
-1.913906830191288e-05   1.792139036433868e-06   -7.253768674487214e-06
-3.09914062811812e-05   -7.0136946428568485e-06   1.7783628165201146e-05
-3.09914062811812e-05   -7.0136946428568485e-06   1.7783628165201146e-05
-3.09914062811812e-05   -7.0136946428568485e-06   1.7783628165201146e-05
-3.09914062811812e-05   -7.0136946428568485e-06   1.7783628165201146e-05
-1.913906830191288e-05   -1.6530069313571544e-05   3.63442315443282e-05
-1.913906830191288e-05   -1.6530069313571544e-05   3.63442315443282e-05
-1.913906830191288e-05   -1.6530069313571544e-05   3.63442315443282e-05
-1.913906830191288e-05   -1.6530069313571544e-05   3.63442315443282e-05
-4.529786843320207e-05   1.792139036433868e-06   3.739556335516283e-06
-4.529786843320207e-05   1.792139036433868e-06   3.739556335516283e-06
-4.529786843320207e-05   1.792139036433868e-06   3.739556335516283e-06
-4.529786843320207e-05   1.792139036433868e-06   3.739556335516283e-06
-4.6743889328196646e-05   -1.507042913538115e-05   4.841403821771121e-05
-4.6743889328196646e-05   -1.507042913538115e-05   4.841403821771121e-05
-4.6743889328196646e-05   -1.507042913538115e-05   4.841403821771121e-05
-4.6743889328196646e-05   -1.507042913538115e-05   4.841403821771121e-05
-2.0454579542347747e-05   1.5308395522098915e-06   -5.36223930459168e-06
-2.0454579542347747e-05   1.5308395522098915e-06   -5.36223930459168e-06
-2.0454579542347747e-05   1.5308395522098915e-06   -5.36223930459168e-06
-2.0454579542347747e-05   1.5308395522098915e-06   -5.36223930459168e-06
-3.246544464678518e-05   -7.064394130739532e-06   1.981300941257381e-05
-3.246544464678518e-05   -7.064394130739532e-06   1.981300941257381e-05
-3.246544464678518e-05   -7.064394130739532e-06   1.981300941257381e-05
-3.246544464678518e-05   -7.064394130739532e-06   1.981300941257381e-05
-4.175456269902086e-05   -4.74157750100329e-20   3.5109608548067155e-05
-4.175456269902086e-05   -4.74157750100329e-20   3.5109608548067155e-05
-4.175456269902086e-05   -4.74157750100329e-20   3.5109608548067155e-05
-4.175456269902086e-05   -4.74157750100329e-20   3.5109608548067155e-05
-7.347431700144253e-05   9.641379246784487e-06   -1.1971821074564836e-05
-7.347431700144253e-05   9.641379246784487e-06   -1.1971821074564836e-05
-7.347431700144253e-05   9.641379246784487e-06   -1.1971821074564836e-05
-7.347431700144253e-05   9.641379246784487e-06   -1.1971821074564836e-05
-7.650569851962013e-05   0.0   5.103634034174065e-05
-7.650569851962013e-05   0.0   5.103634034174065e-05
-7.650569851962013e-05   0.0   5.103634034174065e-05
-7.650569851962013e-05   0.0   5.103634034174065e-05
-4.395638075883529e-05   9.311670370192645e-06   -8.799524815016703e-06
-4.395638075883529e-05   9.311670370192645e-06   -8.799524815016703e-06
-4.395638075883529e-05   9.311670370192645e-06   -8.799524815016703e-06
-4.395638075883529e-05   9.311670370192645e-06   -8.799524815016703e-06
-5.641119971258622e-05   5.719690670465648e-06   1.4113694594404378e-05
-5.641119971258622e-05   5.719690670465648e-06   1.4113694594404378e-05
-5.641119971258622e-05   5.719690670465648e-06   1.4113694594404378e-05
-5.641119971258622e-05   5.719690670465648e-06   1.4113694594404378e-05
-4.3956380758835266e-05   1.0870933782787988e-19   4.544933811962532e-05
-4.3956380758835266e-05   1.0870933782787988e-19   4.544933811962532e-05
-4.3956380758835266e-05   1.0870933782787988e-19   4.544933811962532e-05
-4.3956380758835266e-05   1.0870933782787988e-19   4.544933811962532e-05
-7.650569851962028e-05   9.311670370192645e-06   -3.212522592900861e-06
-7.650569851962028e-05   9.311670370192645e-06   -3.212522592900861e-06
-7.650569851962028e-05   9.311670370192645e-06   -3.212522592900861e-06
-7.650569851962028e-05   9.311670370192645e-06   -3.212522592900861e-06
-7.80317654307917e-05   0.0   5.668971711089233e-05
-7.80317654307917e-05   0.0   5.668971711089233e-05
-7.80317654307917e-05   0.0   5.668971711089233e-05
-7.80317654307917e-05   0.0   5.668971711089233e-05
-4.529786843320207e-05   9.075174583352864e-06   -3.3118826351024666e-06
-4.529786843320207e-05   9.075174583352864e-06   -3.3118826351024666e-06
-4.529786843320207e-05   9.075174583352864e-06   -3.3118826351024666e-06
-4.529786843320207e-05   9.075174583352864e-06   -3.3118826351024666e-06
-5.934191866543861e-05   4.7776646333480034e-06   2.2673373721962087e-05
-5.934191866543861e-05   4.7776646333480034e-06   2.2673373721962087e-05
-5.934191866543861e-05   4.7776646333480034e-06   2.2673373721962087e-05
-5.934191866543861e-05   4.7776646333480034e-06   2.2673373721962087e-05
-4.529786843320207e-05   1.0870933782787988e-19   5.124461236088052e-05
-4.529786843320207e-05   1.0870933782787988e-19   5.124461236088052e-05
-4.529786843320207e-05   1.0870933782787988e-19   5.124461236088052e-05
-4.529786843320207e-05   1.0870933782787988e-19   5.124461236088052e-05
-7.803176543079185e-05   9.075174583352864e-06   2.1332221149092303e-06
-7.803176543079185e-05   9.075174583352864e-06   2.1332221149092303e-06
-7.803176543079185e-05   9.075174583352864e-06   2.1332221149092303e-06
-7.803176543079185e-05   9.075174583352864e-06   2.1332221149092303e-06
-7.972870854269607e-05   0.0   6.422712682096587e-05
-7.972870854269607e-05   0.0   6.422712682096587e-05
-7.972870854269607e-05   0.0   6.422712682096587e-05
-7.972870854269607e-05   0.0   6.422712682096587e-05
-4.6743889328196605e-05   7.567248851818049e-06   4.712078819042471e-06
-4.6743889328196605e-05   7.567248851818049e-06   4.712078819042471e-06
-4.6743889328196605e-05   7.567248851818049e-06   4.712078819042471e-06
-4.6743889328196605e-05   7.567248851818049e-06   4.712078819042471e-06
-5.98275492739951e-05   3.3583753446435674e-06   2.9043502833010906e-05
-5.98275492739951e-05   3.3583753446435674e-06   2.9043502833010906e-05
-5.98275492739951e-05   3.3583753446435674e-06   2.9043502833010906e-05
-5.98275492739951e-05   3.3583753446435674e-06   2.9043502833010906e-05
5.0363561421786094e-05   -7.571087052827453e-06   3.5714384140821424e-05
5.0363561421786094e-05   -7.571087052827453e-06   3.5714384140821424e-05
5.0363561421786094e-05   -7.571087052827453e-06   3.5714384140821424e-05
5.0363561421786094e-05   -7.571087052827453e-06   3.5714384140821424e-05
2.546192812526148e-05   -5.719070461778072e-06   -4.677128065423523e-06
2.546192812526148e-05   -5.719070461778072e-06   -4.677128065423523e-06
2.546192812526148e-05   -5.719070461778072e-06   -4.677128065423523e-06
2.546192812526148e-05   -5.719070461778072e-06   -4.677128065423523e-06
2.4792761163946843e-05   -8.322096774500149e-06   3.1164890901314935e-05
2.4792761163946843e-05   -8.322096774500149e-06   3.1164890901314935e-05
2.4792761163946843e-05   -8.322096774500149e-06   3.1164890901314935e-05
2.4792761163946843e-05   -8.322096774500149e-06   3.1164890901314935e-05
4.917006910126041e-05   -6.479513255083606e-06   -1.0569505772524136e-05
4.917006910126041e-05   -6.479513255083606e-06   -1.0569505772524136e-05
4.917006910126041e-05   -6.479513255083606e-06   -1.0569505772524136e-05
4.917006910126041e-05   -6.479513255083606e-06   -1.0569505772524136e-05
3.5780001212640055e-05   -6.742947168178644e-06   1.1905334389700393e-05
3.5780001212640055e-05   -6.742947168178644e-06   1.1905334389700393e-05
3.5780001212640055e-05   -6.742947168178644e-06   1.1905334389700393e-05
3.5780001212640055e-05   -6.742947168178644e-06   1.1905334389700393e-05
4.917006910126032e-05   -8.322096774500093e-06   3.0059340789665183e-05
4.917006910126032e-05   -8.322096774500093e-06   3.0059340789665183e-05
4.917006910126032e-05   -8.322096774500093e-06   3.0059340789665183e-05
4.917006910126032e-05   -8.322096774500093e-06   3.0059340789665183e-05
2.4792761163946884e-05   -6.479513255083606e-06   -9.46395566087414e-06
2.4792761163946884e-05   -6.479513255083606e-06   -9.46395566087414e-06
2.4792761163946884e-05   -6.479513255083606e-06   -9.46395566087414e-06
2.4792761163946884e-05   -6.479513255083606e-06   -9.46395566087414e-06
2.3930552973070975e-05   -8.390362755285492e-06   2.796797145736404e-05
2.3930552973070975e-05   -8.390362755285492e-06   2.796797145736404e-05
2.3930552973070975e-05   -8.390362755285492e-06   2.796797145736404e-05
2.3930552973070975e-05   -8.390362755285492e-06   2.796797145736404e-05
4.79624437953373e-05   -6.59197590409822e-06   -1.316421202379217e-05
4.79624437953373e-05   -6.59197590409822e-06   -1.316421202379217e-05
4.79624437953373e-05   -6.59197590409822e-06   -1.316421202379217e-05
4.79624437953373e-05   -6.59197590409822e-06   -1.316421202379217e-05
3.5447914483931466e-05   -7.036824893937423e-06   7.960246222454424e-06
3.5447914483931466e-05   -7.036824893937423e-06   7.960246222454424e-06
3.5447914483931466e-05   -7.036824893937423e-06   7.960246222454424e-06
3.5447914483931466e-05   -7.036824893937423e-06   7.960246222454424e-06
4.79624437953373e-05   -8.39036275528566e-06   2.6888939346651763e-05
4.79624437953373e-05   -8.39036275528566e-06   2.6888939346651763e-05
4.79624437953373e-05   -8.39036275528566e-06   2.6888939346651763e-05
4.79624437953373e-05   -8.39036275528566e-06   2.6888939346651763e-05
2.3930552973070975e-05   -6.59197590409822e-06   -1.2085179913079664e-05
2.3930552973070975e-05   -6.59197590409822e-06   -1.2085179913079664e-05
2.3930552973070975e-05   -6.59197590409822e-06   -1.2085179913079664e-05
2.3930552973070975e-05   -6.59197590409822e-06   -1.2085179913079664e-05
2.30257337810587e-05   -8.212435730808269e-06   2.3223709326111903e-05
2.30257337810587e-05   -8.212435730808269e-06   2.3223709326111903e-05
2.30257337810587e-05   -8.212435730808269e-06   2.3223709326111903e-05
2.30257337810587e-05   -8.212435730808269e-06   2.3223709326111903e-05
4.645058101400452e-05   -6.5477490095858844e-06   -1.681651476153089e-05
4.645058101400452e-05   -6.5477490095858844e-06   -1.681651476153089e-05
4.645058101400452e-05   -6.5477490095858844e-06   -1.681651476153089e-05
4.645058101400452e-05   -6.5477490095858844e-06   -1.681651476153089e-05
3.387265404357328e-05   -6.851772191760613e-06   4.329110765159718e-06
3.387265404357328e-05   -6.851772191760613e-06   4.329110765159718e-06
3.387265404357328e-05   -6.851772191760613e-06   4.329110765159718e-06
3.387265404357328e-05   -6.851772191760613e-06   4.329110765159718e-06
2.546192812526148e-05   -4.6688808832330405e-06   3.37579724230552e-05
2.546192812526148e-05   -4.6688808832330405e-06   3.37579724230552e-05
2.546192812526148e-05   -4.6688808832330405e-06   3.37579724230552e-05
2.546192812526148e-05   -4.6688808832330405e-06   3.37579724230552e-05
2.7675857210143832e-06   -2.0148126579169236e-06   -2.473490648833643e-06
2.7675857210143832e-06   -2.0148126579169236e-06   -2.473490648833643e-06
2.7675857210143832e-06   -2.0148126579169236e-06   -2.473490648833643e-06
2.7675857210143832e-06   -2.0148126579169236e-06   -2.473490648833643e-06
2.1025638032595733e-06   -4.951131459370733e-06   3.5163983600024293e-05
2.1025638032595733e-06   -4.951131459370733e-06   3.5163983600024293e-05
2.1025638032595733e-06   -4.951131459370733e-06   3.5163983600024293e-05
2.1025638032595733e-06   -4.951131459370733e-06   3.5163983600024293e-05
2.4792761163946884e-05   -2.4228899145821003e-06   -4.169956927993951e-06
2.4792761163946884e-05   -2.4228899145821003e-06   -4.169956927993951e-06
2.4792761163946884e-05   -2.4228899145821003e-06   -4.169956927993951e-06
2.4792761163946884e-05   -2.4228899145821003e-06   -4.169956927993951e-06
1.3649016717303673e-05   -3.2682489489472416e-06   1.4910165903696954e-05
1.3649016717303673e-05   -3.2682489489472416e-06   1.4910165903696954e-05
1.3649016717303673e-05   -3.2682489489472416e-06   1.4910165903696954e-05
1.3649016717303673e-05   -3.2682489489472416e-06   1.4910165903696954e-05
2.479276116394687e-05   -4.951131459370659e-06   3.3647038673151634e-05
2.479276116394687e-05   -4.951131459370659e-06   3.3647038673151634e-05
2.479276116394687e-05   -4.951131459370659e-06   3.3647038673151634e-05
2.479276116394687e-05   -4.951131459370659e-06   3.3647038673151634e-05
2.1025638032595733e-06   -2.4228899145821003e-06   -2.6530120011210474e-06
2.1025638032595733e-06   -2.4228899145821003e-06   -2.6530120011210474e-06
2.1025638032595733e-06   -2.4228899145821003e-06   -2.6530120011210474e-06
2.1025638032595733e-06   -2.4228899145821003e-06   -2.6530120011210474e-06
1.2539449878338165e-06   -5.075506420236693e-06   3.482909729701517e-05
1.2539449878338165e-06   -5.075506420236693e-06   3.482909729701517e-05
1.2539449878338165e-06   -5.075506420236693e-06   3.482909729701517e-05
1.2539449878338165e-06   -5.075506420236693e-06   3.482909729701517e-05
2.393055297307098e-05   -2.6897048601920784e-06   -4.39673028107322e-06
2.393055297307098e-05   -2.6897048601920784e-06   -4.39673028107322e-06
2.393055297307098e-05   -2.6897048601920784e-06   -4.39673028107322e-06
2.393055297307098e-05   -2.6897048601920784e-06   -4.39673028107322e-06
1.2805205662192643e-05   -3.4223050485342795e-06   1.4585075350063195e-05
1.2805205662192643e-05   -3.4223050485342795e-06   1.4585075350063195e-05
1.2805205662192643e-05   -3.4223050485342795e-06   1.4585075350063195e-05
1.2805205662192643e-05   -3.4223050485342795e-06   1.4585075350063195e-05
2.3930552973070934e-05   -5.075506420236466e-06   3.339761636098862e-05
2.3930552973070934e-05   -5.075506420236466e-06   3.339761636098862e-05
2.3930552973070934e-05   -5.075506420236466e-06   3.339761636098862e-05
2.3930552973070934e-05   -5.075506420236466e-06   3.339761636098862e-05
1.2539449878338165e-06   -2.6897048601920784e-06   -2.9652493450467356e-06
1.2539449878338165e-06   -2.6897048601920784e-06   -2.9652493450467356e-06
1.2539449878338165e-06   -2.6897048601920784e-06   -2.9652493450467356e-06
1.2539449878338165e-06   -2.6897048601920784e-06   -2.9652493450467356e-06
3.1652127731481277e-07   -4.959044481958174e-06   3.533693511017784e-05
3.1652127731481277e-07   -4.959044481958174e-06   3.533693511017784e-05
3.1652127731481277e-07   -4.959044481958174e-06   3.533693511017784e-05
3.1652127731481277e-07   -4.959044481958174e-06   3.533693511017784e-05
2.302573378105867e-05   -2.802878026693335e-06   -3.8054522692208484e-06
2.302573378105867e-05   -2.802878026693335e-06   -3.8054522692208484e-06
2.302573378105867e-05   -2.802878026693335e-06   -3.8054522692208484e-06
2.302573378105867e-05   -2.802878026693335e-06   -3.8054522692208484e-06
1.2119066682752883e-05   -3.3887585977722748e-06   1.472385457060345e-05
1.2119066682752883e-05   -3.3887585977722748e-06   1.472385457060345e-05
1.2119066682752883e-05   -3.3887585977722748e-06   1.472385457060345e-05
1.2119066682752883e-05   -3.3887585977722748e-06   1.472385457060345e-05
2.7675857210143697e-06   -1.9439884093141765e-06   3.451013777413668e-05
2.7675857210143697e-06   -1.9439884093141765e-06   3.451013777413668e-05
2.7675857210143697e-06   -1.9439884093141765e-06   3.451013777413668e-05
2.7675857210143697e-06   -1.9439884093141765e-06   3.451013777413668e-05
-1.9220581700092306e-05   1.7974664796266242e-06   1.0806500565642245e-07
-1.9220581700092306e-05   1.7974664796266242e-06   1.0806500565642245e-07
-1.9220581700092306e-05   1.7974664796266242e-06   1.0806500565642245e-07
-1.9220581700092306e-05   1.7974664796266242e-06   1.0806500565642245e-07
-1.9969988601851164e-05   -2.0521329366471504e-06   3.701325053623891e-05
-1.9969988601851164e-05   -2.0521329366471504e-06   3.701325053623891e-05
-1.9969988601851164e-05   -2.0521329366471504e-06   3.701325053623891e-05
-1.9969988601851164e-05   -2.0521329366471504e-06   3.701325053623891e-05
2.1025638032595716e-06   1.4861954346790524e-06   -1.8973338284078954e-06
2.1025638032595716e-06   1.4861954346790524e-06   -1.8973338284078954e-06
2.1025638032595716e-06   1.4861954346790524e-06   -1.8973338284078954e-06
2.1025638032595716e-06   1.4861954346790524e-06   -1.8973338284078954e-06
-8.56446703811704e-06   -1.4173377621074304e-08   1.6781272194599895e-05
-8.56446703811704e-06   -1.4173377621074304e-08   1.6781272194599895e-05
-8.56446703811704e-06   -1.4173377621074304e-08   1.6781272194599895e-05
-8.56446703811704e-06   -1.4173377621074304e-08   1.6781272194599895e-05
2.1025638032595733e-06   -2.0521329366471055e-06   3.4890253513443405e-05
2.1025638032595733e-06   -2.0521329366471055e-06   3.4890253513443405e-05
2.1025638032595733e-06   -2.0521329366471055e-06   3.4890253513443405e-05
2.1025638032595733e-06   -2.0521329366471055e-06   3.4890253513443405e-05
-1.9969988601851164e-05   1.4861954346790524e-06   2.2566319438782623e-07
-1.9969988601851164e-05   1.4861954346790524e-06   2.2566319438782623e-07
-1.9969988601851164e-05   1.4861954346790524e-06   2.2566319438782623e-07
-1.9969988601851164e-05   1.4861954346790524e-06   2.2566319438782623e-07
-2.097398702691562e-05   -2.1848956420727865e-06   3.7752031658105445e-05
-2.097398702691562e-05   -2.1848956420727865e-06   3.7752031658105445e-05
-2.097398702691562e-05   -2.1848956420727865e-06   3.7752031658105445e-05
-2.097398702691562e-05   -2.1848956420727865e-06   3.7752031658105445e-05
1.253944987833821e-06   1.1964463949051644e-06   -1.323326921997002e-06
1.253944987833821e-06   1.1964463949051644e-06   -1.323326921997002e-06
1.253944987833821e-06   1.1964463949051644e-06   -1.323326921997002e-06
1.253944987833821e-06   1.1964463949051644e-06   -1.323326921997002e-06
-9.303501257880407e-06   -1.009501519959842e-07   1.705085474900067e-05
-9.303501257880407e-06   -1.009501519959842e-07   1.705085474900067e-05
-9.303501257880407e-06   -1.009501519959842e-07   1.705085474900067e-05
-9.303501257880407e-06   -1.009501519959842e-07   1.705085474900067e-05
1.2539449878338165e-06   -2.1848956420727484e-06   3.572322643591872e-05
1.2539449878338165e-06   -2.1848956420727484e-06   3.572322643591872e-05
1.2539449878338165e-06   -2.1848956420727484e-06   3.572322643591872e-05
1.2539449878338165e-06   -2.1848956420727484e-06   3.572322643591872e-05
-2.097398702691562e-05   1.1964463949051644e-06   7.054783001895354e-07
-2.097398702691562e-05   1.1964463949051644e-06   7.054783001895354e-07
-2.097398702691562e-05   1.1964463949051644e-06   7.054783001895354e-07
-2.097398702691562e-05   1.1964463949051644e-06   7.054783001895354e-07
-2.204365731290272e-05   -2.1703892514662523e-06   3.8638162160653956e-05
-2.204365731290272e-05   -2.1703892514662523e-06   3.8638162160653956e-05
-2.204365731290272e-05   -2.1703892514662523e-06   3.8638162160653956e-05
-2.204365731290272e-05   -2.1703892514662523e-06   3.8638162160653956e-05
3.1652127731481245e-07   9.88006284334108e-07   -5.23839477855443e-07
3.1652127731481245e-07   9.88006284334108e-07   -5.23839477855443e-07
3.1652127731481245e-07   9.88006284334108e-07   -5.23839477855443e-07
3.1652127731481245e-07   9.88006284334108e-07   -5.23839477855443e-07
-1.0245708427946757e-05   -1.6282860556605418e-07   1.77703776315212e-05
-1.0245708427946757e-05   -1.6282860556605418e-07   1.77703776315212e-05
-1.0245708427946757e-05   -1.6282860556605418e-07   1.77703776315212e-05
-1.0245708427946757e-05   -1.6282860556605418e-07   1.77703776315212e-05
-1.9220581700092224e-05   2.145623334087318e-06   3.1199221758810734e-05
-1.9220581700092224e-05   2.145623334087318e-06   3.1199221758810734e-05
-1.9220581700092224e-05   2.145623334087318e-06   3.1199221758810734e-05
-1.9220581700092224e-05   2.145623334087318e-06   3.1199221758810734e-05
-4.0769791623567495e-05   5.846669713843516e-06   -2.4955002857945984e-06
-4.0769791623567495e-05   5.846669713843516e-06   -2.4955002857945984e-06
-4.0769791623567495e-05   5.846669713843516e-06   -2.4955002857945984e-06
-4.0769791623567495e-05   5.846669713843516e-06   -2.4955002857945984e-06
-4.1859765474897234e-05   2.022525344515247e-06   3.452366290009339e-05
-4.1859765474897234e-05   2.022525344515247e-06   3.452366290009339e-05
-4.1859765474897234e-05   2.022525344515247e-06   3.452366290009339e-05
-4.1859765474897234e-05   2.022525344515247e-06   3.452366290009339e-05
-1.996998860185113e-05   5.5352077242137865e-06   -4.066907982802468e-06
-1.996998860185113e-05   5.5352077242137865e-06   -4.066907982802468e-06
-1.996998860185113e-05   5.5352077242137865e-06   -4.066907982802468e-06
-1.996998860185113e-05   5.5352077242137865e-06   -4.066907982802468e-06
-3.0215861619775715e-05   3.953575380039737e-06   1.395852645357632e-05
-3.0215861619775715e-05   3.953575380039737e-06   1.395852645357632e-05
-3.0215861619775715e-05   3.953575380039737e-06   1.395852645357632e-05
-3.0215861619775715e-05   3.953575380039737e-06   1.395852645357632e-05
-1.9969988601851164e-05   2.0225253445152926e-06   3.241605347227431e-05
-1.9969988601851164e-05   2.0225253445152926e-06   3.241605347227431e-05
-1.9969988601851164e-05   2.0225253445152926e-06   3.241605347227431e-05
-1.9969988601851164e-05   2.0225253445152926e-06   3.241605347227431e-05
-4.1859765474897166e-05   5.5352077242137865e-06   -1.9592985549833066e-06
-4.1859765474897166e-05   5.5352077242137865e-06   -1.9592985549833066e-06
-4.1859765474897166e-05   5.5352077242137865e-06   -1.9592985549833066e-06
-4.1859765474897166e-05   5.5352077242137865e-06   -1.9592985549833066e-06
-4.319604397787349e-05   1.792139036433868e-06   3.6641209598766095e-05
-4.319604397787349e-05   1.792139036433868e-06   3.6641209598766095e-05
-4.319604397787349e-05   1.792139036433868e-06   3.6641209598766095e-05
-4.319604397787349e-05   1.792139036433868e-06   3.6641209598766095e-05
-2.0973987026915624e-05   5.246609070558078e-06   -2.4682340066381405e-06
-2.0973987026915624e-05   5.246609070558078e-06   -2.4682340066381405e-06
-2.0973987026915624e-05   5.246609070558078e-06   -2.4682340066381405e-06
-2.0973987026915624e-05   5.246609070558078e-06   -2.4682340066381405e-06
-3.1026698040669454e-05   3.882967159237437e-06   1.5104469496410604e-05
-3.1026698040669454e-05   3.882967159237437e-06   1.5104469496410604e-05
-3.1026698040669454e-05   3.882967159237437e-06   1.5104469496410604e-05
-3.1026698040669454e-05   3.882967159237437e-06   1.5104469496410604e-05
-2.097398702691562e-05   1.792139036434021e-06   3.4568527578291396e-05
-2.097398702691562e-05   1.792139036434021e-06   3.4568527578291396e-05
-2.097398702691562e-05   1.792139036434021e-06   3.4568527578291396e-05
-2.097398702691562e-05   1.792139036434021e-06   3.4568527578291396e-05
-4.319604397787341e-05   5.246609070558078e-06   -3.9555198616363085e-07
-4.319604397787341e-05   5.246609070558078e-06   -3.9555198616363085e-07
-4.319604397787341e-05   5.246609070558078e-06   -3.9555198616363085e-07
-4.319604397787341e-05   5.246609070558078e-06   -3.9555198616363085e-07
-4.460936421160546e-05   1.5308395522103252e-06   3.832307374630208e-05
-4.460936421160546e-05   1.5308395522103252e-06   3.832307374630208e-05
-4.460936421160546e-05   1.5308395522103252e-06   3.832307374630208e-05
-4.460936421160546e-05   1.5308395522103252e-06   3.832307374630208e-05
-2.2043657312902647e-05   4.858023403524073e-06   -1.2827480623243438e-06
-2.2043657312902647e-05   4.858023403524073e-06   -1.2827480623243438e-06
-2.2043657312902647e-05   4.858023403524073e-06   -1.2827480623243438e-06
-2.2043657312902647e-05   4.858023403524073e-06   -1.2827480623243438e-06
-3.2380896278270783e-05   3.649224042693352e-06   1.667126316312148e-05
-3.2380896278270783e-05   3.649224042693352e-06   1.667126316312148e-05
-3.2380896278270783e-05   3.649224042693352e-06   1.667126316312148e-05
-3.2380896278270783e-05   3.649224042693352e-06   1.667126316312148e-05
-4.0769791623567495e-05   9.641379246784482e-06   1.6423798077334255e-05
-4.0769791623567495e-05   9.641379246784482e-06   1.6423798077334255e-05
-4.0769791623567495e-05   9.641379246784482e-06   1.6423798077334255e-05
-4.0769791623567495e-05   9.641379246784482e-06   1.6423798077334255e-05
-6.141758173181994e-05   9.508605715262321e-06   -1.8068849555332974e-05
-6.141758173181994e-05   9.508605715262321e-06   -1.8068849555332974e-05
-6.141758173181994e-05   9.508605715262321e-06   -1.8068849555332974e-05
-6.141758173181994e-05   9.508605715262321e-06   -1.8068849555332974e-05
-6.337506344275022e-05   9.311670370192645e-06   2.4356320861704077e-05
-6.337506344275022e-05   9.311670370192645e-06   2.4356320861704077e-05
-6.337506344275022e-05   9.311670370192645e-06   2.4356320861704077e-05
-6.337506344275022e-05   9.311670370192645e-06   2.4356320861704077e-05
-4.1859765474897166e-05   9.693757267128416e-06   -1.173176122287934e-05
-4.1859765474897166e-05   9.693757267128416e-06   -1.173176122287934e-05
-4.1859765474897166e-05   9.693757267128416e-06   -1.173176122287934e-05
-4.1859765474897166e-05   9.693757267128416e-06   -1.173176122287934e-05
-4.976827836560619e-05   9.686546107817023e-06   1.4534202905559942e-06
-4.976827836560619e-05   9.686546107817023e-06   1.4534202905559942e-06
-4.976827836560619e-05   9.686546107817023e-06   1.4534202905559942e-06
-4.976827836560619e-05   9.686546107817023e-06   1.4534202905559942e-06
-4.1859765474897126e-05   9.311670370192782e-06   2.412706872354257e-05
-4.1859765474897126e-05   9.311670370192782e-06   2.412706872354257e-05
-4.1859765474897126e-05   9.311670370192782e-06   2.412706872354257e-05
-4.1859765474897126e-05   9.311670370192782e-06   2.412706872354257e-05
-6.337506344275022e-05   9.693757267128416e-06   -1.1502509084717889e-05
-6.337506344275022e-05   9.693757267128416e-06   -1.1502509084717889e-05
-6.337506344275022e-05   9.693757267128416e-06   -1.1502509084717889e-05
-6.337506344275022e-05   9.693757267128416e-06   -1.1502509084717889e-05
-6.529460731868167e-05   9.075174583352864e-06   2.9919559101345512e-05
-6.529460731868167e-05   9.075174583352864e-06   2.9919559101345512e-05
-6.529460731868167e-05   9.075174583352864e-06   2.9919559101345512e-05
-6.529460731868167e-05   9.075174583352864e-06   2.9919559101345512e-05
-4.319604397787341e-05   9.624822038683178e-06   -7.2411682731999606e-06
-4.319604397787341e-05   9.624822038683178e-06   -7.2411682731999606e-06
-4.319604397787341e-05   9.624822038683178e-06   -7.2411682731999606e-06
-4.319604397787341e-05   9.624822038683178e-06   -7.2411682731999606e-06
-5.201732158581688e-05   9.68753998335163e-06   7.423330306572079e-06
-5.201732158581688e-05   9.68753998335163e-06   7.423330306572079e-06
-5.201732158581688e-05   9.68753998335163e-06   7.423330306572079e-06
-5.201732158581688e-05   9.68753998335163e-06   7.423330306572079e-06
-4.319604397787341e-05   9.075174583353071e-06   2.9589770628147454e-05
-4.319604397787341e-05   9.075174583353071e-06   2.9589770628147454e-05
-4.319604397787341e-05   9.075174583353071e-06   2.9589770628147454e-05
-4.319604397787341e-05   9.075174583353071e-06   2.9589770628147454e-05
-6.529460731868178e-05   9.624822038683178e-06   -6.91137980000174e-06
-6.529460731868178e-05   9.624822038683178e-06   -6.91137980000174e-06
-6.529460731868178e-05   9.624822038683178e-06   -6.91137980000174e-06
-6.529460731868178e-05   9.624822038683178e-06   -6.91137980000174e-06
-6.755888831746689e-05   7.567248851818049e-06   3.9214110141834544e-05
-6.755888831746689e-05   7.567248851818049e-06   3.9214110141834544e-05
-6.755888831746689e-05   7.567248851818049e-06   3.9214110141834544e-05
-6.755888831746689e-05   7.567248851818049e-06   3.9214110141834544e-05
-4.460936421160541e-05   8.863047992573904e-06   1.874238142785564e-07
-4.460936421160541e-05   8.863047992573904e-06   1.874238142785564e-07
-4.460936421160541e-05   8.863047992573904e-06   1.874238142785564e-07
-4.460936421160541e-05   8.863047992573904e-06   1.874238142785564e-07
-5.2817188042171135e-05   9.229611019272643e-06   1.3647192382535507e-05
-5.2817188042171135e-05   9.229611019272643e-06   1.3647192382535507e-05
-5.2817188042171135e-05   9.229611019272643e-06   1.3647192382535507e-05
-5.2817188042171135e-05   9.229611019272643e-06   1.3647192382535507e-05
4.089804541103204e-05   -5.719070461778052e-06   3.151639914643345e-05
4.089804541103204e-05   -5.719070461778052e-06   3.151639914643345e-05
4.089804541103204e-05   -5.719070461778052e-06   3.151639914643345e-05
4.089804541103204e-05   -5.719070461778052e-06   3.151639914643345e-05
2.0240332140057214e-05   -4.199955914573712e-06   -2.0016542435351715e-06
2.0240332140057214e-05   -4.199955914573712e-06   -2.0016542435351715e-06
2.0240332140057214e-05   -4.199955914573712e-06   -2.0016542435351715e-06
2.0240332140057214e-05   -4.199955914573712e-06   -2.0016542435351715e-06
1.9469358014916784e-05   -6.479513255083606e-06   2.7400182534503912e-05
1.9469358014916784e-05   -6.479513255083606e-06   2.7400182534503912e-05
1.9469358014916784e-05   -6.479513255083606e-06   2.7400182534503912e-05
1.9469358014916784e-05   -6.479513255083606e-06   2.7400182534503912e-05
3.948051965835394e-05   -4.870986688582102e-06   -6.916869477791939e-06
3.948051965835394e-05   -4.870986688582102e-06   -6.916869477791939e-06
3.948051965835394e-05   -4.870986688582102e-06   -6.916869477791939e-06
3.948051965835394e-05   -4.870986688582102e-06   -6.916869477791939e-06
2.8647704312353494e-05   -5.262812922202662e-06   1.1372918505714343e-05
2.8647704312353494e-05   -5.262812922202662e-06   1.1372918505714343e-05
2.8647704312353494e-05   -5.262812922202662e-06   1.1372918505714343e-05
2.8647704312353494e-05   -5.262812922202662e-06   1.1372918505714343e-05
3.9480519658353866e-05   -6.4795132550834445e-06   2.6435066594603313e-05
3.9480519658353866e-05   -6.4795132550834445e-06   2.6435066594603313e-05
3.9480519658353866e-05   -6.4795132550834445e-06   2.6435066594603313e-05
3.9480519658353866e-05   -6.4795132550834445e-06   2.6435066594603313e-05
1.9469358014916852e-05   -4.870986688582102e-06   -5.9517535378910726e-06
1.9469358014916852e-05   -4.870986688582102e-06   -5.9517535378910726e-06
1.9469358014916852e-05   -4.870986688582102e-06   -5.9517535378910726e-06
1.9469358014916852e-05   -4.870986688582102e-06   -5.9517535378910726e-06
1.8612429548949345e-05   -6.591975904098437e-06   2.4551349141009116e-05
1.8612429548949345e-05   -6.591975904098437e-06   2.4551349141009116e-05
1.8612429548949345e-05   -6.591975904098437e-06   2.4551349141009116e-05
1.8612429548949345e-05   -6.591975904098437e-06   2.4551349141009116e-05
3.819642727024203e-05   -5.005413557680489e-06   -9.040584468995772e-06
3.819642727024203e-05   -5.005413557680489e-06   -9.040584468995772e-06
3.819642727024203e-05   -5.005413557680489e-06   -9.040584468995772e-06
3.819642727024203e-05   -5.005413557680489e-06   -9.040584468995772e-06
2.811678660794104e-05   -5.523042469500906e-06   8.069393981931227e-06
2.811678660794104e-05   -5.523042469500906e-06   8.069393981931227e-06
2.811678660794104e-05   -5.523042469500906e-06   8.069393981931227e-06
2.811678660794104e-05   -5.523042469500906e-06   8.069393981931227e-06
3.81964272702419e-05   -6.59197590409823e-06   2.359941173315865e-05
3.81964272702419e-05   -6.59197590409823e-06   2.359941173315865e-05
3.81964272702419e-05   -6.59197590409823e-06   2.359941173315865e-05
3.81964272702419e-05   -6.59197590409823e-06   2.359941173315865e-05
1.861242954894938e-05   -5.005413557680489e-06   -8.088647061145178e-06
1.861242954894938e-05   -5.005413557680489e-06   -8.088647061145178e-06
1.861242954894938e-05   -5.005413557680489e-06   -8.088647061145178e-06
1.861242954894938e-05   -5.005413557680489e-06   -8.088647061145178e-06
1.7788021721925094e-05   -6.5477490095858844e-06   2.0575506350247645e-05
1.7788021721925094e-05   -6.5477490095858844e-06   2.0575506350247645e-05
1.7788021721925094e-05   -6.5477490095858844e-06   2.0575506350247645e-05
1.7788021721925094e-05   -6.5477490095858844e-06   2.0575506350247645e-05
3.674163500275567e-05   -5.057813240687183e-06   -1.1907810579142549e-05
3.674163500275567e-05   -5.057813240687183e-06   -1.1907810579142549e-05
3.674163500275567e-05   -5.057813240687183e-06   -1.1907810579142549e-05
3.674163500275567e-05   -5.057813240687183e-06   -1.1907810579142549e-05
2.6674311546119038e-05   -5.428914303809993e-06   5.0937224864594125e-06
2.6674311546119038e-05   -5.428914303809993e-06   5.0937224864594125e-06
2.6674311546119038e-05   -5.428914303809993e-06   5.0937224864594125e-06
2.6674311546119038e-05   -5.428914303809993e-06   5.0937224864594125e-06
2.0240332140057214e-05   -2.01481265791705e-06   3.303906435615637e-05
2.0240332140057214e-05   -2.01481265791705e-06   3.303906435615637e-05
2.0240332140057214e-05   -2.01481265791705e-06   3.303906435615637e-05
2.0240332140057214e-05   -2.01481265791705e-06   3.303906435615637e-05
8.495482542349712e-07   -8.040862292740206e-07   1.447527070305276e-06
8.495482542349712e-07   -8.040862292740206e-07   1.447527070305276e-06
8.495482542349712e-07   -8.040862292740206e-07   1.447527070305276e-06
8.495482542349712e-07   -8.040862292740206e-07   1.447527070305276e-06
1.091934641015861e-07   -2.4228899145821003e-06   3.338026315562962e-05
1.091934641015861e-07   -2.4228899145821003e-06   3.338026315562962e-05
1.091934641015861e-07   -2.4228899145821003e-06   3.338026315562962e-05
1.091934641015861e-07   -2.4228899145821003e-06   3.338026315562962e-05
1.946935801491685e-05   -1.2794201008398294e-06   4.2724034935875705e-07
1.946935801491685e-05   -1.2794201008398294e-06   4.2724034935875705e-07
1.946935801491685e-05   -1.2794201008398294e-06   4.2724034935875705e-07
1.946935801491685e-05   -1.2794201008398294e-06   4.2724034935875705e-07
1.0043606076902446e-05   -1.5701947167527045e-06   1.6311291682263697e-05
1.0043606076902446e-05   -1.5701947167527045e-06   1.6311291682263697e-05
1.0043606076902446e-05   -1.5701947167527045e-06   1.6311291682263697e-05
1.0043606076902446e-05   -1.5701947167527045e-06   1.6311291682263697e-05
1.946935801491683e-05   -2.4228899145820935e-06   3.269418126738391e-05
1.946935801491683e-05   -2.4228899145820935e-06   3.269418126738391e-05
1.946935801491683e-05   -2.4228899145820935e-06   3.269418126738391e-05
1.946935801491683e-05   -2.4228899145820935e-06   3.269418126738391e-05
1.091934641015861e-07   -1.2794201008398294e-06   1.1133222376040735e-06
1.091934641015861e-07   -1.2794201008398294e-06   1.1133222376040735e-06
1.091934641015861e-07   -1.2794201008398294e-06   1.1133222376040735e-06
1.091934641015861e-07   -1.2794201008398294e-06   1.1133222376040735e-06
-6.603761659414647e-07   -2.6897048601920784e-06   3.287447884192641e-05
-6.603761659414647e-07   -2.6897048601920784e-06   3.287447884192641e-05
-6.603761659414647e-07   -2.6897048601920784e-06   3.287447884192641e-05
-6.603761659414647e-07   -2.6897048601920784e-06   3.287447884192641e-05
1.861242954894938e-05   -1.6319047453406971e-06   1.1845591486423933e-07
1.861242954894938e-05   -1.6319047453406971e-06   1.1845591486423933e-07
1.861242954894938e-05   -1.6319047453406971e-06   1.1845591486423933e-07
1.861242954894938e-05   -1.6319047453406971e-06   1.1845591486423933e-07
9.193138198515045e-06   -1.8189585031221436e-06   1.592950708692421e-05
9.193138198515045e-06   -1.8189585031221436e-06   1.592950708692421e-05
9.193138198515045e-06   -1.8189585031221436e-06   1.592950708692421e-05
9.193138198515045e-06   -1.8189585031221436e-06   1.592950708692421e-05
1.861242954894938e-05   -2.689704860192142e-06   3.223979877301571e-05
1.861242954894938e-05   -2.689704860192142e-06   3.223979877301571e-05
1.861242954894938e-05   -2.689704860192142e-06   3.223979877301571e-05
1.861242954894938e-05   -2.689704860192142e-06   3.223979877301571e-05
-6.603761659414647e-07   -1.6319047453406971e-06   7.531359837750599e-07
-6.603761659414647e-07   -1.6319047453406971e-06   7.531359837750599e-07
-6.603761659414647e-07   -1.6319047453406971e-06   7.531359837750599e-07
-6.603761659414647e-07   -1.6319047453406971e-06   7.531359837750599e-07
-1.461558864278604e-06   -2.802878026693335e-06   3.312395043559321e-05
-1.461558864278604e-06   -2.802878026693335e-06   3.312395043559321e-05
-1.461558864278604e-06   -2.802878026693335e-06   3.312395043559321e-05
-1.461558864278604e-06   -2.802878026693335e-06   3.312395043559321e-05
1.778802172192514e-05   -1.909221983744996e-06   5.051224994847138e-07
1.778802172192514e-05   -1.909221983744996e-06   5.051224994847138e-07
1.778802172192514e-05   -1.909221983744996e-06   5.051224994847138e-07
1.778802172192514e-05   -1.909221983744996e-06   5.051224994847138e-07
8.554662640641976e-06   -1.9517964421453433e-06   1.5919598976664174e-05
8.554662640641976e-06   -1.9517964421453433e-06   1.5919598976664174e-05
8.554662640641976e-06   -1.9517964421453433e-06   1.5919598976664174e-05
8.554662640641976e-06   -1.9517964421453433e-06   1.5919598976664174e-05
8.495482542349576e-07   1.7974664796266595e-06   3.410218293446775e-05
8.495482542349576e-07   1.7974664796266595e-06   3.410218293446775e-05
8.495482542349576e-07   1.7974664796266595e-06   3.410218293446775e-05
8.495482542349576e-07   1.7974664796266595e-06   3.410218293446775e-05
-1.7976545758407764e-05   2.6040949973155873e-06   3.209336690676535e-06
-1.7976545758407764e-05   2.6040949973155873e-06   3.209336690676535e-06
-1.7976545758407764e-05   2.6040949973155873e-06   3.209336690676535e-06
-1.7976545758407764e-05   2.6040949973155873e-06   3.209336690676535e-06
-1.8750243922881807e-05   1.4861954346788355e-06   3.4569786215144557e-05
-1.8750243922881807e-05   1.4861954346788355e-06   3.4569786215144557e-05
-1.8750243922881807e-05   1.4861954346788355e-06   3.4569786215144557e-05
-1.8750243922881807e-05   1.4861954346788355e-06   3.4569786215144557e-05
1.0919346410159023e-07   2.209270246015648e-06   2.703545683370212e-06
1.0919346410159023e-07   2.209270246015648e-06   2.703545683370212e-06
1.0919346410159023e-07   2.209270246015648e-06   2.703545683370212e-06
1.0919346410159023e-07   2.209270246015648e-06   2.703545683370212e-06
-8.955805924024109e-06   2.046661717996492e-06   1.790944311372454e-05
-8.955805924024109e-06   2.046661717996492e-06   1.790944311372454e-05
-8.955805924024109e-06   2.046661717996492e-06   1.790944311372454e-05
-8.955805924024109e-06   2.046661717996492e-06   1.790944311372454e-05
1.091934641015861e-07   1.4861954346788387e-06   3.4135941328342556e-05
1.091934641015861e-07   1.4861954346788387e-06   3.4135941328342556e-05
1.091934641015861e-07   1.4861954346788387e-06   3.4135941328342556e-05
1.091934641015861e-07   1.4861954346788387e-06   3.4135941328342556e-05
-1.8750243922881807e-05   2.2092702460154313e-06   3.1373905701722942e-06
-1.8750243922881807e-05   2.2092702460154313e-06   3.1373905701722942e-06
-1.8750243922881807e-05   2.2092702460154313e-06   3.1373905701722942e-06
-1.8750243922881807e-05   2.2092702460154313e-06   3.1373905701722942e-06
-1.9567058737806595e-05   1.1964463949051644e-06   3.4894090203722904e-05
-1.9567058737806595e-05   1.1964463949051644e-06   3.4894090203722904e-05
-1.9567058737806595e-05   1.1964463949051644e-06   3.4894090203722904e-05
-1.9567058737806595e-05   1.1964463949051644e-06   3.4894090203722904e-05
-6.603761659414765e-07   1.8259279594831299e-06   3.0052636452007663e-06
-6.603761659414765e-07   1.8259279594831299e-06   3.0052636452007663e-06
-6.603761659414765e-07   1.8259279594831299e-06   3.0052636452007663e-06
-6.603761659414765e-07   1.8259279594831299e-06   3.0052636452007663e-06
-9.674412087724234e-06   1.8216656744749014e-06   1.8031214219177042e-05
-9.674412087724234e-06   1.8216656744749014e-06   1.8031214219177042e-05
-9.674412087724234e-06   1.8216656744749014e-06   1.8031214219177042e-05
-9.674412087724234e-06   1.8216656744749014e-06   1.8031214219177042e-05
-6.603761659414647e-07   1.1964463949051805e-06   3.451640126497595e-05
-6.603761659414647e-07   1.1964463949051805e-06   3.451640126497595e-05
-6.603761659414647e-07   1.1964463949051805e-06   3.451640126497595e-05
-6.603761659414647e-07   1.1964463949051805e-06   3.451640126497595e-05
-1.9567058737806595e-05   1.8259279594833467e-06   3.382952583947719e-06
-1.9567058737806595e-05   1.8259279594833467e-06   3.382952583947719e-06
-1.9567058737806595e-05   1.8259279594833467e-06   3.382952583947719e-06
-1.9567058737806595e-05   1.8259279594833467e-06   3.382952583947719e-06
-2.0409834467212412e-05   9.880062843338911e-07   3.5409910979029976e-05
-2.0409834467212412e-05   9.880062843338911e-07   3.5409910979029976e-05
-2.0409834467212412e-05   9.880062843338911e-07   3.5409910979029976e-05
-2.0409834467212412e-05   9.880062843338911e-07   3.5409910979029976e-05
-1.4615588642786067e-06   1.4847523263845138e-06   3.531404015576803e-06
-1.4615588642786067e-06   1.4847523263845138e-06   3.531404015576803e-06
-1.4615588642786067e-06   1.4847523263845138e-06   3.531404015576803e-06
-1.4615588642786067e-06   1.4847523263845138e-06   3.531404015576803e-06
-1.0452080869723313e-05   1.6061943045166203e-06   1.8442742171106036e-05
-1.0452080869723313e-05   1.6061943045166203e-06   1.8442742171106036e-05
-1.0452080869723313e-05   1.6061943045166203e-06   1.8442742171106036e-05
-1.0452080869723313e-05   1.6061943045166203e-06   1.8442742171106036e-05
-1.797654575840782e-05   5.846669713843572e-06   2.9761966925776753e-05
-1.797654575840782e-05   5.846669713843572e-06   2.9761966925776753e-05
-1.797654575840782e-05   5.846669713843572e-06   2.9761966925776753e-05
-1.797654575840782e-05   5.846669713843572e-06   2.9761966925776753e-05
-3.621696958346478e-05   5.9208398706612694e-06   -5.942373552276234e-07
-3.621696958346478e-05   5.9208398706612694e-06   -5.942373552276234e-07
-3.621696958346478e-05   5.9208398706612694e-06   -5.942373552276234e-07
-3.621696958346478e-05   5.9208398706612694e-06   -5.942373552276234e-07
-3.711508810126467e-05   5.5352077242137865e-06   3.0282754691679774e-05
-3.711508810126467e-05   5.5352077242137865e-06   3.0282754691679774e-05
-3.711508810126467e-05   5.5352077242137865e-06   3.0282754691679774e-05
-3.711508810126467e-05   5.5352077242137865e-06   3.0282754691679774e-05
-1.8750243922881834e-05   5.544440480422658e-06   -3.308585926834601e-07
-1.8750243922881834e-05   5.544440480422658e-06   -3.308585926834601e-07
-1.8750243922881834e-05   5.544440480422658e-06   -3.308585926834601e-07
-1.8750243922881834e-05   5.544440480422658e-06   -3.308585926834601e-07
-2.7391788436902553e-05   5.697071599132259e-06   1.3980136926125303e-05
-2.7391788436902553e-05   5.697071599132259e-06   1.3980136926125303e-05
-2.7391788436902553e-05   5.697071599132259e-06   1.3980136926125303e-05
-2.7391788436902553e-05   5.697071599132259e-06   1.3980136926125303e-05
-1.8750243922881834e-05   5.5352077242136865e-06   3.0277215037954452e-05
-1.8750243922881834e-05   5.5352077242136865e-06   3.0277215037954452e-05
-1.8750243922881834e-05   5.5352077242136865e-06   3.0277215037954452e-05
-1.8750243922881834e-05   5.5352077242136865e-06   3.0277215037954452e-05
-3.711508810126462e-05   5.544440480422658e-06   -3.253189389582729e-07
-3.711508810126462e-05   5.544440480422658e-06   -3.253189389582729e-07
-3.711508810126462e-05   5.544440480422658e-06   -3.253189389582729e-07
-3.711508810126462e-05   5.544440480422658e-06   -3.253189389582729e-07
-3.811013434396542e-05   5.246609070557861e-06   3.169055368587017e-05
-3.811013434396542e-05   5.246609070557861e-06   3.169055368587017e-05
-3.811013434396542e-05   5.246609070557861e-06   3.169055368587017e-05
-3.811013434396542e-05   5.246609070557861e-06   3.169055368587017e-05
-1.956705873780663e-05   5.196902052183013e-06   8.152518866305972e-07
-1.956705873780663e-05   5.196902052183013e-06   8.152518866305972e-07
-1.956705873780663e-05   5.196902052183013e-06   8.152518866305972e-07
-1.956705873780663e-05   5.196902052183013e-06   8.152518866305972e-07
-2.8040010923186627e-05   5.484862242212786e-06   1.4764062748245954e-05
-2.8040010923186627e-05   5.484862242212786e-06   1.4764062748245954e-05
-2.8040010923186627e-05   5.484862242212786e-06   1.4764062748245954e-05
-2.8040010923186627e-05   5.484862242212786e-06   1.4764062748245954e-05
-1.9567058737806622e-05   5.246609070557972e-06   3.1720377896895255e-05
-1.9567058737806622e-05   5.246609070557972e-06   3.1720377896895255e-05
-1.9567058737806622e-05   5.246609070557972e-06   3.1720377896895255e-05
-1.9567058737806622e-05   5.246609070557972e-06   3.1720377896895255e-05
-3.811013434396542e-05   5.196902052183013e-06   7.85427675605542e-07
-3.811013434396542e-05   5.196902052183013e-06   7.85427675605542e-07
-3.811013434396542e-05   5.196902052183013e-06   7.85427675605542e-07
-3.811013434396542e-05   5.196902052183013e-06   7.85427675605542e-07
-3.905824588752848e-05   4.85802340352429e-06   3.270434283487371e-05
-3.905824588752848e-05   4.85802340352429e-06   3.270434283487371e-05
-3.905824588752848e-05   4.85802340352429e-06   3.270434283487371e-05
-3.905824588752848e-05   4.85802340352429e-06   3.270434283487371e-05
-2.0409834467212442e-05   4.771986339844854e-06   1.6752793725544144e-06
-2.0409834467212442e-05   4.771986339844854e-06   1.6752793725544144e-06
-2.0409834467212442e-05   4.771986339844854e-06   1.6752793725544144e-06
-2.0409834467212442e-05   4.771986339844854e-06   1.6752793725544144e-06
-2.9073697945550297e-05   5.2085248878092506e-06   1.5853128707672882e-05
-2.9073697945550297e-05   5.2085248878092506e-06   1.5853128707672882e-05
-2.9073697945550297e-05   5.2085248878092506e-06   1.5853128707672882e-05
-2.9073697945550297e-05   5.2085248878092506e-06   1.5853128707672882e-05
-3.6216969583464725e-05   9.508605715262349e-06   1.4312783869241917e-05
-3.6216969583464725e-05   9.508605715262349e-06   1.4312783869241917e-05
-3.6216969583464725e-05   9.508605715262349e-06   1.4312783869241917e-05
-3.6216969583464725e-05   9.508605715262349e-06   1.4312783869241917e-05
-5.356187219915514e-05   8.530662824029252e-06   -1.5182152891648538e-05
-5.356187219915514e-05   8.530662824029252e-06   -1.5182152891648538e-05
-5.356187219915514e-05   8.530662824029252e-06   -1.5182152891648538e-05
-5.356187219915514e-05   8.530662824029252e-06   -1.5182152891648538e-05
-5.497635626914145e-05   9.693757267128416e-06   1.9867890022306524e-05
-5.497635626914145e-05   9.693757267128416e-06   1.9867890022306524e-05
-5.497635626914145e-05   9.693757267128416e-06   1.9867890022306524e-05
-5.497635626914145e-05   9.693757267128416e-06   1.9867890022306524e-05
-3.711508810126468e-05   8.62308726466655e-06   -9.258488256011087e-06
-3.711508810126468e-05   8.62308726466655e-06   -9.258488256011087e-06
-3.711508810126468e-05   8.62308726466655e-06   -9.258488256011087e-06
-3.711508810126468e-05   8.62308726466655e-06   -9.258488256011087e-06
-4.372626768855071e-05   9.034894291659384e-06   1.513060173270091e-06
-4.372626768855071e-05   9.034894291659384e-06   1.513060173270091e-06
-4.372626768855071e-05   9.034894291659384e-06   1.513060173270091e-06
-4.372626768855071e-05   9.034894291659384e-06   1.513060173270091e-06
-3.711508810126459e-05   9.693757267128368e-06   2.0510292023783686e-05
-3.711508810126459e-05   9.693757267128368e-06   2.0510292023783686e-05
-3.711508810126459e-05   9.693757267128368e-06   2.0510292023783686e-05
-3.711508810126459e-05   9.693757267128368e-06   2.0510292023783686e-05
-5.497635626914153e-05   8.62308726466655e-06   -9.90089025748825e-06
-5.497635626914153e-05   8.62308726466655e-06   -9.90089025748825e-06
-5.497635626914153e-05   8.62308726466655e-06   -9.90089025748825e-06
-5.497635626914153e-05   8.62308726466655e-06   -9.90089025748825e-06
-5.635700157979938e-05   9.624822038683178e-06   2.4187278888336636e-05
-5.635700157979938e-05   9.624822038683178e-06   2.4187278888336636e-05
-5.635700157979938e-05   9.624822038683178e-06   2.4187278888336636e-05
-5.635700157979938e-05   9.624822038683178e-06   2.4187278888336636e-05
-3.811013434396543e-05   8.52872452118767e-06   -5.566507994223164e-06
-3.811013434396543e-05   8.52872452118767e-06   -5.566507994223164e-06
-3.811013434396543e-05   8.52872452118767e-06   -5.566507994223164e-06
-3.811013434396543e-05   8.52872452118767e-06   -5.566507994223164e-06
-4.5467812716036955e-05   9.200578360880462e-06   6.293176988748028e-06
-4.5467812716036955e-05   9.200578360880462e-06   6.293176988748028e-06
-4.5467812716036955e-05   9.200578360880462e-06   6.293176988748028e-06
-4.5467812716036955e-05   9.200578360880462e-06   6.293176988748028e-06
-3.811013434396542e-05   9.62482203868306e-06   2.4844937398833897e-05
-3.811013434396542e-05   9.62482203868306e-06   2.4844937398833897e-05
-3.811013434396542e-05   9.62482203868306e-06   2.4844937398833897e-05
-3.811013434396542e-05   9.62482203868306e-06   2.4844937398833897e-05
-5.6357001579799594e-05   8.52872452118767e-06   -6.224166504720371e-06
-5.6357001579799594e-05   8.52872452118767e-06   -6.224166504720371e-06
-5.6357001579799594e-05   8.52872452118767e-06   -6.224166504720371e-06
-5.6357001579799594e-05   8.52872452118767e-06   -6.224166504720371e-06
-5.7968900142202866e-05   8.863047992573687e-06   3.1583861225741505e-05
-5.7968900142202866e-05   8.863047992573687e-06   3.1583861225741505e-05
-5.7968900142202866e-05   8.863047992573687e-06   3.1583861225741505e-05
-5.7968900142202866e-05   8.863047992573687e-06   3.1583861225741505e-05
-3.905824588752846e-05   7.872476034329707e-06   6.604473095636132e-07
-3.905824588752846e-05   7.872476034329707e-06   6.604473095636132e-07
-3.905824588752846e-05   7.872476034329707e-06   6.604473095636132e-07
-3.905824588752846e-05   7.872476034329707e-06   6.604473095636132e-07
-4.5904719520111663e-05   8.92971119646215e-06   1.1436895599923138e-05
-4.5904719520111663e-05   8.92971119646215e-06   1.1436895599923138e-05
-4.5904719520111663e-05   8.92971119646215e-06   1.1436895599923138e-05
-4.5904719520111663e-05   8.92971119646215e-06   1.1436895599923138e-05
3.1095009996319025e-05   -4.1999559145736086e-06   2.6347913762886236e-05
3.1095009996319025e-05   -4.1999559145736086e-06   2.6347913762886236e-05
3.1095009996319025e-05   -4.1999559145736086e-06   2.6347913762886236e-05
3.1095009996319025e-05   -4.1999559145736086e-06   2.6347913762886236e-05
1.4634520698893819e-05   -2.781511826139291e-06   -2.351686130953965e-07
1.4634520698893819e-05   -2.781511826139291e-06   -2.351686130953965e-07
1.4634520698893819e-05   -2.781511826139291e-06   -2.351686130953965e-07
1.4634520698893819e-05   -2.781511826139291e-06   -2.351686130953965e-07
1.3945540040867114e-05   -4.870986688582102e-06   2.3145862837976004e-05
1.3945540040867114e-05   -4.870986688582102e-06   2.3145862837976004e-05
1.3945540040867114e-05   -4.870986688582102e-06   2.3145862837976004e-05
1.3945540040867114e-05   -4.870986688582102e-06   2.3145862837976004e-05
2.9761657297945183e-05   -3.3738886925551836e-06   -4.11259138810347e-06
2.9761657297945183e-05   -3.3738886925551836e-06   -4.11259138810347e-06
2.9761657297945183e-05   -3.3738886925551836e-06   -4.11259138810347e-06
2.9761657297945183e-05   -3.3738886925551836e-06   -4.11259138810347e-06
2.130755343174106e-05   -3.835175997747185e-06   1.0254354105351954e-05
2.130755343174106e-05   -3.835175997747185e-06   1.0254354105351954e-05
2.130755343174106e-05   -3.835175997747185e-06   1.0254354105351954e-05
2.130755343174106e-05   -3.835175997747185e-06   1.0254354105351954e-05
2.9761657297945132e-05   -4.8709866885820705e-06   2.2247604040360027e-05
2.9761657297945132e-05   -4.8709866885820705e-06   2.2247604040360027e-05
2.9761657297945132e-05   -4.8709866885820705e-06   2.2247604040360027e-05
2.9761657297945132e-05   -4.8709866885820705e-06   2.2247604040360027e-05
1.3945540040867137e-05   -3.3738886925551836e-06   -3.2143325904873503e-06
1.3945540040867137e-05   -3.3738886925551836e-06   -3.2143325904873503e-06
1.3945540040867137e-05   -3.3738886925551836e-06   -3.2143325904873503e-06
1.3945540040867137e-05   -3.3738886925551836e-06   -3.2143325904873503e-06
1.3184771240331525e-05   -5.005413557680706e-06   2.08955928657393e-05
1.3184771240331525e-05   -5.005413557680706e-06   2.08955928657393e-05
1.3184771240331525e-05   -5.005413557680706e-06   2.08955928657393e-05
1.3184771240331525e-05   -5.005413557680706e-06   2.08955928657393e-05
2.8592731132837094e-05   -3.5318280913513266e-06   -5.668491568234089e-06
2.8592731132837094e-05   -3.5318280913513266e-06   -5.668491568234089e-06
2.8592731132837094e-05   -3.5318280913513266e-06   -5.668491568234089e-06
2.8592731132837094e-05   -3.5318280913513266e-06   -5.668491568234089e-06
2.0757108234499974e-05   -4.075692672430133e-06   7.717198677642142e-06
2.0757108234499974e-05   -4.075692672430133e-06   7.717198677642142e-06
2.0757108234499974e-05   -4.075692672430133e-06   7.717198677642142e-06
2.0757108234499974e-05   -4.075692672430133e-06   7.717198677642142e-06
2.859273113283704e-05   -5.005413557680618e-06   2.0011441585941758e-05
2.859273113283704e-05   -5.005413557680618e-06   2.0011441585941758e-05
2.859273113283704e-05   -5.005413557680618e-06   2.0011441585941758e-05
2.859273113283704e-05   -5.005413557680618e-06   2.0011441585941758e-05
1.3184771240331545e-05   -3.5318280913513266e-06   -4.7843402884363995e-06
1.3184771240331545e-05   -3.5318280913513266e-06   -4.7843402884363995e-06
1.3184771240331545e-05   -3.5318280913513266e-06   -4.7843402884363995e-06
1.3184771240331545e-05   -3.5318280913513266e-06   -4.7843402884363995e-06
1.2482133298947567e-05   -5.0578132406874e-06   1.78450159323551e-05
1.2482133298947567e-05   -5.0578132406874e-06   1.78450159323551e-05
1.2482133298947567e-05   -5.0578132406874e-06   1.78450159323551e-05
1.2482133298947567e-05   -5.0578132406874e-06   1.78450159323551e-05
2.7286135151589382e-05   -3.677977365891885e-06   -7.656222013591819e-06
2.7286135151589382e-05   -3.677977365891885e-06   -7.656222013591819e-06
2.7286135151589382e-05   -3.677977365891885e-06   -7.656222013591819e-06
2.7286135151589382e-05   -3.677977365891885e-06   -7.656222013591819e-06
1.9534711486158868e-05   -4.051632750135632e-06   5.487010659338618e-06
1.9534711486158868e-05   -4.051632750135632e-06   5.487010659338618e-06
1.9534711486158868e-05   -4.051632750135632e-06   5.487010659338618e-06
1.9534711486158868e-05   -4.051632750135632e-06   5.487010659338618e-06
1.4634520698893768e-05   -8.040862292740111e-07   2.9921725672601247e-05
1.4634520698893768e-05   -8.040862292740111e-07   2.9921725672601247e-05
1.4634520698893768e-05   -8.040862292740111e-07   2.9921725672601247e-05
1.4634520698893768e-05   -8.040862292740111e-07   2.9921725672601247e-05
-9.432349684451128e-07   -1.7323393065741058e-08   4.43085726209479e-06
-9.432349684451128e-07   -1.7323393065741058e-08   4.43085726209479e-06
-9.432349684451128e-07   -1.7323393065741058e-08   4.43085726209479e-06
-9.432349684451128e-07   -1.7323393065741058e-08   4.43085726209479e-06
-1.591141719848712e-06   -1.2794201008398294e-06   2.9973283522543095e-05
-1.591141719848712e-06   -1.2794201008398294e-06   2.9973283522543095e-05
-1.591141719848712e-06   -1.2794201008398294e-06   2.9973283522543095e-05
-1.591141719848712e-06   -1.2794201008398294e-06   2.9973283522543095e-05
1.3945540040867137e-05   -5.32042105310911e-07   3.6303871240327856e-06
1.3945540040867137e-05   -5.32042105310911e-07   3.6303871240327856e-06
1.3945540040867137e-05   -5.32042105310911e-07   3.6303871240327856e-06
1.3945540040867137e-05   -5.32042105310911e-07   3.6303871240327856e-06
6.405842431849094e-06   -6.769909076790627e-07   1.628351908715036e-05
6.405842431849094e-06   -6.769909076790627e-07   1.628351908715036e-05
6.405842431849094e-06   -6.769909076790627e-07   1.628351908715036e-05
6.405842431849094e-06   -6.769909076790627e-07   1.628351908715036e-05
1.3945540040867076e-05   -1.2794201008399433e-06   2.9524856725225658e-05
1.3945540040867076e-05   -1.2794201008399433e-06   2.9524856725225658e-05
1.3945540040867076e-05   -1.2794201008399433e-06   2.9524856725225658e-05
1.3945540040867076e-05   -1.2794201008399433e-06   2.9524856725225658e-05
-1.591141719848712e-06   -5.32042105310911e-07   4.078813921350156e-06
-1.591141719848712e-06   -5.32042105310911e-07   4.078813921350156e-06
-1.591141719848712e-06   -5.32042105310911e-07   4.078813921350156e-06
-1.591141719848712e-06   -5.32042105310911e-07   4.078813921350156e-06
-2.2529024129925082e-06   -1.6319047453406971e-06   2.951948439150519e-05
-2.2529024129925082e-06   -1.6319047453406971e-06   2.951948439150519e-05
-2.2529024129925082e-06   -1.6319047453406971e-06   2.951948439150519e-05
-2.2529024129925082e-06   -1.6319047453406971e-06   2.951948439150519e-05
1.3184771240331547e-05   -9.372571624134424e-07   3.3732397528755012e-06
1.3184771240331547e-05   -9.372571624134424e-07   3.3732397528755012e-06
1.3184771240331547e-05   -9.372571624134424e-07   3.3732397528755012e-06
1.3184771240331547e-05   -9.372571624134424e-07   3.3732397528755012e-06
5.678645505926892e-06   -9.943801789387158e-07   1.5917723120132828e-05
5.678645505926892e-06   -9.943801789387158e-07   1.5917723120132828e-05
5.678645505926892e-06   -9.943801789387158e-07   1.5917723120132828e-05
5.678645505926892e-06   -9.943801789387158e-07   1.5917723120132828e-05
1.3184771240331525e-05   -1.6319047453406815e-06   2.910269584174884e-05
1.3184771240331525e-05   -1.6319047453406815e-06   2.910269584174884e-05
1.3184771240331525e-05   -1.6319047453406815e-06   2.910269584174884e-05
1.3184771240331525e-05   -1.6319047453406815e-06   2.910269584174884e-05
-2.2529024129925082e-06   -9.372571624134424e-07   3.790028302631766e-06
-2.2529024129925082e-06   -9.372571624134424e-07   3.790028302631766e-06
-2.2529024129925082e-06   -9.372571624134424e-07   3.790028302631766e-06
-2.2529024129925082e-06   -9.372571624134424e-07   3.790028302631766e-06
-2.918295500492729e-06   -1.909221983744996e-06   2.9722373933636047e-05
-2.918295500492729e-06   -1.909221983744996e-06   2.9722373933636047e-05
-2.918295500492729e-06   -1.909221983744996e-06   2.9722373933636047e-05
-2.918295500492729e-06   -1.909221983744996e-06   2.9722373933636047e-05
1.2482133298947574e-05   -1.311911343756687e-06   3.696606217242705e-06
1.2482133298947574e-05   -1.311911343756687e-06   3.696606217242705e-06
1.2482133298947574e-05   -1.311911343756687e-06   3.696606217242705e-06
1.2482133298947574e-05   -1.311911343756687e-06   3.696606217242705e-06
5.1240777325695355e-06   -1.228720128665069e-06   1.591011743215096e-05
5.1240777325695355e-06   -1.228720128665069e-06   1.591011743215096e-05
5.1240777325695355e-06   -1.228720128665069e-06   1.591011743215096e-05
5.1240777325695355e-06   -1.228720128665069e-06   1.591011743215096e-05
-9.432349684451128e-07   2.6040949973156927e-06   3.167161588408444e-05
-9.432349684451128e-07   2.6040949973156927e-06   3.167161588408444e-05
-9.432349684451128e-07   2.6040949973156927e-06   3.167161588408444e-05
-9.432349684451128e-07   2.6040949973156927e-06   3.167161588408444e-05
-1.6194095049589186e-05   2.6815410051257184e-06   6.299983353530306e-06
-1.6194095049589186e-05   2.6815410051257184e-06   6.299983353530306e-06
-1.6194095049589186e-05   2.6815410051257184e-06   6.299983353530306e-06
-1.6194095049589186e-05   2.6815410051257184e-06   6.299983353530306e-06
-1.6845660719537383e-05   2.2092702460154313e-06   3.157584737766158e-05
-1.6845660719537383e-05   2.2092702460154313e-06   3.157584737766158e-05
-1.6845660719537383e-05   2.2092702460154313e-06   3.157584737766158e-05
-1.6845660719537383e-05   2.2092702460154313e-06   3.157584737766158e-05
-1.5911417198487072e-06   2.2298375949357605e-06   6.139308635494877e-06
-1.5911417198487072e-06   2.2298375949357605e-06   6.139308635494877e-06
-1.5911417198487072e-06   2.2298375949357605e-06   6.139308635494877e-06
-1.5911417198487072e-06   2.2298375949357605e-06   6.139308635494877e-06
-8.916577620862263e-06   2.388347135399288e-06   1.8253262746239428e-05
-8.916577620862263e-06   2.388347135399288e-06   1.8253262746239428e-05
-8.916577620862263e-06   2.388347135399288e-06   1.8253262746239428e-05
-8.916577620862263e-06   2.388347135399288e-06   1.8253262746239428e-05
-1.591141719848712e-06   2.209270246015525e-06   3.1563506968309424e-05
-1.591141719848712e-06   2.209270246015525e-06   3.1563506968309424e-05
-1.591141719848712e-06   2.209270246015525e-06   3.1563506968309424e-05
-1.591141719848712e-06   2.209270246015525e-06   3.1563506968309424e-05
-1.6845660719537383e-05   2.2298375949357605e-06   6.151649044847194e-06
-1.6845660719537383e-05   2.2298375949357605e-06   6.151649044847194e-06
-1.6845660719537383e-05   2.2298375949357605e-06   6.151649044847194e-06
-1.6845660719537383e-05   2.2298375949357605e-06   6.151649044847194e-06
-1.7513404176971737e-05   1.8259279594833467e-06   3.1747253245243724e-05
-1.7513404176971737e-05   1.8259279594833467e-06   3.1747253245243724e-05
-1.7513404176971737e-05   1.8259279594833467e-06   3.1747253245243724e-05
-1.7513404176971737e-05   1.8259279594833467e-06   3.1747253245243724e-05
-2.2529024129925108e-06   1.7853299466713546e-06   6.337442446298895e-06
-2.2529024129925108e-06   1.7853299466713546e-06   6.337442446298895e-06
-2.2529024129925108e-06   1.7853299466713546e-06   6.337442446298895e-06
-2.2529024129925108e-06   1.7853299466713546e-06   6.337442446298895e-06
-9.521374991722838e-06   2.0848933427305896e-06   1.8271825373214424e-05
-9.521374991722838e-06   2.0848933427305896e-06   1.8271825373214424e-05
-9.521374991722838e-06   2.0848933427305896e-06   1.8271825373214424e-05
-9.521374991722838e-06   2.0848933427305896e-06   1.8271825373214424e-05
-2.2529024129925082e-06   1.8259279594832256e-06   3.1771612052931006e-05
-2.2529024129925082e-06   1.8259279594832256e-06   3.1771612052931006e-05
-2.2529024129925082e-06   1.8259279594832256e-06   3.1771612052931006e-05
-2.2529024129925082e-06   1.8259279594832256e-06   3.1771612052931006e-05
-1.751340417697179e-05   1.7853299466713546e-06   6.313083638611748e-06
-1.751340417697179e-05   1.7853299466713546e-06   6.313083638611748e-06
-1.751340417697179e-05   1.7853299466713546e-06   6.313083638611748e-06
-1.751340417697179e-05   1.7853299466713546e-06   6.313083638611748e-06
-1.8180796810679062e-05   1.4847523263845138e-06   3.21397544770488e-05
-1.8180796810679062e-05   1.4847523263845138e-06   3.21397544770488e-05
-1.8180796810679062e-05   1.4847523263845138e-06   3.21397544770488e-05
-1.8180796810679062e-05   1.4847523263845138e-06   3.21397544770488e-05
-2.9182955004927456e-06   1.36357341486734e-06   6.774959640315183e-06
-2.9182955004927456e-06   1.36357341486734e-06   6.774959640315183e-06
-2.9182955004927456e-06   1.36357341486734e-06   6.774959640315183e-06
-2.9182955004927456e-06   1.36357341486734e-06   6.774959640315183e-06
-1.015462168051651e-05   1.7892701315897104e-06   1.85800852436548e-05
-1.015462168051651e-05   1.7892701315897104e-06   1.85800852436548e-05
-1.015462168051651e-05   1.7892701315897104e-06   1.85800852436548e-05
-1.015462168051651e-05   1.7892701315897104e-06   1.85800852436548e-05
-1.619409504958916e-05   5.920839870661197e-06   2.7870007348775386e-05
-1.619409504958916e-05   5.920839870661197e-06   2.7870007348775386e-05
-1.619409504958916e-05   5.920839870661197e-06   2.7870007348775386e-05
-1.619409504958916e-05   5.920839870661197e-06   2.7870007348775386e-05
-3.1112941914465556e-05   5.279553014783233e-06   2.6204904604546376e-06
-3.1112941914465556e-05   5.279553014783233e-06   2.6204904604546376e-06
-3.1112941914465556e-05   5.279553014783233e-06   2.6204904604546376e-06
-3.1112941914465556e-05   5.279553014783233e-06   2.6204904604546376e-06
-3.181418473226493e-05   5.544440480422658e-06   2.7689401722974126e-05
-3.181418473226493e-05   5.544440480422658e-06   2.7689401722974126e-05
-3.181418473226493e-05   5.544440480422658e-06   2.7689401722974126e-05
-3.181418473226493e-05   5.544440480422658e-06   2.7689401722974126e-05
-1.6845660719537407e-05   4.847446327369909e-06   3.1600581935931093e-06
-1.6845660719537407e-05   4.847446327369909e-06   3.1600581935931093e-06
-1.6845660719537407e-05   4.847446327369909e-06   3.1600581935931093e-06
-1.6845660719537407e-05   4.847446327369909e-06   3.1600581935931093e-06
-2.3912321574656315e-05   5.327084608844302e-06   1.4650043316573476e-05
-2.3912321574656315e-05   5.327084608844302e-06   1.4650043316573476e-05
-2.3912321574656315e-05   5.327084608844302e-06   1.4650043316573476e-05
-2.3912321574656315e-05   5.327084608844302e-06   1.4650043316573476e-05
-1.6845660719537383e-05   5.544440480422621e-06   2.8107598214805688e-05
-1.6845660719537383e-05   5.544440480422621e-06   2.8107598214805688e-05
-1.6845660719537383e-05   5.544440480422621e-06   2.8107598214805688e-05
-1.6845660719537383e-05   5.544440480422621e-06   2.8107598214805688e-05
-3.1814184732264876e-05   4.847446327369909e-06   2.7418617017614926e-06
-3.1814184732264876e-05   4.847446327369909e-06   2.7418617017614926e-06
-3.1814184732264876e-05   4.847446327369909e-06   2.7418617017614926e-06
-3.1814184732264876e-05   4.847446327369909e-06   2.7418617017614926e-06
-3.2585916423632144e-05   5.196902052182796e-06   2.8728037387623813e-05
-3.2585916423632144e-05   5.196902052182796e-06   2.8728037387623813e-05
-3.2585916423632144e-05   5.196902052182796e-06   2.8728037387623813e-05
-3.2585916423632144e-05   5.196902052182796e-06   2.8728037387623813e-05
-1.751340417697179e-05   4.44437678501176e-06   4.058698803492645e-06
-1.751340417697179e-05   4.44437678501176e-06   4.058698803492645e-06
-1.751340417697179e-05   4.44437678501176e-06   4.058698803492645e-06
-1.751340417697179e-05   4.44437678501176e-06   4.058698803492645e-06
-2.441472607523574e-05   5.051419198238028e-06   1.5196676519330771e-05
-2.441472607523574e-05   5.051419198238028e-06   1.5196676519330771e-05
-2.441472607523574e-05   5.051419198238028e-06   1.5196676519330771e-05
-2.441472607523574e-05   5.051419198238028e-06   1.5196676519330771e-05
-1.751340417697179e-05   5.196902052182956e-06   2.9179552547926738e-05
-1.751340417697179e-05   5.196902052182956e-06   2.9179552547926738e-05
-1.751340417697179e-05   5.196902052182956e-06   2.9179552547926738e-05
-1.751340417697179e-05   5.196902052182956e-06   2.9179552547926738e-05
-3.2585916423632144e-05   4.4443767850115435e-06   3.607183643189937e-06
-3.2585916423632144e-05   4.4443767850115435e-06   3.607183643189937e-06
-3.2585916423632144e-05   4.4443767850115435e-06   3.607183643189937e-06
-3.2585916423632144e-05   4.4443767850115435e-06   3.607183643189937e-06
-3.3291284458839096e-05   4.771986339844854e-06   2.950714010581542e-05
-3.3291284458839096e-05   4.771986339844854e-06   2.950714010581542e-05
-3.3291284458839096e-05   4.771986339844854e-06   2.950714010581542e-05
-3.3291284458839096e-05   4.771986339844854e-06   2.950714010581542e-05
-1.8180796810679106e-05   3.974582834877054e-06   4.801436128529636e-06
-1.8180796810679106e-05   3.974582834877054e-06   4.801436128529636e-06
-1.8180796810679106e-05   3.974582834877054e-06   4.801436128529636e-06
-1.8180796810679106e-05   3.974582834877054e-06   4.801436128529636e-06
-2.5216057857866742e-05   4.7399714385918095e-06   1.606763804494688e-05
-2.5216057857866742e-05   4.7399714385918095e-06   1.606763804494688e-05
-2.5216057857866742e-05   4.7399714385918095e-06   1.606763804494688e-05
-2.5216057857866742e-05   4.7399714385918095e-06   1.606763804494688e-05
-3.1112941914465556e-05   8.530662824029263e-06   1.3484085433567794e-05
-3.1112941914465556e-05   8.530662824029263e-06   1.3484085433567794e-05
-3.1112941914465556e-05   8.530662824029263e-06   1.3484085433567794e-05
-3.1112941914465556e-05   8.530662824029263e-06   1.3484085433567794e-05
-4.5290939677566954e-05   7.281964020733724e-06   -1.0895130120245331e-05
-4.5290939677566954e-05   7.281964020733724e-06   -1.0895130120245331e-05
-4.5290939677566954e-05   7.281964020733724e-06   -1.0895130120245331e-05
-4.5290939677566954e-05   7.281964020733724e-06   -1.0895130120245331e-05
-4.655173450006774e-05   8.623087264666334e-06   1.7930746242701733e-05
-4.655173450006774e-05   8.623087264666334e-06   1.7930746242701733e-05
-4.655173450006774e-05   8.623087264666334e-06   1.7930746242701733e-05
-4.655173450006774e-05   8.623087264666334e-06   1.7930746242701733e-05
-3.1814184732264923e-05   7.247276992634281e-06   -5.80635054041697e-06
-3.1814184732264923e-05   7.247276992634281e-06   -5.80635054041697e-06
-3.1814184732264923e-05   7.247276992634281e-06   -5.80635054041697e-06
-3.1814184732264923e-05   7.247276992634281e-06   -5.80635054041697e-06
-3.7220125745607516e-05   7.80405776957334e-06   2.8694826823239764e-06
-3.7220125745607516e-05   7.80405776957334e-06   2.8694826823239764e-06
-3.7220125745607516e-05   7.80405776957334e-06   2.8694826823239764e-06
-3.7220125745607516e-05   7.80405776957334e-06   2.8694826823239764e-06
-3.18141847322649e-05   8.623087264666618e-06   1.8756232405921095e-05
-3.18141847322649e-05   8.623087264666618e-06   1.8756232405921095e-05
-3.18141847322649e-05   8.623087264666618e-06   1.8756232405921095e-05
-3.18141847322649e-05   8.623087264666618e-06   1.8756232405921095e-05
-4.655173450006779e-05   7.247276992634281e-06   -6.6318367036363865e-06
-4.655173450006779e-05   7.247276992634281e-06   -6.6318367036363865e-06
-4.655173450006779e-05   7.247276992634281e-06   -6.6318367036363865e-06
-4.655173450006779e-05   7.247276992634281e-06   -6.6318367036363865e-06
-4.7680094330760194e-05   8.52872452118767e-06   2.1518965628165203e-05
-4.7680094330760194e-05   8.52872452118767e-06   2.1518965628165203e-05
-4.7680094330760194e-05   8.52872452118767e-06   2.1518965628165203e-05
-4.7680094330760194e-05   8.52872452118767e-06   2.1518965628165203e-05
-3.258591642363221e-05   7.100164371804047e-06   -2.7808614607513905e-06
-3.258591642363221e-05   7.100164371804047e-06   -2.7808614607513905e-06
-3.258591642363221e-05   7.100164371804047e-06   -2.7808614607513905e-06
-3.258591642363221e-05   7.100164371804047e-06   -2.7808614607513905e-06
-3.8671706940996136e-05   7.890870826697191e-06   6.887698861920662e-06
-3.8671706940996136e-05   7.890870826697191e-06   6.887698861920662e-06
-3.8671706940996136e-05   7.890870826697191e-06   6.887698861920662e-06
-3.8671706940996136e-05   7.890870826697191e-06   6.887698861920662e-06
-3.2585916423632144e-05   8.528724521187752e-06   2.2376101717795378e-05
-3.2585916423632144e-05   8.528724521187752e-06   2.2376101717795378e-05
-3.2585916423632144e-05   8.528724521187752e-06   2.2376101717795378e-05
-3.2585916423632144e-05   8.528724521187752e-06   2.2376101717795378e-05
-4.768009433076025e-05   7.1001643718042635e-06   -3.637997550381619e-06
-4.768009433076025e-05   7.1001643718042635e-06   -3.637997550381619e-06
-4.768009433076025e-05   7.1001643718042635e-06   -3.637997550381619e-06
-4.768009433076025e-05   7.1001643718042635e-06   -3.637997550381619e-06
-4.897616127137223e-05   7.872476034329707e-06   2.7690353178649223e-05
-4.897616127137223e-05   7.872476034329707e-06   2.7690353178649223e-05
-4.897616127137223e-05   7.872476034329707e-06   2.7690353178649223e-05
-4.897616127137223e-05   7.872476034329707e-06   2.7690353178649223e-05
-3.3291284458839056e-05   6.449847530357912e-06   2.4024689268100155e-06
-3.3291284458839056e-05   6.449847530357912e-06   2.4024689268100155e-06
-3.3291284458839056e-05   6.449847530357912e-06   2.4024689268100155e-06
-3.3291284458839056e-05   6.449847530357912e-06   2.4024689268100155e-06
-3.897813463395007e-05   7.621075901936185e-06   1.1177815529047686e-05
-3.897813463395007e-05   7.621075901936185e-06   1.1177815529047686e-05
-3.897813463395007e-05   7.621075901936185e-06   1.1177815529047686e-05
-3.897813463395007e-05   7.621075901936185e-06   1.1177815529047686e-05
2.146840743570005e-05   -2.781511826139158e-06   2.147977669271809e-05
2.146840743570005e-05   -2.781511826139158e-06   2.147977669271809e-05
2.146840743570005e-05   -2.781511826139158e-06   2.147977669271809e-05
2.146840743570005e-05   -2.781511826139158e-06   2.147977669271809e-05
8.910895148020989e-06   -1.3737383883075712e-06   1.3952536092853287e-06
8.910895148020989e-06   -1.3737383883075712e-06   1.3952536092853287e-06
8.910895148020989e-06   -1.3737383883075712e-06   1.3952536092853287e-06
8.910895148020989e-06   -1.3737383883075712e-06   1.3952536092853287e-06
8.356197225535903e-06   -3.3738886925551836e-06   1.9307041149310613e-05
8.356197225535903e-06   -3.3738886925551836e-06   1.9307041149310613e-05
8.356197225535903e-06   -3.3738886925551836e-06   1.9307041149310613e-05
8.356197225535903e-06   -3.3738886925551836e-06   1.9307041149310613e-05
2.0286955378353084e-05   -1.9042653522855554e-06   -1.4593297762131738e-06
2.0286955378353084e-05   -1.9042653522855554e-06   -1.4593297762131738e-06
2.0286955378353084e-05   -1.9042653522855554e-06   -1.4593297762131738e-06
2.0286955378353084e-05   -1.9042653522855554e-06   -1.4593297762131738e-06
1.4021766763939544e-05   -2.4146033047460665e-06   9.288854019286077e-06
1.4021766763939544e-05   -2.4146033047460665e-06   9.288854019286077e-06
1.4021766763939544e-05   -2.4146033047460665e-06   9.288854019286077e-06
1.4021766763939544e-05   -2.4146033047460665e-06   9.288854019286077e-06
2.028695537835312e-05   -3.373888692555296e-06   1.8425267145148858e-05
2.028695537835312e-05   -3.373888692555296e-06   1.8425267145148858e-05
2.028695537835312e-05   -3.373888692555296e-06   1.8425267145148858e-05
2.028695537835312e-05   -3.373888692555296e-06   1.8425267145148858e-05
8.356197225535873e-06   -1.9042653522855554e-06   -5.775557720512966e-07
8.356197225535873e-06   -1.9042653522855554e-06   -5.775557720512966e-07
8.356197225535873e-06   -1.9042653522855554e-06   -5.775557720512966e-07
8.356197225535873e-06   -1.9042653522855554e-06   -5.775557720512966e-07
7.732849233112695e-06   -3.5318280913513266e-06   1.769423059369362e-05
7.732849233112695e-06   -3.5318280913513266e-06   1.769423059369362e-05
7.732849233112695e-06   -3.5318280913513266e-06   1.769423059369362e-05
7.732849233112695e-06   -3.5318280913513266e-06   1.769423059369362e-05
1.9272409428645136e-05   -2.086550605413578e-06   -2.4055362237564257e-06
1.9272409428645136e-05   -2.086550605413578e-06   -2.4055362237564257e-06
1.9272409428645136e-05   -2.086550605413578e-06   -2.4055362237564257e-06
1.9272409428645136e-05   -2.086550605413578e-06   -2.4055362237564257e-06
1.3497874953380807e-05   -2.6397573171872864e-06   7.550611928748728e-06
1.3497874953380807e-05   -2.6397573171872864e-06   7.550611928748728e-06
1.3497874953380807e-05   -2.6397573171872864e-06   7.550611928748728e-06
1.3497874953380807e-05   -2.6397573171872864e-06   7.550611928748728e-06
1.927240942864517e-05   -3.5318280913513338e-06   1.6827064102130905e-05
1.927240942864517e-05   -3.5318280913513338e-06   1.6827064102130905e-05
1.927240942864517e-05   -3.5318280913513338e-06   1.6827064102130905e-05
1.927240942864517e-05   -3.5318280913513338e-06   1.6827064102130905e-05
7.732849233112682e-06   -2.086550605413578e-06   -1.5383697321936845e-06
7.732849233112682e-06   -2.086550605413578e-06   -1.5383697321936845e-06
7.732849233112682e-06   -2.086550605413578e-06   -1.5383697321936845e-06
7.732849233112682e-06   -2.086550605413578e-06   -1.5383697321936845e-06
7.173937906573977e-06   -3.6779773658916683e-06   1.5597404585034427e-05
7.173937906573977e-06   -3.6779773658916683e-06   1.5597404585034427e-05
7.173937906573977e-06   -3.6779773658916683e-06   1.5597404585034427e-05
7.173937906573977e-06   -3.6779773658916683e-06   1.5597404585034427e-05
1.8121104967171648e-05   -2.326398744360641e-06   -3.458821022213926e-06
1.8121104967171648e-05   -2.326398744360641e-06   -3.458821022213926e-06
1.8121104967171648e-05   -2.326398744360641e-06   -3.458821022213926e-06
1.8121104967171648e-05   -2.326398744360641e-06   -3.458821022213926e-06
1.2522431957808003e-05   -2.6831142434205653e-06   6.086329959494568e-06
1.2522431957808003e-05   -2.6831142434205653e-06   6.086329959494568e-06
1.2522431957808003e-05   -2.6831142434205653e-06   6.086329959494568e-06
1.2522431957808003e-05   -2.6831142434205653e-06   6.086329959494568e-06
8.91089514802102e-06   -1.7323393065742143e-08   2.651840892888219e-05
8.91089514802102e-06   -1.7323393065742143e-08   2.651840892888219e-05
8.91089514802102e-06   -1.7323393065742143e-08   2.651840892888219e-05
8.91089514802102e-06   -1.7323393065742143e-08   2.651840892888219e-05
-2.8697550657873086e-06   6.983294592473582e-07   7.313383617256236e-06
-2.8697550657873086e-06   6.983294592473582e-07   7.313383617256236e-06
-2.8697550657873086e-06   6.983294592473582e-07   7.313383617256236e-06
-2.8697550657873086e-06   6.983294592473582e-07   7.313383617256236e-06
-3.3795942696329836e-06   -5.32042105310911e-07   2.6568102912692725e-05
-3.3795942696329836e-06   -5.32042105310911e-07   2.6568102912692725e-05
-3.3795942696329836e-06   -5.32042105310911e-07   2.6568102912692725e-05
-3.3795942696329836e-06   -5.32042105310911e-07   2.6568102912692725e-05
8.356197225535873e-06   1.618613094586923e-07   6.592108371882754e-06
8.356197225535873e-06   1.618613094586923e-07   6.592108371882754e-06
8.356197225535873e-06   1.618613094586923e-07   6.592108371882754e-06
8.356197225535873e-06   1.618613094586923e-07   6.592108371882754e-06
2.6703403348321087e-06   3.147919388222023e-08   1.614676579240222e-05
2.6703403348321087e-06   3.147919388222023e-08   1.614676579240222e-05
2.6703403348321087e-06   3.147919388222023e-08   1.614676579240222e-05
2.6703403348321087e-06   3.147919388222023e-08   1.614676579240222e-05
8.356197225535893e-06   -5.320421053108826e-07   2.615176086383068e-05
8.356197225535893e-06   -5.320421053108826e-07   2.615176086383068e-05
8.356197225535893e-06   -5.320421053108826e-07   2.615176086383068e-05
8.356197225535893e-06   -5.320421053108826e-07   2.615176086383068e-05
-3.3795942696329836e-06   1.6186130945890914e-07   7.008450420744727e-06
-3.3795942696329836e-06   1.6186130945890914e-07   7.008450420744727e-06
-3.3795942696329836e-06   1.6186130945890914e-07   7.008450420744727e-06
-3.3795942696329836e-06   1.6186130945890914e-07   7.008450420744727e-06
-3.9009438021729434e-06   -9.372571624134424e-07   2.6248179009725754e-05
-3.9009438021729434e-06   -9.372571624134424e-07   2.6248179009725754e-05
-3.9009438021729434e-06   -9.372571624134424e-07   2.6248179009725754e-05
-3.9009438021729434e-06   -9.372571624134424e-07   2.6248179009725754e-05
7.732849233112682e-06   -2.766432045464909e-07   6.462155576196315e-06
7.732849233112682e-06   -2.766432045464909e-07   6.462155576196315e-06
7.732849233112682e-06   -2.766432045464909e-07   6.462155576196315e-06
7.732849233112682e-06   -2.766432045464909e-07   6.462155576196315e-06
2.1094574573669525e-06   -3.260532502973295e-07   1.5864121229890583e-05
2.1094574573669525e-06   -3.260532502973295e-07   1.5864121229890583e-05
2.1094574573669525e-06   -3.260532502973295e-07   1.5864121229890583e-05
2.1094574573669525e-06   -3.260532502973295e-07   1.5864121229890583e-05
7.732849233112709e-06   -9.372571624135229e-07   2.585181063500554e-05
7.732849233112709e-06   -9.372571624135229e-07   2.585181063500554e-05
7.732849233112709e-06   -9.372571624135229e-07   2.585181063500554e-05
7.732849233112709e-06   -9.372571624135229e-07   2.585181063500554e-05
-3.9009438021729434e-06   -2.766432045467077e-07   6.858523950916393e-06
-3.9009438021729434e-06   -2.766432045467077e-07   6.858523950916393e-06
-3.9009438021729434e-06   -2.766432045467077e-07   6.858523950916393e-06
-3.9009438021729434e-06   -2.766432045467077e-07   6.858523950916393e-06
-4.417970951979769e-06   -1.3119113437569038e-06   2.6484574061367357e-05
-4.417970951979769e-06   -1.3119113437569038e-06   2.6484574061367357e-05
-4.417970951979769e-06   -1.3119113437569038e-06   2.6484574061367357e-05
-4.417970951979769e-06   -1.3119113437569038e-06   2.6484574061367357e-05
7.173937906573943e-06   -7.081733931306716e-07   6.80248319340193e-06
7.173937906573943e-06   -7.081733931306716e-07   6.80248319340193e-06
7.173937906573943e-06   -7.081733931306716e-07   6.80248319340193e-06
7.173937906573943e-06   -7.081733931306716e-07   6.80248319340193e-06
1.6669014301584646e-06   -6.235655355402159e-07   1.5930112606206333e-05
1.6669014301584646e-06   -6.235655355402159e-07   1.5930112606206333e-05
1.6669014301584646e-06   -6.235655355402159e-07   1.5930112606206333e-05
1.6669014301584646e-06   -6.235655355402159e-07   1.5930112606206333e-05
-2.8697550657873086e-06   2.681541005125636e-06   2.8770459127019617e-05
-2.8697550657873086e-06   2.681541005125636e-06   2.8770459127019617e-05
-2.8697550657873086e-06   2.681541005125636e-06   2.8770459127019617e-05
-2.8697550657873086e-06   2.681541005125636e-06   2.8770459127019617e-05
-1.4455153542177504e-05   2.6404685774367685e-06   9.436818209756061e-06
-1.4455153542177504e-05   2.6404685774367685e-06   9.436818209756061e-06
-1.4455153542177504e-05   2.6404685774367685e-06   9.436818209756061e-06
-1.4455153542177504e-05   2.6404685774367685e-06   9.436818209756061e-06
-1.4958316781099563e-05   2.2298375949357605e-06   2.858279845490059e-05
-1.4958316781099563e-05   2.2298375949357605e-06   2.858279845490059e-05
-1.4958316781099563e-05   2.2298375949357605e-06   2.858279845490059e-05
-1.4958316781099563e-05   2.2298375949357605e-06   2.858279845490059e-05
-3.379594269632984e-06   2.1535056417081554e-06   9.330726774393319e-06
-3.379594269632984e-06   2.1535056417081554e-06   9.330726774393319e-06
-3.379594269632984e-06   2.1535056417081554e-06   9.330726774393319e-06
-3.379594269632984e-06   2.1535056417081554e-06   9.330726774393319e-06
-8.937995159586756e-06   2.3658588403305e-06   1.8467316338476503e-05
-8.937995159586756e-06   2.3658588403305e-06   1.8467316338476503e-05
-8.937995159586756e-06   2.3658588403305e-06   1.8467316338476503e-05
-8.937995159586756e-06   2.3658588403305e-06   1.8467316338476503e-05
-3.3795942696329836e-06   2.22983759493592e-06   2.862859762683761e-05
-3.3795942696329836e-06   2.22983759493592e-06   2.862859762683761e-05
-3.3795942696329836e-06   2.22983759493592e-06   2.862859762683761e-05
-3.3795942696329836e-06   2.22983759493592e-06   2.862859762683761e-05
-1.495831678109959e-05   2.1535056417079385e-06   9.284927602456572e-06
-1.495831678109959e-05   2.1535056417079385e-06   9.284927602456572e-06
-1.495831678109959e-05   2.1535056417079385e-06   9.284927602456572e-06
-1.495831678109959e-05   2.1535056417079385e-06   9.284927602456572e-06
-1.5473516036575076e-05   1.7853299466713546e-06   2.8727682290096042e-05
-1.5473516036575076e-05   1.7853299466713546e-06   2.8727682290096042e-05
-1.5473516036575076e-05   1.7853299466713546e-06   2.8727682290096042e-05
-1.5473516036575076e-05   1.7853299466713546e-06   2.8727682290096042e-05
-3.90094380217293e-06   1.6721451745103054e-06   9.507972762722575e-06
-3.90094380217293e-06   1.6721451745103054e-06   9.507972762722575e-06
-3.90094380217293e-06   1.6721451745103054e-06   9.507972762722575e-06
-3.90094380217293e-06   1.6721451745103054e-06   9.507972762722575e-06
-9.398648578561924e-06   2.01263606090297e-06   1.846651952486922e-05
-9.398648578561924e-06   2.01263606090297e-06   1.846651952486922e-05
-9.398648578561924e-06   2.01263606090297e-06   1.846651952486922e-05
-9.398648578561924e-06   2.01263606090297e-06   1.846651952486922e-05
-3.9009438021729434e-06   1.7853299466712764e-06   2.87955931533928e-05
-3.9009438021729434e-06   1.7853299466712764e-06   2.87955931533928e-05
-3.9009438021729434e-06   1.7853299466712764e-06   2.87955931533928e-05
-3.9009438021729434e-06   1.7853299466712764e-06   2.87955931533928e-05
-1.5473516036575103e-05   1.6721451745105222e-06   9.440061899426114e-06
-1.5473516036575103e-05   1.6721451745105222e-06   9.440061899426114e-06
-1.5473516036575103e-05   1.6721451745105222e-06   9.440061899426114e-06
-1.5473516036575103e-05   1.6721451745105222e-06   9.440061899426114e-06
-1.5982652325073567e-05   1.3635734148675568e-06   2.911167670937415e-05
-1.5982652325073567e-05   1.3635734148675568e-06   2.911167670937415e-05
-1.5982652325073567e-05   1.3635734148675568e-06   2.911167670937415e-05
-1.5982652325073567e-05   1.3635734148675568e-06   2.911167670937415e-05
-4.41797095197976e-06   1.2087994297462976e-06   9.93007214529051e-06
-4.41797095197976e-06   1.2087994297462976e-06   9.93007214529051e-06
-4.41797095197976e-06   1.2087994297462976e-06   9.93007214529051e-06
-4.41797095197976e-06   1.2087994297462976e-06   9.93007214529051e-06
-9.880569905407487e-06   1.6677764268205244e-06   1.8759017536091666e-05
-9.880569905407487e-06   1.6677764268205244e-06   1.8759017536091666e-05
-9.880569905407487e-06   1.6677764268205244e-06   1.8759017536091666e-05
-9.880569905407487e-06   1.6677764268205244e-06   1.8759017536091666e-05
-1.4455153542177504e-05   5.2795530147831136e-06   2.5451094890857552e-05
-1.4455153542177504e-05   5.2795530147831136e-06   2.5451094890857552e-05
-1.4455153542177504e-05   5.2795530147831136e-06   2.5451094890857552e-05
-1.4455153542177504e-05   5.2795530147831136e-06   2.5451094890857552e-05
-2.584922900364305e-05   4.53025320664162e-06   6.011389236863329e-06
-2.584922900364305e-05   4.53025320664162e-06   6.011389236863329e-06
-2.584922900364305e-05   4.53025320664162e-06   6.011389236863329e-06
-2.584922900364305e-05   4.53025320664162e-06   6.011389236863329e-06
-2.6389152501849833e-05   4.847446327369909e-06   2.5115679319113798e-05
-2.6389152501849833e-05   4.847446327369909e-06   2.5115679319113798e-05
-2.6389152501849833e-05   4.847446327369909e-06   2.5115679319113798e-05
-2.6389152501849833e-05   4.847446327369909e-06   2.5115679319113798e-05
-1.4958316781099524e-05   4.054899186481213e-06   6.539814735729795e-06
-1.4958316781099524e-05   4.054899186481213e-06   6.539814735729795e-06
-1.4958316781099524e-05   4.054899186481213e-06   6.539814735729795e-06
-1.4958316781099524e-05   4.054899186481213e-06   6.539814735729795e-06
-2.035517327966848e-05   4.59793185477635e-06   1.5208755965701558e-05
-2.035517327966848e-05   4.59793185477635e-06   1.5208755965701558e-05
-2.035517327966848e-05   4.59793185477635e-06   1.5208755965701558e-05
-2.035517327966848e-05   4.59793185477635e-06   1.5208755965701558e-05
-1.495831678109959e-05   4.847446327369867e-06   2.5591207603646994e-05
-1.495831678109959e-05   4.847446327369867e-06   2.5591207603646994e-05
-1.495831678109959e-05   4.847446327369867e-06   2.5591207603646994e-05
-1.495831678109959e-05   4.847446327369867e-06   2.5591207603646994e-05
-2.638915250184978e-05   4.05489918648143e-06   6.064286451196708e-06
-2.638915250184978e-05   4.05489918648143e-06   6.064286451196708e-06
-2.638915250184978e-05   4.05489918648143e-06   6.064286451196708e-06
-2.638915250184978e-05   4.05489918648143e-06   6.064286451196708e-06
-2.699662250953361e-05   4.44437678501176e-06   2.597548090563901e-05
-2.699662250953361e-05   4.44437678501176e-06   2.597548090563901e-05
-2.699662250953361e-05   4.44437678501176e-06   2.597548090563901e-05
-2.699662250953361e-05   4.44437678501176e-06   2.597548090563901e-05
-1.5473516036575043e-05   3.6146825361149573e-06   7.268120000046411e-06
-1.5473516036575043e-05   3.6146825361149573e-06   7.268120000046411e-06
-1.5473516036575043e-05   3.6146825361149573e-06   7.268120000046411e-06
-1.5473516036575043e-05   3.6146825361149573e-06   7.268120000046411e-06
-2.0728401265933996e-05   4.274282698455648e-06   1.5630501951573986e-05
-2.0728401265933996e-05   4.274282698455648e-06   1.5630501951573986e-05
-2.0728401265933996e-05   4.274282698455648e-06   1.5630501951573986e-05
-2.0728401265933996e-05   4.274282698455648e-06   1.5630501951573986e-05
-1.5473516036575103e-05   4.444376785011659e-06   2.6473297454977156e-05
-1.5473516036575103e-05   4.444376785011659e-06   2.6473297454977156e-05
-1.5473516036575103e-05   4.444376785011659e-06   2.6473297454977156e-05
-1.5473516036575103e-05   4.444376785011659e-06   2.6473297454977156e-05
-2.6996622509533583e-05   3.6146825361149573e-06   6.770303450708264e-06
-2.6996622509533583e-05   3.6146825361149573e-06   6.770303450708264e-06
-2.6996622509533583e-05   3.6146825361149573e-06   6.770303450708264e-06
-2.6996622509533583e-05   3.6146825361149573e-06   6.770303450708264e-06
-2.75364396724533e-05   3.974582834876837e-06   2.669943656383178e-05
-2.75364396724533e-05   3.974582834876837e-06   2.669943656383178e-05
-2.75364396724533e-05   3.974582834876837e-06   2.669943656383178e-05
-2.75364396724533e-05   3.974582834876837e-06   2.669943656383178e-05
-1.5982652325073526e-05   3.122209533765489e-06   7.95454829886585e-06
-1.5982652325073526e-05   3.122209533765489e-06   7.95454829886585e-06
-1.5982652325073526e-05   3.122209533765489e-06   7.95454829886585e-06
-1.5982652325073526e-05   3.122209533765489e-06   7.95454829886585e-06
-2.1337679095225307e-05   3.933210291519893e-06   1.639299246113205e-05
-2.1337679095225307e-05   3.933210291519893e-06   1.639299246113205e-05
-2.1337679095225307e-05   3.933210291519893e-06   1.639299246113205e-05
-2.1337679095225307e-05   3.933210291519893e-06   1.639299246113205e-05
-2.584922900364305e-05   7.281964020733883e-06   1.223511370724976e-05
-2.584922900364305e-05   7.281964020733883e-06   1.223511370724976e-05
-2.584922900364305e-05   7.281964020733883e-06   1.223511370724976e-05
-2.584922900364305e-05   7.281964020733883e-06   1.223511370724976e-05
-3.654268290788755e-05   5.9477473230696e-06   -6.387839485089304e-06
-3.654268290788755e-05   5.9477473230696e-06   -6.387839485089304e-06
-3.654268290788755e-05   5.9477473230696e-06   -6.387839485089304e-06
-3.654268290788755e-05   5.9477473230696e-06   -6.387839485089304e-06
-3.7672290091818935e-05   7.247276992634281e-06   1.5696811292334033e-05
-3.7672290091818935e-05   7.247276992634281e-06   1.5696811292334033e-05
-3.7672290091818935e-05   7.247276992634281e-06   1.5696811292334033e-05
-3.7672290091818935e-05   7.247276992634281e-06   1.5696811292334033e-05
-2.6389152501849776e-05   5.796184018299266e-06   -2.2377622396798887e-06
-2.6389152501849776e-05   5.796184018299266e-06   -2.2377622396798887e-06
-2.6389152501849776e-05   5.796184018299266e-06   -2.2377622396798887e-06
-2.6389152501849776e-05   5.796184018299266e-06   -2.2377622396798887e-06
-3.0428323088422563e-05   6.44815610728708e-06   4.103005484549214e-06
-3.0428323088422563e-05   6.44815610728708e-06   4.103005484549214e-06
-3.0428323088422563e-05   6.44815610728708e-06   4.103005484549214e-06
-3.0428323088422563e-05   6.44815610728708e-06   4.103005484549214e-06
-2.6389152501849806e-05   7.247276992634153e-06   1.6567467076935172e-05
-2.6389152501849806e-05   7.247276992634153e-06   1.6567467076935172e-05
-2.6389152501849806e-05   7.247276992634153e-06   1.6567467076935172e-05
-2.6389152501849806e-05   7.247276992634153e-06   1.6567467076935172e-05
-3.767229009181888e-05   5.796184018299266e-06   -3.108418024280811e-06
-3.767229009181888e-05   5.796184018299266e-06   -3.108418024280811e-06
-3.767229009181888e-05   5.796184018299266e-06   -3.108418024280811e-06
-3.767229009181888e-05   5.796184018299266e-06   -3.108418024280811e-06
-3.8657385644807584e-05   7.100164371804047e-06   1.8693024660453115e-05
-3.8657385644807584e-05   7.100164371804047e-06   1.8693024660453115e-05
-3.8657385644807584e-05   7.100164371804047e-06   1.8693024660453115e-05
-3.8657385644807584e-05   7.100164371804047e-06   1.8693024660453115e-05
-2.6996622509533552e-05   5.6094791363965266e-06   1.5283057624125573e-07
-2.6996622509533552e-05   5.6094791363965266e-06   1.5283057624125573e-07
-2.6996622509533552e-05   5.6094791363965266e-06   1.5283057624125573e-07
-2.6996622509533552e-05   5.6094791363965266e-06   1.5283057624125573e-07
-3.1626150552474816e-05   6.453022777224565e-06   7.362584463314458e-06
-3.1626150552474816e-05   6.453022777224565e-06   7.362584463314458e-06
-3.1626150552474816e-05   6.453022777224565e-06   7.362584463314458e-06
-3.1626150552474816e-05   6.453022777224565e-06   7.362584463314458e-06
-2.6996622509533583e-05   7.1001643718041644e-06   1.9587435801697627e-05
-2.6996622509533583e-05   7.1001643718041644e-06   1.9587435801697627e-05
-2.6996622509533583e-05   7.1001643718041644e-06   1.9587435801697627e-05
-2.6996622509533583e-05   7.1001643718041644e-06   1.9587435801697627e-05
-3.865738564480753e-05   5.6094791363965266e-06   -7.415805650031479e-07
-3.865738564480753e-05   5.6094791363965266e-06   -7.415805650031479e-07
-3.865738564480753e-05   5.6094791363965266e-06   -7.415805650031479e-07
-3.865738564480753e-05   5.6094791363965266e-06   -7.415805650031479e-07
-3.979968719051768e-05   6.449847530358129e-06   2.3898093275635107e-05
-3.979968719051768e-05   6.449847530358129e-06   2.3898093275635107e-05
-3.979968719051768e-05   6.449847530358129e-06   2.3898093275635107e-05
-3.979968719051768e-05   6.449847530358129e-06   2.3898093275635107e-05
-2.7536439672453212e-05   4.9818172145944285e-06   4.340165601652429e-06
-2.7536439672453212e-05   4.9818172145944285e-06   4.340165601652429e-06
-2.7536439672453212e-05   4.9818172145944285e-06   4.340165601652429e-06
-2.7536439672453212e-05   4.9818172145944285e-06   4.340165601652429e-06
-3.1890600089176045e-05   6.179568399223559e-06   1.0878448918745303e-05
-3.1890600089176045e-05   6.179568399223559e-06   1.0878448918745303e-05
-3.1890600089176045e-05   6.179568399223559e-06   1.0878448918745303e-05
-3.1890600089176045e-05   6.179568399223559e-06   1.0878448918745303e-05
1.196881397812815e-05   -1.3737383883075322e-06   1.6927046221729917e-05
1.196881397812815e-05   -1.3737383883075322e-06   1.6927046221729917e-05
1.196881397812815e-05   -1.3737383883075322e-06   1.6927046221729917e-05
1.196881397812815e-05   -1.3737383883075322e-06   1.6927046221729917e-05
3.1476465742420557e-06   2.1556696871765854e-08   3.0622775996939564e-06
3.1476465742420557e-06   2.1556696871765854e-08   3.0622775996939564e-06
3.1476465742420557e-06   2.1556696871765854e-08   3.0622775996939564e-06
3.1476465742420557e-06   2.1556696871765854e-08   3.0622775996939564e-06
2.732001225575153e-06   -1.9042653522855554e-06   1.5775952264175924e-05
2.732001225575153e-06   -1.9042653522855554e-06   1.5775952264175924e-05
2.732001225575153e-06   -1.9042653522855554e-06   1.5775952264175924e-05
2.732001225575153e-06   -1.9042653522855554e-06   1.5775952264175924e-05
1.094088934173843e-05   -4.542805541901153e-07   1.2244811917134016e-06
1.094088934173843e-05   -4.542805541901153e-07   1.2244811917134016e-06
1.094088934173843e-05   -4.542805541901153e-07   1.2244811917134016e-06
1.094088934173843e-05   -4.542805541901153e-07   1.2244811917134016e-06
6.773249102604145e-06   -9.95028781458282e-07   8.49499719329869e-06
6.773249102604145e-06   -9.95028781458282e-07   8.49499719329869e-06
6.773249102604145e-06   -9.95028781458282e-07   8.49499719329869e-06
6.773249102604145e-06   -9.95028781458282e-07   8.49499719329869e-06
1.094088934173845e-05   -1.9042653522855854e-06   1.4905961385318638e-05
1.094088934173845e-05   -1.9042653522855854e-06   1.4905961385318638e-05
1.094088934173845e-05   -1.9042653522855854e-06   1.4905961385318638e-05
1.094088934173845e-05   -1.9042653522855854e-06   1.4905961385318638e-05
2.7320012255751463e-06   -4.542805541901153e-07   2.094472070570579e-06
2.7320012255751463e-06   -4.542805541901153e-07   2.094472070570579e-06
2.7320012255751463e-06   -4.542805541901153e-07   2.094472070570579e-06
2.7320012255751463e-06   -4.542805541901153e-07   2.094472070570579e-06
2.247304625055792e-06   -2.086550605413578e-06   1.480235186645867e-05
2.247304625055792e-06   -2.086550605413578e-06   1.480235186645867e-05
2.247304625055792e-06   -2.086550605413578e-06   1.480235186645867e-05
2.247304625055792e-06   -2.086550605413578e-06   1.480235186645867e-05
1.0070218386121858e-05   -6.589559445723675e-07   9.076054681773547e-07
1.0070218386121858e-05   -6.589559445723675e-07   9.076054681773547e-07
1.0070218386121858e-05   -6.589559445723675e-07   9.076054681773547e-07
1.0070218386121858e-05   -6.589559445723675e-07   9.076054681773547e-07
6.2776686096873935e-06   -1.2027815398168648e-06   7.554817119381465e-06
6.2776686096873935e-06   -1.2027815398168648e-06   7.554817119381465e-06
6.2776686096873935e-06   -1.2027815398168648e-06   7.554817119381465e-06
6.2776686096873935e-06   -1.2027815398168648e-06   7.554817119381465e-06
1.007021838612188e-05   -2.086550605413667e-06   1.3945795069954009e-05
1.007021838612188e-05   -2.086550605413667e-06   1.3945795069954009e-05
1.007021838612188e-05   -2.086550605413667e-06   1.3945795069954009e-05
1.007021838612188e-05   -2.086550605413667e-06   1.3945795069954009e-05
2.247304625055782e-06   -6.589559445723675e-07   1.7641622646820702e-06
2.247304625055782e-06   -6.589559445723675e-07   1.7641622646820702e-06
2.247304625055782e-06   -6.589559445723675e-07   1.7641622646820702e-06
2.247304625055782e-06   -6.589559445723675e-07   1.7641622646820702e-06
1.8272026712986428e-06   -2.326398744360641e-06   1.3674198999961995e-05
1.8272026712986428e-06   -2.326398744360641e-06   1.3674198999961995e-05
1.8272026712986428e-06   -2.326398744360641e-06   1.3674198999961995e-05
1.8272026712986428e-06   -2.326398744360641e-06   1.3674198999961995e-05
9.050177460196652e-06   -9.98967559885395e-07   8.394489744469318e-07
9.050177460196652e-06   -9.98967559885395e-07   8.394489744469318e-07
9.050177460196652e-06   -9.98967559885395e-07   8.394489744469318e-07
9.050177460196652e-06   -9.98967559885395e-07   8.394489744469318e-07
5.544165386376072e-06   -1.3090682267299404e-06   6.868862830921324e-06
5.544165386376072e-06   -1.3090682267299404e-06   6.868862830921324e-06
5.544165386376072e-06   -1.3090682267299404e-06   6.868862830921324e-06
5.544165386376072e-06   -1.3090682267299404e-06   6.868862830921324e-06
3.1476465742420624e-06   6.983294592474845e-07   2.3252961569420524e-05
3.1476465742420624e-06   6.983294592474845e-07   2.3252961569420524e-05
3.1476465742420624e-06   6.983294592474845e-07   2.3252961569420524e-05
3.1476465742420624e-06   6.983294592474845e-07   2.3252961569420524e-05
-4.8857903129309615e-06   1.3311151150293028e-06   1.0243571484267952e-05
-4.8857903129309615e-06   1.3311151150293028e-06   1.0243571484267952e-05
-4.8857903129309615e-06   1.3311151150293028e-06   1.0243571484267952e-05
-4.8857903129309615e-06   1.3311151150293028e-06   1.0243571484267952e-05
-5.251083400166609e-06   1.6186130945890914e-07   2.3324937865395502e-05
-5.251083400166609e-06   1.6186130945890914e-07   2.3324937865395502e-05
-5.251083400166609e-06   1.6186130945890914e-07   2.3324937865395502e-05
-5.251083400166609e-06   1.6186130945890914e-07   2.3324937865395502e-05
2.732001225575147e-06   7.940637382678438e-07   9.640475365207351e-06
2.732001225575147e-06   7.940637382678438e-07   9.640475365207351e-06
2.732001225575147e-06   7.940637382678438e-07   9.640475365207351e-06
2.732001225575147e-06   7.940637382678438e-07   9.640475365207351e-06
-1.1245991580044521e-06   6.925221450063222e-07   1.6129067627130967e-05
-1.1245991580044521e-06   6.925221450063222e-07   1.6129067627130967e-05
-1.1245991580044521e-06   6.925221450063222e-07   1.6129067627130967e-05
-1.1245991580044521e-06   6.925221450063222e-07   1.6129067627130967e-05
2.7320012255751497e-06   1.618613094588211e-07   2.2945616408109903e-05
2.7320012255751497e-06   1.618613094588211e-07   2.2945616408109903e-05
2.7320012255751497e-06   1.618613094588211e-07   2.2945616408109903e-05
2.7320012255751497e-06   1.618613094588211e-07   2.2945616408109903e-05
-5.251083400166609e-06   7.940637382680606e-07   1.0019796822492754e-05
-5.251083400166609e-06   7.940637382680606e-07   1.0019796822492754e-05
-5.251083400166609e-06   7.940637382680606e-07   1.0019796822492754e-05
-5.251083400166609e-06   7.940637382680606e-07   1.0019796822492754e-05
-5.62711012220231e-06   -2.766432045467077e-07   2.3172500618657546e-05
-5.62711012220231e-06   -2.766432045467077e-07   2.3172500618657546e-05
-5.62711012220231e-06   -2.766432045467077e-07   2.3172500618657546e-05
-5.62711012220231e-06   -2.766432045467077e-07   2.3172500618657546e-05
2.2473046250557837e-06   3.3939586846802247e-07   9.678852596085405e-06
2.2473046250557837e-06   3.3939586846802247e-07   9.678852596085405e-06
2.2473046250557837e-06   3.3939586846802247e-07   9.678852596085405e-06
2.2473046250557837e-06   3.3939586846802247e-07   9.678852596085405e-06
-1.5147244726864888e-06   3.182626289483393e-07   1.59615810360346e-05
-1.5147244726864888e-06   3.182626289483393e-07   1.59615810360346e-05
-1.5147244726864888e-06   3.182626289483393e-07   1.59615810360346e-05
-1.5147244726864888e-06   3.182626289483393e-07   1.59615810360346e-05
2.247304625055792e-06   -2.7664320454648215e-07   2.280287717484875e-05
2.247304625055792e-06   -2.7664320454648215e-07   2.280287717484875e-05
2.247304625055792e-06   -2.7664320454648215e-07   2.280287717484875e-05
2.247304625055792e-06   -2.7664320454648215e-07   2.280287717484875e-05
-5.6271101222023375e-06   3.3939586846802247e-07   1.0048476039894159e-05
-5.6271101222023375e-06   3.3939586846802247e-07   1.0048476039894159e-05
-5.6271101222023375e-06   3.3939586846802247e-07   1.0048476039894159e-05
-5.6271101222023375e-06   3.3939586846802247e-07   1.0048476039894159e-05
-5.997602938380528e-06   -7.081733931304547e-07   2.347467051776837e-05
-5.997602938380528e-06   -7.081733931304547e-07   2.347467051776837e-05
-5.997602938380528e-06   -7.081733931304547e-07   2.347467051776837e-05
-5.997602938380528e-06   -7.081733931304547e-07   2.347467051776837e-05
1.8272026712986362e-06   -1.2464926794865036e-07   1.0083213359860722e-05
1.8272026712986362e-06   -1.2464926794865036e-07   1.0083213359860722e-05
1.8272026712986362e-06   -1.2464926794865036e-07   1.0083213359860722e-05
1.8272026712986362e-06   -1.2464926794865036e-07   1.0083213359860722e-05
-1.8447447787044262e-06   -1.7037118511115112e-08   1.6138558486869815e-05
-1.8447447787044262e-06   -1.7037118511115112e-08   1.6138558486869815e-05
-1.8447447787044262e-06   -1.7037118511115112e-08   1.6138558486869815e-05
-1.8447447787044262e-06   -1.7037118511115112e-08   1.6138558486869815e-05
-4.8857903129309615e-06   2.640468577436761e-06   2.5780711012002517e-05
-4.8857903129309615e-06   2.640468577436761e-06   2.5780711012002517e-05
-4.8857903129309615e-06   2.640468577436761e-06   2.5780711012002517e-05
-4.8857903129309615e-06   2.640468577436761e-06   2.5780711012002517e-05
-1.2781221968528829e-05   2.4906316717331067e-06   1.2531756109250656e-05
-1.2781221968528829e-05   2.4906316717331067e-06   1.2531756109250656e-05
-1.2781221968528829e-05   2.4906316717331067e-06   1.2531756109250656e-05
-1.2781221968528829e-05   2.4906316717331067e-06   1.2531756109250656e-05
-1.313185742521673e-05   2.1535056417081554e-06   2.555271114089983e-05
-1.313185742521673e-05   2.1535056417081554e-06   2.555271114089983e-05
-1.313185742521673e-05   2.1535056417081554e-06   2.555271114089983e-05
-1.313185742521673e-05   2.1535056417081554e-06   2.555271114089983e-05
-5.251083400166594e-06   1.996000511467807e-06   1.251259084396073e-05
-5.251083400166594e-06   1.996000511467807e-06   1.251259084396073e-05
-5.251083400166594e-06   1.996000511467807e-06   1.251259084396073e-05
-5.251083400166594e-06   1.996000511467807e-06   1.251259084396073e-05
-9.02944512275536e-06   2.264268477214287e-06   1.864889960216136e-05
-9.02944512275536e-06   2.264268477214287e-06   1.864889960216136e-05
-9.02944512275536e-06   2.264268477214287e-06   1.864889960216136e-05
-9.02944512275536e-06   2.264268477214287e-06   1.864889960216136e-05
-5.251083400166596e-06   2.153505641707922e-06   2.564721421904415e-05
-5.251083400166596e-06   2.153505641707922e-06   2.564721421904415e-05
-5.251083400166596e-06   2.153505641707922e-06   2.564721421904415e-05
-5.251083400166596e-06   2.153505641707922e-06   2.564721421904415e-05
-1.313185742521673e-05   1.99600051146759e-06   1.2418087765816467e-05
-1.313185742521673e-05   1.99600051146759e-06   1.2418087765816467e-05
-1.313185742521673e-05   1.99600051146759e-06   1.2418087765816467e-05
-1.313185742521673e-05   1.99600051146759e-06   1.2418087765816467e-05
-1.3493935038315819e-05   1.6721451745105222e-06   2.572101224016573e-05
-1.3493935038315819e-05   1.6721451745105222e-06   2.572101224016573e-05
-1.3493935038315819e-05   1.6721451745105222e-06   2.572101224016573e-05
-1.3493935038315819e-05   1.6721451745105222e-06   2.572101224016573e-05
-5.627110122202311e-06   1.5039165240137223e-06   1.2710574570274665e-05
-5.627110122202311e-06   1.5039165240137223e-06   1.2710574570274665e-05
-5.627110122202311e-06   1.5039165240137223e-06   1.2710574570274665e-05
-5.627110122202311e-06   1.5039165240137223e-06   1.2710574570274665e-05
-9.341527506166885e-06   1.8882634449483848e-06   1.8670662057654693e-05
-9.341527506166885e-06   1.8882634449483848e-06   1.8670662057654693e-05
-9.341527506166885e-06   1.8882634449483848e-06   1.8670662057654693e-05
-9.341527506166885e-06   1.8882634449483848e-06   1.8670662057654693e-05
-5.6271101222023375e-06   1.6721451745104028e-06   2.582194943046381e-05
-5.6271101222023375e-06   1.6721451745104028e-06   2.582194943046381e-05
-5.6271101222023375e-06   1.6721451745104028e-06   2.582194943046381e-05
-5.6271101222023375e-06   1.6721451745104028e-06   2.582194943046381e-05
-1.3493935038315819e-05   1.5039165240139391e-06   1.2609637379976666e-05
-1.3493935038315819e-05   1.5039165240139391e-06   1.2609637379976666e-05
-1.3493935038315819e-05   1.5039165240139391e-06   1.2609637379976666e-05
-1.3493935038315819e-05   1.5039165240139391e-06   1.2609637379976666e-05
-1.3850320675840358e-05   1.2087994297460807e-06   2.6134452590669184e-05
-1.3850320675840358e-05   1.2087994297460807e-06   2.6134452590669184e-05
-1.3850320675840358e-05   1.2087994297460807e-06   2.6134452590669184e-05
-1.3850320675840358e-05   1.2087994297460807e-06   2.6134452590669184e-05
-5.997602938380532e-06   1.032859248726193e-06   1.3152153803514926e-05
-5.997602938380532e-06   1.032859248726193e-06   1.3152153803514926e-05
-5.997602938380532e-06   1.032859248726193e-06   1.3152153803514926e-05
-5.997602938380532e-06   1.032859248726193e-06   1.3152153803514926e-05
-9.673541810151403e-06   1.519853855438567e-06   1.898652182577218e-05
-9.673541810151403e-06   1.519853855438567e-06   1.898652182577218e-05
-9.673541810151403e-06   1.519853855438567e-06   1.898652182577218e-05
-9.673541810151403e-06   1.519853855438567e-06   1.898652182577218e-05
-1.2781221968528829e-05   4.530253206641563e-06   2.2714959780572685e-05
-1.2781221968528829e-05   4.530253206641563e-06   2.2714959780572685e-05
-1.2781221968528829e-05   4.530253206641563e-06   2.2714959780572685e-05
-1.2781221968528829e-05   4.530253206641563e-06   2.2714959780572685e-05
-2.0535637437888354e-05   3.702989312761012e-06   9.294575661978504e-06
-2.0535637437888354e-05   3.702989312761012e-06   9.294575661978504e-06
-2.0535637437888354e-05   3.702989312761012e-06   9.294575661978504e-06
-2.0535637437888354e-05   3.702989312761012e-06   9.294575661978504e-06
-2.0917974613957697e-05   4.05489918648143e-06   2.22972863936331e-05
-2.0917974613957697e-05   4.05489918648143e-06   2.22972863936331e-05
-2.0917974613957697e-05   4.05489918648143e-06   2.22972863936331e-05
-2.0917974613957697e-05   4.05489918648143e-06   2.22972863936331e-05
-1.31318574252167e-05   3.2043793855810344e-06   9.830736292938517e-06
-1.31318574252167e-05   3.2043793855810344e-06   9.830736292938517e-06
-1.31318574252167e-05   3.2043793855810344e-06   9.830736292938517e-06
-1.31318574252167e-05   3.2043793855810344e-06   9.830736292938517e-06
-1.680099867854041e-05   3.8095161166049833e-06   1.558288967653111e-05
-1.680099867854041e-05   3.8095161166049833e-06   1.558288967653111e-05
-1.680099867854041e-05   3.8095161166049833e-06   1.558288967653111e-05
-1.680099867854041e-05   3.8095161166049833e-06   1.558288967653111e-05
-1.313185742521673e-05   4.054899186481368e-06   2.2807598274173163e-05
-1.313185742521673e-05   4.054899186481368e-06   2.2807598274173163e-05
-1.313185742521673e-05   4.054899186481368e-06   2.2807598274173163e-05
-1.313185742521673e-05   4.054899186481368e-06   2.2807598274173163e-05
-2.0917974613957643e-05   3.2043793855810344e-06   9.32042441239829e-06
-2.0917974613957643e-05   3.2043793855810344e-06   9.32042441239829e-06
-2.0917974613957643e-05   3.2043793855810344e-06   9.32042441239829e-06
-2.0917974613957643e-05   3.2043793855810344e-06   9.32042441239829e-06
-2.137058838409502e-05   3.6146825361149573e-06   2.3030718450696127e-05
-2.137058838409502e-05   3.6146825361149573e-06   2.3030718450696127e-05
-2.137058838409502e-05   3.6146825361149573e-06   2.3030718450696127e-05
-2.137058838409502e-05   3.6146825361149573e-06   2.3030718450696127e-05
-1.349393503831578e-05   2.750762719298241e-06   1.0421314764487574e-05
-1.349393503831578e-05   2.750762719298241e-06   1.0421314764487574e-05
-1.349393503831578e-05   2.750762719298241e-06   1.0421314764487574e-05
-1.349393503831578e-05   2.750762719298241e-06   1.0421314764487574e-05
-1.7048289901377403e-05   3.457021554849381e-06   1.5921484234926258e-05
-1.7048289901377403e-05   3.457021554849381e-06   1.5921484234926258e-05
-1.7048289901377403e-05   3.457021554849381e-06   1.5921484234926258e-05
-1.7048289901377403e-05   3.457021554849381e-06   1.5921484234926258e-05
-1.3493935038315819e-05   3.614682536114765e-06   2.3549070340786026e-05
-1.3493935038315819e-05   3.614682536114765e-06   2.3549070340786026e-05
-1.3493935038315819e-05   3.614682536114765e-06   2.3549070340786026e-05
-1.3493935038315819e-05   3.614682536114765e-06   2.3549070340786026e-05
-2.1370588384094966e-05   2.750762719298241e-06   9.902962874397728e-06
-2.1370588384094966e-05   2.750762719298241e-06   9.902962874397728e-06
-2.1370588384094966e-05   2.750762719298241e-06   9.902962874397728e-06
-2.1370588384094966e-05   2.750762719298241e-06   9.902962874397728e-06
-2.1758758557528183e-05   3.122209533765489e-06   2.3737879363074348e-05
-2.1758758557528183e-05   3.122209533765489e-06   2.3737879363074348e-05
-2.1758758557528183e-05   3.122209533765489e-06   2.3737879363074348e-05
-2.1758758557528183e-05   3.122209533765489e-06   2.3737879363074348e-05
-1.3850320675840328e-05   2.2656865800271993e-06   1.1071063332504473e-05
-1.3850320675840328e-05   2.2656865800271993e-06   1.1071063332504473e-05
-1.3850320675840328e-05   2.2656865800271993e-06   1.1071063332504473e-05
-1.3850320675840328e-05   2.2656865800271993e-06   1.1071063332504473e-05
-1.7474388475843696e-05   3.103680436629744e-06   1.6608380018548518e-05
-1.7474388475843696e-05   3.103680436629744e-06   1.6608380018548518e-05
-1.7474388475843696e-05   3.103680436629744e-06   1.6608380018548518e-05
-1.7474388475843696e-05   3.103680436629744e-06   1.6608380018548518e-05
-2.0535637437888354e-05   5.947747323069862e-06   1.0619902740890193e-05
-2.0535637437888354e-05   5.947747323069862e-06   1.0619902740890193e-05
-2.0535637437888354e-05   5.947747323069862e-06   1.0619902740890193e-05
-2.0535637437888354e-05   5.947747323069862e-06   1.0619902740890193e-05
-2.7538364291924446e-05   4.560667662315649e-06   -1.8835564789558199e-06
-2.7538364291924446e-05   4.560667662315649e-06   -1.8835564789558199e-06
-2.7538364291924446e-05   4.560667662315649e-06   -1.8835564789558199e-06
-2.7538364291924446e-05   4.560667662315649e-06   -1.8835564789558199e-06
-2.8518926197357796e-05   5.796184018299266e-06   1.3100856992629252e-05
-2.8518926197357796e-05   5.796184018299266e-06   1.3100856992629252e-05
-2.8518926197357796e-05   5.796184018299266e-06   1.3100856992629252e-05
-2.8518926197357796e-05   5.796184018299266e-06   1.3100856992629252e-05
-2.091797461395763e-05   4.305549501420732e-06   1.3269850637562123e-06
-2.091797461395763e-05   4.305549501420732e-06   1.3269850637562123e-06
-2.091797461395763e-05   4.305549501420732e-06   1.3269850637562123e-06
-2.091797461395763e-05   4.305549501420732e-06   1.3269850637562123e-06
-2.3489687201177004e-05   5.057220279229254e-06   5.162170242437839e-06
-2.3489687201177004e-05   5.057220279229254e-06   5.162170242437839e-06
-2.3489687201177004e-05   5.057220279229254e-06   5.162170242437839e-06
-2.3489687201177004e-05   5.057220279229254e-06   5.162170242437839e-06
-2.0917974613957643e-05   5.796184018299187e-06   1.3995237702756286e-05
-2.0917974613957643e-05   5.796184018299187e-06   1.3995237702756286e-05
-2.0917974613957643e-05   5.796184018299187e-06   1.3995237702756286e-05
-2.0917974613957643e-05   5.796184018299187e-06   1.3995237702756286e-05
-2.851892619735785e-05   4.305549501420949e-06   4.326043536291514e-07
-2.851892619735785e-05   4.305549501420949e-06   4.326043536291514e-07
-2.851892619735785e-05   4.305549501420949e-06   4.326043536291514e-07
-2.851892619735785e-05   4.305549501420949e-06   4.326043536291514e-07
-2.9362754295675136e-05   5.6094791363965266e-06   1.5502634661468916e-05
-2.9362754295675136e-05   5.6094791363965266e-06   1.5502634661468916e-05
-2.9362754295675136e-05   5.6094791363965266e-06   1.5502634661468916e-05
-2.9362754295675136e-05   5.6094791363965266e-06   1.5502634661468916e-05
-2.1370588384094932e-05   4.091794278463217e-06   3.092969056928726e-06
-2.1370588384094932e-05   4.091794278463217e-06   3.092969056928726e-06
-2.1370588384094932e-05   4.091794278463217e-06   3.092969056928726e-06
-2.1370588384094932e-05   4.091794278463217e-06   3.092969056928726e-06
-2.4432058706615008e-05   4.991479742382518e-06   7.655608316110992e-06
-2.4432058706615008e-05   4.991479742382518e-06   7.655608316110992e-06
-2.4432058706615008e-05   4.991479742382518e-06   7.655608316110992e-06
-2.4432058706615008e-05   4.991479742382518e-06   7.655608316110992e-06
-2.1370588384094966e-05   5.609479136396722e-06   1.6413245576229118e-05
-2.1370588384094966e-05   5.609479136396722e-06   1.6413245576229118e-05
-2.1370588384094966e-05   5.609479136396722e-06   1.6413245576229118e-05
-2.1370588384094966e-05   5.609479136396722e-06   1.6413245576229118e-05
-2.9362754295675245e-05   4.091794278463217e-06   2.1823581421686862e-06
-2.9362754295675245e-05   4.091794278463217e-06   2.1823581421686862e-06
-2.9362754295675245e-05   4.091794278463217e-06   2.1823581421686862e-06
-2.9362754295675245e-05   4.091794278463217e-06   2.1823581421686862e-06
-3.037221287088501e-05   4.981817214594645e-06   1.975148699565575e-05
-3.037221287088501e-05   4.981817214594645e-06   1.975148699565575e-05
-3.037221287088501e-05   4.981817214594645e-06   1.975148699565575e-05
-3.037221287088501e-05   4.981817214594645e-06   1.975148699565575e-05
-2.1758758557528088e-05   3.5094277964738737e-06   6.279163457599871e-06
-2.1758758557528088e-05   3.5094277964738737e-06   6.279163457599871e-06
-2.1758758557528088e-05   3.5094277964738737e-06   6.279163457599871e-06
-2.1758758557528088e-05   3.5094277964738737e-06   6.279163457599871e-06
-2.4665088058035634e-05   4.72664777653297e-06   1.039271397040983e-05
-2.4665088058035634e-05   4.72664777653297e-06   1.039271397040983e-05
-2.4665088058035634e-05   4.72664777653297e-06   1.039271397040983e-05
-2.4665088058035634e-05   4.72664777653297e-06   1.039271397040983e-05
2.4596811807876774e-06   2.155669687170145e-08   1.2654143919019027e-05
2.4596811807876774e-06   2.155669687170145e-08   1.2654143919019027e-05
2.4596811807876774e-06   2.155669687170145e-08   1.2654143919019027e-05
2.4596811807876774e-06   2.155669687170145e-08   1.2654143919019027e-05
-2.6062987639330354e-06   1.3627005758530585e-06   5.015530338539935e-06
-2.6062987639330354e-06   1.3627005758530585e-06   5.015530338539935e-06
-2.6062987639330354e-06   1.3627005758530585e-06   5.015530338539935e-06
-2.6062987639330354e-06   1.3627005758530585e-06   5.015530338539935e-06
-2.9016052929460905e-06   -4.542805541901153e-07   1.2473520624303584e-05
-2.9016052929460905e-06   -4.542805541901153e-07   1.2473520624303584e-05
-2.9016052929460905e-06   -4.542805541901153e-07   1.2473520624303584e-05
-2.9016052929460905e-06   -4.542805541901153e-07   1.2473520624303584e-05
1.5617131933685814e-06   9.187410097484961e-07   4.210843542082609e-06
1.5617131933685814e-06   9.187410097484961e-07   4.210843542082609e-06
1.5617131933685814e-06   9.187410097484961e-07   4.210843542082609e-06
1.5617131933685814e-06   9.187410097484961e-07   4.210843542082609e-06
-4.91980911465319e-07   3.859488129283892e-07   7.953342368231235e-06
-4.91980911465319e-07   3.859488129283892e-07   7.953342368231235e-06
-4.91980911465319e-07   3.859488129283892e-07   7.953342368231235e-06
-4.91980911465319e-07   3.859488129283892e-07   7.953342368231235e-06
1.561713193368587e-06   -4.5428055419000756e-07   1.1649707685940417e-05
1.561713193368587e-06   -4.5428055419000756e-07   1.1649707685940417e-05
1.561713193368587e-06   -4.5428055419000756e-07   1.1649707685940417e-05
1.561713193368587e-06   -4.5428055419000756e-07   1.1649707685940417e-05
-2.9016052929460905e-06   9.187410097484961e-07   5.0346564804457485e-06
-2.9016052929460905e-06   9.187410097484961e-07   5.0346564804457485e-06
-2.9016052929460905e-06   9.187410097484961e-07   5.0346564804457485e-06
-2.9016052929460905e-06   9.187410097484961e-07   5.0346564804457485e-06
-3.26655987830137e-06   -6.589559445723675e-07   1.2142372882309048e-05
-3.26655987830137e-06   -6.589559445723675e-07   1.2142372882309048e-05
-3.26655987830137e-06   -6.589559445723675e-07   1.2142372882309048e-05
-3.26655987830137e-06   -6.589559445723675e-07   1.2142372882309048e-05
7.820968784825375e-07   6.750409174185448e-07   4.59421350380779e-06
7.820968784825375e-07   6.750409174185448e-07   4.59421350380779e-06
7.820968784825375e-07   6.750409174185448e-07   4.59421350380779e-06
7.820968784825375e-07   6.750409174185448e-07   4.59421350380779e-06
-9.758645386275129e-07   1.968282924844555e-07   7.811076773951681e-06
-9.758645386275129e-07   1.968282924844555e-07   7.811076773951681e-06
-9.758645386275129e-07   1.968282924844555e-07   7.811076773951681e-06
-9.758645386275129e-07   1.968282924844555e-07   7.811076773951681e-06
7.820968784825382e-07   -6.589559445724339e-07   1.1341974765114327e-05
7.820968784825382e-07   -6.589559445724339e-07   1.1341974765114327e-05
7.820968784825382e-07   -6.589559445724339e-07   1.1341974765114327e-05
7.820968784825382e-07   -6.589559445724339e-07   1.1341974765114327e-05
-3.266559878301363e-06   6.750409174185448e-07   5.3946116210024705e-06
-3.266559878301363e-06   6.750409174185448e-07   5.3946116210024705e-06
-3.266559878301363e-06   6.750409174185448e-07   5.3946116210024705e-06
-3.266559878301363e-06   6.750409174185448e-07   5.3946116210024705e-06
-3.5718393369005805e-06   -9.98967559885395e-07   1.201751051305329e-05
-3.5718393369005805e-06   -9.98967559885395e-07   1.201751051305329e-05
-3.5718393369005805e-06   -9.98967559885395e-07   1.201751051305329e-05
-3.5718393369005805e-06   -9.98967559885395e-07   1.201751051305329e-05
-1.963057797469624e-07   1.5882488531250225e-07   5.696945784011974e-06
-1.963057797469624e-07   1.5882488531250225e-07   5.696945784011974e-06
-1.963057797469624e-07   1.5882488531250225e-07   5.696945784011974e-06
-1.963057797469624e-07   1.5882488531250225e-07   5.696945784011974e-06
-1.4994468854591775e-06   2.4472638415111783e-08   7.949458975003994e-06
-1.4994468854591775e-06   2.4472638415111783e-08   7.949458975003994e-06
-1.4994468854591775e-06   2.4472638415111783e-08   7.949458975003994e-06
-1.4994468854591775e-06   2.4472638415111783e-08   7.949458975003994e-06
-2.6062987639330354e-06   1.3311151150292668e-06   2.0260452737512653e-05
-2.6062987639330354e-06   1.3311151150292668e-06   2.0260452737512653e-05
-2.6062987639330354e-06   1.3311151150292668e-06   2.0260452737512653e-05
-2.6062987639330354e-06   1.3311151150292668e-06   2.0260452737512653e-05
-6.845235924976881e-06   1.5970232266576765e-06   1.335510233608318e-05
-6.845235924976881e-06   1.5970232266576765e-06   1.335510233608318e-05
-6.845235924976881e-06   1.5970232266576765e-06   1.335510233608318e-05
-6.845235924976881e-06   1.5970232266576765e-06   1.335510233608318e-05
-7.068271112955254e-06   7.940637382680606e-07   2.020404746394121e-05
-7.068271112955254e-06   7.940637382680606e-07   2.020404746394121e-05
-7.068271112955254e-06   7.940637382680606e-07   2.020404746394121e-05
-7.068271112955254e-06   7.940637382680606e-07   2.020404746394121e-05
-2.901605292946089e-06   1.1016029799362607e-06   1.3075080885591576e-05
-2.901605292946089e-06   1.1016029799362607e-06   1.3075080885591576e-05
-2.901605292946089e-06   1.1016029799362607e-06   1.3075080885591576e-05
-2.901605292946089e-06   1.1016029799362607e-06   1.3075080885591576e-05
-4.884989552770694e-06   1.1480978495796452e-06   1.6352824396846587e-05
-4.884989552770694e-06   1.1480978495796452e-06   1.6352824396846587e-05
-4.884989552770694e-06   1.1480978495796452e-06   1.6352824396846587e-05
-4.884989552770694e-06   1.1480978495796452e-06   1.6352824396846587e-05
-2.9016052929460803e-06   7.940637382679109e-07   2.001952391894005e-05
-2.9016052929460803e-06   7.940637382679109e-07   2.001952391894005e-05
-2.9016052929460803e-06   7.940637382679109e-07   2.001952391894005e-05
-2.9016052929460803e-06   7.940637382679109e-07   2.001952391894005e-05
-7.068271112955254e-06   1.1016029799362607e-06   1.3259604430592602e-05
-7.068271112955254e-06   1.1016029799362607e-06   1.3259604430592602e-05
-7.068271112955254e-06   1.1016029799362607e-06   1.3259604430592602e-05
-7.068271112955254e-06   1.1016029799362607e-06   1.3259604430592602e-05
-7.298366362149883e-06   3.3939586846802247e-07   2.024035909686773e-05
-7.298366362149883e-06   3.3939586846802247e-07   2.024035909686773e-05
-7.298366362149883e-06   3.3939586846802247e-07   2.024035909686773e-05
-7.298366362149883e-06   3.3939586846802247e-07   2.024035909686773e-05
-3.266559878301364e-06   6.448890070605154e-07   1.3337385740631471e-05
-3.266559878301364e-06   6.448890070605154e-07   1.3337385740631471e-05
-3.266559878301364e-06   6.448890070605154e-07   1.3337385740631471e-05
-3.266559878301364e-06   6.448890070605154e-07   1.3337385740631471e-05
-5.112820912679059e-06   7.864121325607334e-07   1.6329573589294387e-05
-5.112820912679059e-06   7.864121325607334e-07   1.6329573589294387e-05
-5.112820912679059e-06   7.864121325607334e-07   1.6329573589294387e-05
-5.112820912679059e-06   7.864121325607334e-07   1.6329573589294387e-05
-3.266559878301363e-06   3.3939586846800405e-07   2.0057063213712234e-05
-3.266559878301363e-06   3.3939586846800405e-07   2.0057063213712234e-05
-3.266559878301363e-06   3.3939586846800405e-07   2.0057063213712234e-05
-3.266559878301363e-06   3.3939586846800405e-07   2.0057063213712234e-05
-7.298366362149883e-06   6.448890070605154e-07   1.352068162378692e-05
-7.298366362149883e-06   6.448890070605154e-07   1.352068162378692e-05
-7.298366362149883e-06   6.448890070605154e-07   1.352068162378692e-05
-7.298366362149883e-06   6.448890070605154e-07   1.352068162378692e-05
-7.524201369296784e-06   -1.2464926794865036e-07   2.063004688386582e-05
-7.524201369296784e-06   -1.2464926794865036e-07   2.063004688386582e-05
-7.524201369296784e-06   -1.2464926794865036e-07   2.063004688386582e-05
-7.524201369296784e-06   -1.2464926794865036e-07   2.063004688386582e-05
-3.571839336900575e-06   1.5073522552464403e-07   1.3877546133788247e-05
-3.571839336900575e-06   1.5073522552464403e-07   1.3877546133788247e-05
-3.571839336900575e-06   1.5073522552464403e-07   1.3877546133788247e-05
-3.571839336900575e-06   1.5073522552464403e-07   1.3877546133788247e-05
-5.340171677051676e-06   4.315015066448701e-07   1.66563069320345e-05
-5.340171677051676e-06   4.315015066448701e-07   1.66563069320345e-05
-5.340171677051676e-06   4.315015066448701e-07   1.66563069320345e-05
-5.340171677051676e-06   4.315015066448701e-07   1.66563069320345e-05
-6.845235924976881e-06   2.4906316717331597e-06   2.2798084372894502e-05
-6.845235924976881e-06   2.4906316717331597e-06   2.2798084372894502e-05
-6.845235924976881e-06   2.4906316717331597e-06   2.2798084372894502e-05
-6.845235924976881e-06   2.4906316717331597e-06   2.2798084372894502e-05
-1.106626701188857e-05   1.919145805566046e-06   1.5420141041674797e-05
-1.106626701188857e-05   1.919145805566046e-06   1.5420141041674797e-05
-1.106626701188857e-05   1.919145805566046e-06   1.5420141041674797e-05
-1.106626701188857e-05   1.919145805566046e-06   1.5420141041674797e-05
-1.1255248786323384e-05   1.99600051146759e-06   2.2375553488869363e-05
-1.1255248786323384e-05   1.99600051146759e-06   2.2375553488869363e-05
-1.1255248786323384e-05   1.99600051146759e-06   2.2375553488869363e-05
-1.1255248786323384e-05   1.99600051146759e-06   2.2375553488869363e-05
-7.06827111295525e-06   1.4605205172345693e-06   1.5718545363128966e-05
-7.06827111295525e-06   1.4605205172345693e-06   1.5718545363128966e-05
-7.06827111295525e-06   1.4605205172345693e-06   1.5718545363128966e-05
-7.06827111295525e-06   1.4605205172345693e-06   1.5718545363128966e-05
-9.063534794057779e-06   1.9281304616006146e-06   1.8763418865013593e-05
-9.063534794057779e-06   1.9281304616006146e-06   1.8763418865013593e-05
-9.063534794057779e-06   1.9281304616006146e-06   1.8763418865013593e-05
-9.063534794057779e-06   1.9281304616006146e-06   1.8763418865013593e-05
-7.068271112955254e-06   1.9960005114676387e-06   2.269684148540924e-05
-7.068271112955254e-06   1.9960005114676387e-06   2.269684148540924e-05
-7.068271112955254e-06   1.9960005114676387e-06   2.269684148540924e-05
-7.068271112955254e-06   1.9960005114676387e-06   2.269684148540924e-05
-1.1255248786323384e-05   1.4605205172345693e-06   1.5397257366589142e-05
-1.1255248786323384e-05   1.4605205172345693e-06   1.5397257366589142e-05
-1.1255248786323384e-05   1.4605205172345693e-06   1.5397257366589142e-05
-1.1255248786323384e-05   1.4605205172345693e-06   1.5397257366589142e-05
-1.145767142703361e-05   1.5039165240137223e-06   2.2596776449320148e-05
-1.145767142703361e-05   1.5039165240137223e-06   2.2596776449320148e-05
-1.145767142703361e-05   1.5039165240137223e-06   2.2596776449320148e-05
-1.145767142703361e-05   1.5039165240137223e-06   2.2596776449320148e-05
-7.298366362149883e-06   9.944478941332786e-07   1.5970282519108745e-05
-7.298366362149883e-06   9.944478941332786e-07   1.5970282519108745e-05
-7.298366362149883e-06   9.944478941332786e-07   1.5970282519108745e-05
-7.298366362149883e-06   9.944478941332786e-07   1.5970282519108745e-05
-9.22501500245179e-06   1.5611369111591345e-06   1.8841350176063186e-05
-9.22501500245179e-06   1.5611369111591345e-06   1.8841350176063186e-05
-9.22501500245179e-06   1.5611369111591345e-06   1.8841350176063186e-05
-9.22501500245179e-06   1.5611369111591345e-06   1.8841350176063186e-05
-7.298366362149883e-06   1.5039165240137623e-06   2.2902457627248262e-05
-7.298366362149883e-06   1.5039165240137623e-06   2.2902457627248262e-05
-7.298366362149883e-06   1.5039165240137623e-06   2.2902457627248262e-05
-7.298366362149883e-06   1.5039165240137623e-06   2.2902457627248262e-05
-1.145767142703361e-05   9.944478941332786e-07   1.566460134118044e-05
-1.145767142703361e-05   9.944478941332786e-07   1.566460134118044e-05
-1.145767142703361e-05   9.944478941332786e-07   1.566460134118044e-05
-1.145767142703361e-05   9.944478941332786e-07   1.566460134118044e-05
-1.16559196665103e-05   1.032859248726193e-06   2.3060867545538865e-05
-1.16559196665103e-05   1.032859248726193e-06   2.3060867545538865e-05
-1.16559196665103e-05   1.032859248726193e-06   2.3060867545538865e-05
-1.16559196665103e-05   1.032859248726193e-06   2.3060867545538865e-05
-7.524201369296808e-06   5.528504039393426e-07   1.646267569038856e-05
-7.524201369296808e-06   5.528504039393426e-07   1.646267569038856e-05
-7.524201369296808e-06   5.528504039393426e-07   1.646267569038856e-05
-7.524201369296808e-06   5.528504039393426e-07   1.646267569038856e-05
-9.404915836133303e-06   1.1997651010656326e-06   1.9209050983506925e-05
-9.404915836133303e-06   1.1997651010656326e-06   1.9209050983506925e-05
-9.404915836133303e-06   1.1997651010656326e-06   1.9209050983506925e-05
-9.404915836133303e-06   1.1997651010656326e-06   1.9209050983506925e-05
-1.1066267011888598e-05   3.702989312760944e-06   1.971437074225048e-05
-1.1066267011888598e-05   3.702989312760944e-06   1.971437074225048e-05
-1.1066267011888598e-05   3.702989312760944e-06   1.971437074225048e-05
-1.1066267011888598e-05   3.702989312760944e-06   1.971437074225048e-05
-1.5219407038877123e-05   2.5970918029417835e-06   1.2128932191378074e-05
-1.5219407038877123e-05   2.5970918029417835e-06   1.2128932191378074e-05
-1.5219407038877123e-05   2.5970918029417835e-06   1.2128932191378074e-05
-1.5219407038877123e-05   2.5970918029417835e-06   1.2128932191378074e-05
-1.5427129965005866e-05   3.2043793855810344e-06   1.913435697560844e-05
-1.5427129965005866e-05   3.2043793855810344e-06   1.913435697560844e-05
-1.5427129965005866e-05   3.2043793855810344e-06   1.913435697560844e-05
-1.5427129965005866e-05   3.2043793855810344e-06   1.913435697560844e-05
-1.125524878632339e-05   2.1146376516093576e-06   1.283506671818723e-05
-1.125524878632339e-05   2.1146376516093576e-06   1.283506671818723e-05
-1.125524878632339e-05   2.1146376516093576e-06   1.283506671818723e-05
-1.125524878632339e-05   2.1146376516093576e-06   1.283506671818723e-05
-1.3213949735435106e-05   2.879370785268927e-06   1.5640728419844387e-05
-1.3213949735435106e-05   2.879370785268927e-06   1.5640728419844387e-05
-1.3213949735435106e-05   2.879370785268927e-06   1.5640728419844387e-05
-1.3213949735435106e-05   2.879370785268927e-06   1.5640728419844387e-05
-1.1255248786323384e-05   3.204379385581038e-06   1.978820201599136e-05
-1.1255248786323384e-05   3.204379385581038e-06   1.978820201599136e-05
-1.1255248786323384e-05   3.204379385581038e-06   1.978820201599136e-05
-1.1255248786323384e-05   3.204379385581038e-06   1.978820201599136e-05
-1.5427129965005812e-05   2.114637651609249e-06   1.2181221677804284e-05
-1.5427129965005812e-05   2.114637651609249e-06   1.2181221677804284e-05
-1.5427129965005812e-05   2.114637651609249e-06   1.2181221677804284e-05
-1.5427129965005812e-05   2.114637651609249e-06   1.2181221677804284e-05
-1.5713742235478148e-05   2.750762719298241e-06   1.976911633155029e-05
-1.5713742235478148e-05   2.750762719298241e-06   1.976911633155029e-05
-1.5713742235478148e-05   2.750762719298241e-06   1.976911633155029e-05
-1.5713742235478148e-05   2.750762719298241e-06   1.976911633155029e-05
-1.1457671427033603e-05   1.6852002154972524e-06   1.3315002486423465e-05
-1.1457671427033603e-05   1.6852002154972524e-06   1.3315002486423465e-05
-1.1457671427033603e-05   1.6852002154972524e-06   1.3315002486423465e-05
-1.1457671427033603e-05   1.6852002154972524e-06   1.3315002486423465e-05
-1.3326830586141442e-05   2.523708191074078e-06   1.5927162966257078e-05
-1.3326830586141442e-05   2.523708191074078e-06   1.5927162966257078e-05
-1.3326830586141442e-05   2.523708191074078e-06   1.5927162966257078e-05
-1.3326830586141442e-05   2.523708191074078e-06   1.5927162966257078e-05
-1.145767142703361e-05   2.7507627192983834e-06   2.040845383383084e-05
-1.145767142703361e-05   2.7507627192983834e-06   2.040845383383084e-05
-1.145767142703361e-05   2.7507627192983834e-06   2.040845383383084e-05
-1.145767142703361e-05   2.7507627192983834e-06   2.040845383383084e-05
-1.5713742235478148e-05   1.685200215497144e-06   1.267566498414278e-05
-1.5713742235478148e-05   1.685200215497144e-06   1.267566498414278e-05
-1.5713742235478148e-05   1.685200215497144e-06   1.267566498414278e-05
-1.5713742235478148e-05   1.685200215497144e-06   1.267566498414278e-05
-1.5943406330607974e-05   2.2656865800271993e-06   2.0474419952965883e-05
-1.5943406330607974e-05   2.2656865800271993e-06   2.0474419952965883e-05
-1.5943406330607974e-05   2.2656865800271993e-06   2.0474419952965883e-05
-1.5943406330607974e-05   2.2656865800271993e-06   2.0474419952965883e-05
-1.1655919666510265e-05   1.2474845297364388e-06   1.3939530076310838e-05
-1.1655919666510265e-05   1.2474845297364388e-06   1.3939530076310838e-05
-1.1655919666510265e-05   1.2474845297364388e-06   1.3939530076310838e-05
-1.1655919666510265e-05   1.2474845297364388e-06   1.3939530076310838e-05
-1.3564472824696857e-05   2.1852351541531284e-06   1.6557801631971846e-05
-1.3564472824696857e-05   2.1852351541531284e-06   1.6557801631971846e-05
-1.3564472824696857e-05   2.1852351541531284e-06   1.6557801631971846e-05
-1.3564472824696857e-05   2.1852351541531284e-06   1.6557801631971846e-05
-1.5219407038877123e-05   4.560667662315623e-06   8.70494789187719e-06
-1.5219407038877123e-05   4.560667662315623e-06   8.70494789187719e-06
-1.5219407038877123e-05   4.560667662315623e-06   8.70494789187719e-06
-1.5219407038877123e-05   4.560667662315623e-06   8.70494789187719e-06
-1.8491361507374366e-05   3.072888490138464e-06   2.359022941075535e-06
-1.8491361507374366e-05   3.072888490138464e-06   2.359022941075535e-06
-1.8491361507374366e-05   3.072888490138464e-06   2.359022941075535e-06
-1.8491361507374366e-05   3.072888490138464e-06   2.359022941075535e-06
-1.927809683776059e-05   4.305549501420949e-06   1.020873846052997e-05
-1.927809683776059e-05   4.305549501420949e-06   1.020873846052997e-05
-1.927809683776059e-05   4.305549501420949e-06   1.020873846052997e-05
-1.927809683776059e-05   4.305549501420949e-06   1.020873846052997e-05
-1.542712996500587e-05   2.7519175573602252e-06   4.722639505708344e-06
-1.542712996500587e-05   2.7519175573602252e-06   4.722639505708344e-06
-1.542712996500587e-05   2.7519175573602252e-06   4.722639505708344e-06
-1.542712996500587e-05   2.7519175573602252e-06   4.722639505708344e-06
-1.651026968655485e-05   3.6349278008454555e-06   5.998066228865497e-06
-1.651026968655485e-05   3.6349278008454555e-06   5.998066228865497e-06
-1.651026968655485e-05   3.6349278008454555e-06   5.998066228865497e-06
-1.651026968655485e-05   3.6349278008454555e-06   5.998066228865497e-06
-1.5427129965005812e-05   4.305549501420806e-06   1.1140917626966144e-05
-1.5427129965005812e-05   4.305549501420806e-06   1.1140917626966144e-05
-1.5427129965005812e-05   4.305549501420806e-06   1.1140917626966144e-05
-1.5427129965005812e-05   4.305549501420806e-06   1.1140917626966144e-05
-1.927809683776059e-05   2.7519175573602252e-06   3.7904603392720786e-06
-1.927809683776059e-05   2.7519175573602252e-06   3.7904603392720786e-06
-1.927809683776059e-05   2.7519175573602252e-06   3.7904603392720786e-06
-1.927809683776059e-05   2.7519175573602252e-06   3.7904603392720786e-06
-1.9953202098155665e-05   4.091794278463217e-06   1.2022823455960091e-05
-1.9953202098155665e-05   4.091794278463217e-06   1.2022823455960091e-05
-1.9953202098155665e-05   4.091794278463217e-06   1.2022823455960091e-05
-1.9953202098155665e-05   4.091794278463217e-06   1.2022823455960091e-05
-1.571374223547816e-05   2.5312958482609895e-06   5.893356076285461e-06
-1.571374223547816e-05   2.5312958482609895e-06   5.893356076285461e-06
-1.571374223547816e-05   2.5312958482609895e-06   5.893356076285461e-06
-1.571374223547816e-05   2.5312958482609895e-06   5.893356076285461e-06
-1.7177467447469355e-05   3.509430680461085e-06   7.74601719695121e-06
-1.7177467447469355e-05   3.509430680461085e-06   7.74601719695121e-06
-1.7177467447469355e-05   3.509430680461085e-06   7.74601719695121e-06
-1.7177467447469355e-05   3.509430680461085e-06   7.74601719695121e-06
-1.5713742235478148e-05   4.091794278463115e-06   1.2959122514081232e-05
-1.5713742235478148e-05   4.091794278463115e-06   1.2959122514081232e-05
-1.5713742235478148e-05   4.091794278463115e-06   1.2959122514081232e-05
-1.5713742235478148e-05   4.091794278463115e-06   1.2959122514081232e-05
-1.995320209815572e-05   2.5312958482609895e-06   4.957057018164167e-06
-1.995320209815572e-05   2.5312958482609895e-06   4.957057018164167e-06
-1.995320209815572e-05   2.5312958482609895e-06   4.957057018164167e-06
-1.995320209815572e-05   2.5312958482609895e-06   4.957057018164167e-06
-2.0812085226521414e-05   3.5094277964738737e-06   1.5305032402806312e-05
-2.0812085226521414e-05   3.5094277964738737e-06   1.5305032402806312e-05
-2.0812085226521414e-05   3.5094277964738737e-06   1.5305032402806312e-05
-2.0812085226521414e-05   3.5094277964738737e-06   1.5305032402806312e-05
-1.5943406330607957e-05   2.0237587173105266e-06   8.08196902378185e-06
-1.5943406330607957e-05   2.0237587173105266e-06   8.08196902378185e-06
-1.5943406330607957e-05   2.0237587173105266e-06   8.08196902378185e-06
-1.5943406330607957e-05   2.0237587173105266e-06   8.08196902378185e-06
-1.736724536243376e-05   3.2675682542777744e-06   9.70874835464397e-06
-1.736724536243376e-05   3.2675682542777744e-06   9.70874835464397e-06
-1.736724536243376e-05   3.2675682542777744e-06   9.70874835464397e-06
-1.736724536243376e-05   3.2675682542777744e-06   9.70874835464397e-06
-7.472646105470855e-06   1.3627005758530955e-06   9.048769192533722e-06
-7.472646105470855e-06   1.3627005758530955e-06   9.048769192533722e-06
-7.472646105470855e-06   1.3627005758530955e-06   9.048769192533722e-06
-7.472646105470855e-06   1.3627005758530955e-06   9.048769192533722e-06
-8.214484160640456e-06   2.581570910870968e-06   8.543694634928424e-06
-8.214484160640456e-06   2.581570910870968e-06   8.543694634928424e-06
-8.214484160640456e-06   2.581570910870968e-06   8.543694634928424e-06
-8.214484160640456e-06   2.581570910870968e-06   8.543694634928424e-06
-8.427881778058647e-06   9.187410097484961e-07   9.708742838422104e-06
-8.427881778058647e-06   9.187410097484961e-07   9.708742838422104e-06
-8.427881778058647e-06   9.187410097484961e-07   9.708742838422104e-06
-8.427881778058647e-06   9.187410097484961e-07   9.708742838422104e-06
-8.36650796421969e-06   2.0153552426463483e-06   8.948484608951664e-06
-8.36650796421969e-06   2.0153552426463483e-06   8.948484608951664e-06
-8.36650796421969e-06   2.0153552426463483e-06   8.948484608951664e-06
-8.36650796421969e-06   2.0153552426463483e-06   8.948484608951664e-06
-7.919952067947847e-06   1.6064991815497448e-06   8.449538418489985e-06
-7.919952067947847e-06   1.6064991815497448e-06   8.449538418489985e-06
-7.919952067947847e-06   1.6064991815497448e-06   8.449538418489985e-06
-7.919952067947847e-06   1.6064991815497448e-06   8.449538418489985e-06
-8.366507964219699e-06   9.187410097484345e-07   9.050774298683252e-06
-8.366507964219699e-06   9.187410097484345e-07   9.050774298683252e-06
-8.366507964219699e-06   9.187410097484345e-07   9.050774298683252e-06
-8.366507964219699e-06   9.187410097484345e-07   9.050774298683252e-06
-8.427881778058647e-06   2.0153552426463483e-06   9.606453148690503e-06
-8.427881778058647e-06   2.0153552426463483e-06   9.606453148690503e-06
-8.427881778058647e-06   2.0153552426463483e-06   9.606453148690503e-06
-8.427881778058647e-06   2.0153552426463483e-06   9.606453148690503e-06
-8.704768604842471e-06   6.750409174185448e-07   1.0009088943400773e-05
-8.704768604842471e-06   6.750409174185448e-07   1.0009088943400773e-05
-8.704768604842471e-06   6.750409174185448e-07   1.0009088943400773e-05
-8.704768604842471e-06   6.750409174185448e-07   1.0009088943400773e-05
-9.236364800614498e-06   1.6245416346432609e-06   1.0325382172686001e-05
-9.236364800614498e-06   1.6245416346432609e-06   1.0325382172686001e-05
-9.236364800614498e-06   1.6245416346432609e-06   1.0325382172686001e-05
-9.236364800614498e-06   1.6245416346432609e-06   1.0325382172686001e-05
-8.451748615926832e-06   1.3624596436139468e-06   9.17493772615744e-06
-8.451748615926832e-06   1.3624596436139468e-06   9.17493772615744e-06
-8.451748615926832e-06   1.3624596436139468e-06   9.17493772615744e-06
-8.451748615926832e-06   1.3624596436139468e-06   9.17493772615744e-06
-9.236364800614498e-06   6.750409174186385e-07   9.439388513065715e-06
-9.236364800614498e-06   6.750409174186385e-07   9.439388513065715e-06
-9.236364800614498e-06   6.750409174186385e-07   9.439388513065715e-06
-9.236364800614498e-06   6.750409174186385e-07   9.439388513065715e-06
-8.704768604842471e-06   1.6245416346432609e-06   1.0895082603020801e-05
-8.704768604842471e-06   1.6245416346432609e-06   1.0895082603020801e-05
-8.704768604842471e-06   1.6245416346432609e-06   1.0895082603020801e-05
-8.704768604842471e-06   1.6245416346432609e-06   1.0895082603020801e-05
-8.881772348013715e-06   1.5882488531239383e-07   1.0988821402924706e-05
-8.881772348013715e-06   1.5882488531239383e-07   1.0988821402924706e-05
-8.881772348013715e-06   1.5882488531239383e-07   1.0988821402924706e-05
-8.881772348013715e-06   1.5882488531239383e-07   1.0988821402924706e-05
-1.0162834826905733e-05   6.636374161638273e-07   1.2821038015900355e-05
-1.0162834826905733e-05   6.636374161638273e-07   1.2821038015900355e-05
-1.0162834826905733e-05   6.636374161638273e-07   1.2821038015900355e-05
-1.0162834826905733e-05   6.636374161638273e-07   1.2821038015900355e-05
-8.827082630749105e-06   1.0637215774552712e-06   1.0354733858864098e-05
-8.827082630749105e-06   1.0637215774552712e-06   1.0354733858864098e-05
-8.827082630749105e-06   1.0637215774552712e-06   1.0354733858864098e-05
-8.827082630749105e-06   1.0637215774552712e-06   1.0354733858864098e-05
-8.214484160640456e-06   1.5970232266577273e-06   1.7960118524110635e-05
-8.214484160640456e-06   1.5970232266577273e-06   1.7960118524110635e-05
-8.214484160640456e-06   1.5970232266577273e-06   1.7960118524110635e-05
-8.214484160640456e-06   1.5970232266577273e-06   1.7960118524110635e-05
-8.35249494983065e-06   6.686076599615211e-07   1.7173051202109277e-05
-8.35249494983065e-06   6.686076599615211e-07   1.7173051202109277e-05
-8.35249494983065e-06   6.686076599615211e-07   1.7173051202109277e-05
-8.35249494983065e-06   6.686076599615211e-07   1.7173051202109277e-05
-8.419607210886175e-06   1.1016029799362607e-06   1.7279761954055225e-05
-8.419607210886175e-06   1.1016029799362607e-06   1.7279761954055225e-05
-8.419607210886175e-06   1.1016029799362607e-06   1.7279761954055225e-05
-8.419607210886175e-06   1.1016029799362607e-06   1.7279761954055225e-05
-8.427881778058649e-06   3.192608307483113e-07   1.7762958188855378e-05
-8.427881778058649e-06   3.192608307483113e-07   1.7762958188855378e-05
-8.427881778058649e-06   3.192608307483113e-07   1.7762958188855378e-05
-8.427881778058649e-06   3.192608307483113e-07   1.7762958188855378e-05
-8.328614629572539e-06   8.144852499430066e-07   1.730037828986173e-05
-8.328614629572539e-06   8.144852499430066e-07   1.730037828986173e-05
-8.328614629572539e-06   8.144852499430066e-07   1.730037828986173e-05
-8.328614629572539e-06   8.144852499430066e-07   1.730037828986173e-05
-8.427881778058657e-06   1.10160297993628e-06   1.7749167243567854e-05
-8.427881778058657e-06   1.10160297993628e-06   1.7749167243567854e-05
-8.427881778058657e-06   1.10160297993628e-06   1.7749167243567854e-05
-8.427881778058657e-06   1.10160297993628e-06   1.7749167243567854e-05
-8.419607210886175e-06   3.192608307483113e-07   1.7293552899342614e-05
-8.419607210886175e-06   3.192608307483113e-07   1.7293552899342614e-05
-8.419607210886175e-06   3.192608307483113e-07   1.7293552899342614e-05
-8.419607210886175e-06   3.192608307483113e-07   1.7293552899342614e-05
-8.50253840011798e-06   6.44889007060407e-07   1.7514148476946933e-05
-8.50253840011798e-06   6.44889007060407e-07   1.7514148476946933e-05
-8.50253840011798e-06   6.44889007060407e-07   1.7514148476946933e-05
-8.50253840011798e-06   6.44889007060407e-07   1.7514148476946933e-05
-8.704768604842473e-06   -8.463530307763634e-08   1.8288913404237207e-05
-8.704768604842473e-06   -8.463530307763634e-08   1.8288913404237207e-05
-8.704768604842473e-06   -8.463530307763634e-08   1.8288913404237207e-05
-8.704768604842473e-06   -8.463530307763634e-08   1.8288913404237207e-05
-8.410615506139054e-06   5.257454020107582e-07   1.7432429816678714e-05
-8.410615506139054e-06   5.257454020107582e-07   1.7432429816678714e-05
-8.410615506139054e-06   5.257454020107582e-07   1.7432429816678714e-05
-8.410615506139054e-06   5.257454020107582e-07   1.7432429816678714e-05
-8.704768604842471e-06   6.448890070604219e-07   1.795186306302951e-05
-8.704768604842471e-06   6.448890070604219e-07   1.795186306302951e-05
-8.704768604842471e-06   6.448890070604219e-07   1.795186306302951e-05
-8.704768604842471e-06   6.448890070604219e-07   1.795186306302951e-05
-8.502538400117967e-06   -8.463530307763634e-08   1.785119881815442e-05
-8.502538400117967e-06   -8.463530307763634e-08   1.785119881815442e-05
-8.502538400117967e-06   -8.463530307763634e-08   1.785119881815442e-05
-8.502538400117967e-06   -8.463530307763634e-08   1.785119881815442e-05
-8.563519999382223e-06   1.5073522552464403e-07   1.801551356221025e-05
-8.563519999382223e-06   1.5073522552464403e-07   1.801551356221025e-05
-8.563519999382223e-06   1.5073522552464403e-07   1.801551356221025e-05
-8.563519999382223e-06   1.5073522552464403e-07   1.801551356221025e-05
-8.881772348013692e-06   -6.146526467619559e-07   1.9005166866634427e-05
-8.881772348013692e-06   -6.146526467619559e-07   1.9005166866634427e-05
-8.881772348013692e-06   -6.146526467619559e-07   1.9005166866634427e-05
-8.881772348013692e-06   -6.146526467619559e-07   1.9005166866634427e-05
-8.539213129638806e-06   1.8715649762661522e-07   1.7953149349375812e-05
-8.539213129638806e-06   1.8715649762661522e-07   1.7953149349375812e-05
-8.539213129638806e-06   1.8715649762661522e-07   1.7953149349375812e-05
-8.539213129638806e-06   1.8715649762661522e-07   1.7953149349375812e-05
-8.352494949830663e-06   1.919145805566161e-06   1.9810999409384828e-05
-8.352494949830663e-06   1.919145805566161e-06   1.9810999409384828e-05
-8.352494949830663e-06   1.919145805566161e-06   1.9810999409384828e-05
-8.352494949830663e-06   1.919145805566161e-06   1.9810999409384828e-05
-9.015912353234107e-06   1.8658409768222348e-07   1.7665766712315477e-05
-9.015912353234107e-06   1.8658409768222348e-07   1.7665766712315477e-05
-9.015912353234107e-06   1.8658409768222348e-07   1.7665766712315477e-05
-9.015912353234107e-06   1.8658409768222348e-07   1.7665766712315477e-05
-9.039555204594992e-06   1.4605205172345693e-06   1.8797728286014913e-05
-9.039555204594992e-06   1.4605205172345693e-06   1.8797728286014913e-05
-9.039555204594992e-06   1.4605205172345693e-06   1.8797728286014913e-05
-9.039555204594992e-06   1.4605205172345693e-06   1.8797728286014913e-05
-8.41960721088618e-06   -1.0777048372635767e-07   1.870545623041013e-05
-8.41960721088618e-06   -1.0777048372635767e-07   1.870545623041013e-05
-8.41960721088618e-06   -1.0777048372635767e-07   1.870545623041013e-05
-8.41960721088618e-06   -1.0777048372635767e-07   1.870545623041013e-05
-8.692290808848682e-06   8.350675909139056e-07   1.8594226048896756e-05
-8.692290808848682e-06   8.350675909139056e-07   1.8594226048896756e-05
-8.692290808848682e-06   8.350675909139056e-07   1.8594226048896756e-05
-8.692290808848682e-06   8.350675909139056e-07   1.8594226048896756e-05
-8.419607210886175e-06   1.4605205172346184e-06   1.973870288659148e-05
-8.419607210886175e-06   1.4605205172346184e-06   1.973870288659148e-05
-8.419607210886175e-06   1.4605205172346184e-06   1.973870288659148e-05
-8.419607210886175e-06   1.4605205172346184e-06   1.973870288659148e-05
-9.039555204594965e-06   -1.0777048372635767e-07   1.7764481629833537e-05
-9.039555204594965e-06   -1.0777048372635767e-07   1.7764481629833537e-05
-9.039555204594965e-06   -1.0777048372635767e-07   1.7764481629833537e-05
-9.039555204594965e-06   -1.0777048372635767e-07   1.7764481629833537e-05
-9.081272140489644e-06   9.944478941332786e-07   1.9090963658586774e-05
-9.081272140489644e-06   9.944478941332786e-07   1.9090963658586774e-05
-9.081272140489644e-06   9.944478941332786e-07   1.9090963658586774e-05
-9.081272140489644e-06   9.944478941332786e-07   1.9090963658586774e-05
-8.502538400117964e-06   -4.601949620032259e-07   1.8999193138315927e-05
-8.502538400117964e-06   -4.601949620032259e-07   1.8999193138315927e-05
-8.502538400117964e-06   -4.601949620032259e-07   1.8999193138315927e-05
-8.502538400117964e-06   -4.601949620032259e-07   1.8999193138315927e-05
-8.698647103903077e-06   5.43833260722125e-07   1.8723624044322568e-05
-8.698647103903077e-06   5.43833260722125e-07   1.8723624044322568e-05
-8.698647103903077e-06   5.43833260722125e-07   1.8723624044322568e-05
-8.698647103903077e-06   5.43833260722125e-07   1.8723624044322568e-05
-8.502538400117967e-06   9.94447894133367e-07   1.996374937226846e-05
-8.502538400117967e-06   9.94447894133367e-07   1.996374937226846e-05
-8.502538400117967e-06   9.94447894133367e-07   1.996374937226846e-05
-8.502538400117967e-06   9.94447894133367e-07   1.996374937226846e-05
-9.081272140489644e-06   -4.601949620032259e-07   1.8126407424633943e-05
-9.081272140489644e-06   -4.601949620032259e-07   1.8126407424633943e-05
-9.081272140489644e-06   -4.601949620032259e-07   1.8126407424633943e-05
-9.081272140489644e-06   -4.601949620032259e-07   1.8126407424633943e-05
-9.108596935984714e-06   5.528504039393426e-07   1.9615530653165894e-05
-9.108596935984714e-06   5.528504039393426e-07   1.9615530653165894e-05
-9.108596935984714e-06   5.528504039393426e-07   1.9615530653165894e-05
-9.108596935984714e-06   5.528504039393426e-07   1.9615530653165894e-05
-8.563519999382218e-06   -8.136192119951625e-07   1.9526950861722302e-05
-8.563519999382218e-06   -8.136192119951625e-07   1.9526950861722302e-05
-8.563519999382218e-06   -8.136192119951625e-07   1.9526950861722302e-05
-8.563519999382218e-06   -8.136192119951625e-07   1.9526950861722302e-05
-8.719547106019415e-06   2.445208774721694e-07   1.9152111985769706e-05
-8.719547106019415e-06   2.445208774721694e-07   1.9152111985769706e-05
-8.719547106019415e-06   2.445208774721694e-07   1.9152111985769706e-05
-8.719547106019415e-06   2.445208774721694e-07   1.9152111985769706e-05
-9.015912353234107e-06   2.5970918029417746e-06   1.614379204024929e-05
-9.015912353234107e-06   2.5970918029417746e-06   1.614379204024929e-05
-9.015912353234107e-06   2.5970918029417746e-06   1.614379204024929e-05
-9.015912353234107e-06   2.5970918029417746e-06   1.614379204024929e-05
-9.965257161704112e-06   8.541006357047414e-07   1.3515755992457063e-05
-9.965257161704112e-06   8.541006357047414e-07   1.3515755992457063e-05
-9.965257161704112e-06   8.541006357047414e-07   1.3515755992457063e-05
-9.965257161704112e-06   8.541006357047414e-07   1.3515755992457063e-05
-9.983270165818349e-06   2.1146376516093576e-06   1.5246380754214734e-05
-9.983270165818349e-06   2.1146376516093576e-06   1.5246380754214734e-05
-9.983270165818349e-06   2.1146376516093576e-06   1.5246380754214734e-05
-9.983270165818349e-06   2.1146376516093576e-06   1.5246380754214734e-05
-9.039555204595002e-06   4.660428459453978e-07   1.4662679368907569e-05
-9.039555204595002e-06   4.660428459453978e-07   1.4662679368907569e-05
-9.039555204595002e-06   4.660428459453978e-07   1.4662679368907569e-05
-9.039555204595002e-06   4.660428459453978e-07   1.4662679368907569e-05
-9.47621308236104e-06   1.5430826078990456e-06   1.4744218641345446e-05
-9.47621308236104e-06   1.5430826078990456e-06   1.4744218641345446e-05
-9.47621308236104e-06   1.5430826078990456e-06   1.4744218641345446e-05
-9.47621308236104e-06   1.5430826078990456e-06   1.4744218641345446e-05
-9.039555204594992e-06   2.1146376516093914e-06   1.6235537637613055e-05
-9.039555204594992e-06   2.1146376516093914e-06   1.6235537637613055e-05
-9.039555204594992e-06   2.1146376516093914e-06   1.6235537637613055e-05
-9.039555204594992e-06   2.1146376516093914e-06   1.6235537637613055e-05
-9.983270165818349e-06   4.6604284594528936e-07   1.367352248550926e-05
-9.983270165818349e-06   4.6604284594528936e-07   1.367352248550926e-05
-9.983270165818349e-06   4.6604284594528936e-07   1.367352248550926e-05
-9.983270165818349e-06   4.6604284594528936e-07   1.367352248550926e-05
-1.0092858743782096e-05   1.685200215497144e-06   1.5810416293342896e-05
-1.0092858743782096e-05   1.685200215497144e-06   1.5810416293342896e-05
-1.0092858743782096e-05   1.685200215497144e-06   1.5810416293342896e-05
-1.0092858743782096e-05   1.685200215497144e-06   1.5810416293342896e-05
-9.081272140489632e-06   1.3361936468576658e-07   1.5055387131675713e-05
-9.081272140489632e-06   1.3361936468576658e-07   1.5055387131675713e-05
-9.081272140489632e-06   1.3361936468576658e-07   1.5055387131675713e-05
-9.081272140489632e-06   1.3361936468576658e-07   1.5055387131675713e-05
-9.450636864310233e-06   1.2246230636661724e-06   1.5016392785321812e-05
-9.450636864310233e-06   1.2246230636661724e-06   1.5016392785321812e-05
-9.450636864310233e-06   1.2246230636661724e-06   1.5016392785321812e-05
-9.450636864310233e-06   1.2246230636661724e-06   1.5016392785321812e-05
-9.081272140489644e-06   1.6852002154971694e-06   1.6741364803829473e-05
-9.081272140489644e-06   1.6852002154971694e-06   1.6741364803829473e-05
-9.081272140489644e-06   1.6852002154971694e-06   1.6741364803829473e-05
-9.081272140489644e-06   1.6852002154971694e-06   1.6741364803829473e-05
-1.0092858743782096e-05   1.3361936468576658e-07   1.4124438621188916e-05
-1.0092858743782096e-05   1.3361936468576658e-07   1.4124438621188916e-05
-1.0092858743782096e-05   1.3361936468576658e-07   1.4124438621188916e-05
-1.0092858743782096e-05   1.3361936468576658e-07   1.4124438621188916e-05
-1.0158641347675075e-05   1.2474845297364388e-06   1.6510954885671147e-05
-1.0158641347675075e-05   1.2474845297364388e-06   1.6510954885671147e-05
-1.0158641347675075e-05   1.2474845297364388e-06   1.6510954885671147e-05
-1.0158641347675075e-05   1.2474845297364388e-06   1.6510954885671147e-05
-9.108596935984692e-06   -2.0157457074571148e-07   1.563031632647639e-05
-9.108596935984692e-06   -2.0157457074571148e-07   1.563031632647639e-05
-9.108596935984692e-06   -2.0157457074571148e-07   1.563031632647639e-05
-9.108596935984692e-06   -2.0157457074571148e-07   1.563031632647639e-05
-9.499598617784978e-06   9.400059788798815e-07   1.5597037466367038e-05
-9.499598617784978e-06   9.400059788798815e-07   1.5597037466367038e-05
-9.499598617784978e-06   9.400059788798815e-07   1.5597037466367038e-05
-9.499598617784978e-06   9.400059788798815e-07   1.5597037466367038e-05
-9.965257161704112e-06   3.0728884901384245e-06   6.2207555929108625e-06
-9.965257161704112e-06   3.0728884901384245e-06   6.2207555929108625e-06
-9.965257161704112e-06   3.0728884901384245e-06   6.2207555929108625e-06
-9.965257161704112e-06   3.0728884901384245e-06   6.2207555929108625e-06
-9.865424483013424e-06   1.4105169282137503e-06   5.389720453573873e-06
-9.865424483013424e-06   1.4105169282137503e-06   5.389720453573873e-06
-9.865424483013424e-06   1.4105169282137503e-06   5.389720453573873e-06
-9.865424483013424e-06   1.4105169282137503e-06   5.389720453573873e-06
-1.0372841651816412e-05   2.7519175573602252e-06   6.817968476232586e-06
-1.0372841651816412e-05   2.7519175573602252e-06   6.817968476232586e-06
-1.0372841651816412e-05   2.7519175573602252e-06   6.817968476232586e-06
-1.0372841651816412e-05   2.7519175573602252e-06   6.817968476232586e-06
-9.983270165818298e-06   1.1355340475497624e-06   7.138512772121867e-06
-9.983270165818298e-06   1.1355340475497624e-06   7.138512772121867e-06
-9.983270165818298e-06   1.1355340475497624e-06   7.138512772121867e-06
-9.983270165818298e-06   1.1355340475497624e-06   7.138512772121867e-06
-9.72007335712501e-06   2.1629247330862177e-06   6.083417012977903e-06
-9.72007335712501e-06   2.1629247330862177e-06   6.083417012977903e-06
-9.72007335712501e-06   2.1629247330862177e-06   6.083417012977903e-06
-9.72007335712501e-06   2.1629247330862177e-06   6.083417012977903e-06
-9.983270165818295e-06   2.7519175573602523e-06   7.787798582118658e-06
-9.983270165818295e-06   2.7519175573602523e-06   7.787798582118658e-06
-9.983270165818295e-06   2.7519175573602523e-06   7.787798582118658e-06
-9.983270165818295e-06   2.7519175573602523e-06   7.787798582118658e-06
-1.0372841651816467e-05   1.1355340475497624e-06   6.168682666235633e-06
-1.0372841651816467e-05   1.1355340475497624e-06   6.168682666235633e-06
-1.0372841651816467e-05   1.1355340475497624e-06   6.168682666235633e-06
-1.0372841651816467e-05   1.1355340475497624e-06   6.168682666235633e-06
-1.0818219798265259e-05   2.5312958482609895e-06   8.082821117975339e-06
-1.0818219798265259e-05   2.5312958482609895e-06   8.082821117975339e-06
-1.0818219798265259e-05   2.5312958482609895e-06   8.082821117975339e-06
-1.0818219798265259e-05   2.5312958482609895e-06   8.082821117975339e-06
-1.0092858743782048e-05   9.55818735743773e-07   7.819172294680151e-06
-1.0092858743782048e-05   9.55818735743773e-07   7.819172294680151e-06
-1.0092858743782048e-05   9.55818735743773e-07   7.819172294680151e-06
-1.0092858743782048e-05   9.55818735743773e-07   7.819172294680151e-06
-1.0082292892891767e-05   2.002869679497009e-06   7.173331976944816e-06
-1.0082292892891767e-05   2.002869679497009e-06   7.173331976944816e-06
-1.0082292892891767e-05   2.002869679497009e-06   7.173331976944816e-06
-1.0082292892891767e-05   2.002869679497009e-06   7.173331976944816e-06
-1.0092858743782041e-05   2.5312958482610255e-06   9.028107385485333e-06
-1.0092858743782041e-05   2.5312958482610255e-06   9.028107385485333e-06
-1.0092858743782041e-05   2.5312958482610255e-06   9.028107385485333e-06
-1.0092858743782041e-05   2.5312958482610255e-06   9.028107385485333e-06
-1.0818219798265313e-05   9.55818735743773e-07   6.873886027169887e-06
-1.0818219798265313e-05   9.55818735743773e-07   6.873886027169887e-06
-1.0818219798265313e-05   9.55818735743773e-07   6.873886027169887e-06
-1.0818219798265313e-05   9.55818735743773e-07   6.873886027169887e-06
-1.1479043757081078e-05   2.0237587173105266e-06   1.0406054620194023e-05
-1.1479043757081078e-05   2.0237587173105266e-06   1.0406054620194023e-05
-1.1479043757081078e-05   2.0237587173105266e-06   1.0406054620194023e-05
-1.1479043757081078e-05   2.0237587173105266e-06   1.0406054620194023e-05
-1.0158641347674978e-05   5.933246454394503e-07   9.063644380972807e-06
-1.0158641347674978e-05   5.933246454394503e-07   9.063644380972807e-06
-1.0158641347674978e-05   5.933246454394503e-07   9.063644380972807e-06
-1.0158641347674978e-05   5.933246454394503e-07   9.063644380972807e-06
-1.0204892398483495e-05   1.8117642785190529e-06   8.409665685804352e-06
-1.0204892398483495e-05   1.8117642785190529e-06   8.409665685804352e-06
-1.0204892398483495e-05   1.8117642785190529e-06   8.409665685804352e-06
-1.0204892398483495e-05   1.8117642785190529e-06   8.409665685804352e-06
-1.9492125836430715e-05   2.581570910871039e-06   7.584130316427612e-06
-1.9492125836430715e-05   2.581570910871039e-06   7.584130316427612e-06
-1.9492125836430715e-05   2.581570910871039e-06   7.584130316427612e-06
-1.9492125836430715e-05   2.581570910871039e-06   7.584130316427612e-06
-1.317679564226723e-05   3.572529743183048e-06   1.870425593942062e-05
-1.317679564226723e-05   3.572529743183048e-06   1.870425593942062e-05
-1.317679564226723e-05   3.572529743183048e-06   1.870425593942062e-05
-1.317679564226723e-05   3.572529743183048e-06   1.870425593942062e-05
-1.3171680420201966e-05   2.0153552426464567e-06   8.599263212837597e-06
-1.3171680420201966e-05   2.0153552426464567e-06   8.599263212837597e-06
-1.3171680420201966e-05   2.0153552426464567e-06   8.599263212837597e-06
-1.3171680420201966e-05   2.0153552426464567e-06   8.599263212837597e-06
-2.1480192176273787e-05   1.4390408351686317e-06   2.2792571450777345e-05
-2.1480192176273787e-05   1.4390408351686317e-06   2.2792571450777345e-05
-2.1480192176273787e-05   1.4390408351686317e-06   2.2792571450777345e-05
-2.1480192176273787e-05   1.4390408351686317e-06   2.2792571450777345e-05
-1.5961359133834137e-05   2.1151182835386874e-06   1.3188869911022536e-05
-1.5961359133834137e-05   2.1151182835386874e-06   1.3188869911022536e-05
-1.5961359133834137e-05   2.1151182835386874e-06   1.3188869911022536e-05
-1.5961359133834137e-05   2.1151182835386874e-06   1.3188869911022536e-05
-2.148019217627382e-05   2.015355242646418e-06   8.945051857324156e-06
-2.148019217627382e-05   2.015355242646418e-06   8.945051857324156e-06
-2.148019217627382e-05   2.015355242646418e-06   8.945051857324156e-06
-2.148019217627382e-05   2.015355242646418e-06   8.945051857324156e-06
-1.3171680420201942e-05   1.4390408351686317e-06   2.2446782806290677e-05
-1.3171680420201942e-05   1.4390408351686317e-06   2.2446782806290677e-05
-1.3171680420201942e-05   1.4390408351686317e-06   2.2446782806290677e-05
-1.3171680420201942e-05   1.4390408351686317e-06   2.2446782806290677e-05
-1.3354360811207478e-05   1.6245416346432609e-06   9.611090488719192e-06
-1.3354360811207478e-05   1.6245416346432609e-06   9.611090488719192e-06
-1.3354360811207478e-05   1.6245416346432609e-06   9.611090488719192e-06
-1.3354360811207478e-05   1.6245416346432609e-06   9.611090488719192e-06
-2.1558512768449757e-05   1.02971019852341e-06   2.3641575945794962e-05
-2.1558512768449757e-05   1.02971019852341e-06   2.3641575945794962e-05
-2.1558512768449757e-05   1.02971019852341e-06   2.3641575945794962e-05
-2.1558512768449757e-05   1.02971019852341e-06   2.3641575945794962e-05
-1.703690182033089e-05   1.3183843164466576e-06   1.5932353228176054e-05
-1.703690182033089e-05   1.3183843164466576e-06   1.5932353228176054e-05
-1.703690182033089e-05   1.3183843164466576e-06   1.5932353228176054e-05
-1.703690182033089e-05   1.3183843164466576e-06   1.5932353228176054e-05
-2.1558512768449797e-05   1.6245416346432213e-06   9.967989350391157e-06
-2.1558512768449797e-05   1.6245416346432213e-06   9.967989350391157e-06
-2.1558512768449797e-05   1.6245416346432213e-06   9.967989350391157e-06
-2.1558512768449797e-05   1.6245416346432213e-06   9.967989350391157e-06
-1.3354360811207451e-05   1.02971019852341e-06   2.328467708412305e-05
-1.3354360811207451e-05   1.02971019852341e-06   2.328467708412305e-05
-1.3354360811207451e-05   1.02971019852341e-06   2.328467708412305e-05
-1.3354360811207451e-05   1.02971019852341e-06   2.328467708412305e-05
-1.3214763490842088e-05   6.636374161638273e-07   1.1380290506565624e-05
-1.3214763490842088e-05   6.636374161638273e-07   1.1380290506565624e-05
-1.3214763490842088e-05   6.636374161638273e-07   1.1380290506565624e-05
-1.3214763490842088e-05   6.636374161638273e-07   1.1380290506565624e-05
-2.1796528018623002e-05   -7.127425239471566e-07   2.6509059350267004e-05
-2.1796528018623002e-05   -7.127425239471566e-07   2.6509059350267004e-05
-2.1796528018623002e-05   -7.127425239471566e-07   2.6509059350267004e-05
-2.1796528018623002e-05   -7.127425239471566e-07   2.6509059350267004e-05
-1.6779919044520947e-05   6.356763635349729e-07   1.7338993060941e-05
-1.6779919044520947e-05   6.356763635349729e-07   1.7338993060941e-05
-1.6779919044520947e-05   6.356763635349729e-07   1.7338993060941e-05
-1.6779919044520947e-05   6.356763635349729e-07   1.7338993060941e-05
-1.3176795642267254e-05   6.686076599615678e-07   1.7365111523013352e-05
-1.3176795642267254e-05   6.686076599615678e-07   1.7365111523013352e-05
-1.3176795642267254e-05   6.686076599615678e-07   1.7365111523013352e-05
-1.3176795642267254e-05   6.686076599615678e-07   1.7365111523013352e-05
-8.093500556449499e-06   -4.060581165205056e-06   2.2999756704276294e-05
-8.093500556449499e-06   -4.060581165205056e-06   2.2999756704276294e-05
-8.093500556449499e-06   -4.060581165205056e-06   2.2999756704276294e-05
-8.093500556449499e-06   -4.060581165205056e-06   2.2999756704276294e-05
-8.111863733440257e-06   3.192608307483113e-07   1.4567278736230709e-05
-8.111863733440257e-06   3.192608307483113e-07   1.4567278736230709e-05
-8.111863733440257e-06   3.192608307483113e-07   1.4567278736230709e-05
-8.111863733440257e-06   3.192608307483113e-07   1.4567278736230709e-05
-1.317168042020194e-05   -3.3282216972046813e-06   2.5188796064272027e-05
-1.317168042020194e-05   -3.3282216972046813e-06   2.5188796064272027e-05
-1.317168042020194e-05   -3.3282216972046813e-06   2.5188796064272027e-05
-1.317168042020194e-05   -3.3282216972046813e-06   2.5188796064272027e-05
-1.058275595348162e-05   -2.008631227997618e-06   2.0082167671547262e-05
-1.058275595348162e-05   -2.008631227997618e-06   2.0082167671547262e-05
-1.058275595348162e-05   -2.008631227997618e-06   2.0082167671547262e-05
-1.058275595348162e-05   -2.008631227997618e-06   2.0082167671547262e-05
-1.3171680420201949e-05   3.19260830748295e-07   1.67557682530022e-05
-1.3171680420201949e-05   3.19260830748295e-07   1.67557682530022e-05
-1.3171680420201949e-05   3.19260830748295e-07   1.67557682530022e-05
-1.3171680420201949e-05   3.19260830748295e-07   1.67557682530022e-05
-8.111863733440216e-06   -3.3282216972046813e-06   2.3000306547500237e-05
-8.111863733440216e-06   -3.3282216972046813e-06   2.3000306547500237e-05
-8.111863733440216e-06   -3.3282216972046813e-06   2.3000306547500237e-05
-8.111863733440216e-06   -3.3282216972046813e-06   2.3000306547500237e-05
-8.146544877848366e-06   -8.463530307763634e-08   1.501415105525667e-05
-8.146544877848366e-06   -8.463530307763634e-08   1.501415105525667e-05
-8.146544877848366e-06   -8.463530307763634e-08   1.501415105525667e-05
-8.146544877848366e-06   -8.463530307763634e-08   1.501415105525667e-05
-1.3354360811207453e-05   -3.4025856942092292e-06   2.5684614512200755e-05
-1.3354360811207453e-05   -3.4025856942092292e-06   2.5684614512200755e-05
-1.3354360811207453e-05   -3.4025856942092292e-06   2.5684614512200755e-05
-1.3354360811207453e-05   -3.4025856942092292e-06   2.5684614512200755e-05
-1.0507540247299892e-05   -1.7550693501896934e-06   1.995140376594311e-05
-1.0507540247299892e-05   -1.7550693501896934e-06   1.995140376594311e-05
-1.0507540247299892e-05   -1.7550693501896934e-06   1.995140376594311e-05
-1.0507540247299892e-05   -1.7550693501896934e-06   1.995140376594311e-05
-1.3354360811207478e-05   -8.463530307762539e-08   1.7004921289935767e-05
-1.3354360811207478e-05   -8.463530307762539e-08   1.7004921289935767e-05
-1.3354360811207478e-05   -8.463530307762539e-08   1.7004921289935767e-05
-1.3354360811207478e-05   -8.463530307762539e-08   1.7004921289935767e-05
-8.146544877848366e-06   -3.4025856942092292e-06   2.369384427752176e-05
-8.146544877848366e-06   -3.4025856942092292e-06   2.369384427752176e-05
-8.146544877848366e-06   -3.4025856942092292e-06   2.369384427752176e-05
-8.146544877848366e-06   -3.4025856942092292e-06   2.369384427752176e-05
-8.070405268786936e-06   -6.146526467619559e-07   1.5572104535532404e-05
-8.070405268786936e-06   -6.146526467619559e-07   1.5572104535532404e-05
-8.070405268786936e-06   -6.146526467619559e-07   1.5572104535532404e-05
-8.070405268786936e-06   -6.146526467619559e-07   1.5572104535532404e-05
-1.3214763490842047e-05   -3.430364818856127e-06   2.583546220888061e-05
-1.3214763490842047e-05   -3.430364818856127e-06   2.583546220888061e-05
-1.3214763490842047e-05   -3.430364818856127e-06   2.583546220888061e-05
-1.3214763490842047e-05   -3.430364818856127e-06   2.583546220888061e-05
-1.0559440795570168e-05   -1.968497504775419e-06   2.0532803994979126e-05
-1.0559440795570168e-05   -1.968497504775419e-06   2.0532803994979126e-05
-1.0559440795570168e-05   -1.968497504775419e-06   2.0532803994979126e-05
-1.0559440795570168e-05   -1.968497504775419e-06   2.0532803994979126e-05
-8.093500556449499e-06   1.8658409768235696e-07   1.6059850762849834e-05
-8.093500556449499e-06   1.8658409768235696e-07   1.6059850762849834e-05
-8.093500556449499e-06   1.8658409768235696e-07   1.6059850762849834e-05
-8.093500556449499e-06   1.8658409768235696e-07   1.6059850762849834e-05
-5.966350400056508e-06   -3.1724713584089723e-06   1.7589667749850054e-05
-5.966350400056508e-06   -3.1724713584089723e-06   1.7589667749850054e-05
-5.966350400056508e-06   -3.1724713584089723e-06   1.7589667749850054e-05
-5.966350400056508e-06   -3.1724713584089723e-06   1.7589667749850054e-05
-5.915463940522366e-06   -1.0777048372635767e-07   1.4174392845573282e-05
-5.915463940522366e-06   -1.0777048372635767e-07   1.4174392845573282e-05
-5.915463940522366e-06   -1.0777048372635767e-07   1.4174392845573282e-05
-5.915463940522366e-06   -1.0777048372635767e-07   1.4174392845573282e-05
-8.111863733440228e-06   -3.1157525199346442e-06   1.9639848388828055e-05
-8.111863733440228e-06   -3.1157525199346442e-06   1.9639848388828055e-05
-8.111863733440228e-06   -3.1157525199346442e-06   1.9639848388828055e-05
-8.111863733440228e-06   -3.1157525199346442e-06   1.9639848388828055e-05
-6.979013275274481e-06   -1.6025552718954288e-06   1.6843845943061587e-05
-6.979013275274481e-06   -1.6025552718954288e-06   1.6843845943061587e-05
-6.979013275274481e-06   -1.6025552718954288e-06   1.6843845943061587e-05
-6.979013275274481e-06   -1.6025552718954288e-06   1.6843845943061587e-05
-8.111863733440216e-06   -1.0777048372633175e-07   1.5979182067298145e-05
-8.111863733440216e-06   -1.0777048372633175e-07   1.5979182067298145e-05
-8.111863733440216e-06   -1.0777048372633175e-07   1.5979182067298145e-05
-8.111863733440216e-06   -1.0777048372633175e-07   1.5979182067298145e-05
-5.915463940522366e-06   -3.1157525199346442e-06   1.7835059167103066e-05
-5.915463940522366e-06   -3.1157525199346442e-06   1.7835059167103066e-05
-5.915463940522366e-06   -3.1157525199346442e-06   1.7835059167103066e-05
-5.915463940522366e-06   -3.1157525199346442e-06   1.7835059167103066e-05
-5.872630667862932e-06   -4.601949620032259e-07   1.4512115281600075e-05
-5.872630667862932e-06   -4.601949620032259e-07   1.4512115281600075e-05
-5.872630667862932e-06   -4.601949620032259e-07   1.4512115281600075e-05
-5.872630667862932e-06   -4.601949620032259e-07   1.4512115281600075e-05
-8.146544877848371e-06   -3.2102451183667574e-06   1.9952002392060564e-05
-8.146544877848371e-06   -3.2102451183667574e-06   1.9952002392060564e-05
-8.146544877848371e-06   -3.2102451183667574e-06   1.9952002392060564e-05
-8.146544877848371e-06   -3.2102451183667574e-06   1.9952002392060564e-05
-6.9198475021981565e-06   -1.7076486510951192e-06   1.7005948885613696e-05
-6.9198475021981565e-06   -1.7076486510951192e-06   1.7005948885613696e-05
-6.9198475021981565e-06   -1.7076486510951192e-06   1.7005948885613696e-05
-6.9198475021981565e-06   -1.7076486510951192e-06   1.7005948885613696e-05
-8.146544877848366e-06   -4.6019496200335176e-07   1.616214537541826e-05
-8.146544877848366e-06   -4.6019496200335176e-07   1.616214537541826e-05
-8.146544877848366e-06   -4.6019496200335176e-07   1.616214537541826e-05
-8.146544877848366e-06   -4.6019496200335176e-07   1.616214537541826e-05
-5.872630667862932e-06   -3.2102451183667574e-06   1.8301972298242512e-05
-5.872630667862932e-06   -3.2102451183667574e-06   1.8301972298242512e-05
-5.872630667862932e-06   -3.2102451183667574e-06   1.8301972298242512e-05
-5.872630667862932e-06   -3.2102451183667574e-06   1.8301972298242512e-05
-5.760882263446381e-06   -8.136192119950541e-07   1.5035460557932985e-05
-5.760882263446381e-06   -8.136192119950541e-07   1.5035460557932985e-05
-5.760882263446381e-06   -8.136192119950541e-07   1.5035460557932985e-05
-5.760882263446381e-06   -8.136192119950541e-07   1.5035460557932985e-05
-8.070405268786922e-06   -3.343053705427148e-06   2.0402326262892963e-05
-8.070405268786922e-06   -3.343053705427148e-06   2.0402326262892963e-05
-8.070405268786922e-06   -3.343053705427148e-06   2.0402326262892963e-05
-8.070405268786922e-06   -3.343053705427148e-06   2.0402326262892963e-05
-6.850864606730877e-06   -1.8615026680051218e-06   1.7480827870346334e-05
-6.850864606730877e-06   -1.8615026680051218e-06   1.7480827870346334e-05
-6.850864606730877e-06   -1.8615026680051218e-06   1.7480827870346334e-05
-6.850864606730877e-06   -1.8615026680051218e-06   1.7480827870346334e-05
-5.966350400056508e-06   8.541006357046729e-07   1.0940201469678966e-05
-5.966350400056508e-06   8.541006357046729e-07   1.0940201469678966e-05
-5.966350400056508e-06   8.541006357046729e-07   1.0940201469678966e-05
-5.966350400056508e-06   8.541006357046729e-07   1.0940201469678966e-05
-4.98852419895322e-06   -1.3029831937646933e-06   1.1275661507169425e-05
-4.98852419895322e-06   -1.3029831937646933e-06   1.1275661507169425e-05
-4.98852419895322e-06   -1.3029831937646933e-06   1.1275661507169425e-05
-4.98852419895322e-06   -1.3029831937646933e-06   1.1275661507169425e-05
-4.884163803486918e-06   4.6604284594528936e-07   9.878485324996827e-06
-4.884163803486918e-06   4.6604284594528936e-07   9.878485324996827e-06
-4.884163803486918e-06   4.6604284594528936e-07   9.878485324996827e-06
-4.884163803486918e-06   4.6604284594528936e-07   9.878485324996827e-06
-5.915463940522362e-06   -1.5241325868056645e-06   1.2791424146373033e-05
-5.915463940522362e-06   -1.5241325868056645e-06   1.2791424146373033e-05
-5.915463940522362e-06   -1.5241325868056645e-06   1.2791424146373033e-05
-5.915463940522362e-06   -1.5241325868056645e-06   1.2791424146373033e-05
-5.399064000983233e-06   -2.9745032637825243e-07   1.119474822421795e-05
-5.399064000983233e-06   -2.9745032637825243e-07   1.119474822421795e-05
-5.399064000983233e-06   -2.9745032637825243e-07   1.119474822421795e-05
-5.399064000983233e-06   -2.9745032637825243e-07   1.119474822421795e-05
-5.915463940522366e-06   4.66042845945344e-07   1.1072590584647205e-05
-5.915463940522366e-06   4.66042845945344e-07   1.1072590584647205e-05
-5.915463940522366e-06   4.66042845945344e-07   1.1072590584647205e-05
-5.915463940522366e-06   4.66042845945344e-07   1.1072590584647205e-05
-4.884163803486972e-06   -1.5241325868056103e-06   1.1597318886722412e-05
-4.884163803486972e-06   -1.5241325868056103e-06   1.1597318886722412e-05
-4.884163803486972e-06   -1.5241325868056103e-06   1.1597318886722412e-05
-4.884163803486972e-06   -1.5241325868056103e-06   1.1597318886722412e-05
-4.838777706942584e-06   1.3361936468576658e-07   1.0344760135822255e-05
-4.838777706942584e-06   1.3361936468576658e-07   1.0344760135822255e-05
-4.838777706942584e-06   1.3361936468576658e-07   1.0344760135822255e-05
-4.838777706942584e-06   1.3361936468576658e-07   1.0344760135822255e-05
-5.872630667862924e-06   -1.693605390013658e-06   1.3164183256842452e-05
-5.872630667862924e-06   -1.693605390013658e-06   1.3164183256842452e-05
-5.872630667862924e-06   -1.693605390013658e-06   1.3164183256842452e-05
-5.872630667862924e-06   -1.693605390013658e-06   1.3164183256842452e-05
-5.29548653488874e-06   -5.334561821602871e-07   1.150618684383982e-05
-5.29548653488874e-06   -5.334561821602871e-07   1.150618684383982e-05
-5.29548653488874e-06   -5.334561821602871e-07   1.150618684383982e-05
-5.29548653488874e-06   -5.334561821602871e-07   1.150618684383982e-05
-5.8726306678629045e-06   1.3361936468571258e-07   1.1441094988642007e-05
-5.8726306678629045e-06   1.3361936468571258e-07   1.1441094988642007e-05
-5.8726306678629045e-06   1.3361936468571258e-07   1.1441094988642007e-05
-5.8726306678629045e-06   1.3361936468571258e-07   1.1441094988642007e-05
-4.838777706942584e-06   -1.693605390013658e-06   1.20678484040227e-05
-4.838777706942584e-06   -1.693605390013658e-06   1.20678484040227e-05
-4.838777706942584e-06   -1.693605390013658e-06   1.20678484040227e-05
-4.838777706942584e-06   -1.693605390013658e-06   1.20678484040227e-05
-4.762038496847643e-06   -2.0157457074571148e-07   1.0930300344165044e-05
-4.762038496847643e-06   -2.0157457074571148e-07   1.0930300344165044e-05
-4.762038496847643e-06   -2.0157457074571148e-07   1.0930300344165044e-05
-4.762038496847643e-06   -2.0157457074571148e-07   1.0930300344165044e-05
-5.760882263446382e-06   -1.915586984216561e-06   1.3623447403245516e-05
-5.760882263446382e-06   -1.915586984216561e-06   1.3623447403245516e-05
-5.760882263446382e-06   -1.915586984216561e-06   1.3623447403245516e-05
-5.760882263446382e-06   -1.915586984216561e-06   1.3623447403245516e-05
-5.216205360256849e-06   -7.40554312589532e-07   1.201063296162009e-05
-5.216205360256849e-06   -7.40554312589532e-07   1.201063296162009e-05
-5.216205360256849e-06   -7.40554312589532e-07   1.201063296162009e-05
-5.216205360256849e-06   -7.40554312589532e-07   1.201063296162009e-05
-4.988524198953274e-06   1.4105169282138236e-06   2.517338570268829e-06
-4.988524198953274e-06   1.4105169282138236e-06   2.517338570268829e-06
-4.988524198953274e-06   1.4105169282138236e-06   2.517338570268829e-06
-4.988524198953274e-06   1.4105169282138236e-06   2.517338570268829e-06
-2.906890451840195e-06   -1.438668769743667e-07   5.054097865677689e-06
-2.906890451840195e-06   -1.438668769743667e-07   5.054097865677689e-06
-2.906890451840195e-06   -1.438668769743667e-07   5.054097865677689e-06
-2.906890451840195e-06   -1.438668769743667e-07   5.054097865677689e-06
-3.074188179503492e-06   1.1355340475498708e-06   2.541316338988751e-06
-3.074188179503492e-06   1.1355340475498708e-06   2.541316338988751e-06
-3.074188179503492e-06   1.1355340475498708e-06   2.541316338988751e-06
-3.074188179503492e-06   1.1355340475498708e-06   2.541316338988751e-06
-4.884163803486921e-06   -2.0139807348456933e-07   6.36010165158186e-06
-4.884163803486921e-06   -2.0139807348456933e-07   6.36010165158186e-06
-4.884163803486921e-06   -2.0139807348456933e-07   6.36010165158186e-06
-4.884163803486921e-06   -2.0139807348456933e-07   6.36010165158186e-06
-3.827082221937528e-06   7.255792748960942e-07   4.042112606637773e-06
-3.827082221937528e-06   7.255792748960942e-07   4.042112606637773e-06
-3.827082221937528e-06   7.255792748960942e-07   4.042112606637773e-06
-3.827082221937528e-06   7.255792748960942e-07   4.042112606637773e-06
-4.884163803486972e-06   1.1355340475498562e-06   3.3434756116090683e-06
-4.884163803486972e-06   1.1355340475498562e-06   3.3434756116090683e-06
-4.884163803486972e-06   1.1355340475498562e-06   3.3434756116090683e-06
-4.884163803486972e-06   1.1355340475498562e-06   3.3434756116090683e-06
-3.074188179503492e-06   -2.0139807348462354e-07   5.557942378961109e-06
-3.074188179503492e-06   -2.0139807348462354e-07   5.557942378961109e-06
-3.074188179503492e-06   -2.0139807348462354e-07   5.557942378961109e-06
-3.074188179503492e-06   -2.0139807348462354e-07   5.557942378961109e-06
-3.2118637746385466e-06   9.55818735743773e-07   3.2985962752999634e-06
-3.2118637746385466e-06   9.55818735743773e-07   3.2985962752999634e-06
-3.2118637746385466e-06   9.55818735743773e-07   3.2985962752999634e-06
-3.2118637746385466e-06   9.55818735743773e-07   3.2985962752999634e-06
-4.8387777069425244e-06   -2.7901048761202855e-07   6.751017029820198e-06
-4.8387777069425244e-06   -2.7901048761202855e-07   6.751017029820198e-06
-4.8387777069425244e-06   -2.7901048761202855e-07   6.751017029820198e-06
-4.8387777069425244e-06   -2.7901048761202855e-07   6.751017029820198e-06
-3.89745648415527e-06   5.900622088685558e-07   4.660704707286421e-06
-3.89745648415527e-06   5.900622088685558e-07   4.660704707286421e-06
-3.89745648415527e-06   5.900622088685558e-07   4.660704707286421e-06
-3.89745648415527e-06   5.900622088685558e-07   4.660704707286421e-06
-4.8387777069425295e-06   9.558187357438253e-07   4.039493809313542e-06
-4.8387777069425295e-06   9.558187357438253e-07   4.039493809313542e-06
-4.8387777069425295e-06   9.558187357438253e-07   4.039493809313542e-06
-4.8387777069425295e-06   9.558187357438253e-07   4.039493809313542e-06
-3.2118637746384924e-06   -2.7901048761202855e-07   6.010119495806728e-06
-3.2118637746384924e-06   -2.7901048761202855e-07   6.010119495806728e-06
-3.2118637746384924e-06   -2.7901048761202855e-07   6.010119495806728e-06
-3.2118637746384924e-06   -2.7901048761202855e-07   6.010119495806728e-06
-3.5458712822050557e-06   5.933246454394503e-07   4.652604772133694e-06
-3.5458712822050557e-06   5.933246454394503e-07   4.652604772133694e-06
-3.5458712822050557e-06   5.933246454394503e-07   4.652604772133694e-06
-3.5458712822050557e-06   5.933246454394503e-07   4.652604772133694e-06
-4.762038496847584e-06   -3.741071659228712e-07   7.260009216688429e-06
-4.762038496847584e-06   -3.741071659228712e-07   7.260009216688429e-06
-4.762038496847584e-06   -3.741071659228712e-07   7.260009216688429e-06
-4.762038496847584e-06   -3.741071659228712e-07   7.260009216688429e-06
-3.908786320087177e-06   4.978914527006308e-07   5.314723084246637e-06
-3.908786320087177e-06   4.978914527006308e-07   5.314723084246637e-06
-3.908786320087177e-06   4.978914527006308e-07   5.314723084246637e-06
-3.908786320087177e-06   4.978914527006308e-07   5.314723084246637e-06
-4.575478597352893e-05   3.57252974318305e-06   1.9712683839202594e-05
-4.575478597352893e-05   3.57252974318305e-06   1.9712683839202594e-05
-4.575478597352893e-05   3.57252974318305e-06   1.9712683839202594e-05
-4.575478597352893e-05   3.57252974318305e-06   1.9712683839202594e-05
-1.0744309144113755e-05   -2.248746281620124e-05   6.242748301926401e-05
-1.0744309144113755e-05   -2.248746281620124e-05   6.242748301926401e-05
-1.0744309144113755e-05   -2.248746281620124e-05   6.242748301926401e-05
-1.0744309144113755e-05   -2.248746281620124e-05   6.242748301926401e-05
-1.2619389288083583e-05   1.4390408351685775e-06   1.0810317331992443e-05
-1.2619389288083583e-05   1.4390408351685775e-06   1.0810317331992443e-05
-1.2619389288083583e-05   1.4390408351685775e-06   1.0810317331992443e-05
-1.2619389288083583e-05   1.4390408351685775e-06   1.0810317331992443e-05
-4.172977349425967e-05   -1.7497886965736824e-05   7.068978102282905e-05
-4.172977349425967e-05   -1.7497886965736824e-05   7.068978102282905e-05
-4.172977349425967e-05   -1.7497886965736824e-05   7.068978102282905e-05
-4.172977349425967e-05   -1.7497886965736824e-05   7.068978102282905e-05
-2.7819952855369818e-05   -8.710450065267135e-06   4.223428448439751e-05
-2.7819952855369818e-05   -8.710450065267135e-06   4.223428448439751e-05
-2.7819952855369818e-05   -8.710450065267135e-06   4.223428448439751e-05
-2.7819952855369818e-05   -8.710450065267135e-06   4.223428448439751e-05
-4.1729773494259596e-05   1.4390408351685933e-06   2.2172474012535675e-05
-4.1729773494259596e-05   1.4390408351685933e-06   2.2172474012535675e-05
-4.1729773494259596e-05   1.4390408351685933e-06   2.2172474012535675e-05
-4.1729773494259596e-05   1.4390408351685933e-06   2.2172474012535675e-05
-1.261938928808361e-05   -1.7497886965736824e-05   5.9327624342285814e-05
-1.261938928808361e-05   -1.7497886965736824e-05   5.9327624342285814e-05
-1.261938928808361e-05   -1.7497886965736824e-05   5.9327624342285814e-05
-1.261938928808361e-05   -1.7497886965736824e-05   5.9327624342285814e-05
-1.2908894320397115e-05   1.02971019852341e-06   1.1880013393151498e-05
-1.2908894320397115e-05   1.02971019852341e-06   1.1880013393151498e-05
-1.2908894320397115e-05   1.02971019852341e-06   1.1880013393151498e-05
-1.2908894320397115e-05   1.02971019852341e-06   1.1880013393151498e-05
-3.937411286882936e-05   -1.5096237358579413e-05   6.566427950813352e-05
-3.937411286882936e-05   -1.5096237358579413e-05   6.566427950813352e-05
-3.937411286882936e-05   -1.5096237358579413e-05   6.566427950813352e-05
-3.937411286882936e-05   -1.5096237358579413e-05   6.566427950813352e-05
-2.6991139133333364e-05   -8.254327149293569e-06   4.092084382340203e-05
-2.6991139133333364e-05   -8.254327149293569e-06   4.092084382340203e-05
-2.6991139133333364e-05   -8.254327149293569e-06   4.092084382340203e-05
-2.6991139133333364e-05   -8.254327149293569e-06   4.092084382340203e-05
-3.937411286882929e-05   1.0297101985233997e-06   2.1555581927413164e-05
-3.937411286882929e-05   1.0297101985233997e-06   2.1555581927413164e-05
-3.937411286882929e-05   1.0297101985233997e-06   2.1555581927413164e-05
-3.937411286882929e-05   1.0297101985233997e-06   2.1555581927413164e-05
-1.2908894320397142e-05   -1.5096237358579413e-05   5.598871097387183e-05
-1.2908894320397142e-05   -1.5096237358579413e-05   5.598871097387183e-05
-1.2908894320397142e-05   -1.5096237358579413e-05   5.598871097387183e-05
-1.2908894320397142e-05   -1.5096237358579413e-05   5.598871097387183e-05
-1.414873794569337e-05   -7.127425239471024e-07   1.4872662738980749e-05
-1.414873794569337e-05   -7.127425239471024e-07   1.4872662738980749e-05
-1.414873794569337e-05   -7.127425239471024e-07   1.4872662738980749e-05
-1.414873794569337e-05   -7.127425239471024e-07   1.4872662738980749e-05
-3.6353144398192916e-05   -1.1905192417765173e-05   5.859547676277072e-05
-3.6353144398192916e-05   -1.1905192417765173e-05   5.859547676277072e-05
-3.6353144398192916e-05   -1.1905192417765173e-05   5.859547676277072e-05
-3.6353144398192916e-05   -1.1905192417765173e-05   5.859547676277072e-05
-2.596590003686701e-05   -7.620408181945314e-06   3.871253228573568e-05
-2.596590003686701e-05   -7.620408181945314e-06   3.871253228573568e-05
-2.596590003686701e-05   -7.620408181945314e-06   3.871253228573568e-05
-2.596590003686701e-05   -7.620408181945314e-06   3.871253228573568e-05
-1.0744309144113741e-05   -4.06058116520506e-06   1.1209702363527616e-05
-1.0744309144113741e-05   -4.06058116520506e-06   1.1209702363527616e-05
-1.0744309144113741e-05   -4.06058116520506e-06   1.1209702363527616e-05
-1.0744309144113741e-05   -4.06058116520506e-06   1.1209702363527616e-05
-3.739131741225865e-06   -7.006773540023306e-06   2.111728261011649e-05
-3.739131741225865e-06   -7.006773540023306e-06   2.111728261011649e-05
-3.739131741225865e-06   -7.006773540023306e-06   2.111728261011649e-05
-3.739131741225865e-06   -7.006773540023306e-06   2.111728261011649e-05
-4.181881729781113e-06   -3.328221697204627e-06   9.984349850227474e-06
-4.181881729781113e-06   -3.328221697204627e-06   9.984349850227474e-06
-4.181881729781113e-06   -3.328221697204627e-06   9.984349850227474e-06
-4.181881729781113e-06   -3.328221697204627e-06   9.984349850227474e-06
-1.2619389288083608e-05   -9.274856263448566e-06   2.7614843187144533e-05
-1.2619389288083608e-05   -9.274856263448566e-06   2.7614843187144533e-05
-1.2619389288083608e-05   -9.274856263448566e-06   2.7614843187144533e-05
-1.2619389288083608e-05   -9.274856263448566e-06   2.7614843187144533e-05
-7.413260902103312e-06   -4.853957789077652e-06   1.6285423459221434e-05
-7.413260902103312e-06   -4.853957789077652e-06   1.6285423459221434e-05
-7.413260902103312e-06   -4.853957789077652e-06   1.6285423459221434e-05
-7.413260902103312e-06   -4.853957789077652e-06   1.6285423459221434e-05
-1.2619389288083576e-05   -3.328221697204628e-06   1.3552330589973672e-05
-1.2619389288083576e-05   -3.328221697204628e-06   1.3552330589973672e-05
-1.2619389288083576e-05   -3.328221697204628e-06   1.3552330589973672e-05
-1.2619389288083576e-05   -3.328221697204628e-06   1.3552330589973672e-05
-4.181881729781113e-06   -9.274856263448566e-06   2.404686244739818e-05
-4.181881729781113e-06   -9.274856263448566e-06   2.404686244739818e-05
-4.181881729781113e-06   -9.274856263448566e-06   2.404686244739818e-05
-4.181881729781113e-06   -9.274856263448566e-06   2.404686244739818e-05
-4.561583564053213e-06   -3.4025856942092834e-06   1.1227021877032567e-05
-4.561583564053213e-06   -3.4025856942092834e-06   1.1227021877032567e-05
-4.561583564053213e-06   -3.4025856942092834e-06   1.1227021877032567e-05
-4.561583564053213e-06   -3.4025856942092834e-06   1.1227021877032567e-05
-1.290889432039714e-05   -8.490800601203791e-06   2.8192135415135692e-05
-1.290889432039714e-05   -8.490800601203791e-06   2.8192135415135692e-05
-1.290889432039714e-05   -8.490800601203791e-06   2.8192135415135692e-05
-1.290889432039714e-05   -8.490800601203791e-06   2.8192135415135692e-05
-8.364914401044432e-06   -5.9297499148910666e-06   1.9082205137760367e-05
-8.364914401044432e-06   -5.9297499148910666e-06   1.9082205137760367e-05
-8.364914401044432e-06   -5.9297499148910666e-06   1.9082205137760367e-05
-8.364914401044432e-06   -5.9297499148910666e-06   1.9082205137760367e-05
-1.2908894320397142e-05   -3.4025856942092847e-06   1.4279950821229276e-05
-1.2908894320397142e-05   -3.4025856942092847e-06   1.4279950821229276e-05
-1.2908894320397142e-05   -3.4025856942092847e-06   1.4279950821229276e-05
-1.2908894320397142e-05   -3.4025856942092847e-06   1.4279950821229276e-05
-4.561583564053213e-06   -8.490800601203791e-06   2.5139206470938976e-05
-4.561583564053213e-06   -8.490800601203791e-06   2.5139206470938976e-05
-4.561583564053213e-06   -8.490800601203791e-06   2.5139206470938976e-05
-4.561583564053213e-06   -8.490800601203791e-06   2.5139206470938976e-05
-5.18005125027597e-06   -3.430364818856127e-06   1.2285876566608641e-05
-5.18005125027597e-06   -3.430364818856127e-06   1.2285876566608641e-05
-5.18005125027597e-06   -3.430364818856127e-06   1.2285876566608641e-05
-5.18005125027597e-06   -3.430364818856127e-06   1.2285876566608641e-05
-1.414873794569336e-05   -7.99539314394337e-06   2.997270472068986e-05
-1.414873794569336e-05   -7.99539314394337e-06   2.997270472068986e-05
-1.414873794569336e-05   -7.99539314394337e-06   2.997270472068986e-05
-1.414873794569336e-05   -7.99539314394337e-06   2.997270472068986e-05
-8.923259396561474e-06   -5.414907659758388e-06   1.971528251495911e-05
-8.923259396561474e-06   -5.414907659758388e-06   1.971528251495911e-05
-8.923259396561474e-06   -5.414907659758388e-06   1.971528251495911e-05
-8.923259396561474e-06   -5.414907659758388e-06   1.971528251495911e-05
-3.739131741225865e-06   -3.172471358408977e-06   6.047331257865259e-06
-3.739131741225865e-06   -3.172471358408977e-06   6.047331257865259e-06
-3.739131741225865e-06   -3.172471358408977e-06   6.047331257865259e-06
-3.739131741225865e-06   -3.172471358408977e-06   6.047331257865259e-06
-2.0883549869082202e-06   -1.977756645481674e-06   9.515454676151038e-06
-2.0883549869082202e-06   -1.977756645481674e-06   9.515454676151038e-06
-2.0883549869082202e-06   -1.977756645481674e-06   9.515454676151038e-06
-2.0883549869082202e-06   -1.977756645481674e-06   9.515454676151038e-06
-2.0098941816304873e-06   -3.1157525199346984e-06   6.9440407126052095e-06
-2.0098941816304873e-06   -3.1157525199346984e-06   6.9440407126052095e-06
-2.0098941816304873e-06   -3.1157525199346984e-06   6.9440407126052095e-06
-2.0098941816304873e-06   -3.1157525199346984e-06   6.9440407126052095e-06
-4.1818817297811234e-06   -2.5821708181847314e-06   1.0243870938472874e-05
-4.1818817297811234e-06   -2.5821708181847314e-06   1.0243870938472874e-05
-4.1818817297811234e-06   -2.5821708181847314e-06   1.0243870938472874e-05
-4.1818817297811234e-06   -2.5821708181847314e-06   1.0243870938472874e-05
-2.8144191699542776e-06   -2.5637812587605343e-06   7.953732936440215e-06
-2.8144191699542776e-06   -2.5637812587605343e-06   7.953732936440215e-06
-2.8144191699542776e-06   -2.5637812587605343e-06   7.953732936440215e-06
-2.8144191699542776e-06   -2.5637812587605343e-06   7.953732936440215e-06
-4.18188172978114e-06   -3.1157525199346997e-06   6.623891691555237e-06
-4.18188172978114e-06   -3.1157525199346997e-06   6.623891691555237e-06
-4.18188172978114e-06   -3.1157525199346997e-06   6.623891691555237e-06
-4.18188172978114e-06   -3.1157525199346997e-06   6.623891691555237e-06
-2.0098941816304873e-06   -2.5821708181847246e-06   1.056401995952282e-05
-2.0098941816304873e-06   -2.5821708181847246e-06   1.056401995952282e-05
-2.0098941816304873e-06   -2.5821708181847246e-06   1.056401995952282e-05
-2.0098941816304873e-06   -2.5821708181847246e-06   1.056401995952282e-05
-2.0162141079548652e-06   -3.2102451183667574e-06   7.4264381388588455e-06
-2.0162141079548652e-06   -3.2102451183667574e-06   7.4264381388588455e-06
-2.0162141079548652e-06   -3.2102451183667574e-06   7.4264381388588455e-06
-2.0162141079548652e-06   -3.2102451183667574e-06   7.4264381388588455e-06
-4.561583564053215e-06   -3.308148206220936e-06   1.1727462418401833e-05
-4.561583564053215e-06   -3.308148206220936e-06   1.1727462418401833e-05
-4.561583564053215e-06   -3.308148206220936e-06   1.1727462418401833e-05
-4.561583564053215e-06   -3.308148206220936e-06   1.1727462418401833e-05
-2.987891011880797e-06   -2.802979299139981e-06   8.801540153865876e-06
-2.987891011880797e-06   -2.802979299139981e-06   8.801540153865876e-06
-2.987891011880797e-06   -2.802979299139981e-06   8.801540153865876e-06
-2.987891011880797e-06   -2.802979299139981e-06   8.801540153865876e-06
-4.56158356405324e-06   -3.210245118366747e-06   7.485179991571344e-06
-4.56158356405324e-06   -3.210245118366747e-06   7.485179991571344e-06
-4.56158356405324e-06   -3.210245118366747e-06   7.485179991571344e-06
-4.56158356405324e-06   -3.210245118366747e-06   7.485179991571344e-06
-2.0162141079548652e-06   -3.308148206220936e-06   1.1668720565689308e-05
-2.0162141079548652e-06   -3.308148206220936e-06   1.1668720565689308e-05
-2.0162141079548652e-06   -3.308148206220936e-06   1.1668720565689308e-05
-2.0162141079548652e-06   -3.308148206220936e-06   1.1668720565689308e-05
-2.0521590249520337e-06   -3.3430537054272022e-06   8.149408657404838e-06
-2.0521590249520337e-06   -3.3430537054272022e-06   8.149408657404838e-06
-2.0521590249520337e-06   -3.3430537054272022e-06   8.149408657404838e-06
-2.0521590249520337e-06   -3.3430537054272022e-06   8.149408657404838e-06
-5.180051250275988e-06   -3.997652482881434e-06   1.375532163275055e-05
-5.180051250275988e-06   -3.997652482881434e-06   1.375532163275055e-05
-5.180051250275988e-06   -3.997652482881434e-06   1.375532163275055e-05
-5.180051250275988e-06   -3.997652482881434e-06   1.375532163275055e-05
-3.186217932908572e-06   -3.058273750352529e-06   9.868638864287543e-06
-3.186217932908572e-06   -3.058273750352529e-06   9.868638864287543e-06
-3.186217932908572e-06   -3.058273750352529e-06   9.868638864287543e-06
-3.186217932908572e-06   -3.058273750352529e-06   9.868638864287543e-06
-2.0883549869082202e-06   -1.3029831937646588e-06   1.744404140622554e-06
-2.0883549869082202e-06   -1.3029831937646588e-06   1.744404140622554e-06
-2.0883549869082202e-06   -1.3029831937646588e-06   1.744404140622554e-06
-2.0883549869082202e-06   -1.3029831937646588e-06   1.744404140622554e-06
-1.5563209119820432e-06   3.1726697443286027e-07   3.603277699751404e-06
-1.5563209119820432e-06   3.1726697443286027e-07   3.603277699751404e-06
-1.5563209119820432e-06   3.1726697443286027e-07   3.603277699751404e-06
-1.5563209119820432e-06   3.1726697443286027e-07   3.603277699751404e-06
-1.2618860263769014e-06   -1.5241325868056103e-06   2.8741665683449866e-06
-1.2618860263769014e-06   -1.5241325868056103e-06   2.8741665683449866e-06
-1.2618860263769014e-06   -1.5241325868056103e-06   2.8741665683449866e-06
-1.2618860263769014e-06   -1.5241325868056103e-06   2.8741665683449866e-06
-2.009894181630485e-06   9.880220731054332e-08   3.1470859506309463e-06
-2.009894181630485e-06   9.880220731054332e-08   3.1470859506309463e-06
-2.009894181630485e-06   9.880220731054332e-08   3.1470859506309463e-06
-2.009894181630485e-06   9.880220731054332e-08   3.1470859506309463e-06
-1.622190437887991e-06   -6.191171692794485e-07   2.931664670347261e-06
-1.622190437887991e-06   -6.191171692794485e-07   2.931664670347261e-06
-1.622190437887991e-06   -6.191171692794485e-07   2.931664670347261e-06
-1.622190437887991e-06   -6.191171692794485e-07   2.931664670347261e-06
-2.0098941816304873e-06   -1.5241325868056384e-06   1.9004056918751596e-06
-2.0098941816304873e-06   -1.5241325868056384e-06   1.9004056918751596e-06
-2.0098941816304873e-06   -1.5241325868056384e-06   1.9004056918751596e-06
-2.0098941816304873e-06   -1.5241325868056384e-06   1.9004056918751596e-06
-1.2618860263769556e-06   9.880220731054332e-08   4.120846827100719e-06
-1.2618860263769556e-06   9.880220731054332e-08   4.120846827100719e-06
-1.2618860263769556e-06   9.880220731054332e-08   4.120846827100719e-06
-1.2618860263769556e-06   9.880220731054332e-08   4.120846827100719e-06
-1.1014484064615269e-06   -1.693605390013658e-06   3.1576808728811306e-06
-1.1014484064615269e-06   -1.693605390013658e-06   3.1576808728811306e-06
-1.1014484064615269e-06   -1.693605390013658e-06   3.1576808728811306e-06
-1.1014484064615269e-06   -1.693605390013658e-06   3.1576808728811306e-06
-2.016214107954874e-06   -2.452190976429335e-07   3.8132585999475256e-06
-2.016214107954874e-06   -2.452190976429335e-07   3.8132585999475256e-06
-2.016214107954874e-06   -2.452190976429335e-07   3.8132585999475256e-06
-2.016214107954874e-06   -2.452190976429335e-07   3.8132585999475256e-06
-1.472760593259814e-06   -7.914471730885019e-07   3.235239587389782e-06
-1.472760593259814e-06   -7.914471730885019e-07   3.235239587389782e-06
-1.472760593259814e-06   -7.914471730885019e-07   3.235239587389782e-06
-1.472760593259814e-06   -7.914471730885019e-07   3.235239587389782e-06
-2.0162141079548652e-06   -1.6936053900136654e-06   2.288649097458782e-06
-2.0162141079548652e-06   -1.6936053900136654e-06   2.288649097458782e-06
-2.0162141079548652e-06   -1.6936053900136654e-06   2.288649097458782e-06
-2.0162141079548652e-06   -1.6936053900136654e-06   2.288649097458782e-06
-1.101448406461581e-06   -2.452190976429335e-07   4.682290375369956e-06
-1.101448406461581e-06   -2.452190976429335e-07   4.682290375369956e-06
-1.101448406461581e-06   -2.452190976429335e-07   4.682290375369956e-06
-1.101448406461581e-06   -2.452190976429335e-07   4.682290375369956e-06
-8.555187765157415e-07   -1.915586984216561e-06   3.4681945256000157e-06
-8.555187765157415e-07   -1.915586984216561e-06   3.4681945256000157e-06
-8.555187765157415e-07   -1.915586984216561e-06   3.4681945256000157e-06
-8.555187765157415e-07   -1.915586984216561e-06   3.4681945256000157e-06
-2.0521590249520418e-06   -9.489135979112224e-07   4.882590907877152e-06
-2.0521590249520418e-06   -9.489135979112224e-07   4.882590907877152e-06
-2.0521590249520418e-06   -9.489135979112224e-07   4.882590907877152e-06
-2.0521590249520418e-06   -9.489135979112224e-07   4.882590907877152e-06
-1.3522418172976733e-06   -1.0539322884908916e-06   3.779073442800973e-06
-1.3522418172976733e-06   -1.0539322884908916e-06   3.779073442800973e-06
-1.3522418172976733e-06   -1.0539322884908916e-06   3.779073442800973e-06
-1.3522418172976733e-06   -1.0539322884908916e-06   3.779073442800973e-06
-1.5563209119820432e-06   -1.438668769744084e-07   -2.5723791168377785e-06
-1.5563209119820432e-06   -1.438668769744084e-07   -2.5723791168377785e-06
-1.5563209119820432e-06   -1.438668769744084e-07   -2.5723791168377785e-06
-1.5563209119820432e-06   -1.438668769744084e-07   -2.5723791168377785e-06
-2.9531709842914875e-07   2.205037691411363e-07   -2.5208370658019773e-07
-2.9531709842914875e-07   2.205037691411363e-07   -2.5208370658019773e-07
-2.9531709842914875e-07   2.205037691411363e-07   -2.5208370658019773e-07
-2.9531709842914875e-07   2.205037691411363e-07   -2.5208370658019773e-07
-6.403705286905145e-09   -2.0139807348462354e-07   -2.0138797499289754e-06
-6.403705286905145e-09   -2.0139807348462354e-07   -2.0138797499289754e-06
-6.403705286905145e-09   -2.0139807348462354e-07   -2.0138797499289754e-06
-6.403705286905145e-09   -2.0139807348462354e-07   -2.0138797499289754e-06
-1.261886026376946e-06   3.805534546266885e-07   -2.7058013164586985e-07
-1.261886026376946e-06   3.805534546266885e-07   -2.7058013164586985e-07
-1.261886026376946e-06   3.805534546266885e-07   -2.7058013164586985e-07
-1.261886026376946e-06   3.805534546266885e-07   -2.7058013164586985e-07
-7.129174029084184e-07   1.0265892573307553e-07   -1.0187911200907522e-06
-7.129174029084184e-07   1.0265892573307553e-07   -1.0187911200907522e-06
-7.129174029084184e-07   1.0265892573307553e-07   -1.0187911200907522e-06
-7.129174029084184e-07   1.0265892573307553e-07   -1.0187911200907522e-06
-1.2618860263769014e-06   -2.0139807348458685e-07   -2.3630506667958364e-06
-1.2618860263769014e-06   -2.0139807348458685e-07   -2.3630506667958364e-06
-1.2618860263769014e-06   -2.0139807348458685e-07   -2.3630506667958364e-06
-1.2618860263769014e-06   -2.0139807348458685e-07   -2.3630506667958364e-06
-6.403705286959355e-09   3.805534546266885e-07   7.85907852209099e-08
-6.403705286959355e-09   3.805534546266885e-07   7.85907852209099e-08
-6.403705286959355e-09   3.805534546266885e-07   7.85907852209099e-08
-6.403705286959355e-09   3.805534546266885e-07   7.85907852209099e-08
1.4375199177991006e-07   -2.7901048761197434e-07   -1.7978589533412847e-06
1.4375199177991006e-07   -2.7901048761197434e-07   -1.7978589533412847e-06
1.4375199177991006e-07   -2.7901048761197434e-07   -1.7978589533412847e-06
1.4375199177991006e-07   -2.7901048761197434e-07   -1.7978589533412847e-06
-1.101448406461579e-06   3.2314209235480954e-07   -8.381650425245361e-08
-1.101448406461579e-06   3.2314209235480954e-07   -8.381650425245361e-08
-1.101448406461579e-06   3.2314209235480954e-07   -8.381650425245361e-08
-1.101448406461579e-06   3.2314209235480954e-07   -8.381650425245361e-08
-5.000405582307326e-07   6.682642769812136e-08   -9.323735191761303e-07
-5.000405582307326e-07   6.682642769812136e-08   -9.323735191761303e-07
-5.000405582307326e-07   6.682642769812136e-08   -9.323735191761303e-07
-5.000405582307326e-07   6.682642769812136e-08   -9.323735191761303e-07
-1.101448406461581e-06   -2.790104876120219e-07   -2.159150501321479e-06
-1.101448406461581e-06   -2.790104876120219e-07   -2.159150501321479e-06
-1.101448406461581e-06   -2.790104876120219e-07   -2.159150501321479e-06
-1.101448406461581e-06   -2.790104876120219e-07   -2.159150501321479e-06
1.4375199177991006e-07   3.2314209235480954e-07   2.7747504372779494e-07
1.4375199177991006e-07   3.2314209235480954e-07   2.7747504372779494e-07
1.4375199177991006e-07   3.2314209235480954e-07   2.7747504372779494e-07
1.4375199177991006e-07   3.2314209235480954e-07   2.7747504372779494e-07
3.298218964351636e-07   -3.741071659228712e-07   -1.4791993306454993e-06
3.298218964351636e-07   -3.741071659228712e-07   -1.4791993306454993e-06
3.298218964351636e-07   -3.741071659228712e-07   -1.4791993306454993e-06
3.298218964351636e-07   -3.741071659228712e-07   -1.4791993306454993e-06
-8.555187765157433e-07   2.719543044588652e-07   1.0873157537674098e-07
-8.555187765157433e-07   2.719543044588652e-07   1.0873157537674098e-07
-8.555187765157433e-07   2.719543044588652e-07   1.0873157537674098e-07
-8.555187765157433e-07   2.719543044588652e-07   1.0873157537674098e-07
-3.0764843935729224e-07   2.2942660862258768e-08   -6.549786670628603e-07
-3.0764843935729224e-07   2.2942660862258768e-08   -6.549786670628603e-07
-3.0764843935729224e-07   2.2942660862258768e-08   -6.549786670628603e-07
-3.0764843935729224e-07   2.2942660862258768e-08   -6.549786670628603e-07
              </DataArray>   
             <DataArray type="Float64" NumberOfComponents="3" Name="Stress" format="ascii">   
-2.377121953190226   -0.5942804882975565   -0.5942804882975565
-2.377121953190226   -0.5942804882975565   -0.5942804882975565
-2.377121953190226   -0.5942804882975565   -0.5942804882975565
-2.377121953190226   -0.5942804882975565   -0.5942804882975565
-1.3755014091423918   -0.04382676782568795   -0.02767523786183025
-1.3755014091423918   -0.04382676782568795   -0.02767523786183025
-1.3755014091423918   -0.04382676782568795   -0.02767523786183025
-1.3755014091423918   -0.04382676782568795   -0.02767523786183025
-1.4824257224739914   -0.37060643061849785   -0.37060643061849785
-1.4824257224739914   -0.37060643061849785   -0.37060643061849785
-1.4824257224739914   -0.37060643061849785   -0.37060643061849785
-1.4824257224739914   -0.37060643061849785   -0.37060643061849785
-2.290956135952677   -0.18833190986602916   -0.0720850826523373
-2.290956135952677   -0.18833190986602916   -0.0720850826523373
-2.290956135952677   -0.18833190986602916   -0.0720850826523373
-2.290956135952677   -0.18833190986602916   -0.0720850826523373
-1.7967270972933775   -0.2946783841851104   -0.0049748320373032735
-1.7967270972933775   -0.2946783841851104   -0.0049748320373032735
-1.7967270972933775   -0.2946783841851104   -0.0049748320373032735
-1.7967270972933775   -0.2946783841851104   -0.0049748320373032735
-2.487636374943342   -0.6219090937358355   -0.6219090937358355
-2.487636374943342   -0.6219090937358355   -0.6219090937358355
-2.487636374943342   -0.6219090937358355   -0.6219090937358355
-2.487636374943342   -0.6219090937358355   -0.6219090937358355
-1.3324086234541854   0.01630761328045338   -0.007434979418418516
-1.3324086234541854   0.01630761328045338   -0.007434979418418516
-1.3324086234541854   0.01630761328045338   -0.007434979418418516
-1.3324086234541854   0.01630761328045338   -0.007434979418418516
-1.4864890328713722   -0.37162225821784306   -0.37162225821784306
-1.4864890328713722   -0.37162225821784306   -0.37162225821784306
-1.4864890328713722   -0.37162225821784306   -0.37162225821784306
-1.4864890328713722   -0.37162225821784306   -0.37162225821784306
-2.3678189509279908   -0.19010149378545393   -0.1056127101125934
-2.3678189509279908   -0.19010149378545393   -0.1056127101125934
-2.3678189509279908   -0.19010149378545393   -0.1056127101125934
-2.3678189509279908   -0.19010149378545393   -0.1056127101125934
-1.8636149619070108   -0.27740188490118095   -0.09889075705078224
-1.8636149619070108   -0.27740188490118095   -0.09889075705078224
-1.8636149619070108   -0.27740188490118095   -0.09889075705078224
-1.8636149619070108   -0.27740188490118095   -0.09889075705078224
-2.56519567794265   -0.6412989194856625   -0.6412989194856625
-2.56519567794265   -0.6412989194856625   -0.6412989194856625
-2.56519567794265   -0.6412989194856625   -0.6412989194856625
-2.56519567794265   -0.6412989194856625   -0.6412989194856625
-1.3284265101179942   0.04026096322108541   0.006807134110106833
-1.3284265101179942   0.04026096322108541   0.006807134110106833
-1.3284265101179942   0.04026096322108541   0.006807134110106833
-1.3284265101179942   0.04026096322108541   0.006807134110106833
-1.4855753673111127   -0.3713938418277782   -0.3713938418277782
-1.4855753673111127   -0.3713938418277782   -0.3713938418277782
-1.4855753673111127   -0.3713938418277782   -0.3713938418277782
-1.4855753673111127   -0.3713938418277782   -0.3713938418277782
-2.505172838553746   -0.16665523203848392   -0.06342568805087011
-2.505172838553746   -0.16665523203848392   -0.06342568805087011
-2.505172838553746   -0.16665523203848392   -0.06342568805087011
-2.505172838553746   -0.16665523203848392   -0.06342568805087011
-1.913197283960077   -0.27304929652331006   -0.1787022714561246
-1.913197283960077   -0.27304929652331006   -0.1787022714561246
-1.913197283960077   -0.27304929652331006   -0.1787022714561246
-1.913197283960077   -0.27304929652331006   -0.1787022714561246
-1.5124455644498782   -0.37811139111246955   -0.37811139111246955
-1.5124455644498782   -0.37811139111246955   -0.37811139111246955
-1.5124455644498782   -0.37811139111246955   -0.37811139111246955
-1.5124455644498782   -0.37811139111246955   -0.37811139111246955
-0.6311901986611693   -0.04216141828687747   -0.013687174530536216
-0.6311901986611693   -0.04216141828687747   -0.013687174530536216
-0.6311901986611693   -0.04216141828687747   -0.013687174530536216
-0.6311901986611693   -0.04216141828687747   -0.013687174530536216
-0.6624710583305562   -0.16561776458263905   -0.16561776458263905
-0.6624710583305562   -0.16561776458263905   -0.16561776458263905
-0.6624710583305562   -0.16561776458263905   -0.16561776458263905
-0.6624710583305562   -0.16561776458263905   -0.16561776458263905
-1.3769113827079256   -0.16204106949738972   -0.05160009290927699
-1.3769113827079256   -0.16204106949738972   -0.05160009290927699
-1.3769113827079256   -0.16204106949738972   -0.05160009290927699
-1.3769113827079256   -0.16204106949738972   -0.05160009290927699
-1.0156196705867828   -0.19245232562206022   0.007916373944117903
-1.0156196705867828   -0.19245232562206022   0.007916373944117903
-1.0156196705867828   -0.19245232562206022   0.007916373944117903
-1.0156196705867828   -0.19245232562206022   0.007916373944117903
-1.48242572247399   -0.3706064306184975   -0.3706064306184975
-1.48242572247399   -0.3706064306184975   -0.3706064306184975
-1.48242572247399   -0.3706064306184975   -0.3706064306184975
-1.48242572247399   -0.3706064306184975   -0.3706064306184975
-0.5954017903741995   0.004502524728759727   -0.0003917141122539228
-0.5954017903741995   0.004502524728759727   -0.0003917141122539228
-0.5954017903741995   0.004502524728759727   -0.0003917141122539228
-0.5954017903741995   0.004502524728759727   -0.0003917141122539228
-0.6475732239254082   -0.16189330598135204   -0.16189330598135204
-0.6475732239254082   -0.16189330598135204   -0.16189330598135204
-0.6475732239254082   -0.16189330598135204   -0.16189330598135204
-0.6475732239254082   -0.16189330598135204   -0.16189330598135204
-1.3733348669520793   -0.13215994672094425   -0.04531374011827683
-1.3733348669520793   -0.13215994672094425   -0.04531374011827683
-1.3733348669520793   -0.13215994672094425   -0.04531374011827683
-1.3733348669520793   -0.13215994672094425   -0.04531374011827683
-1.0013673556336267   -0.16199610130930636   -0.05234304746017547
-1.0013673556336267   -0.16199610130930636   -0.05234304746017547
-1.0013673556336267   -0.16199610130930636   -0.05234304746017547
-1.0013673556336267   -0.16199610130930636   -0.05234304746017547
-1.4864890328713722   -0.37162225821784306   -0.37162225821784306
-1.4864890328713722   -0.37162225821784306   -0.37162225821784306
-1.4864890328713722   -0.37162225821784306   -0.37162225821784306
-1.4864890328713722   -0.37162225821784306   -0.37162225821784306
-0.5716553889221335   0.04033267459952938   0.015469888454145486
-0.5716553889221335   0.04033267459952938   0.015469888454145486
-0.5716553889221335   0.04033267459952938   0.015469888454145486
-0.5716553889221335   0.04033267459952938   0.015469888454145486
-0.6339881862042661   -0.15849704655106653   -0.15849704655106653
-0.6339881862042661   -0.15849704655106653   -0.15849704655106653
-0.6339881862042661   -0.15849704655106653   -0.15849704655106653
-0.6339881862042661   -0.15849704655106653   -0.15849704655106653
-1.3631213598300307   -0.10194468147803809   -0.02857296477212512
-1.3631213598300307   -0.10194468147803809   -0.02857296477212512
-1.3631213598300307   -0.10194468147803809   -0.02857296477212512
-1.3631213598300307   -0.10194468147803809   -0.02857296477212512
-1.0061998497185476   -0.14332482000702063   -0.11660068566553322
-1.0061998497185476   -0.14332482000702063   -0.11660068566553322
-1.0061998497185476   -0.14332482000702063   -0.11660068566553322
-1.0061998497185476   -0.14332482000702063   -0.11660068566553322
-0.6889116445529863   -0.17222791113824656   -0.17222791113824656
-0.6889116445529863   -0.17222791113824656   -0.17222791113824656
-0.6889116445529863   -0.17222791113824656   -0.17222791113824656
-0.6889116445529863   -0.17222791113824656   -0.17222791113824656
0.0813507433566353   0.005253780612692752   0.0006719908599134555
0.0813507433566353   0.005253780612692752   0.0006719908599134555
0.0813507433566353   0.005253780612692752   0.0006719908599134555
0.0813507433566353   0.005253780612692752   0.0006719908599134555
0.10600427729026064   0.02650106932256516   0.02650106932256516
0.10600427729026064   0.02650106932256516   0.02650106932256516
0.10600427729026064   0.02650106932256516   0.02650106932256516
0.10600427729026064   0.02650106932256516   0.02650106932256516
-0.6227713141720651   -0.10763807866456891   -0.02509872970825352
-0.6227713141720651   -0.10763807866456891   -0.02509872970825352
-0.6227713141720651   -0.10763807866456891   -0.02509872970825352
-0.6227713141720651   -0.10763807866456891   -0.02509872970825352
-0.2668055241320783   -0.06767420258648316   0.04518815826722095
-0.2668055241320783   -0.06767420258648316   0.04518815826722095
-0.2668055241320783   -0.06767420258648316   0.04518815826722095
-0.2668055241320783   -0.06767420258648316   0.04518815826722095
-0.6624710583305574   -0.16561776458263935   -0.16561776458263935
-0.6624710583305574   -0.16561776458263935   -0.16561776458263935
-0.6624710583305574   -0.16561776458263935   -0.16561776458263935
-0.6624710583305574   -0.16561776458263935   -0.16561776458263935
0.10791160598242597   0.04668833977430934   0.015850442331646744
0.10791160598242597   0.04668833977430934   0.015850442331646744
0.10791160598242597   0.04668833977430934   0.015850442331646744
0.10791160598242597   0.04668833977430934   0.015850442331646744
0.11938312812849994   0.029845782032124984   0.029845782032124984
0.11938312812849994   0.029845782032124984   0.029845782032124984
0.11938312812849994   0.029845782032124984   0.029845782032124984
0.11938312812849994   0.029845782032124984   0.029845782032124984
-0.6006670630943777   -0.07242544517126215   -0.01683036263629415
-0.6006670630943777   -0.07242544517126215   -0.01683036263629415
-0.6006670630943777   -0.07242544517126215   -0.01683036263629415
-0.6006670630943777   -0.07242544517126215   -0.01683036263629415
-0.25584670336341386   -0.041811740801088376   -0.015473933061353978
-0.25584670336341386   -0.041811740801088376   -0.015473933061353978
-0.25584670336341386   -0.041811740801088376   -0.015473933061353978
-0.25584670336341386   -0.041811740801088376   -0.015473933061353978
-0.6475732239254094   -0.16189330598135235   -0.16189330598135235
-0.6475732239254094   -0.16189330598135235   -0.16189330598135235
-0.6475732239254094   -0.16189330598135235   -0.16189330598135235
-0.6475732239254094   -0.16189330598135235   -0.16189330598135235
0.12925780138588594   0.08228215526857104   0.026782775082608137
0.12925780138588594   0.08228215526857104   0.026782775082608137
0.12925780138588594   0.08228215526857104   0.026782775082608137
0.12925780138588594   0.08228215526857104   0.026782775082608137
0.13734546670736067   0.03433636667684017   0.03433636667684017
0.13734546670736067   0.03433636667684017   0.03433636667684017
0.13734546670736067   0.03433636667684017   0.03433636667684017
0.13734546670736067   0.03433636667684017   0.03433636667684017
-0.5766127565058404   -0.03044068718958784   0.000323742579580677
-0.5766127565058404   -0.03044068718958784   0.000323742579580677
-0.5766127565058404   -0.03044068718958784   0.000323742579580677
-0.5766127565058404   -0.03044068718958784   0.000323742579580677
-0.24809720203678712   -0.016879328479132545   -0.07559422796419611
-0.24809720203678712   -0.016879328479132545   -0.07559422796419611
-0.24809720203678712   -0.016879328479132545   -0.07559422796419611
-0.24809720203678712   -0.016879328479132545   -0.07559422796419611
0.08907287673568245   0.022268219183920614   0.022268219183920614
0.08907287673568245   0.022268219183920614   0.022268219183920614
0.08907287673568245   0.022268219183920614   0.022268219183920614
0.08907287673568245   0.022268219183920614   0.022268219183920614
0.8614325263236826   0.07905281348569088   0.026625518570970452
0.8614325263236826   0.07905281348569088   0.026625518570970452
0.8614325263236826   0.07905281348569088   0.026625518570970452
0.8614325263236826   0.07905281348569088   0.026625518570970452
0.935456586551471   0.23386414663786775   0.23386414663786775
0.935456586551471   0.23386414663786775   0.23386414663786775
0.935456586551471   0.23386414663786775   0.23386414663786775
0.935456586551471   0.23386414663786775   0.23386414663786775
0.08074888210857106   -0.06064641645923373   -0.012628420804084701
0.08074888210857106   -0.06064641645923373   -0.012628420804084701
0.08074888210857106   -0.06064641645923373   -0.012628420804084701
0.08074888210857106   -0.06064641645923373   -0.012628420804084701
0.49110634046149576   0.06114895784692246   0.0891914520644609
0.49110634046149576   0.06114895784692246   0.0891914520644609
0.49110634046149576   0.06114895784692246   0.0891914520644609
0.49110634046149576   0.06114895784692246   0.0891914520644609
0.10600427729026102   0.026501069322565254   0.026501069322565254
0.10600427729026102   0.026501069322565254   0.026501069322565254
0.10600427729026102   0.026501069322565254   0.026501069322565254
0.10600427729026102   0.026501069322565254   0.026501069322565254
0.871783397064215   0.1082988665505039   0.04106347928895948
0.871783397064215   0.1082988665505039   0.04106347928895948
0.871783397064215   0.1082988665505039   0.04106347928895948
0.871783397064215   0.1082988665505039   0.04106347928895948
0.9315649497310352   0.2328912374327588   0.2328912374327588
0.9315649497310352   0.2328912374327588   0.2328912374327588
0.9315649497310352   0.2328912374327588   0.2328912374327588
0.9315649497310352   0.2328912374327588   0.2328912374327588
0.10222976441956674   -0.02620971712052483   0.0001344626401078991
0.10222976441956674   -0.02620971712052483   0.0001344626401078991
0.10222976441956674   -0.02620971712052483   0.0001344626401078991
0.10222976441956674   -0.02620971712052483   0.0001344626401078991
0.4875989198480507   0.08029640984997112   0.023167428592365414
0.4875989198480507   0.08029640984997112   0.023167428592365414
0.4875989198480507   0.08029640984997112   0.023167428592365414
0.4875989198480507   0.08029640984997112   0.023167428592365414
0.11938312812850013   0.029845782032125033   0.029845782032125033
0.11938312812850013   0.029845782032125033   0.029845782032125033
0.11938312812850013   0.029845782032125033   0.029845782032125033
0.11938312812850013   0.029845782032125033   0.029845782032125033
0.8763636507613757   0.1387878030193843   0.05098817699784268
0.8763636507613757   0.1387878030193843   0.05098817699784268
0.8763636507613757   0.1387878030193843   0.05098817699784268
0.8763636507613757   0.1387878030193843   0.05098817699784268
0.949716855786986   0.2374292139467465   0.2374292139467465
0.949716855786986   0.2374292139467465   0.2374292139467465
0.949716855786986   0.2374292139467465   0.2374292139467465
0.949716855786986   0.2374292139467465   0.2374292139467465
0.13036156824104908   0.019338453018495756   0.014414788003625702
0.13036156824104908   0.019338453018495756   0.014414788003625702
0.13036156824104908   0.019338453018495756   0.014414788003625702
0.13036156824104908   0.019338453018495756   0.014414788003625702
0.4952765496249277   0.10895866267196072   -0.03805087835716599
0.4952765496249277   0.10895866267196072   -0.03805087835716599
0.4952765496249277   0.10895866267196072   -0.03805087835716599
0.4952765496249277   0.10895866267196072   -0.03805087835716599
0.9336631776803924   0.2334157944200981   0.2334157944200981
0.9336631776803924   0.2334157944200981   0.2334157944200981
0.9336631776803924   0.2334157944200981   0.2334157944200981
0.9336631776803924   0.2334157944200981   0.2334157944200981
1.9374285300673946   0.14771958168360955   0.05080307182439392
1.9374285300673946   0.14771958168360955   0.05080307182439392
1.9374285300673946   0.14771958168360955   0.05080307182439392
1.9374285300673946   0.14771958168360955   0.05080307182439392
1.980472001339325   0.4951180003348313   0.4951180003348313
1.980472001339325   0.4951180003348313   0.4951180003348313
1.980472001339325   0.4951180003348313   0.4951180003348313
1.980472001339325   0.4951180003348313   0.4951180003348313
0.8315521095797849   -0.047194136756450095   -0.004599954826237429
0.8315521095797849   -0.047194136756450095   -0.004599954826237429
0.8315521095797849   -0.047194136756450095   -0.004599954826237429
0.8315521095797849   -0.047194136756450095   -0.004599954826237429
1.381663930677481   0.19559366624072944   0.15592183435231127
1.381663930677481   0.19559366624072944   0.15592183435231127
1.381663930677481   0.19559366624072944   0.15592183435231127
1.381663930677481   0.19559366624072944   0.15592183435231127
0.9354565865514701   0.23386414663786753   0.23386414663786753
0.9354565865514701   0.23386414663786753   0.23386414663786753
0.9354565865514701   0.23386414663786753   0.23386414663786753
0.9354565865514701   0.23386414663786753   0.23386414663786753
1.8353842437678158   0.17287643634068917   0.09192077647142785
1.8353842437678158   0.17287643634068917   0.09192077647142785
1.8353842437678158   0.17287643634068917   0.09192077647142785
1.8353842437678158   0.17287643634068917   0.09192077647142785
1.9214471050000126   0.48036177625000315   0.48036177625000315
1.9214471050000126   0.48036177625000315   0.48036177625000315
1.9214471050000126   0.48036177625000315   0.48036177625000315
1.9214471050000126   0.48036177625000315   0.48036177625000315
0.8345691311683557   -0.025964558956299844   0.006767941008426974
0.8345691311683557   -0.025964558956299844   0.006767941008426974
0.8345691311683557   -0.025964558956299844   0.006767941008426974
0.8345691311683557   -0.025964558956299844   0.006767941008426974
1.340813739585494   0.20127686177545887   0.07475853016117537
1.340813739585494   0.20127686177545887   0.07475853016117537
1.340813739585494   0.20127686177545887   0.07475853016117537
1.340813739585494   0.20127686177545887   0.07475853016117537
0.9315649497310352   0.2328912374327588   0.2328912374327588
0.9315649497310352   0.2328912374327588   0.2328912374327588
0.9315649497310352   0.2328912374327588   0.2328912374327588
0.9315649497310352   0.2328912374327588   0.2328912374327588
1.7764239703714362   0.17347866379504898   0.06212921556209058
1.7764239703714362   0.17347866379504898   0.06212921556209058
1.7764239703714362   0.17347866379504898   0.06212921556209058
1.7764239703714362   0.17347866379504898   0.06212921556209058
1.8334954065100437   0.45837385162751093   0.45837385162751093
1.8334954065100437   0.45837385162751093   0.45837385162751093
1.8334954065100437   0.45837385162751093   0.45837385162751093
1.8334954065100437   0.45837385162751093   0.45837385162751093
0.8655697830850999   0.027542684604469347   0.026580379779604514
0.8655697830850999   0.027542684604469347   0.026580379779604514
0.8655697830850999   0.027542684604469347   0.026580379779604514
0.8655697830850999   0.027542684604469347   0.026580379779604514
1.284003060529086   0.21828137335568512   -0.019651872252671974
1.284003060529086   0.21828137335568512   -0.019651872252671974
1.284003060529086   0.21828137335568512   -0.019651872252671974
1.284003060529086   0.21828137335568512   -0.019651872252671974
-1.8777750725157965   -0.13448224013161958   0.021321063981920317
-1.8777750725157965   -0.13448224013161958   0.021321063981920317
-1.8777750725157965   -0.13448224013161958   0.021321063981920317
-1.8777750725157965   -0.13448224013161958   0.021321063981920317
-1.1954116186841053   -0.027749940592642658   -0.0077947242360558375
-1.1954116186841053   -0.027749940592642658   -0.0077947242360558375
-1.1954116186841053   -0.027749940592642658   -0.0077947242360558375
-1.1954116186841053   -0.027749940592642658   -0.0077947242360558375
-1.2033682882615977   0.04865210851931989   0.025247161583329965
-1.2033682882615977   0.04865210851931989   0.025247161583329965
-1.2033682882615977   0.04865210851931989   0.025247161583329965
-1.2033682882615977   0.04865210851931989   0.025247161583329965
-1.9056601561710615   -0.1300826229365597   -0.022645675194993095
-1.9056601561710615   -0.1300826229365597   -0.022645675194993095
-1.9056601561710615   -0.1300826229365597   -0.022645675194993095
-1.9056601561710615   -0.1300826229365597   -0.022645675194993095
-1.4847529206221677   -0.05076007275001543   -0.005979174831105882
-1.4847529206221677   -0.05076007275001543   -0.005979174831105882
-1.4847529206221677   -0.05076007275001543   -0.005979174831105882
-1.4847529206221677   -0.05076007275001543   -0.005979174831105882
-1.8917250759705373   -0.09223271730410054   0.00917982017516715
-1.8917250759705373   -0.09223271730410054   0.00917982017516715
-1.8917250759705373   -0.09223271730410054   0.00917982017516715
-1.8917250759705373   -0.09223271730410054   0.00917982017516715
-1.2192941727167674   0.008811398632218914   -0.014541550805397693
-1.2192941727167674   0.008811398632218914   -0.014541550805397693
-1.2192941727167674   0.008811398632218914   -0.014541550805397693
-1.2192941727167674   0.008811398632218914   -0.014541550805397693
-1.2047250322420797   0.06938320334148834   0.02871685683620888
-1.2047250322420797   0.06938320334148834   0.02871685683620888
-1.2047250322420797   0.06938320334148834   0.02871685683620888
-1.2047250322420797   0.06938320334148834   0.02871685683620888
-1.917103177236807   -0.11455121912989336   -0.029886905928851515
-1.917103177236807   -0.11455121912989336   -0.029886905928851515
-1.917103177236807   -0.11455121912989336   -0.029886905928851515
-1.917103177236807   -0.11455121912989336   -0.029886905928851515
-1.526350579836214   -0.03394990891433414   -0.014520121565134159
-1.526350579836214   -0.03394990891433414   -0.014520121565134159
-1.526350579836214   -0.03394990891433414   -0.014520121565134159
-1.526350579836214   -0.03394990891433414   -0.014520121565134159
-1.8825937345583283   -0.055260075685230337   0.0833691640188633
-1.8825937345583283   -0.055260075685230337   0.0833691640188633
-1.8825937345583283   -0.055260075685230337   0.0833691640188633
-1.8825937345583283   -0.055260075685230337   0.0833691640188633
-1.2248806422803853   0.02444589253699725   -0.02712388255081645
-1.2248806422803853   0.02444589253699725   -0.02712388255081645
-1.2248806422803853   0.02444589253699725   -0.02712388255081645
-1.2248806422803853   0.02444589253699725   -0.02712388255081645
-1.1827245389508412   0.12093607565847325   0.052082550831014734
-1.1827245389508412   0.12093607565847325   0.052082550831014734
-1.1827245389508412   0.12093607565847325   0.052082550831014734
-1.1827245389508412   0.12093607565847325   0.052082550831014734
-1.8639585124037354   -0.09236089273162534   -0.048850219999992964
-1.8639585124037354   -0.09236089273162534   -0.048850219999992964
-1.8639585124037354   -0.09236089273162534   -0.048850219999992964
-1.8639585124037354   -0.09236089273162534   -0.048850219999992964
-1.4678562069093897   0.013763137169018946   0.032558260989211885
-1.4678562069093897   0.013763137169018946   0.032558260989211885
-1.4678562069093897   0.013763137169018946   0.032558260989211885
-1.4678562069093897   0.013763137169018946   0.032558260989211885
-1.2250573024972815   -0.16246001743909055   -0.02131306645548888
-1.2250573024972815   -0.16246001743909055   -0.02131306645548888
-1.2250573024972815   -0.16246001743909055   -0.02131306645548888
-1.2250573024972815   -0.16246001743909055   -0.02131306645548888
-0.5646010242290984   -0.01266330063853538   0.005966008995381938
-0.5646010242290984   -0.01266330063853538   0.005966008995381938
-0.5646010242290984   -0.01266330063853538   0.005966008995381938
-0.5646010242290984   -0.01266330063853538   0.005966008995381938
-0.5727796495314742   0.010823686989907572   0.008591956350760047
-0.5727796495314742   0.010823686989907572   0.008591956350760047
-0.5727796495314742   0.010823686989907572   0.008591956350760047
-0.5727796495314742   0.010823686989907572   0.008591956350760047
-1.2492886213387122   -0.11890188219539571   -0.03680051308752763
-1.2492886213387122   -0.11890188219539571   -0.03680051308752763
-1.2492886213387122   -0.11890188219539571   -0.03680051308752763
-1.2492886213387122   -0.11890188219539571   -0.03680051308752763
-0.9029149696040855   -0.07336420878228672   -0.020743653997921108
-0.9029149696040855   -0.07336420878228672   -0.020743653997921108
-0.9029149696040855   -0.07336420878228672   -0.020743653997921108
-0.9029149696040855   -0.07336420878228672   -0.020743653997921108
-1.2480961446905914   -0.1299216714337774   -0.019818340608546654
-1.2480961446905914   -0.1299216714337774   -0.019818340608546654
-1.2480961446905914   -0.1299216714337774   -0.019818340608546654
-1.2480961446905914   -0.1299216714337774   -0.019818340608546654
-0.5717474952828867   0.02406810712499577   0.000508307458604404
-0.5717474952828867   0.02406810712499577   0.000508307458604404
-0.5717474952828867   0.02406810712499577   0.000508307458604404
-0.5717474952828867   0.02406810712499577   0.000508307458604404
-0.5705537647772814   0.039785936406193656   0.011634573342616715
-0.5705537647772814   0.039785936406193656   0.011634573342616715
-0.5705537647772814   0.039785936406193656   0.011634573342616715
-0.5705537647772814   0.039785936406193656   0.011634573342616715
-1.2497254651093384   -0.08709334595686652   -0.03980875820172937
-1.2497254651093384   -0.08709334595686652   -0.03980875820172937
-1.2497254651093384   -0.08709334595686652   -0.03980875820172937
-1.2497254651093384   -0.08709334595686652   -0.03980875820172937
-0.9010959826189975   -0.04081232262281009   -0.009865143754936884
-0.9010959826189975   -0.04081232262281009   -0.009865143754936884
-0.9010959826189975   -0.04081232262281009   -0.009865143754936884
-0.9010959826189975   -0.04081232262281009   -0.009865143754936884
-1.2448250441466284   -0.09822936167100704   -0.004170637674038809
-1.2448250441466284   -0.09822936167100704   -0.004170637674038809
-1.2448250441466284   -0.09822936167100704   -0.004170637674038809
-1.2448250441466284   -0.09822936167100704   -0.004170637674038809
-0.5713223518289964   0.05505378603132979   -0.007476211541089642
-0.5713223518289964   0.05505378603132979   -0.007476211541089642
-0.5713223518289964   0.05505378603132979   -0.007476211541089642
-0.5713223518289964   0.05505378603132979   -0.007476211541089642
-0.5609344728065071   0.06887166274225526   0.023321869305816003
-0.5609344728065071   0.06887166274225526   0.023321869305816003
-0.5609344728065071   0.06887166274225526   0.023321869305816003
-0.5609344728065071   0.06887166274225526   0.023321869305816003
-1.2362678869577228   -0.05033966962603506   -0.044358443918890524
-1.2362678869577228   -0.05033966962603506   -0.044358443918890524
-1.2362678869577228   -0.05033966962603506   -0.044358443918890524
-1.2362678869577228   -0.05033966962603506   -0.044358443918890524
-0.8972581617175701   -0.010006686004323556   0.0045008487888391555
-0.8972581617175701   -0.010006686004323556   0.0045008487888391555
-0.8972581617175701   -0.010006686004323556   0.0045008487888391555
-0.8972581617175701   -0.010006686004323556   0.0045008487888391555
-0.595337189159281   -0.13524485610107265   -0.02513326019299765
-0.595337189159281   -0.13524485610107265   -0.02513326019299765
-0.595337189159281   -0.13524485610107265   -0.02513326019299765
-0.595337189159281   -0.13524485610107265   -0.02513326019299765
0.06131029563320412   0.013932253786897665   0.023191852704874512
0.06131029563320412   0.013932253786897665   0.023191852704874512
0.06131029563320412   0.013932253786897665   0.023191852704874512
0.06131029563320412   0.013932253786897665   0.023191852704874512
0.05857088101000975   0.03402412371573574   0.0018700870111968762
0.05857088101000975   0.03402412371573574   0.0018700870111968762
0.05857088101000975   0.03402412371573574   0.0018700870111968762
0.05857088101000975   0.03402412371573574   0.0018700870111968762
-0.5977866108460383   -0.08956726252654898   -0.01605190070560881
-0.5977866108460383   -0.08956726252654898   -0.01605190070560881
-0.5977866108460383   -0.08956726252654898   -0.01605190070560881
-0.5977866108460383   -0.08956726252654898   -0.01605190070560881
-0.2709067976016564   -0.044870309463304635   -0.008594193202705422
-0.2709067976016564   -0.044870309463304635   -0.008594193202705422
-0.2709067976016564   -0.044870309463304635   -0.008594193202705422
-0.2709067976016564   -0.044870309463304635   -0.008594193202705422
-0.6019241787972497   -0.1030919218713319   -0.023215081116882492
-0.6019241787972497   -0.1030919218713319   -0.023215081116882492
-0.6019241787972497   -0.1030919218713319   -0.023215081116882492
-0.6019241787972497   -0.1030919218713319   -0.023215081116882492
0.06500110611313933   0.04984144021243694   0.018203896030143114
0.06500110611313933   0.04984144021243694   0.018203896030143114
0.06500110611313933   0.04984144021243694   0.018203896030143114
0.06500110611313933   0.04984144021243694   0.018203896030143114
0.06331876552135034   0.0658923274333919   0.010772671771248068
0.06331876552135034   0.0658923274333919   0.010772671771248068
0.06331876552135034   0.0658923274333919   0.010772671771248068
0.06331876552135034   0.0658923274333919   0.010772671771248068
-0.5957681636847616   -0.054618364284855545   -0.02003312050374061
-0.5957681636847616   -0.054618364284855545   -0.02003312050374061
-0.5957681636847616   -0.054618364284855545   -0.02003312050374061
-0.5957681636847616   -0.054618364284855545   -0.02003312050374061
-0.26659006391178064   -0.01100839461398185   0.003168319378587232
-0.26659006391178064   -0.01100839461398185   0.003168319378587232
-0.26659006391178064   -0.01100839461398185   0.003168319378587232
-0.26659006391178064   -0.01100839461398185   0.003168319378587232
-0.5973730543373974   -0.07077979875246883   -0.011896139299307214
-0.5973730543373974   -0.07077979875246883   -0.011896139299307214
-0.5973730543373974   -0.07077979875246883   -0.011896139299307214
-0.5973730543373974   -0.07077979875246883   -0.011896139299307214
0.067391385805845   0.08452149153286315   0.01250660909425011
0.067391385805845   0.08452149153286315   0.01250660909425011
0.067391385805845   0.08452149153286315   0.01250660909425011
0.067391385805845   0.08452149153286315   0.01250660909425011
0.06488050994220607   0.1013368695126422   0.01771825964268633
0.06488050994220607   0.1013368695126422   0.01771825964268633
0.06488050994220607   0.1013368695126422   0.01771825964268633
0.06488050994220607   0.1013368695126422   0.01771825964268633
-0.5878759361519985   -0.017263415889526956   -0.025250368789861692
-0.5878759361519985   -0.017263415889526956   -0.025250368789861692
-0.5878759361519985   -0.017263415889526956   -0.025250368789861692
-0.5878759361519985   -0.017263415889526956   -0.025250368789861692
-0.25982467256178193   0.02440306407687555   0.0160456027241044
-0.25982467256178193   0.02440306407687555   0.0160456027241044
-0.25982467256178193   0.02440306407687555   0.0160456027241044
-0.25982467256178193   0.02440306407687555   0.0160456027241044
0.027870607753390803   -0.099166283770017   -0.030908049137277408
0.027870607753390803   -0.099166283770017   -0.030908049137277408
0.027870607753390803   -0.099166283770017   -0.030908049137277408
0.027870607753390803   -0.099166283770017   -0.030908049137277408
0.7081456133130264   0.048824385405256285   0.04259237574880517
0.7081456133130264   0.048824385405256285   0.04259237574880517
0.7081456133130264   0.048824385405256285   0.04259237574880517
0.7081456133130264   0.048824385405256285   0.04259237574880517
0.7073742699700277   0.06583854811926575   -0.006828985773045738
0.7073742699700277   0.06583854811926575   -0.006828985773045738
0.7073742699700277   0.06583854811926575   -0.006828985773045738
0.7073742699700277   0.06583854811926575   -0.006828985773045738
0.040351053883402245   -0.05951539875303327   0.0043104738469279535
0.040351053883402245   -0.05951539875303327   0.0043104738469279535
0.040351053883402245   -0.05951539875303327   0.0043104738469279535
0.040351053883402245   -0.05951539875303327   0.0043104738469279535
0.3663589171508183   -0.008536131161040572   0.0007466186139239543
0.3663589171508183   -0.008536131161040572   0.0007466186139239543
0.3663589171508183   -0.008536131161040572   0.0007466186139239543
0.3663589171508183   -0.008536131161040572   0.0007466186139239543
0.032285583310739385   -0.0724332063432223   -0.02309907142619687
0.032285583310739385   -0.0724332063432223   -0.02309907142619687
0.032285583310739385   -0.0724332063432223   -0.02309907142619687
0.032285583310739385   -0.0724332063432223   -0.02309907142619687
0.7195657366384073   0.08288235180517148   0.037084543882946706
0.7195657366384073   0.08288235180517148   0.037084543882946706
0.7195657366384073   0.08288235180517148   0.037084543882946706
0.7195657366384073   0.08288235180517148   0.037084543882946706
0.7130923228821153   0.09736354195046984   0.007138199532532603
0.7130923228821153   0.09736354195046984   0.007138199532532603
0.7130923228821153   0.09736354195046984   0.007138199532532603
0.7130923228821153   0.09736354195046984   0.007138199532532603
0.04192387829484194   -0.028274666126582   -0.002034770801320045
0.04192387829484194   -0.028274666126582   -0.002034770801320045
0.04192387829484194   -0.028274666126582   -0.002034770801320045
0.04192387829484194   -0.028274666126582   -0.002034770801320045
0.37137978326209514   0.02159389073039228   0.015203589186756239
0.37137978326209514   0.02159389073039228   0.015203589186756239
0.37137978326209514   0.02159389073039228   0.015203589186756239
0.37137978326209514   0.02159389073039228   0.015203589186756239
0.036037578872485126   -0.04285269463824986   -0.016888239401436217
0.036037578872485126   -0.04285269463824986   -0.016888239401436217
0.036037578872485126   -0.04285269463824986   -0.016888239401436217
0.036037578872485126   -0.04285269463824986   -0.016888239401436217
0.7219652639658098   0.11492821212347606   0.03393823477799858
0.7219652639658098   0.11492821212347606   0.03393823477799858
0.7219652639658098   0.11492821212347606   0.03393823477799858
0.7219652639658098   0.11492821212347606   0.03393823477799858
0.7017518706389491   0.133745008303382   0.015057262030156997
0.7017518706389491   0.133745008303382   0.015057262030156997
0.7017518706389491   0.133745008303382   0.015057262030156997
0.7017518706389491   0.133745008303382   0.015057262030156997
0.041655847983083055   0.010397180113823559   -0.007465360754110105
0.041655847983083055   0.010397180113823559   -0.007465360754110105
0.041655847983083055   0.010397180113823559   -0.007465360754110105
0.041655847983083055   0.010397180113823559   -0.007465360754110105
0.37699945260574974   0.05603590056151496   0.028591880012119254
0.37699945260574974   0.05603590056151496   0.028591880012119254
0.37699945260574974   0.05603590056151496   0.028591880012119254
0.37699945260574974   0.05603590056151496   0.028591880012119254
0.6522363211786678   -0.13092117863546673   -0.05720852088226406
0.6522363211786678   -0.13092117863546673   -0.05720852088226406
0.6522363211786678   -0.13092117863546673   -0.05720852088226406
0.6522363211786678   -0.13092117863546673   -0.05720852088226406
1.3434928971643232   0.08874560604556897   0.04158102104800017
1.3434928971643232   0.08874560604556897   0.04158102104800017
1.3434928971643232   0.08874560604556897   0.04158102104800017
1.3434928971643232   0.08874560604556897   0.04158102104800017
1.3588296401821498   0.041967953991036366   -0.08606703169117028
1.3588296401821498   0.041967953991036366   -0.08606703169117028
1.3588296401821498   0.041967953991036366   -0.08606703169117028
1.3588296401821498   0.041967953991036366   -0.08606703169117028
0.6952072470398537   -0.026721148098146075   0.024895595793489954
0.6952072470398537   -0.026721148098146075   0.024895595793489954
0.6952072470398537   -0.026721148098146075   0.024895595793489954
0.6952072470398537   -0.026721148098146075   0.024895595793489954
0.9620896341381243   -0.016905224828675652   -0.02414273113074694
0.9620896341381243   -0.016905224828675652   -0.02414273113074694
0.9620896341381243   -0.016905224828675652   -0.02414273113074694
0.9620896341381243   -0.016905224828675652   -0.02414273113074694
0.6707644135727746   -0.08603302410051084   -0.038006695539531246
0.6707644135727746   -0.08603302410051084   -0.038006695539531246
0.6707644135727746   -0.08603302410051084   -0.038006695539531246
0.6707644135727746   -0.08603302410051084   -0.038006695539531246
1.3956307935191963   0.1136381498633717   0.02626853912173644
1.3956307935191963   0.1136381498633717   0.02626853912173644
1.3956307935191963   0.1136381498633717   0.02626853912173644
1.3956307935191963   0.1136381498633717   0.02626853912173644
1.373993429191078   0.076646018441821   -0.019603470023692983
1.373993429191078   0.076646018441821   -0.019603470023692983
1.373993429191078   0.076646018441821   -0.019603470023692983
1.373993429191078   0.076646018441821   -0.019603470023692983
0.6925408615452798   -0.01113221975371867   0.012876654552543401
0.6925408615452798   -0.01113221975371867   0.012876654552543401
0.6925408615452798   -0.01113221975371867   0.012876654552543401
0.6925408615452798   -0.01113221975371867   0.012876654552543401
1.0126617372144409   0.025306347710737143   0.016658979758347375
1.0126617372144409   0.025306347710737143   0.016658979758347375
1.0126617372144409   0.025306347710737143   0.016658979758347375
1.0126617372144409   0.025306347710737143   0.016658979758347375
0.6729149475533582   -0.0657716757609498   -0.030613459399827462
0.6729149475533582   -0.0657716757609498   -0.030613459399827462
0.6729149475533582   -0.0657716757609498   -0.030613459399827462
0.6729149475533582   -0.0657716757609498   -0.030613459399827462
1.391994330682341   0.1296604619483952   0.01738659392604784
1.391994330682341   0.1296604619483952   0.01738659392604784
1.391994330682341   0.1296604619483952   0.01738659392604784
1.391994330682341   0.1296604619483952   0.01738659392604784
1.3719152479800676   0.1175021346796914   -0.02996783473925473
1.3719152479800676   0.1175021346796914   -0.02996783473925473
1.3719152479800676   0.1175021346796914   -0.02996783473925473
1.3719152479800676   0.1175021346796914   -0.02996783473925473
0.6783810091842625   0.02476018471925788   0.007187778340845639
0.6783810091842625   0.02476018471925788   0.007187778340845639
0.6783810091842625   0.02476018471925788   0.007187778340845639
0.6783810091842625   0.02476018471925788   0.007187778340845639
0.9869205808671012   0.044425543062108164   0.012409565057970175
0.9869205808671012   0.044425543062108164   0.012409565057970175
0.9869205808671012   0.044425543062108164   0.012409565057970175
0.9869205808671012   0.044425543062108164   0.012409565057970175
-1.475040673039339   -0.06689360147160933   0.07611602572434148
-1.475040673039339   -0.06689360147160933   0.07611602572434148
-1.475040673039339   -0.06689360147160933   0.07611602572434148
-1.475040673039339   -0.06689360147160933   0.07611602572434148
-0.9798817810725835   -0.03734569500387999   -0.01980556691491059
-0.9798817810725835   -0.03734569500387999   -0.01980556691491059
-0.9798817810725835   -0.03734569500387999   -0.01980556691491059
-0.9798817810725835   -0.03734569500387999   -0.01980556691491059
-0.944446530388541   0.07945718079922931   0.06383971770143154
-0.944446530388541   0.07945718079922931   0.06383971770143154
-0.944446530388541   0.07945718079922931   0.06383971770143154
-0.944446530388541   0.07945718079922931   0.06383971770143154
-1.481796860831157   -0.10583179751403582   -0.031022453504220934
-1.481796860831157   -0.10583179751403582   -0.031022453504220934
-1.481796860831157   -0.10583179751403582   -0.031022453504220934
-1.481796860831157   -0.10583179751403582   -0.031022453504220934
-1.1707603575274033   -0.01809990867891223   -0.002241809139785042
-1.1707603575274033   -0.01809990867891223   -0.002241809139785042
-1.1707603575274033   -0.01809990867891223   -0.002241809139785042
-1.1707603575274033   -0.01809990867891223   -0.002241809139785042
-1.4404670905080235   -0.01546329553789244   0.08525789613530502
-1.4404670905080235   -0.01546329553789244   0.08525789613530502
-1.4404670905080235   -0.01546329553789244   0.08525789613530502
-1.4404670905080235   -0.01546329553789244   0.08525789613530502
-0.9792686837853274   -0.004403704250566631   -0.02641016423270473
-0.9792686837853274   -0.004403704250566631   -0.02641016423270473
-0.9792686837853274   -0.004403704250566631   -0.02641016423270473
-0.9792686837853274   -0.004403704250566631   -0.02641016423270473
-0.9405449086560405   0.09856981273759388   0.05915998482782191
-0.9405449086560405   0.09856981273759388   0.05915998482782191
-0.9405449086560405   0.09856981273759388   0.05915998482782191
-0.9405449086560405   0.09856981273759388   0.05915998482782191
-1.4587426277450932   -0.08850150790613248   -0.042461861949141824
-1.4587426277450932   -0.08850150790613248   -0.042461861949141824
-1.4587426277450932   -0.08850150790613248   -0.042461861949141824
-1.4587426277450932   -0.08850150790613248   -0.042461861949141824
-1.1731659622854576   0.004354379905089689   0.013481638092829498
-1.1731659622854576   0.004354379905089689   0.013481638092829498
-1.1731659622854576   0.004354379905089689   0.013481638092829498
-1.1731659622854576   0.004354379905089689   0.013481638092829498
-1.4202609323793998   0.0025696936849974317   0.05887541328819838
-1.4202609323793998   0.0025696936849974317   0.05887541328819838
-1.4202609323793998   0.0025696936849974317   0.05887541328819838
-1.4202609323793998   0.0025696936849974317   0.05887541328819838
-0.9768824480471846   0.009642767121016832   -0.03360066651131156
-0.9768824480471846   0.009642767121016832   -0.03360066651131156
-0.9768824480471846   0.009642767121016832   -0.03360066651131156
-0.9768824480471846   0.009642767121016832   -0.03360066651131156
-0.9414100428120995   0.11130735099352987   0.046942529034147105
-0.9414100428120995   0.11130735099352987   0.046942529034147105
-0.9414100428120995   0.11130735099352987   0.046942529034147105
-0.9414100428120995   0.11130735099352987   0.046942529034147105
-1.4288457886958752   -0.07006055195377414   -0.054136368147565464
-1.4288457886958752   -0.07006055195377414   -0.054136368147565464
-1.4288457886958752   -0.07006055195377414   -0.054136368147565464
-1.4288457886958752   -0.07006055195377414   -0.054136368147565464
-1.1393751832127288   0.024474761752154545   0.02812335103098096
-1.1393751832127288   0.024474761752154545   0.02812335103098096
-1.1393751832127288   0.024474761752154545   0.02812335103098096
-1.1393751832127288   0.024474761752154545   0.02812335103098096
-0.9827513402021667   -0.09315531428797275   0.02165625672126604
-0.9827513402021667   -0.09315531428797275   0.02165625672126604
-0.9827513402021667   -0.09315531428797275   0.02165625672126604
-0.9827513402021667   -0.09315531428797275   0.02165625672126604
-0.4965608786806468   -0.0180213014303635   0.0009390413775379608
-0.4965608786806468   -0.0180213014303635   0.0009390413775379608
-0.4965608786806468   -0.0180213014303635   0.0009390413775379608
-0.4965608786806468   -0.0180213014303635   0.0009390413775379608
-0.4824209704980435   0.04876946517094119   0.03468857290348816
-0.4824209704980435   0.04876946517094119   0.03468857290348816
-0.4824209704980435   0.04876946517094119   0.03468857290348816
-0.4824209704980435   0.04876946517094119   0.03468857290348816
-0.9983604416141977   -0.09186708133763657   -0.03440557628998464
-0.9983604416141977   -0.09186708133763657   -0.03440557628998464
-0.9983604416141977   -0.09186708133763657   -0.03440557628998464
-0.9983604416141977   -0.09186708133763657   -0.03440557628998464
-0.7374043055035412   -0.03618691019294559   -0.014981635536649024
-0.7374043055035412   -0.03618691019294559   -0.014981635536649024
-0.7374043055035412   -0.03618691019294559   -0.014981635536649024
-0.7374043055035412   -0.03618691019294559   -0.014981635536649024
-0.9795979699037017   -0.0534130909215976   0.02095279184645135
-0.9795979699037017   -0.0534130909215976   0.02095279184645135
-0.9795979699037017   -0.0534130909215976   0.02095279184645135
-0.9795979699037017   -0.0534130909215976   0.02095279184645135
-0.49738439178021643   0.014114525183225299   -0.0054735935196565805
-0.49738439178021643   0.014114525183225299   -0.0054735935196565805
-0.49738439178021643   0.014114525183225299   -0.0054735935196565805
-0.49738439178021643   0.014114525183225299   -0.0054735935196565805
-0.4808455394186384   0.08064521485719828   0.030004120177894753
-0.4808455394186384   0.08064521485719828   0.030004120177894753
-0.4808455394186384   0.08064521485719828   0.030004120177894753
-0.4808455394186384   0.08064521485719828   0.030004120177894753
-0.9926410302879816   -0.062122431592638   -0.040628379001649874
-0.9926410302879816   -0.062122431592638   -0.040628379001649874
-0.9926410302879816   -0.062122431592638   -0.040628379001649874
-0.9926410302879816   -0.062122431592638   -0.040628379001649874
-0.7293023711892547   -0.003950081893382917   -7.559224289815925e-05
-0.7293023711892547   -0.003950081893382917   -7.559224289815925e-05
-0.7293023711892547   -0.003950081893382917   -7.559224289815925e-05
-0.7293023711892547   -0.003950081893382917   -7.559224289815925e-05
-0.9734963629370239   -0.021076057208298388   0.014048583368796753
-0.9734963629370239   -0.021076057208298388   0.014048583368796753
-0.9734963629370239   -0.021076057208298388   0.014048583368796753
-0.9734963629370239   -0.021076057208298388   0.014048583368796753
-0.4968970016195421   0.042692045622913094   -0.01230002159233385
-0.4968970016195421   0.042692045622913094   -0.01230002159233385
-0.4968970016195421   0.042692045622913094   -0.01230002159233385
-0.4968970016195421   0.042692045622913094   -0.01230002159233385
-0.48065671768098683   0.11414946315577028   0.022476050713400177
-0.48065671768098683   0.11414946315577028   0.022476050713400177
-0.48065671768098683   0.11414946315577028   0.022476050713400177
-0.48065671768098683   0.11414946315577028   0.022476050713400177
-0.9878064533071139   -0.030015126216582172   -0.04371704623081759
-0.9878064533071139   -0.030015126216582172   -0.04371704623081759
-0.9878064533071139   -0.030015126216582172   -0.04371704623081759
-0.9878064533071139   -0.030015126216582172   -0.04371704623081759
-0.7297199672929794   0.025627379035616515   0.0113241499922545
-0.7297199672929794   0.025627379035616515   0.0113241499922545
-0.7297199672929794   0.025627379035616515   0.0113241499922545
-0.7297199672929794   0.025627379035616515   0.0113241499922545
-0.5150352801644813   -0.10655507117334553   -0.0028991962986567275
-0.5150352801644813   -0.10655507117334553   -0.0028991962986567275
-0.5150352801644813   -0.10655507117334553   -0.0028991962986567275
-0.5150352801644813   -0.10655507117334553   -0.0028991962986567275
-0.01769673645931225   0.0051826548494552285   0.021991102187560157
-0.01769673645931225   0.0051826548494552285   0.021991102187560157
-0.01769673645931225   0.0051826548494552285   0.021991102187560157
-0.01769673645931225   0.0051826548494552285   0.021991102187560157
-0.019534975610478882   0.03139657729316369   0.010515663157391261
-0.019534975610478882   0.03139657729316369   0.010515663157391261
-0.019534975610478882   0.03139657729316369   0.010515663157391261
-0.019534975610478882   0.03139657729316369   0.010515663157391261
-0.5153346100483078   -0.06824892922247927   -0.012861230454417744
-0.5153346100483078   -0.06824892922247927   -0.012861230454417744
-0.5153346100483078   -0.06824892922247927   -0.012861230454417744
-0.5153346100483078   -0.06824892922247927   -0.012861230454417744
-0.2677212768733384   -0.03343129814406891   -0.008394234615567268
-0.2677212768733384   -0.03343129814406891   -0.008394234615567268
-0.2677212768733384   -0.03343129814406891   -0.008394234615567268
-0.2677212768733384   -0.03343129814406891   -0.008394234615567268
-0.5147793576604871   -0.07118517607989502   -0.007148721657893599
-0.5147793576604871   -0.07118517607989502   -0.007148721657893599
-0.5147793576604871   -0.07118517607989502   -0.007148721657893599
-0.5147793576604871   -0.07118517607989502   -0.007148721657893599
-0.01725887311855039   0.037164179030329376   0.01612857387986803
-0.01725887311855039   0.037164179030329376   0.01612857387986803
-0.01725887311855039   0.037164179030329376   0.01612857387986803
-0.01725887311855039   0.037164179030329376   0.01612857387986803
-0.017137649957633495   0.06612076449585258   0.0050320096726718545
-0.017137649957633495   0.06612076449585258   0.0050320096726718545
-0.017137649957633495   0.06612076449585258   0.0050320096726718545
-0.017137649957633495   0.06612076449585258   0.0050320096726718545
-0.513989497273645   -0.0362107788207936   -0.0188596754191462
-0.513989497273645   -0.0362107788207936   -0.0188596754191462
-0.513989497273645   -0.0362107788207936   -0.0188596754191462
-0.513989497273645   -0.0362107788207936   -0.0188596754191462
-0.26507498286152514   -0.0013291708155483417   0.0036518884360498584
-0.26507498286152514   -0.0013291708155483417   0.0036518884360498584
-0.26507498286152514   -0.0013291708155483417   0.0036518884360498584
-0.26507498286152514   -0.0013291708155483417   0.0036518884360498584
-0.5132172865364832   -0.03695287072106494   -0.014256529833066425
-0.5132172865364832   -0.03695287072106494   -0.014256529833066425
-0.5132172865364832   -0.03695287072106494   -0.014256529833066425
-0.5132172865364832   -0.03695287072106494   -0.014256529833066425
-0.015572298329978074   0.06920041876094109   0.009779113545860434
-0.015572298329978074   0.06920041876094109   0.009779113545860434
-0.015572298329978074   0.06920041876094109   0.009779113545860434
-0.015572298329978074   0.06920041876094109   0.009779113545860434
-0.016589814284615437   0.10188030874566646   -0.0008178674812815041
-0.016589814284615437   0.10188030874566646   -0.0008178674812815041
-0.016589814284615437   0.10188030874566646   -0.0008178674812815041
-0.016589814284615437   0.10188030874566646   -0.0008178674812815041
-0.5136925001613876   -0.0036298900896214736   -0.024923508443209955
-0.5136925001613876   -0.0036298900896214736   -0.024923508443209955
-0.5136925001613876   -0.0036298900896214736   -0.024923508443209955
-0.5136925001613876   -0.0036298900896214736   -0.024923508443209955
-0.26300896164837073   0.030803684031834977   0.014699275904828394
-0.26300896164837073   0.030803684031834977   0.014699275904828394
-0.26300896164837073   0.030803684031834977   0.014699275904828394
-0.26300896164837073   0.030803684031834977   0.014699275904828394
-0.05158495029253236   -0.11674472074286092   -0.025522591386224112
-0.05158495029253236   -0.11674472074286092   -0.025522591386224112
-0.05158495029253236   -0.11674472074286092   -0.025522591386224112
-0.05158495029253236   -0.11674472074286092   -0.025522591386224112
0.45928648285607604   0.032331969371411584   0.041813686526751076
0.45928648285607604   0.032331969371411584   0.041813686526751076
0.45928648285607604   0.032331969371411584   0.041813686526751076
0.45928648285607604   0.032331969371411584   0.041813686526751076
0.44425035330872   0.017095891350024178   -0.016532375063102546
0.44425035330872   0.017095891350024178   -0.016532375063102546
0.44425035330872   0.017095891350024178   -0.016532375063102546
0.44425035330872   0.017095891350024178   -0.016532375063102546
-0.03465040875751856   -0.04269063503555933   0.009025709750915881
-0.03465040875751856   -0.04269063503555933   0.009025709750915881
-0.03465040875751856   -0.04269063503555933   0.009025709750915881
-0.03465040875751856   -0.04269063503555933   0.009025709750915881
0.20142793275715712   -0.027078326567750555   -0.004745763542129952
0.20142793275715712   -0.027078326567750555   -0.004745763542129952
0.20142793275715712   -0.027078326567750555   -0.004745763542129952
0.20142793275715712   -0.027078326567750555   -0.004745763542129952
-0.05135611453789751   -0.08513134836998858   -0.032062105816549634
-0.05135611453789751   -0.08513134836998858   -0.032062105816549634
-0.05135611453789751   -0.08513134836998858   -0.032062105816549634
-0.05135611453789751   -0.08513134836998858   -0.032062105816549634
0.46417658116024574   0.06275712675559977   0.037437528788947065
0.46417658116024574   0.06275712675559977   0.037437528788947065
0.46417658116024574   0.06275712675559977   0.037437528788947065
0.46417658116024574   0.06275712675559977   0.037437528788947065
0.45150726415256065   0.049404417718932475   -0.023222737431470273
0.45150726415256065   0.049404417718932475   -0.023222737431470273
0.45150726415256065   0.049404417718932475   -0.023222737431470273
0.45150726415256065   0.049404417718932475   -0.023222737431470273
-0.033640650487596006   -0.01398467590106718   0.0026224474197793974
-0.033640650487596006   -0.01398467590106718   0.0026224474197793974
-0.033640650487596006   -0.01398467590106718   0.0026224474197793974
-0.033640650487596006   -0.01398467590106718   0.0026224474197793974
0.20325782751390167   0.0019720230768080008   0.00722722506619336
0.20325782751390167   0.0019720230768080008   0.00722722506619336
0.20325782751390167   0.0019720230768080008   0.00722722506619336
0.20325782751390167   0.0019720230768080008   0.00722722506619336
-0.04988924254559185   -0.05395947824054797   -0.03864571053071939
-0.04988924254559185   -0.05395947824054797   -0.03864571053071939
-0.04988924254559185   -0.05395947824054797   -0.03864571053071939
-0.04988924254559185   -0.05395947824054797   -0.03864571053071939
0.4712657757686609   0.09288913961651687   0.032085098751442775
0.4712657757686609   0.09288913961651687   0.032085098751442775
0.4712657757686609   0.09288913961651687   0.032085098751442775
0.4712657757686609   0.09288913961651687   0.032085098751442775
0.45599875501232406   0.08990697060730737   -0.024259315315932024
0.45599875501232406   0.08990697060730737   -0.024259315315932024
0.45599875501232406   0.08990697060730737   -0.024259315315932024
0.45599875501232406   0.08990697060730737   -0.024259315315932024
-0.0336453368045844   0.019550338804824395   -0.0037655101402839673
-0.0336453368045844   0.019550338804824395   -0.0037655101402839673
-0.0336453368045844   0.019550338804824395   -0.0037655101402839673
-0.0336453368045844   0.019550338804824395   -0.0037655101402839673
0.2103524994737043   0.034353753084075574   0.021440360664193733
0.2103524994737043   0.034353753084075574   0.021440360664193733
0.2103524994737043   0.034353753084075574   0.021440360664193733
0.2103524994737043   0.034353753084075574   0.021440360664193733
0.4113218347538953   -0.11595027297388653   -0.04972731163884963
0.4113218347538953   -0.11595027297388653   -0.04972731163884963
0.4113218347538953   -0.11595027297388653   -0.04972731163884963
0.4113218347538953   -0.11595027297388653   -0.04972731163884963
0.9048343217174166   0.06723393383712922   0.04655564441445122
0.9048343217174166   0.06723393383712922   0.04655564441445122
0.9048343217174166   0.06723393383712922   0.04655564441445122
0.9048343217174166   0.06723393383712922   0.04655564441445122
0.8977945652585485   -0.004421205126623806   -0.06619200756759348
0.8977945652585485   -0.004421205126623806   -0.06619200756759348
0.8977945652585485   -0.004421205126623806   -0.06619200756759348
0.8977945652585485   -0.004421205126623806   -0.06619200756759348
0.44846956324597265   -0.009603618964385913   0.03126318493757091
0.44846956324597265   -0.009603618964385913   0.03126318493757091
0.44846956324597265   -0.009603618964385913   0.03126318493757091
0.44846956324597265   -0.009603618964385913   0.03126318493757091
0.633292799045676   -0.022659775580451957   -0.020808931409811146
0.633292799045676   -0.022659775580451957   -0.020808931409811146
0.633292799045676   -0.022659775580451957   -0.020808931409811146
0.633292799045676   -0.022659775580451957   -0.020808931409811146
0.4117788360374328   -0.10062063622602582   -0.06117343384348743
0.4117788360374328   -0.10062063622602582   -0.06117343384348743
0.4117788360374328   -0.10062063622602582   -0.06117343384348743
0.4117788360374328   -0.10062063622602582   -0.06117343384348743
0.9371200705166083   0.08923059018453736   0.03678372341154398
0.9371200705166083   0.08923059018453736   0.03678372341154398
0.9371200705166083   0.08923059018453736   0.03678372341154398
0.9371200705166083   0.08923059018453736   0.03678372341154398
0.9199148544364455   0.014007075188029128   -0.08880086362988321
0.9199148544364455   0.014007075188029128   -0.08880086362988321
0.9199148544364455   0.014007075188029128   -0.08880086362988321
0.9199148544364455   0.014007075188029128   -0.08880086362988321
0.45182338355930635   0.004455677836295177   0.02330659948489838
0.45182338355930635   0.004455677836295177   0.02330659948489838
0.45182338355930635   0.004455677836295177   0.02330659948489838
0.45182338355930635   0.004455677836295177   0.02330659948489838
0.6620415281326566   -0.002729723019828739   -0.006330574591154912
0.6620415281326566   -0.002729723019828739   -0.006330574591154912
0.6620415281326566   -0.002729723019828739   -0.006330574591154912
0.6620415281326566   -0.002729723019828739   -0.006330574591154912
0.4165076469353144   -0.08223122895497842   -0.06658517684379087
0.4165076469353144   -0.08223122895497842   -0.06658517684379087
0.4165076469353144   -0.08223122895497842   -0.06658517684379087
0.4165076469353144   -0.08223122895497842   -0.06658517684379087
0.9610519658706103   0.10651535678947653   0.0243764119395013
0.9610519658706103   0.10651535678947653   0.0243764119395013
0.9610519658706103   0.10651535678947653   0.0243764119395013
0.9610519658706103   0.10651535678947653   0.0243764119395013
0.9550329713048492   0.06194319521602014   -0.08354913129592592
0.9550329713048492   0.06194319521602014   -0.08354913129592592
0.9550329713048492   0.06194319521602014   -0.08354913129592592
0.9550329713048492   0.06194319521602014   -0.08354913129592592
0.45337242357994123   0.03548949811589616   0.01702650001357487
0.45337242357994123   0.03548949811589616   0.01702650001357487
0.45337242357994123   0.03548949811589616   0.01702650001357487
0.45337242357994123   0.03548949811589616   0.01702650001357487
0.6670278971298699   0.02004891218570276   0.009700900907706748
0.6670278971298699   0.02004891218570276   0.009700900907706748
0.6670278971298699   0.02004891218570276   0.009700900907706748
0.6670278971298699   0.02004891218570276   0.009700900907706748
-1.05359547618442   -0.03434425422674875   0.06891533208258385
-1.05359547618442   -0.03434425422674875   0.06891533208258385
-1.05359547618442   -0.03434425422674875   0.06891533208258385
-1.05359547618442   -0.03434425422674875   0.06891533208258385
-0.7374867272729402   -0.049345390654864846   -0.026008938026051434
-0.7374867272729402   -0.049345390654864846   -0.026008938026051434
-0.7374867272729402   -0.049345390654864846   -0.026008938026051434
-0.7374867272729402   -0.049345390654864846   -0.026008938026051434
-0.6940966354914918   0.06966339426578977   0.05875328005524171
-0.6940966354914918   0.06966339426578977   0.05875328005524171
-0.6940966354914918   0.06966339426578977   0.05875328005524171
-0.6940966354914918   0.06966339426578977   0.05875328005524171
-1.0536738020771763   -0.08674918882561894   -0.03804906401270913
-1.0536738020771763   -0.08674918882561894   -0.03804906401270913
-1.0536738020771763   -0.08674918882561894   -0.03804906401270913
-1.0536738020771763   -0.08674918882561894   -0.03804906401270913
-0.8484861749319672   -0.013504133467176688   -0.0019363643869650532
-0.8484861749319672   -0.013504133467176688   -0.0019363643869650532
-0.8484861749319672   -0.013504133467176688   -0.0019363643869650532
-0.8484861749319672   -0.013504133467176688   -0.0019363643869650532
-1.0142048820844167   0.007000298634375207   0.06554604849109505
-1.0142048820844167   0.007000298634375207   0.06554604849109505
-1.0142048820844167   0.007000298634375207   0.06554604849109505
-1.0142048820844167   0.007000298634375207   0.06554604849109505
-0.7303528764669374   -0.02087341417688987   -0.03199111637930262
-0.7303528764669374   -0.02087341417688987   -0.03199111637930262
-0.7303528764669374   -0.02087341417688987   -0.03199111637930262
-0.7303528764669374   -0.02087341417688987   -0.03199111637930262
-0.6875568579621137   0.084156882079898   0.04964431819803106
-0.6875568579621137   0.084156882079898   0.04964431819803106
-0.6875568579621137   0.084156882079898   0.04964431819803106
-0.6875568579621137   0.084156882079898   0.04964431819803106
-1.0286961165494481   -0.07059184867811807   -0.04809029872063522
-1.0286961165494481   -0.07059184867811807   -0.04809029872063522
-1.0286961165494481   -0.07059184867811807   -0.04809029872063522
-1.0286961165494481   -0.07059184867811807   -0.04809029872063522
-0.8425270570241135   0.005608250288905631   0.008860758176989308
-0.8425270570241135   0.005608250288905631   0.008860758176989308
-0.8425270570241135   0.005608250288905631   0.008860758176989308
-0.8425270570241135   0.005608250288905631   0.008860758176989308
-0.9895706828510311   0.024345214734312504   0.05259980635902066
-0.9895706828510311   0.024345214734312504   0.05259980635902066
-0.9895706828510311   0.024345214734312504   0.05259980635902066
-0.9895706828510311   0.024345214734312504   0.05259980635902066
-0.7237792914719107   -0.007877181143908424   -0.03943378612713975
-0.7237792914719107   -0.007877181143908424   -0.03943378612713975
-0.7237792914719107   -0.007877181143908424   -0.03943378612713975
-0.7237792914719107   -0.007877181143908424   -0.03943378612713975
-0.6839370655916011   0.09829212250803707   0.0427182810572088
-0.6839370655916011   0.09829212250803707   0.0427182810572088
-0.6839370655916011   0.09829212250803707   0.0427182810572088
-0.6839370655916011   0.09829212250803707   0.0427182810572088
-0.9952531723670442   -0.04922068731434057   -0.05757167122183584
-0.9952531723670442   -0.04922068731434057   -0.05757167122183584
-0.9952531723670442   -0.04922068731434057   -0.05757167122183584
-0.9952531723670442   -0.04922068731434057   -0.05757167122183584
-0.8108912933165249   0.023524835323294385   0.02399662826490246
-0.8108912933165249   0.023524835323294385   0.02399662826490246
-0.8108912933165249   0.023524835323294385   0.02399662826490246
-0.8108912933165249   0.023524835323294385   0.02399662826490246
-0.7291445699489946   -0.05954546364314972   0.02590192158195337
-0.7291445699489946   -0.05954546364314972   0.02590192158195337
-0.7291445699489946   -0.05954546364314972   0.02590192158195337
-0.7291445699489946   -0.05954546364314972   0.02590192158195337
-0.42310042795036085   -0.03197297320965117   -0.004199008303213049
-0.42310042795036085   -0.03197297320965117   -0.004199008303213049
-0.42310042795036085   -0.03197297320965117   -0.004199008303213049
-0.42310042795036085   -0.03197297320965117   -0.004199008303213049
-0.40159523953041837   0.04070245857900785   0.03167692120945817
-0.40159523953041837   0.04070245857900785   0.03167692120945817
-0.40159523953041837   0.04070245857900785   0.03167692120945817
-0.40159523953041837   0.04070245857900785   0.03167692120945817
-0.7401255705033222   -0.07088364349747253   -0.030844357240649455
-0.7401255705033222   -0.07088364349747253   -0.030844357240649455
-0.7401255705033222   -0.07088364349747253   -0.030844357240649455
-0.7401255705033222   -0.07088364349747253   -0.030844357240649455
-0.5711935263747938   -0.027832617167214718   -0.01169043225335701
-0.5711935263747938   -0.027832617167214718   -0.01169043225335701
-0.5711935263747938   -0.027832617167214718   -0.01169043225335701
-0.5711935263747938   -0.027832617167214718   -0.01169043225335701
-0.7205859571680875   -0.025197546669005838   0.021167612607055394
-0.7205859571680875   -0.025197546669005838   0.021167612607055394
-0.7205859571680875   -0.025197546669005838   0.021167612607055394
-0.7205859571680875   -0.025197546669005838   0.021167612607055394
-0.418628031404176   -0.0024768167879853226   -0.010307762792344261
-0.418628031404176   -0.0024768167879853226   -0.010307762792344261
-0.418628031404176   -0.0024768167879853226   -0.010307762792344261
-0.418628031404176   -0.0024768167879853226   -0.010307762792344261
-0.3964885147449977   0.07042737779837205   0.02596815241041643
-0.3964885147449977   0.07042737779837205   0.02596815241041643
-0.3964885147449977   0.07042737779837205   0.02596815241041643
-0.3964885147449977   0.07042737779837205   0.02596815241041643
-0.7301541825017667   -0.04284060639120292   -0.03634481602913156
-0.7301541825017667   -0.04284060639120292   -0.03634481602913156
-0.7301541825017667   -0.04284060639120292   -0.03634481602913156
-0.7301541825017667   -0.04284060639120292   -0.03634481602913156
-0.5602231609606131   0.0013735802202885922   0.000857158937636316
-0.5602231609606131   0.0013735802202885922   0.000857158937636316
-0.5602231609606131   0.0013735802202885922   0.000857158937636316
-0.5602231609606131   0.0013735802202885922   0.000857158937636316
-0.7091360200365524   0.00657110353260365   0.019334286373131854
-0.7091360200365524   0.00657110353260365   0.019334286373131854
-0.7091360200365524   0.00657110353260365   0.019334286373131854
-0.7091360200365524   0.00657110353260365   0.019334286373131854
-0.41439366868872923   0.02412867639604753   -0.0172589159059167
-0.41439366868872923   0.02412867639604753   -0.0172589159059167
-0.41439366868872923   0.02412867639604753   -0.0172589159059167
-0.41439366868872923   0.02412867639604753   -0.0172589159059167
-0.39155413854370663   0.1021091399603259   0.02065196989031566
-0.39155413854370663   0.1021091399603259   0.02065196989031566
-0.39155413854370663   0.1021091399603259   0.02065196989031566
-0.39155413854370663   0.1021091399603259   0.02065196989031566
-0.7226940673935691   -0.01261108363492433   -0.04016352180967461
-0.7226940673935691   -0.01261108363492433   -0.04016352180967461
-0.7226940673935691   -0.01261108363492433   -0.04016352180967461
-0.7226940673935691   -0.01261108363492433   -0.04016352180967461
-0.5559687819090593   0.028867337604599683   0.012810201563478143
-0.5559687819090593   0.028867337604599683   0.012810201563478143
-0.5559687819090593   0.028867337604599683   0.012810201563478143
-0.5559687819090593   0.028867337604599683   0.012810201563478143
-0.43202357430211324   -0.0818653965091182   0.0010776832374937728
-0.43202357430211324   -0.0818653965091182   0.0010776832374937728
-0.43202357430211324   -0.0818653965091182   0.0010776832374937728
-0.43202357430211324   -0.0818653965091182   0.0010776832374937728
-0.11193030506200034   -0.009623102542840779   0.01760770898934275
-0.11193030506200034   -0.009623102542840779   0.01760770898934275
-0.11193030506200034   -0.009623102542840779   0.01760770898934275
-0.11193030506200034   -0.009623102542840779   0.01760770898934275
-0.10919656680882606   0.01675192348526447   0.006004989844819148
-0.10919656680882606   0.01675192348526447   0.006004989844819148
-0.10919656680882606   0.01675192348526447   0.006004989844819148
-0.10919656680882606   0.01675192348526447   0.006004989844819148
-0.42728612910031066   -0.04786126180810873   -0.008213806252894513
-0.42728612910031066   -0.04786126180810873   -0.008213806252894513
-0.42728612910031066   -0.04786126180810873   -0.008213806252894513
-0.42728612910031066   -0.04786126180810873   -0.008213806252894513
-0.27057113264683846   -0.029337767819872983   -0.0083122559497976
-0.27057113264683846   -0.029337767819872983   -0.0083122559497976
-0.27057113264683846   -0.029337767819872983   -0.0083122559497976
-0.27057113264683846   -0.029337767819872983   -0.0083122559497976
-0.4265871786873985   -0.048702716715584175   -0.003877599280855024
-0.4265871786873985   -0.048702716715584175   -0.003877599280855024
-0.4265871786873985   -0.048702716715584175   -0.003877599280855024
-0.4265871786873985   -0.048702716715584175   -0.003877599280855024
-0.10738231829876671   0.020106577315712536   0.011721578564667831
-0.10738231829876671   0.020106577315712536   0.011721578564667831
-0.10738231829876671   0.020106577315712536   0.011721578564667831
-0.10738231829876671   0.020106577315712536   0.011721578564667831
-0.10302920646326345   0.050064113235504   0.0015544940519603666
-0.10302920646326345   0.050064113235504   0.0015544940519603666
-0.10302920646326345   0.050064113235504   0.0015544940519603666
-0.10302920646326345   0.050064113235504   0.0015544940519603666
-0.4221736542717232   -0.017923869513818774   -0.014106297911020443
-0.4221736542717232   -0.017923869513818774   -0.014106297911020443
-0.4221736542717232   -0.017923869513818774   -0.014106297911020443
-0.4221736542717232   -0.017923869513818774   -0.014106297911020443
-0.2639833848710756   0.0005934462905174201   0.003515294488782508
-0.2639833848710756   0.0005934462905174201   0.003515294488782508
-0.2639833848710756   0.0005934462905174201   0.003515294488782508
-0.2639833848710756   0.0005934462905174201   0.003515294488782508
-0.4206029049506294   -0.015497341196863107   -0.008679079622507014
-0.4206029049506294   -0.015497341196863107   -0.008679079622507014
-0.4206029049506294   -0.015497341196863107   -0.008679079622507014
-0.4206029049506294   -0.015497341196863107   -0.008679079622507014
-0.10227946426973206   0.04995807643317317   0.005409241821948126
-0.10227946426973206   0.04995807643317317   0.005409241821948126
-0.10227946426973206   0.04995807643317317   0.005409241821948126
-0.10227946426973206   0.04995807643317317   0.005409241821948126
-0.09749535448308466   0.08385950463259509   -0.0036736805104300822
-0.09749535448308466   0.08385950463259509   -0.0036736805104300822
-0.09749535448308466   0.08385950463259509   -0.0036736805104300822
-0.09749535448308466   0.08385950463259509   -0.0036736805104300822
-0.41768880463273345   0.012359548149529193   -0.02027176874402101
-0.41768880463273345   0.012359548149529193   -0.02027176874402101
-0.41768880463273345   0.012359548149529193   -0.02027176874402101
-0.41768880463273345   0.012359548149529193   -0.02027176874402101
-0.25796895774049233   0.030668242677680924   0.01491002391865763
-0.25796895774049233   0.030668242677680924   0.01491002391865763
-0.25796895774049233   0.030668242677680924   0.01491002391865763
-0.25796895774049233   0.030668242677680924   0.01491002391865763
-0.13819529205578443   -0.10016265718399503   -0.02317767133842443
-0.13819529205578443   -0.10016265718399503   -0.02317767133842443
-0.13819529205578443   -0.10016265718399503   -0.02317767133842443
-0.13819529205578443   -0.10016265718399503   -0.02317767133842443
0.1950579770707643   0.015433555282441641   0.03817911965241312
0.1950579770707643   0.015433555282441641   0.03817911965241312
0.1950579770707643   0.015433555282441641   0.03817911965241312
0.1950579770707643   0.015433555282441641   0.03817911965241312
0.18138423909012286   -0.005557790246206874   -0.021344714149963244
0.18138423909012286   -0.005557790246206874   -0.021344714149963244
0.18138423909012286   -0.005557790246206874   -0.021344714149963244
0.18138423909012286   -0.005557790246206874   -0.021344714149963244
-0.11556129528464273   -0.023227383751985832   0.014160654702985026
-0.11556129528464273   -0.023227383751985832   0.014160654702985026
-0.11556129528464273   -0.023227383751985832   0.014160654702985026
-0.11556129528464273   -0.023227383751985832   0.014160654702985026
0.029439571635780697   -0.027590529652609667   -0.005919330169661565
0.029439571635780697   -0.027590529652609667   -0.005919330169661565
0.029439571635780697   -0.027590529652609667   -0.005919330169661565
0.029439571635780697   -0.027590529652609667   -0.005919330169661565
-0.13344721678780508   -0.06996200492063546   -0.028534331644176073
-0.13344721678780508   -0.06996200492063546   -0.028534331644176073
-0.13344721678780508   -0.06996200492063546   -0.028534331644176073
-0.13344721678780508   -0.06996200492063546   -0.028534331644176073
0.20226077871055662   0.04416744903971143   0.033312744666287336
0.20226077871055662   0.04416744903971143   0.033312744666287336
0.20226077871055662   0.04416744903971143   0.033312744666287336
0.20226077871055662   0.04416744903971143   0.033312744666287336
0.1928632919645079   0.02595449190118089   -0.024185656021084155
0.1928632919645079   0.02595449190118089   -0.024185656021084155
0.1928632919645079   0.02595449190118089   -0.024185656021084155
0.1928632919645079   0.02595449190118089   -0.024185656021084155
-0.11111111204202433   0.003545479200654421   0.007663600193004551
-0.11111111204202433   0.003545479200654421   0.007663600193004551
-0.11111111204202433   0.003545479200654421   0.007663600193004551
-0.11111111204202433   0.003545479200654421   0.007663600193004551
0.03554804520506472   -0.0004446430175918392   0.00611465448228933
0.03554804520506472   -0.0004446430175918392   0.00611465448228933
0.03554804520506472   -0.0004446430175918392   0.00611465448228933
0.03554804520506472   -0.0004446430175918392   0.00611465448228933
-0.12837201597523915   -0.040395438780861846   -0.03470000149155216
-0.12837201597523915   -0.040395438780861846   -0.03470000149155216
-0.12837201597523915   -0.040395438780861846   -0.03470000149155216
-0.12837201597523915   -0.040395438780861846   -0.03470000149155216
0.2127179806385748   0.07248919462354934   0.028553084626880006
0.2127179806385748   0.07248919462354934   0.028553084626880006
0.2127179806385748   0.07248919462354934   0.028553084626880006
0.2127179806385748   0.07248919462354934   0.028553084626880006
0.20210855410685957   0.06186394199409104   -0.027951385105402418
0.20210855410685957   0.06186394199409104   -0.027951385105402418
0.20210855410685957   0.06186394199409104   -0.027951385105402418
0.20210855410685957   0.06186394199409104   -0.027951385105402418
-0.10635541485779224   0.034402571525771544   0.0014829507228556662
-0.10635541485779224   0.034402571525771544   0.0014829507228556662
-0.10635541485779224   0.034402571525771544   0.0014829507228556662
-0.10635541485779224   0.034402571525771544   0.0014829507228556662
0.044975499909379754   0.029075005199558183   0.01857288760011583
0.044975499909379754   0.029075005199558183   0.01857288760011583
0.044975499909379754   0.029075005199558183   0.01857288760011583
0.044975499909379754   0.029075005199558183   0.01857288760011583
0.1549410291742177   -0.10120855538664641   -0.0457635091612318
0.1549410291742177   -0.10120855538664641   -0.0457635091612318
0.1549410291742177   -0.10120855538664641   -0.0457635091612318
0.1549410291742177   -0.10120855538664641   -0.0457635091612318
0.4677186647081658   0.04615258518942818   0.04948489213667992
0.4677186647081658   0.04615258518942818   0.04948489213667992
0.4677186647081658   0.04615258518942818   0.04948489213667992
0.4677186647081658   0.04615258518942818   0.04948489213667992
0.46303234487582834   -0.02499375746894522   -0.06025028921508134
0.46303234487582834   -0.02499375746894522   -0.06025028921508134
0.46303234487582834   -0.02499375746894522   -0.06025028921508134
0.46303234487582834   -0.02499375746894522   -0.06025028921508134
0.19583692241316744   0.008427262128872133   0.03693365009017974
0.19583692241316744   0.008427262128872133   0.03693365009017974
0.19583692241316744   0.008427262128872133   0.03693365009017974
0.19583692241316744   0.008427262128872133   0.03693365009017974
0.3036774218164745   -0.020970965442575276   -0.016080978138668593
0.3036774218164745   -0.020970965442575276   -0.016080978138668593
0.3036774218164745   -0.020970965442575276   -0.016080978138668593
0.3036774218164745   -0.020970965442575276   -0.016080978138668593
0.1593221051339196   -0.08427365200812365   -0.05293952216906274
0.1593221051339196   -0.08427365200812365   -0.05293952216906274
0.1593221051339196   -0.08427365200812365   -0.05293952216906274
0.1593221051339196   -0.08427365200812365   -0.05293952216906274
0.5025962671386899   0.07075626165166399   0.041819302978616635
0.5025962671386899   0.07075626165166399   0.041819302978616635
0.5025962671386899   0.07075626165166399   0.041819302978616635
0.5025962671386899   0.07075626165166399   0.041819302978616635
0.4884092296591368   -0.007343109791760394   -0.07227318475520995
0.4884092296591368   -0.007343109791760394   -0.07227318475520995
0.4884092296591368   -0.007343109791760394   -0.07227318475520995
0.4884092296591368   -0.007343109791760394   -0.07227318475520995
0.20254241585555302   0.021357394206646643   0.028807061128673875
0.20254241585555302   0.021357394206646643   0.028807061128673875
0.20254241585555302   0.021357394206646643   0.028807061128673875
0.20254241585555302   0.021357394206646643   0.028807061128673875
0.32929285641060824   -0.003167565561639288   -0.0019088222731494901
0.32929285641060824   -0.003167565561639288   -0.0019088222731494901
0.32929285641060824   -0.003167565561639288   -0.0019088222731494901
0.32929285641060824   -0.003167565561639288   -0.0019088222731494901
0.16631163779328212   -0.06958823184091342   -0.06140120313511886
0.16631163779328212   -0.06958823184091342   -0.06140120313511886
0.16631163779328212   -0.06958823184091342   -0.06140120313511886
0.16631163779328212   -0.06958823184091342   -0.06140120313511886
0.5278184354968778   0.08678094403127108   0.03064879061047138
0.5278184354968778   0.08678094403127108   0.03064879061047138
0.5278184354968778   0.08678094403127108   0.03064879061047138
0.5278184354968778   0.08678094403127108   0.03064879061047138
0.5273864294943862   0.03141150620556331   -0.0773774654525266
0.5273864294943862   0.03141150620556331   -0.0773774654525266
0.5273864294943862   0.03141150620556331   -0.0773774654525266
0.5273864294943862   0.03141150620556331   -0.0773774654525266
0.20940396371673847   0.04749763551689752   0.02289196942118255
0.20940396371673847   0.04749763551689752   0.02289196942118255
0.20940396371673847   0.04749763551689752   0.02289196942118255
0.20940396371673847   0.04749763551689752   0.02289196942118255
0.3420992487717723   0.016444714051791473   0.010296082117619617
0.3420992487717723   0.016444714051791473   0.010296082117619617
0.3420992487717723   0.016444714051791473   0.010296082117619617
0.3420992487717723   0.016444714051791473   0.010296082117619617
-0.6309603861325135   -0.010489211909688642   0.06174561455940987
-0.6309603861325135   -0.010489211909688642   0.06174561455940987
-0.6309603861325135   -0.010489211909688642   0.06174561455940987
-0.6309603861325135   -0.010489211909688642   0.06174561455940987
-0.4925436836035526   -0.06258067064331105   -0.030518508130202716
-0.4925436836035526   -0.06258067064331105   -0.030518508130202716
-0.4925436836035526   -0.06258067064331105   -0.030518508130202716
-0.4925436836035526   -0.06258067064331105   -0.030518508130202716
-0.4458234219864875   0.05298881273698226   0.052790563709608135
-0.4458234219864875   0.05298881273698226   0.052790563709608135
-0.4458234219864875   0.05298881273698226   0.052790563709608135
-0.4458234219864875   0.05298881273698226   0.052790563709608135
-0.628314327165681   -0.06845803725371365   -0.04155107063387915
-0.628314327165681   -0.06845803725371365   -0.04155107063387915
-0.628314327165681   -0.06845803725371365   -0.04155107063387915
-0.628314327165681   -0.06845803725371365   -0.04155107063387915
-0.5284009140715884   -0.014523771264491392   -0.00783804505775976
-0.5284009140715884   -0.014523771264491392   -0.00783804505775976
-0.5284009140715884   -0.014523771264491392   -0.00783804505775976
-0.5284009140715884   -0.014523771264491392   -0.00783804505775976
-0.5894131510098378   0.025510090640595978   0.05898668225102967
-0.5894131510098378   0.025510090640595978   0.05898668225102967
-0.5894131510098378   0.025510090640595978   0.05898668225102967
-0.5894131510098378   0.025510090640595978   0.05898668225102967
-0.48201839155795395   -0.03827310857294747   -0.03692236283779061
-0.48201839155795395   -0.03827310857294747   -0.03692236283779061
-0.48201839155795395   -0.03827310857294747   -0.03692236283779061
-0.48201839155795395   -0.03827310857294747   -0.03692236283779061
-0.4347832663608921   0.06673779041580938   0.04464504656044607
-0.4347832663608921   0.06673779041580938   0.04464504656044607
-0.4347832663608921   0.06673779041580938   0.04464504656044607
-0.4347832663608921   0.06673779041580938   0.04464504656044607
-0.5994543232105121   -0.05287703952591215   -0.05190473322113505
-0.5994543232105121   -0.05287703952591215   -0.05190473322113505
-0.5994543232105121   -0.05287703952591215   -0.05190473322113505
-0.5994543232105121   -0.05287703952591215   -0.05190473322113505
-0.5133136933279984   0.0034685054566731266   0.0036490262870704955
-0.5133136933279984   0.0034685054566731266   0.0036490262870704955
-0.5133136933279984   0.0034685054566731266   0.0036490262870704955
-0.5133136933279984   0.0034685054566731266   0.0036490262870704955
-0.5605287054316854   0.04219079709914887   0.04765551904793344
-0.5605287054316854   0.04219079709914887   0.04765551904793344
-0.5605287054316854   0.04219079709914887   0.04765551904793344
-0.5605287054316854   0.04219079709914887   0.04765551904793344
-0.4711485767574063   -0.025769738826937866   -0.044673976179369385
-0.4711485767574063   -0.025769738826937866   -0.044673976179369385
-0.4711485767574063   -0.025769738826937866   -0.044673976179369385
-0.4711485767574063   -0.025769738826937866   -0.044673976179369385
-0.42584700295027   0.08387552330684622   0.038503212467339086
-0.42584700295027   0.08387552330684622   0.038503212467339086
-0.42584700295027   0.08387552330684622   0.038503212467339086
-0.42584700295027   0.08387552330684622   0.038503212467339086
-0.5606845575696887   -0.0279296332182994   -0.06006401799901499
-0.5606845575696887   -0.0279296332182994   -0.06006401799901499
-0.5606845575696887   -0.0279296332182994   -0.06006401799901499
-0.5606845575696887   -0.0279296332182994   -0.06006401799901499
-0.48287768269076065   0.021217280272856395   0.01789453666591862
-0.48287768269076065   0.021217280272856395   0.01789453666591862
-0.48287768269076065   0.021217280272856395   0.01789453666591862
-0.48287768269076065   0.021217280272856395   0.01789453666591862
-0.4752363866096745   -0.035727418368081076   0.029164724563957994
-0.4752363866096745   -0.035727418368081076   0.029164724563957994
-0.4752363866096745   -0.035727418368081076   0.029164724563957994
-0.4752363866096745   -0.035727418368081076   0.029164724563957994
-0.3492378668595839   -0.04744327178203367   -0.009033496018370203
-0.3492378668595839   -0.04744327178203367   -0.009033496018370203
-0.3492378668595839   -0.04744327178203367   -0.009033496018370203
-0.3492378668595839   -0.04744327178203367   -0.009033496018370203
-0.3232021342504767   0.024067671059335632   0.026988779290561288
-0.3232021342504767   0.024067671059335632   0.026988779290561288
-0.3232021342504767   0.024067671059335632   0.026988779290561288
-0.3232021342504767   0.024067671059335632   0.026988779290561288
-0.4822956982274915   -0.05052435652674369   -0.026057648231676958
-0.4822956982274915   -0.05052435652674369   -0.026057648231676958
-0.4822956982274915   -0.05052435652674369   -0.026057648231676958
-0.4822956982274915   -0.05052435652674369   -0.026057648231676958
-0.40637594443706726   -0.025241269861945817   -0.01096569445544927
-0.40637594443706726   -0.025241269861945817   -0.01096569445544927
-0.40637594443706726   -0.025241269861945817   -0.01096569445544927
-0.40637594443706726   -0.025241269861945817   -0.01096569445544927
-0.46287575147289983   -0.004301052033628169   0.024818781048157143
-0.46287575147289983   -0.004301052033628169   0.024818781048157143
-0.46287575147289983   -0.004301052033628169   0.024818781048157143
-0.46287575147289983   -0.004301052033628169   0.024818781048157143
-0.34043952258165516   -0.019973075010366416   -0.015157416295626945
-0.34043952258165516   -0.019973075010366416   -0.015157416295626945
-0.34043952258165516   -0.019973075010366416   -0.015157416295626945
-0.34043952258165516   -0.019973075010366416   -0.015157416295626945
-0.31368433883475766   0.052039159754009856   0.02158417102993878
-0.31368433883475766   0.052039159754009856   0.02158417102993878
-0.31368433883475766   0.052039159754009856   0.02158417102993878
-0.31368433883475766   0.052039159754009856   0.02158417102993878
-0.46802751365332357   -0.02364069495301517   -0.031197704532877766
-0.46802751365332357   -0.02364069495301517   -0.031197704532877766
-0.46802751365332357   -0.02364069495301517   -0.031197704532877766
-0.46802751365332357   -0.02364069495301517   -0.031197704532877766
-0.3926034758982797   0.0017197733221777645   0.0011096130512732727
-0.3926034758982797   0.0017197733221777645   0.0011096130512732727
-0.3926034758982797   0.0017197733221777645   0.0011096130512732727
-0.3926034758982797   0.0017197733221777645   0.0011096130512732727
-0.4474673981426592   0.02546512441660681   0.0224970536508132
-0.4474673981426592   0.02546512441660681   0.0224970536508132
-0.4474673981426592   0.02546512441660681   0.0224970536508132
-0.4474673981426592   0.02546512441660681   0.0224970536508132
-0.3317248426038834   0.005452952125928889   -0.02203214018761308
-0.3317248426038834   0.005452952125928889   -0.02203214018761308
-0.3317248426038834   0.005452952125928889   -0.02203214018761308
-0.3317248426038834   0.005452952125928889   -0.02203214018761308
-0.3041965048464009   0.08240842661782519   0.016436466906904715
-0.3041965048464009   0.08240842661782519   0.016436466906904715
-0.3041965048464009   0.08240842661782519   0.016436466906904715
-0.3041965048464009   0.08240842661782519   0.016436466906904715
-0.4562558377696399   0.005730035244805698   -0.03539547356746747
-0.4562558377696399   0.005730035244805698   -0.03539547356746747
-0.4562558377696399   0.005730035244805698   -0.03539547356746747
-0.4562558377696399   0.005730035244805698   -0.03539547356746747
-0.3826467989978101   0.02815961196903856   0.01292421729550106
-0.3826467989978101   0.02815961196903856   0.01292421729550106
-0.3826467989978101   0.02815961196903856   0.01292421729550106
-0.3826467989978101   0.02815961196903856   0.01292421729550106
-0.34880915683264674   -0.059489215189986455   0.005155997524262724
-0.34880915683264674   -0.059489215189986455   0.005155997524262724
-0.34880915683264674   -0.059489215189986455   0.005155997524262724
-0.34880915683264674   -0.059489215189986455   0.005155997524262724
-0.20784085466595642   -0.02507858153299706   0.012804114439499976
-0.20784085466595642   -0.02507858153299706   0.012804114439499976
-0.20784085466595642   -0.02507858153299706   0.012804114439499976
-0.20784085466595642   -0.02507858153299706   0.012804114439499976
-0.2007634058040338   -0.0005841812795558815   0.0016488730935928456
-0.2007634058040338   -0.0005841812795558815   0.0016488730935928456
-0.2007634058040338   -0.0005841812795558815   0.0016488730935928456
-0.2007634058040338   -0.0005841812795558815   0.0016488730935928456
-0.339437262340077   -0.02711205778336774   -0.0030071323147356985
-0.339437262340077   -0.02711205778336774   -0.0030071323147356985
-0.339437262340077   -0.02711205778336774   -0.0030071323147356985
-0.339437262340077   -0.02711205778336774   -0.0030071323147356985
-0.2746495649739079   -0.026752155715462175   -0.007988740622222185
-0.2746495649739079   -0.026752155715462175   -0.007988740622222185
-0.2746495649739079   -0.026752155715462175   -0.007988740622222185
-0.2746495649739079   -0.026752155715462175   -0.007988740622222185
-0.3390282681036681   -0.02848481011784667   0.0004105912017850089
-0.3390282681036681   -0.02848481011784667   0.0004105912017850089
-0.3390282681036681   -0.02848481011784667   0.0004105912017850089
-0.3390282681036681   -0.02848481011784667   0.0004105912017850089
-0.19900164012175536   0.0029593309736102025   0.0069141892518170866
-0.19900164012175536   0.0029593309736102025   0.0069141892518170866
-0.19900164012175536   0.0029593309736102025   0.0069141892518170866
-0.19900164012175536   0.0029593309736102025   0.0069141892518170866
-0.19042226322318906   0.030693878230646163   -0.002768950237229846
-0.19042226322318906   0.030693878230646163   -0.002768950237229846
-0.19042226322318906   0.030693878230646163   -0.002768950237229846
-0.19042226322318906   0.030693878230646163   -0.002768950237229846
-0.32990172822648295   0.0013263552065313072   -0.008789971381213329
-0.32990172822648295   0.0013263552065313072   -0.008789971381213329
-0.32990172822648295   0.0013263552065313072   -0.008789971381213329
-0.32990172822648295   0.0013263552065313072   -0.008789971381213329
-0.26374007318140685   0.0013642497470535003   0.003723806682415648
-0.26374007318140685   0.0013642497470535003   0.003723806682415648
-0.26374007318140685   0.0013642497470535003   0.003723806682415648
-0.26374007318140685   0.0013642497470535003   0.003723806682415648
-0.3287527268030097   0.0026982114588858103   -0.00441682051620532
-0.3287527268030097   0.0026982114588858103   -0.00441682051620532
-0.3287527268030097   0.0026982114588858103   -0.00441682051620532
-0.3287527268030097   0.0026982114588858103   -0.00441682051620532
-0.18960795999075558   0.03128532663419625   0.000711117521384072
-0.18960795999075558   0.03128532663419625   0.000711117521384072
-0.18960795999075558   0.03128532663419625   0.000711117521384072
-0.18960795999075558   0.03128532663419625   0.000711117521384072
-0.1806543223120233   0.06225971807067022   -0.007805401459010791
-0.1806543223120233   0.06225971807067022   -0.007805401459010791
-0.1806543223120233   0.06225971807067022   -0.007805401459010791
-0.1806543223120233   0.06225971807067022   -0.007805401459010791
-0.3209634813226933   0.02998372458319487   -0.014973713439921831
-0.3209634813226933   0.02998372458319487   -0.014973713439921831
-0.3209634813226933   0.02998372458319487   -0.014973713439921831
-0.3209634813226933   0.02998372458319487   -0.014973713439921831
-0.2534227638272222   0.029581770547077994   0.014964721093887443
-0.2534227638272222   0.029581770547077994   0.014964721093887443
-0.2534227638272222   0.029581770547077994   0.014964721093887443
-0.2534227638272222   0.029581770547077994   0.014964721093887443
-0.22523314403914088   -0.0800897297182549   -0.01914618424116803
-0.22523314403914088   -0.0800897297182549   -0.01914618424116803
-0.22523314403914088   -0.0800897297182549   -0.01914618424116803
-0.22523314403914088   -0.0800897297182549   -0.01914618424116803
-0.07048248529591095   -0.001334135105307558   0.03356612557379012
-0.07048248529591095   -0.001334135105307558   0.03356612557379012
-0.07048248529591095   -0.001334135105307558   0.03356612557379012
-0.07048248529591095   -0.001334135105307558   0.03356612557379012
-0.08004202994178018   -0.023897062693052366   -0.024707005345194866
-0.08004202994178018   -0.023897062693052366   -0.024707005345194866
-0.08004202994178018   -0.023897062693052366   -0.024707005345194866
-0.08004202994178018   -0.023897062693052366   -0.024707005345194866
-0.1977415353342626   -0.0030547087079555446   0.01922875287084667
-0.1977415353342626   -0.0030547087079555446   0.01922875287084667
-0.1977415353342626   -0.0030547087079555446   0.01922875287084667
-0.1977415353342626   -0.0030547087079555446   0.01922875287084667
-0.1433415799166533   -0.0259127941895273   -0.005766147919070584
-0.1433415799166533   -0.0259127941895273   -0.005766147919070584
-0.1433415799166533   -0.0259127941895273   -0.005766147919070584
-0.1433415799166533   -0.0259127941895273   -0.005766147919070584
-0.21602108487270494   -0.05099684443004988   -0.024226859099272434
-0.21602108487270494   -0.05099684443004988   -0.024226859099272434
-0.21602108487270494   -0.05099684443004988   -0.024226859099272434
-0.21602108487270494   -0.05099684443004988   -0.024226859099272434
-0.059330633368648716   0.026476920063730387   0.02847599476367777
-0.059330633368648716   0.026476920063730387   0.02847599476367777
-0.059330633368648716   0.026476920063730387   0.02847599476367777
-0.059330633368648716   0.026476920063730387   0.02847599476367777
-0.06490465023057411   0.005690922227469152   -0.027815646484387318
-0.06490465023057411   0.005690922227469152   -0.027815646484387318
-0.06490465023057411   0.005690922227469152   -0.027815646484387318
-0.06490465023057411   0.005690922227469152   -0.027815646484387318
-0.18894551524920788   0.022479266526430272   0.012829401336890195
-0.18894551524920788   0.022479266526430272   0.012829401336890195
-0.18894551524920788   0.022479266526430272   0.012829401336890195
-0.18894551524920788   0.022479266526430272   0.012829401336890195
-0.13172968086884793   0.00027909974239945234   0.006171935339314906
-0.13172968086884793   0.00027909974239945234   0.006171935339314906
-0.13172968086884793   0.00027909974239945234   0.006171935339314906
-0.13172968086884793   0.00027909974239945234   0.006171935339314906
-0.20664458175771366   -0.023109389764105977   -0.030077274915104125
-0.20664458175771366   -0.023109389764105977   -0.030077274915104125
-0.20664458175771366   -0.023109389764105977   -0.030077274915104125
-0.20664458175771366   -0.023109389764105977   -0.030077274915104125
-0.04494164576351495   0.05354351647655786   0.024146781601819833
-0.04494164576351495   0.05354351647655786   0.024146781601819833
-0.04494164576351495   0.05354351647655786   0.024146781601819833
-0.04494164576351495   0.05354351647655786   0.024146781601819833
-0.05210162540277506   0.03872396267810821   -0.03116388297047819
-0.05210162540277506   0.03872396267810821   -0.03116388297047819
-0.05210162540277506   0.03872396267810821   -0.03116388297047819
-0.05210162540277506   0.03872396267810821   -0.03116388297047819
-0.17994056696945593   0.05136296877140962   0.00666012455308658
-0.17994056696945593   0.05136296877140962   0.00666012455308658
-0.17994056696945593   0.05136296877140962   0.00666012455308658
-0.17994056696945593   0.05136296877140962   0.00666012455308658
-0.11971742957685143   0.027570275426456015   0.01810770905992115
-0.11971742957685143   0.027570275426456015   0.01810770905992115
-0.11971742957685143   0.027570275426456015   0.01810770905992115
-0.11971742957685143   0.027570275426456015   0.01810770905992115
-0.10247856848783292   -0.08611127081277709   -0.041637154678350184
-0.10247856848783292   -0.08611127081277709   -0.041637154678350184
-0.10247856848783292   -0.08611127081277709   -0.041637154678350184
-0.10247856848783292   -0.08611127081277709   -0.041637154678350184
0.033002635948045395   0.02533971243813876   0.05122188809381165
0.033002635948045395   0.02533971243813876   0.05122188809381165
0.033002635948045395   0.02533971243813876   0.05122188809381165
0.033002635948045395   0.02533971243813876   0.05122188809381165
0.033225312872407056   -0.042511092553111904   -0.05514651377898008
0.033225312872407056   -0.042511092553111904   -0.05514651377898008
0.033225312872407056   -0.042511092553111904   -0.05514651377898008
0.033225312872407056   -0.042511092553111904   -0.05514651377898008
-0.05661775286102097   0.026592848569765265   0.041924468795782245
-0.05661775286102097   0.026592848569765265   0.041924468795782245
-0.05661775286102097   0.026592848569765265   0.041924468795782245
-0.05661775286102097   0.026592848569765265   0.041924468795782245
-0.02428243375992451   -0.018319376196307045   -0.009711949109222389
-0.02428243375992451   -0.018319376196307045   -0.009711949109222389
-0.02428243375992451   -0.018319376196307045   -0.009711949109222389
-0.02428243375992451   -0.018319376196307045   -0.009711949109222389
-0.09316239405335754   -0.06633375741808   -0.04787213117805396
-0.09316239405335754   -0.06633375741808   -0.04787213117805396
-0.09316239405335754   -0.06633375741808   -0.04787213117805396
-0.09316239405335754   -0.06633375741808   -0.04787213117805396
0.07236925985467225   0.053014819224662516   0.045047309354575266
0.07236925985467225   0.053014819224662516   0.045047309354575266
0.07236925985467225   0.053014819224662516   0.045047309354575266
0.07236925985467225   0.053014819224662516   0.045047309354575266
0.062232183600062045   -0.025569810085494464   -0.06551872807654066
0.062232183600062045   -0.025569810085494464   -0.06551872807654066
0.062232183600062045   -0.025569810085494464   -0.06551872807654066
0.062232183600062045   -0.025569810085494464   -0.06551872807654066
-0.04597677428513913   0.03888606075218564   0.03362859471807103
-0.04597677428513913   0.03888606075218564   0.03362859471807103
-0.04597677428513913   0.03888606075218564   0.03362859471807103
-0.04597677428513913   0.03888606075218564   0.03362859471807103
-0.0004557368538307883   -0.0008836331942977296   0.0032192892942720045
-0.0004557368538307883   -0.0008836331942977296   0.0032192892942720045
-0.0004557368538307883   -0.0008836331942977296   0.0032192892942720045
-0.0004557368538307883   -0.0008836331942977296   0.0032192892942720045
-0.08203324253680681   -0.05239390571264793   -0.05537378007543559
-0.08203324253680681   -0.05239390571264793   -0.05537378007543559
-0.08203324253680681   -0.05239390571264793   -0.05537378007543559
-0.08203324253680681   -0.05239390571264793   -0.05537378007543559
0.10089132562885883   0.06831283015646668   0.033894341825478236
0.10089132562885883   0.06831283015646668   0.033894341825478236
0.10089132562885883   0.06831283015646668   0.033894341825478236
0.10089132562885883   0.06831283015646668   0.033894341825478236
0.10290346346809989   0.0075844406902317325   -0.07017350446349246
0.10290346346809989   0.0075844406902317325   -0.07017350446349246
0.10290346346809989   0.0075844406902317325   -0.07017350446349246
0.10290346346809989   0.0075844406902317325   -0.07017350446349246
-0.03603764759022343   0.060550909024350674   0.027329059746036662
-0.03603764759022343   0.060550909024350674   0.027329059746036662
-0.03603764759022343   0.060550909024350674   0.027329059746036662
-0.03603764759022343   0.060550909024350674   0.027329059746036662
0.02105136631850539   0.017426279726564478   0.015867505311742122
0.02105136631850539   0.017426279726564478   0.015867505311742122
0.02105136631850539   0.017426279726564478   0.015867505311742122
0.02105136631850539   0.017426279726564478   0.015867505311742122
-0.20844099399782962   0.012048551660375474   0.05852491378250896
-0.20844099399782962   0.012048551660375474   0.05852491378250896
-0.20844099399782962   0.012048551660375474   0.05852491378250896
-0.20844099399782962   0.012048551660375474   0.05852491378250896
-0.24849023378357407   -0.07626023782960131   -0.03445925137813132
-0.24849023378357407   -0.07626023782960131   -0.03445925137813132
-0.24849023378357407   -0.07626023782960131   -0.03445925137813132
-0.24849023378357407   -0.07626023782960131   -0.03445925137813132
-0.19838910335277588   0.03541971879725649   0.04791248580806633
-0.19838910335277588   0.03541971879725649   0.04791248580806633
-0.19838910335277588   0.03541971879725649   0.04791248580806633
-0.19838910335277588   0.03541971879725649   0.04791248580806633
-0.2024312508679846   -0.050059359581841684   -0.04442051432104465
-0.2024312508679846   -0.050059359581841684   -0.04442051432104465
-0.2024312508679846   -0.050059359581841684   -0.04442051432104465
-0.2024312508679846   -0.050059359581841684   -0.04442051432104465
-0.20903905453383054   -0.01607525631007488   -0.01604006751530293
-0.20903905453383054   -0.01607525631007488   -0.01604006751530293
-0.20903905453383054   -0.01607525631007488   -0.01604006751530293
-0.20903905453383054   -0.01607525631007488   -0.01604006751530293
-0.16390681186591066   0.04363512012875949   0.054507200978719174
-0.16390681186591066   0.04363512012875949   0.054507200978719174
-0.16390681186591066   0.04363512012875949   0.054507200978719174
-0.16390681186591066   0.04363512012875949   0.054507200978719174
-0.23449445102448743   -0.05585566958298298   -0.04133886417024829
-0.23449445102448743   -0.05585566958298298   -0.04133886417024829
-0.23449445102448743   -0.05585566958298298   -0.04133886417024829
-0.23449445102448743   -0.05585566958298298   -0.04133886417024829
-0.1829672468826047   0.048864395777367856   0.040315366967342295
-0.1829672468826047   0.048864395777367856   0.040315366967342295
-0.1829672468826047   0.048864395777367856   0.040315366967342295
-0.1829672468826047   0.048864395777367856   0.040315366967342295
-0.16933183015975428   -0.03486512732952586   -0.05532147689296329
-0.16933183015975428   -0.03486512732952586   -0.05532147689296329
-0.16933183015975428   -0.03486512732952586   -0.05532147689296329
-0.16933183015975428   -0.03486512732952586   -0.05532147689296329
-0.1846219034694247   0.0010972721978985273   -0.0033677672061744966
-0.1846219034694247   0.0010972721978985273   -0.0033677672061744966
-0.1846219034694247   0.0010972721978985273   -0.0033677672061744966
-0.1846219034694247   0.0010972721978985273   -0.0033677672061744966
-0.13059012370611622   0.05998427719027953   0.04353765085541529
-0.13059012370611622   0.05998427719027953   0.04353765085541529
-0.13059012370611622   0.05998427719027953   0.04353765085541529
-0.13059012370611622   0.05998427719027953   0.04353765085541529
-0.21942915111382796   -0.043705206520023666   -0.04942455189137864
-0.21942915111382796   -0.043705206520023666   -0.04942455189137864
-0.21942915111382796   -0.043705206520023666   -0.04942455189137864
-0.21942915111382796   -0.043705206520023666   -0.04942455189137864
-0.16886320994937834   0.06941130093238582   0.034819305134100635
-0.16886320994937834   0.06941130093238582   0.034819305134100635
-0.16886320994937834   0.06941130093238582   0.034819305134100635
-0.16886320994937834   0.06941130093238582   0.034819305134100635
-0.12514777946789732   -0.005984174021887251   -0.06231731959732287
-0.12514777946789732   -0.005984174021887251   -0.06231731959732287
-0.12514777946789732   -0.005984174021887251   -0.06231731959732287
-0.12514777946789732   -0.005984174021887251   -0.06231731959732287
-0.1552808076759789   0.019047499156924684   0.010194141344665869
-0.1552808076759789   0.019047499156924684   0.010194141344665869
-0.1552808076759789   0.019047499156924684   0.010194141344665869
-0.1552808076759789   0.019047499156924684   0.010194141344665869
-0.222407772293161   -0.013609991680177295   0.03330280992450242
-0.222407772293161   -0.013609991680177295   0.03330280992450242
-0.222407772293161   -0.013609991680177295   0.03330280992450242
-0.222407772293161   -0.013609991680177295   0.03330280992450242
-0.27655015996740223   -0.06220788027081725   -0.013462240646991593
-0.27655015996740223   -0.06220788027081725   -0.013462240646991593
-0.27655015996740223   -0.06220788027081725   -0.013462240646991593
-0.27655015996740223   -0.06220788027081725   -0.013462240646991593
-0.24661026459831648   0.006271245420296612   0.022234927874349456
-0.24661026459831648   0.006271245420296612   0.022234927874349456
-0.24661026459831648   0.006271245420296612   0.022234927874349456
-0.24661026459831648   0.006271245420296612   0.022234927874349456
-0.22499333488722836   -0.029317607528328304   -0.02037134553860778
-0.22499333488722836   -0.029317607528328304   -0.02037134553860778
-0.22499333488722836   -0.029317607528328304   -0.02037134553860778
-0.22499333488722836   -0.029317607528328304   -0.02037134553860778
-0.24282079496272183   -0.022817506707679153   -0.011273648678077787
-0.24282079496272183   -0.022817506707679153   -0.011273648678077787
-0.24282079496272183   -0.022817506707679153   -0.011273648678077787
-0.24282079496272183   -0.022817506707679153   -0.011273648678077787
-0.20609442420607751   0.015740456659697262   0.02906514367911355
-0.20609442420607751   0.015740456659697262   0.02906514367911355
-0.20609442420607751   0.015740456659697262   0.02906514367911355
-0.20609442420607751   0.015740456659697262   0.02906514367911355
-0.2636139118921336   -0.036891555380396734   -0.019620507794044704
-0.2636139118921336   -0.036891555380396734   -0.019620507794044704
-0.2636139118921336   -0.036891555380396734   -0.019620507794044704
-0.2636139118921336   -0.036891555380396734   -0.019620507794044704
-0.23284256148504118   0.0330282860128861   0.016962248128346145
-0.23284256148504118   0.0330282860128861   0.016962248128346145
-0.23284256148504118   0.0330282860128861   0.016962248128346145
-0.23284256148504118   0.0330282860128861   0.016962248128346145
-0.20656839794776363   -0.0035362274523116563   -0.02528976512876882
-0.20656839794776363   -0.0035362274523116563   -0.02528976512876882
-0.20656839794776363   -0.0035362274523116563   -0.02528976512876882
-0.20656839794776363   -0.0035362274523116563   -0.02528976512876882
-0.22636795924190625   0.002143718355681258   0.0004206375759545685
-0.22636795924190625   0.002143718355681258   0.0004206375759545685
-0.22636795924190625   0.002143718355681258   0.0004206375759545685
-0.22636795924190625   0.002143718355681258   0.0004206375759545685
-0.18674965614012862   0.04408996728968104   0.02617774916740946
-0.18674965614012862   0.04408996728968104   0.02617774916740946
-0.18674965614012862   0.04408996728968104   0.02617774916740946
-0.18674965614012862   0.04408996728968104   0.02617774916740946
-0.2506409333722302   -0.01257753880866213   -0.026423786486054576
-0.2506409333722302   -0.01257753880866213   -0.026423786486054576
-0.2506409333722302   -0.01257753880866213   -0.026423786486054576
-0.2506409333722302   -0.01257753880866213   -0.026423786486054576
-0.21900727630895933   0.06264895706215884   0.011950574058617675
-0.21900727630895933   0.06264895706215884   0.011950574058617675
-0.21900727630895933   0.06264895706215884   0.011950574058617675
-0.21900727630895933   0.06264895706215884   0.011950574058617675
-0.1906758574729688   0.025083516923114696   -0.029916148474579313
-0.1906758574729688   0.025083516923114696   -0.029916148474579313
-0.1906758574729688   0.025083516923114696   -0.029916148474579313
-0.1906758574729688   0.025083516923114696   -0.029916148474579313
-0.21081227880430692   0.027927751294114907   0.01232524610796126
-0.21081227880430692   0.027927751294114907   0.01232524610796126
-0.21081227880430692   0.027927751294114907   0.01232524610796126
-0.21081227880430692   0.027927751294114907   0.01232524610796126
-0.2670647346980856   -0.037610649451304795   0.009367654880074773
-0.2670647346980856   -0.037610649451304795   0.009367654880074773
-0.2670647346980856   -0.037610649451304795   0.009367654880074773
-0.2670647346980856   -0.037610649451304795   0.009367654880074773
-0.30449785418430025   -0.039324526524209966   0.008137466343685522
-0.30449785418430025   -0.039324526524209966   0.008137466343685522
-0.30449785418430025   -0.039324526524209966   0.008137466343685522
-0.30449785418430025   -0.039324526524209966   0.008137466343685522
-0.29347314650362283   -0.017894930913972415   -0.0028856138042285488
-0.29347314650362283   -0.017894930913972415   -0.0028856138042285488
-0.29347314650362283   -0.017894930913972415   -0.0028856138042285488
-0.29347314650362283   -0.017894930913972415   -0.0028856138042285488
-0.2528414379437641   -0.005308977703745409   0.0026592842711502442
-0.2528414379437641   -0.005308977703745409   0.0026592842711502442
-0.2528414379437641   -0.005308977703745409   0.0026592842711502442
-0.2528414379437641   -0.005308977703745409   0.0026592842711502442
-0.2798885922061142   -0.023615829641230615   -0.007485733417212297
-0.2798885922061142   -0.023615829641230615   -0.007485733417212297
-0.2798885922061142   -0.023615829641230615   -0.007485733417212297
-0.2798885922061142   -0.023615829641230615   -0.007485733417212297
-0.25304002018294497   -0.008299753178910366   0.0046571485504063115
-0.25304002018294497   -0.008299753178910366   0.0046571485504063115
-0.25304002018294497   -0.008299753178910366   0.0046571485504063115
-0.25304002018294497   -0.008299753178910366   0.0046571485504063115
-0.29148702682065725   -0.013116617995029015   0.0022666716916559908
-0.29148702682065725   -0.013116617995029015   0.0022666716916559908
-0.29148702682065725   -0.013116617995029015   0.0022666716916559908
-0.29148702682065725   -0.013116617995029015   0.0022666716916559908
-0.2790080572036993   0.011799262099449925   -0.007319107939403869
-0.2790080572036993   0.011799262099449925   -0.007319107939403869
-0.2790080572036993   0.011799262099449925   -0.007319107939403869
-0.2790080572036993   0.011799262099449925   -0.007319107939403869
-0.2391200811598232   0.021621971949019568   -0.0030190361816992695
-0.2391200811598232   0.021621971949019568   -0.0030190361816992695
-0.2391200811598232   0.021621971949019568   -0.0030190361816992695
-0.2391200811598232   0.021621971949019568   -0.0030190361816992695
-0.2647755120656847   0.002924034505467618   0.004062422839027809
-0.2647755120656847   0.002924034505467618   0.004062422839027809
-0.2647755120656847   0.002924034505467618   0.004062422839027809
-0.2647755120656847   0.002924034505467618   0.004062422839027809
-0.23863215006030541   0.02128898614082573   -0.0002463948759184667
-0.23863215006030541   0.02128898614082573   -0.0002463948759184667
-0.23863215006030541   0.02128898614082573   -0.0002463948759184667
-0.23863215006030541   0.02128898614082573   -0.0002463948759184667
-0.27793634056830524   0.013691895642554935   -0.0038531583055404356
-0.27793634056830524   0.013691895642554935   -0.0038531583055404356
-0.27793634056830524   0.013691895642554935   -0.0038531583055404356
-0.27793634056830524   0.013691895642554935   -0.0038531583055404356
-0.26515710719584956   0.04167561109088873   -0.012320655028296313
-0.26515710719584956   0.04167561109088873   -0.012320655028296313
-0.26515710719584956   0.04167561109088873   -0.012320655028296313
-0.26515710719584956   0.04167561109088873   -0.012320655028296313
-0.2260458665287901   0.04866320448104758   -0.009256624459424469
-0.2260458665287901   0.04866320448104758   -0.009256624459424469
-0.2260458665287901   0.04866320448104758   -0.009256624459424469
-0.2260458665287901   0.04866320448104758   -0.009256624459424469
-0.25036353545707585   0.02951278515024098   0.015069934212543646
-0.25036353545707585   0.02951278515024098   0.015069934212543646
-0.25036353545707585   0.02951278515024098   0.015069934212543646
-0.25036353545707585   0.02951278515024098   0.015069934212543646
-0.3132235083539929   -0.059632192531235015   -0.015183138497755277
-0.3132235083539929   -0.059632192531235015   -0.015183138497755277
-0.3132235083539929   -0.059632192531235015   -0.015183138497755277
-0.3132235083539929   -0.059632192531235015   -0.015183138497755277
-0.3348531222346621   -0.016910894578156956   0.02877437688480193
-0.3348531222346621   -0.016910894578156956   0.02877437688480193
-0.3348531222346621   -0.016910894578156956   0.02877437688480193
-0.3348531222346621   -0.016910894578156956   0.02877437688480193
-0.3402748595402057   -0.04107523809803644   -0.028340569873614746
-0.3402748595402057   -0.04107523809803644   -0.028340569873614746
-0.3402748595402057   -0.04107523809803644   -0.028340569873614746
-0.3402748595402057   -0.04107523809803644   -0.028340569873614746
-0.2808861454468954   0.017858122641189862   0.024296337924246354
-0.2808861454468954   0.017858122641189862   0.024296337924246354
-0.2808861454468954   0.017858122641189862   0.024296337924246354
-0.2808861454468954   0.017858122641189862   0.024296337924246354
-0.3159863728896706   -0.023329116519801685   -0.0047065091098248656
-0.3159863728896706   -0.023329116519801685   -0.0047065091098248656
-0.3159863728896706   -0.023329116519801685   -0.0047065091098248656
-0.3159863728896706   -0.023329116519801685   -0.0047065091098248656
-0.2995826809371546   -0.03127860981656453   -0.020049607069298113
-0.2995826809371546   -0.03127860981656453   -0.020049607069298113
-0.2995826809371546   -0.03127860981656453   -0.020049607069298113
-0.2995826809371546   -0.03127860981656453   -0.020049607069298113
-0.31970412070164445   0.009935697708018124   0.023502188513136735
-0.31970412070164445   0.009935697708018124   0.023502188513136735
-0.31970412070164445   0.009935697708018124   0.023502188513136735
-0.31970412070164445   0.009935697708018124   0.023502188513136735
-0.3213043901352097   -0.012917934206900225   -0.031797727443760485
-0.3213043901352097   -0.012917934206900225   -0.031797727443760485
-0.3213043901352097   -0.012917934206900225   -0.031797727443760485
-0.3213043901352097   -0.012917934206900225   -0.031797727443760485
-0.2678661198661903   0.04214638680502858   0.018043454042560476
-0.2678661198661903   0.04214638680502858   0.018043454042560476
-0.2678661198661903   0.04214638680502858   0.018043454042560476
-0.2678661198661903   0.04214638680502858   0.018043454042560476
-0.29880530416979206   0.0022320001121531458   0.00721549398748471
-0.29880530416979206   0.0022320001121531458   0.00721549398748471
-0.29880530416979206   0.0022320001121531458   0.00721549398748471
-0.29880530416979206   0.0022320001121531458   0.00721549398748471
-0.28598283851145556   -0.0046440240576205855   -0.025749728321119388
-0.28598283851145556   -0.0046440240576205855   -0.025749728321119388
-0.28598283851145556   -0.0046440240576205855   -0.025749728321119388
-0.28598283851145556   -0.0046440240576205855   -0.025749728321119388
-0.30129360346143874   0.035766544684255025   0.01957172703394116
-0.30129360346143874   0.035766544684255025   0.01957172703394116
-0.30129360346143874   0.035766544684255025   0.01957172703394116
-0.30129360346143874   0.035766544684255025   0.01957172703394116
-0.30470570118103063   0.018098927565706607   -0.0348949472638537
-0.30470570118103063   0.018098927565706607   -0.0348949472638537
-0.30470570118103063   0.018098927565706607   -0.0348949472638537
-0.30470570118103063   0.018098927565706607   -0.0348949472638537
-0.2548103891728856   0.06921241111031601   0.011876135067095762
-0.2548103891728856   0.06921241111031601   0.011876135067095762
-0.2548103891728856   0.06921241111031601   0.011876135067095762
-0.2548103891728856   0.06921241111031601   0.011876135067095762
-0.2842255876751391   0.027589224948794677   0.018612204705053127
-0.2842255876751391   0.027589224948794677   0.018612204705053127
-0.2842255876751391   0.027589224948794677   0.018612204705053127
-0.2842255876751391   0.027589224948794677   0.018612204705053127
-0.35902194930559983   -0.07092142736746922   -0.03805922568058004
-0.35902194930559983   -0.07092142736746922   -0.03805922568058004
-0.35902194930559983   -0.07092142736746922   -0.03805922568058004
-0.35902194930559983   -0.07092142736746922   -0.03805922568058004
-0.39752925389125854   0.005364926278913912   0.051811536270668465
-0.39752925389125854   0.005364926278913912   0.051811536270668465
-0.39752925389125854   0.005364926278913912   0.051811536270668465
-0.39752925389125854   0.005364926278913912   0.051811536270668465
-0.39224907244337043   -0.059059987833625975   -0.05070839363882451
-0.39224907244337043   -0.059059987833625975   -0.05070839363882451
-0.39224907244337043   -0.059059987833625975   -0.05070839363882451
-0.39224907244337043   -0.059059987833625975   -0.05070839363882451
-0.30815838353004066   0.04472589044817965   0.04644068163099303
-0.30815838353004066   0.04472589044817965   0.04644068163099303
-0.30815838353004066   0.04472589044817965   0.04644068163099303
-0.30815838353004066   0.04472589044817965   0.04644068163099303
-0.34963393706668205   -0.015270142195249109   -0.0022929137630773484
-0.34963393706668205   -0.015270142195249109   -0.0022929137630773484
-0.34963393706668205   -0.015270142195249109   -0.0022929137630773484
-0.34963393706668205   -0.015270142195249109   -0.0022929137630773484
-0.3447190413822281   -0.04811637194165555   -0.04352034524011539
-0.3447190413822281   -0.04811637194165555   -0.04352034524011539
-0.3447190413822281   -0.04811637194165555   -0.04352034524011539
-0.3447190413822281   -0.04811637194165555   -0.04352034524011539
-0.3537074415899036   0.035763247557492786   0.04717652523739096
-0.3537074415899036   0.035763247557492786   0.04717652523739096
-0.3537074415899036   0.035763247557492786   0.04717652523739096
-0.3537074415899036   0.035763247557492786   0.04717652523739096
-0.3594576947223687   -0.04262505350002872   -0.06044605610577122
-0.3594576947223687   -0.04262505350002872   -0.06044605610577122
-0.3594576947223687   -0.04262505350002872   -0.06044605610577122
-0.3594576947223687   -0.04262505350002872   -0.06044605610577122
-0.2934974685790963   0.05630213894488578   0.03801680718501982
-0.2934974685790963   0.05630213894488578   0.03801680718501982
-0.2934974685790963   0.05630213894488578   0.03801680718501982
-0.2934974685790963   0.05630213894488578   0.03801680718501982
-0.3274685705812683   0.001910247378525784   0.009141988851057412
-0.3274685705812683   0.001910247378525784   0.009141988851057412
-0.3274685705812683   0.001910247378525784   0.009141988851057412
-0.3274685705812683   0.001910247378525784   0.009141988851057412
-0.3293508130820828   -0.034586684356518876   -0.05036109202850912
-0.3293508130820828   -0.034586684356518876   -0.05036109202850912
-0.3293508130820828   -0.034586684356518876   -0.05036109202850912
-0.3293508130820828   -0.034586684356518876   -0.05036109202850912
-0.3215278411017822   0.050340278918977285   0.036237879578163185
-0.3215278411017822   0.050340278918977285   0.036237879578163185
-0.3215278411017822   0.050340278918977285   0.036237879578163185
-0.3215278411017822   0.050340278918977285   0.036237879578163185
-0.31639728908934056   -0.01420002151517498   -0.0660659514524898
-0.31639728908934056   -0.01420002151517498   -0.0660659514524898
-0.31639728908934056   -0.01420002151517498   -0.0660659514524898
-0.31639728908934056   -0.01420002151517498   -0.0660659514524898
-0.28037261510550343   0.07355566242600924   0.03131374825347869
-0.28037261510550343   0.07355566242600924   0.03131374825347869
-0.28037261510550343   0.07355566242600924   0.03131374825347869
-0.28037261510550343   0.07355566242600924   0.03131374825347869
-0.2970869216860653   0.019068637435009667   0.02238771305307741
-0.2970869216860653   0.019068637435009667   0.02238771305307741
-0.2970869216860653   0.019068637435009667   0.02238771305307741
-0.2970869216860653   0.019068637435009667   0.02238771305307741
0.21733854225787363   0.035110865519179794   0.056567489324331297
0.21733854225787363   0.035110865519179794   0.056567489324331297
0.21733854225787363   0.035110865519179794   0.056567489324331297
0.21733854225787363   0.035110865519179794   0.056567489324331297
-0.005077344212911519   -0.09088080922560592   -0.03733523415968508
-0.005077344212911519   -0.09088080922560592   -0.03733523415968508
-0.005077344212911519   -0.09088080922560592   -0.03733523415968508
-0.005077344212911519   -0.09088080922560592   -0.03733523415968508
0.04831622884677575   0.0177136010084283   0.04369680891554488
0.04831622884677575   0.0177136010084283   0.04369680891554488
0.04831622884677575   0.0177136010084283   0.04369680891554488
0.04831622884677575   0.0177136010084283   0.04369680891554488
0.2266692218372917   -0.0317479088613073   -0.046741973181648036
0.2266692218372917   -0.0317479088613073   -0.046741973181648036
0.2266692218372917   -0.0317479088613073   -0.046741973181648036
0.2266692218372917   -0.0317479088613073   -0.046741973181648036
0.11092602485223294   -0.01762271477496282   -0.02696378757156762
0.11092602485223294   -0.01762271477496282   -0.02696378757156762
0.11092602485223294   -0.01762271477496282   -0.02696378757156762
0.11092602485223294   -0.01762271477496282   -0.02696378757156762
0.2650826947345516   0.06253585740961841   0.051041625033726744
0.2650826947345516   0.06253585740961841   0.051041625033726744
0.2650826947345516   0.06253585740961841   0.051041625033726744
0.2650826947345516   0.06253585740961841   0.051041625033726744
0.012269708218365628   -0.07420321299364865   -0.044618980224428756
0.012269708218365628   -0.07420321299364865   -0.044618980224428756
0.012269708218365628   -0.07420321299364865   -0.044618980224428756
0.012269708218365628   -0.07420321299364865   -0.044618980224428756
0.06775163636569044   0.030908498748992264   0.036463186974182576
0.06775163636569044   0.030908498748992264   0.036463186974182576
0.06775163636569044   0.030908498748992264   0.036463186974182576
0.06775163636569044   0.030908498748992264   0.036463186974182576
0.2639313572324687   -0.01684317167130244   -0.05846277277510761
0.2639313572324687   -0.01684317167130244   -0.05846277277510761
0.2639313572324687   -0.01684317167130244   -0.05846277277510761
0.2639313572324687   -0.01684317167130244   -0.05846277277510761
0.14455652046021522   -0.0011767679909300208   -0.012687985009233701
0.14455652046021522   -0.0011767679909300208   -0.012687985009233701
0.14455652046021522   -0.0011767679909300208   -0.012687985009233701
0.14455652046021522   -0.0011767679909300208   -0.012687985009233701
0.30276244157462556   0.0786565982073461   0.04019287905702838
0.30276244157462556   0.0786565982073461   0.04019287905702838
0.30276244157462556   0.0786565982073461   0.04019287905702838
0.30276244157462556   0.0786565982073461   0.04019287905702838
0.031234008607086156   -0.06227781454610561   -0.05293863852374098
0.031234008607086156   -0.06227781454610561   -0.05293863852374098
0.031234008607086156   -0.06227781454610561   -0.05293863852374098
0.031234008607086156   -0.06227781454610561   -0.05293863852374098
0.08661174374085753   0.055141800225042614   0.0315530284285716
0.08661174374085753   0.055141800225042614   0.0315530284285716
0.08661174374085753   0.055141800225042614   0.0315530284285716
0.08661174374085753   0.055141800225042614   0.0315530284285716
0.31340004819822065   0.01651449771166033   -0.06447067203686788
0.31340004819822065   0.01651449771166033   -0.06447067203686788
0.31340004819822065   0.01651449771166033   -0.06447067203686788
0.31340004819822065   0.01651449771166033   -0.06447067203686788
0.17276197937475757   0.017260735636917546   0.0008048293496403219
0.17276197937475757   0.017260735636917546   0.0008048293496403219
0.17276197937475757   0.017260735636917546   0.0008048293496403219
0.17276197937475757   0.017260735636917546   0.0008048293496403219
0.030152472403654478   0.009509751893586781   0.03842328780395219
0.030152472403654478   0.009509751893586781   0.03842328780395219
0.030152472403654478   0.009509751893586781   0.03842328780395219
0.030152472403654478   0.009509751893586781   0.03842328780395219
-0.20616728261391404   -0.07717138341435287   -0.017129838115078316
-0.20616728261391404   -0.07717138341435287   -0.017129838115078316
-0.20616728261391404   -0.07717138341435287   -0.017129838115078316
-0.20616728261391404   -0.07717138341435287   -0.017129838115078316
-0.1724936241137024   -0.011234653906582525   0.017543711796595113
-0.1724936241137024   -0.011234653906582525   0.017543711796595113
-0.1724936241137024   -0.011234653906582525   0.017543711796595113
-0.1724936241137024   -0.011234653906582525   0.017543711796595113
0.03155789416176666   -0.008791032384535847   -0.013590231116535328
0.03155789416176666   -0.008791032384535847   -0.013590231116535328
0.03155789416176666   -0.008791032384535847   -0.013590231116535328
0.03155789416176666   -0.008791032384535847   -0.013590231116535328
-0.08094169121481015   -0.019945845617965308   -0.012955063103541551
-0.08094169121481015   -0.019945845617965308   -0.012955063103541551
-0.08094169121481015   -0.019945845617965308   -0.012955063103541551
-0.08094169121481015   -0.019945845617965308   -0.012955063103541551
0.05017307665444599   0.03660739473349431   0.034087254228833914
0.05017307665444599   0.03660739473349431   0.034087254228833914
0.05017307665444599   0.03660739473349431   0.034087254228833914
0.05017307665444599   0.03660739473349431   0.034087254228833914
-0.18938449748152913   -0.054908771899760137   -0.023236537049360986
-0.18938449748152913   -0.054908771899760137   -0.023236537049360986
-0.18938449748152913   -0.054908771899760137   -0.023236537049360986
-0.18938449748152913   -0.054908771899760137   -0.023236537049360986
-0.1547742644769656   0.014360102938141057   0.012397753352696715
-0.1547742644769656   0.014360102938141057   0.012397753352696715
-0.1547742644769656   0.014360102938141057   0.012397753352696715
-0.1547742644769656   0.014360102938141057   0.012397753352696715
0.053697616324664764   0.015495284602070886   -0.018393699084025113
0.053697616324664764   0.015495284602070886   -0.018393699084025113
0.053697616324664764   0.015495284602070886   -0.018393699084025113
0.053697616324664764   0.015495284602070886   -0.018393699084025113
-0.0621590970455348   0.0026306342464567575   -0.0015794918720658125
-0.0621590970455348   0.0026306342464567575   -0.0015794918720658125
-0.0621590970455348   0.0026306342464567575   -0.0015794918720658125
-0.0621590970455348   0.0026306342464567575   -0.0015794918720658125
0.07309636713405766   0.06356145541900658   0.03053388414600436
0.07309636713405766   0.06356145541900658   0.03053388414600436
0.07309636713405766   0.06356145541900658   0.03053388414600436
0.07309636713405766   0.06356145541900658   0.03053388414600436
-0.17251314256380026   -0.032046195156241956   -0.029890338987093618
-0.17251314256380026   -0.032046195156241956   -0.029890338987093618
-0.17251314256380026   -0.032046195156241956   -0.029890338987093618
-0.17251314256380026   -0.032046195156241956   -0.029890338987093618
-0.13694838452011565   0.043310716060237016   0.007492374258148405
-0.13694838452011565   0.043310716060237016   0.007492374258148405
-0.13694838452011565   0.043310716060237016   0.007492374258148405
-0.13694838452011565   0.043310716060237016   0.007492374258148405
0.07318372308502247   0.043039881744476975   -0.023485156370037112
0.07318372308502247   0.043039881744476975   -0.023485156370037112
0.07318372308502247   0.043039881744476975   -0.023485156370037112
0.07318372308502247   0.043039881744476975   -0.023485156370037112
-0.04138104646222035   0.027563047111273997   0.01055037171816898
-0.04138104646222035   0.027563047111273997   0.01055037171816898
-0.04138104646222035   0.027563047111273997   0.01055037171816898
-0.04138104646222035   0.027563047111273997   0.01055037171816898
-0.18749756521876354   -0.014785407425479992   0.01383277287180345
-0.18749756521876354   -0.014785407425479992   0.01383277287180345
-0.18749756521876354   -0.014785407425479992   0.01383277287180345
-0.18749756521876354   -0.014785407425479992   0.01383277287180345
-0.4036095574538137   -0.05487258695861447   0.0035444483901473554
-0.4036095574538137   -0.05487258695861447   0.0035444483901473554
-0.4036095574538137   -0.05487258695861447   0.0035444483901473554
-0.4036095574538137   -0.05487258695861447   0.0035444483901473554
-0.38810276299397717   -0.03441335582365182   -0.007601281278138115
-0.38810276299397717   -0.03441335582365182   -0.007601281278138115
-0.38810276299397717   -0.03441335582365182   -0.007601281278138115
-0.38810276299397717   -0.03441335582365182   -0.007601281278138115
-0.16917622537464638   0.01432783464137357   0.008568216943920383
-0.16917622537464638   0.01432783464137357   0.008568216943920383
-0.16917622537464638   0.01432783464137357   0.008568216943920383
-0.16917622537464638   0.01432783464137357   0.008568216943920383
-0.2875157322811573   -0.020602348847984224   -0.007547583395156958
-0.2875157322811573   -0.020602348847984224   -0.007547583395156958
-0.2875157322811573   -0.020602348847984224   -0.007547583395156958
-0.2875157322811573   -0.020602348847984224   -0.007547583395156958
-0.16939269557655182   0.012676378358846871   0.009137322216920474
-0.16939269557655182   0.012676378358846871   0.009137322216920474
-0.16939269557655182   0.012676378358846871   0.009137322216920474
-0.16939269557655182   0.012676378358846871   0.009137322216920474
-0.3864061406135831   -0.0312817473626301   -0.00224977783719197
-0.3864061406135831   -0.0312817473626301   -0.00224977783719197
-0.3864061406135831   -0.0312817473626301   -0.00224977783719197
-0.3864061406135831   -0.0312817473626301   -0.00224977783719197
-0.3694686687807723   -0.006234588499065233   -0.011953250801174254
-0.3694686687807723   -0.006234588499065233   -0.011953250801174254
-0.3694686687807723   -0.006234588499065233   -0.011953250801174254
-0.3694686687807723   -0.006234588499065233   -0.011953250801174254
-0.15163270174666074   0.03930841122066529   0.0031572587216976214
-0.15163270174666074   0.03930841122066529   0.0031572587216976214
-0.15163270174666074   0.03930841122066529   0.0031572587216976214
-0.15163270174666074   0.03930841122066529   0.0031572587216976214
-0.26827504458089674   0.004146311483805135   0.003914560132527637
-0.26827504458089674   0.004146311483805135   0.003914560132527637
-0.26827504458089674   0.004146311483805135   0.003914560132527637
-0.26827504458089674   0.004146311483805135   0.003914560132527637
-0.15117601099252354   0.04063701496785738   0.004112108745190803
-0.15117601099252354   0.04063701496785738   0.004112108745190803
-0.15117601099252354   0.04063701496785738   0.004112108745190803
-0.15117601099252354   0.04063701496785738   0.004112108745190803
-0.3687416521931418   -0.006379484904490446   -0.008173271457599971
-0.3687416521931418   -0.006379484904490446   -0.008173271457599971
-0.3687416521931418   -0.006379484904490446   -0.008173271457599971
-0.3687416521931418   -0.006379484904490446   -0.008173271457599971
-0.35158623390347765   0.022023075706012155   -0.01691690095988335
-0.35158623390347765   0.022023075706012155   -0.01691690095988335
-0.35158623390347765   0.022023075706012155   -0.01691690095988335
-0.35158623390347765   0.022023075706012155   -0.01691690095988335
-0.13485177116420477   0.06436248564489039   -0.003076328546947976
-0.13485177116420477   0.06436248564489039   -0.003076328546947976
-0.13485177116420477   0.06436248564489039   -0.003076328546947976
-0.13485177116420477   0.06436248564489039   -0.003076328546947976
-0.2500398562390038   0.02882765981779626   0.01462854068288479
-0.2500398562390038   0.02882765981779626   0.01462854068288479
-0.2500398562390038   0.02882765981779626   0.01462854068288479
-0.2500398562390038   0.02882765981779626   0.01462854068288479
-0.40338025610646616   -0.03867293591318379   -0.011508695918542143
-0.40338025610646616   -0.03867293591318379   -0.011508695918542143
-0.40338025610646616   -0.03867293591318379   -0.011508695918542143
-0.40338025610646616   -0.03867293591318379   -0.011508695918542143
-0.5990647533585661   -0.03391302791077562   0.023838023534380713
-0.5990647533585661   -0.03391302791077562   0.023838023534380713
-0.5990647533585661   -0.03391302791077562   0.023838023534380713
-0.5990647533585661   -0.03391302791077562   0.023838023534380713
-0.5993051766555428   -0.05711637729389325   -0.032157130542521895
-0.5993051766555428   -0.05711637729389325   -0.032157130542521895
-0.5993051766555428   -0.05711637729389325   -0.032157130542521895
-0.5993051766555428   -0.05711637729389325   -0.032157130542521895
-0.3665777095215543   0.03640441240999938   0.029206217850321903
-0.3665777095215543   0.03640441240999938   0.029206217850321903
-0.3665777095215543   0.03640441240999938   0.029206217850321903
-0.3665777095215543   0.03640441240999938   0.029206217850321903
-0.48932810108772035   -0.020933788577040993   -0.0031816066118203618
-0.48932810108772035   -0.020933788577040993   -0.0031816066118203618
-0.48932810108772035   -0.020933788577040993   -0.0031816066118203618
-0.48932810108772035   -0.020933788577040993   -0.0031816066118203618
-0.3851210715260999   -0.011057805093314194   -0.016048374669089628
-0.3851210715260999   -0.011057805093314194   -0.016048374669089628
-0.3851210715260999   -0.011057805093314194   -0.016048374669089628
-0.3851210715260999   -0.011057805093314194   -0.016048374669089628
-0.5795368198686118   -0.008429165008184525   0.017997441106429216
-0.5795368198686118   -0.008429165008184525   0.017997441106429216
-0.5795368198686118   -0.008429165008184525   0.017997441106429216
-0.5795368198686118   -0.008429165008184525   0.017997441106429216
-0.5759498883423982   -0.030235290218800726   -0.03578116260037803
-0.5759498883423982   -0.030235290218800726   -0.03578116260037803
-0.5759498883423982   -0.030235290218800726   -0.03578116260037803
-0.5759498883423982   -0.030235290218800726   -0.03578116260037803
-0.34935455315592245   0.05913820808095288   0.023244530743056567
-0.34935455315592245   0.05913820808095288   0.023244530743056567
-0.34935455315592245   0.05913820808095288   0.023244530743056567
-0.34935455315592245   0.05913820808095288   0.023244530743056567
-0.4662410566430475   0.004014832965868478   0.008630517193987823
-0.4662410566430475   0.004014832965868478   0.008630517193987823
-0.4662410566430475   0.004014832965868478   0.008630517193987823
-0.4662410566430475   0.004014832965868478   0.008630517193987823
-0.3672827091759814   0.014335641566084717   -0.021593682842369642
-0.3672827091759814   0.014335641566084717   -0.021593682842369642
-0.3672827091759814   0.014335641566084717   -0.021593682842369642
-0.3672827091759814   0.014335641566084717   -0.021593682842369642
-0.5566444252229604   0.015944583395446743   0.01456627938256385
-0.5566444252229604   0.015944583395446743   0.01456627938256385
-0.5566444252229604   0.015944583395446743   0.01456627938256385
-0.5566444252229604   0.015944583395446743   0.01456627938256385
-0.5550574311918858   -0.0009157227048990357   -0.03851749198997929
-0.5550574311918858   -0.0009157227048990357   -0.03851749198997929
-0.5550574311918858   -0.0009157227048990357   -0.03851749198997929
-0.5550574311918858   -0.0009157227048990357   -0.03851749198997929
-0.33231090766768273   0.08424502624726114   0.017237779677842312
-0.33231090766768273   0.08424502624726114   0.017237779677842312
-0.33231090766768273   0.08424502624726114   0.017237779677842312
-0.33231090766768273   0.08424502624726114   0.017237779677842312
-0.44897278834760096   0.02728033471102162   0.019216423980989484
-0.44897278834760096   0.02728033471102162   0.019216423980989484
-0.44897278834760096   0.02728033471102162   0.019216423980989484
-0.44897278834760096   0.02728033471102162   0.019216423980989484
-0.6151564888563198   -0.05552463695105425   -0.0350090449141092
-0.6151564888563198   -0.05552463695105425   -0.0350090449141092
-0.6151564888563198   -0.05552463695105425   -0.0350090449141092
-0.6151564888563198   -0.05552463695105425   -0.0350090449141092
-0.8219151779444577   -0.014536708648008378   0.05168471407438438
-0.8219151779444577   -0.014536708648008378   0.05168471407438438
-0.8219151779444577   -0.014536708648008378   0.05168471407438438
-0.8219151779444577   -0.014536708648008378   0.05168471407438438
-0.8105333182680725   -0.07438508874762582   -0.04673927961000246
-0.8105333182680725   -0.07438508874762582   -0.04673927961000246
-0.8105333182680725   -0.07438508874762582   -0.04673927961000246
-0.8105333182680725   -0.07438508874762582   -0.04673927961000246
-0.5589528035506058   0.061537782175117656   0.05095057551315109
-0.5589528035506058   0.061537782175117656   0.05095057551315109
-0.5589528035506058   0.061537782175117656   0.05095057551315109
-0.5589528035506058   0.061537782175117656   0.05095057551315109
-0.6713871561820578   -0.01192082043439155   0.005596550731146482
-0.6713871561820578   -0.01192082043439155   0.005596550731146482
-0.6713871561820578   -0.01192082043439155   0.005596550731146482
-0.6713871561820578   -0.01192082043439155   0.005596550731146482
-0.5953546101147746   -0.029921355184566123   -0.03959931994800624
-0.5953546101147746   -0.029921355184566123   -0.03959931994800624
-0.5953546101147746   -0.029921355184566123   -0.03959931994800624
-0.5953546101147746   -0.029921355184566123   -0.03959931994800624
-0.7730188047495656   0.018186755566395346   0.04826144366849921
-0.7730188047495656   0.018186755566395346   0.04826144366849921
-0.7730188047495656   0.018186755566395346   0.04826144366849921
-0.7730188047495656   0.018186755566395346   0.04826144366849921
-0.7735541562072672   -0.05843922235132126   -0.05563331166784447
-0.7735541562072672   -0.05843922235132126   -0.05563331166784447
-0.7735541562072672   -0.05843922235132126   -0.05563331166784447
-0.7735541562072672   -0.05843922235132126   -0.05563331166784447
-0.5399407456329651   0.0720223098106545   0.04200695091732607
-0.5399407456329651   0.0720223098106545   0.04200695091732607
-0.5399407456329651   0.0720223098106545   0.04200695091732607
-0.5399407456329651   0.0720223098106545   0.04200695091732607
-0.6504557273673334   0.004816879620684444   0.015133249022910515
-0.6504557273673334   0.004816879620684444   0.015133249022910515
-0.6504557273673334   0.004816879620684444   0.015133249022910515
-0.6504557273673334   0.004816879620684444   0.015133249022910515
-0.5752530503058815   -0.016798992803997173   -0.04573326983259783
-0.5752530503058815   -0.016798992803997173   -0.04573326983259783
-0.5752530503058815   -0.016798992803997173   -0.04573326983259783
-0.5752530503058815   -0.016798992803997173   -0.04573326983259783
-0.736881865382402   0.03174206641527652   0.037546853689872955
-0.736881865382402   0.03174206641527652   0.037546853689872955
-0.736881865382402   0.03174206641527652   0.037546853689872955
-0.736881865382402   0.03174206641527652   0.037546853689872955
-0.7279783973913476   -0.03463781372350466   -0.062047850208246554
-0.7279783973913476   -0.03463781372350466   -0.062047850208246554
-0.7279783973913476   -0.03463781372350466   -0.062047850208246554
-0.7279783973913476   -0.03463781372350466   -0.062047850208246554
-0.5232399067851451   0.08466345078982149   0.03499095654900178
-0.5232399067851451   0.08466345078982149   0.03499095654900178
-0.5232399067851451   0.08466345078982149   0.03499095654900178
-0.5232399067851451   0.08466345078982149   0.03499095654900178
-0.6111644255010178   0.020489544766793405   0.02857401749890274
-0.6111644255010178   0.020489544766793405   0.02857401749890274
-0.6111644255010178   0.020489544766793405   0.02857401749890274
-0.6111644255010178   0.020489544766793405   0.02857401749890274
0.6516919033255804   0.05923178759550328   0.056458502407371436
0.6516919033255804   0.05923178759550328   0.056458502407371436
0.6516919033255804   0.05923178759550328   0.056458502407371436
0.6516919033255804   0.05923178759550328   0.056458502407371436
0.23859253555945678   -0.1081835555053521   -0.03715907528662063
0.23859253555945678   -0.1081835555053521   -0.03715907528662063
0.23859253555945678   -0.1081835555053521   -0.03715907528662063
0.23859253555945678   -0.1081835555053521   -0.03715907528662063
0.29450025819690445   -0.0007104347078909362   0.04061436122582107
0.29450025819690445   -0.0007104347078909362   0.04061436122582107
0.29450025819690445   -0.0007104347078909362   0.04061436122582107
0.29450025819690445   -0.0007104347078909362   0.04061436122582107
0.6634471535655628   -0.014896649955931957   -0.04744563032847885
0.6634471535655628   -0.014896649955931957   -0.04744563032847885
0.6634471535655628   -0.014896649955931957   -0.04744563032847885
0.6634471535655628   -0.014896649955931957   -0.04744563032847885
0.4336385656576362   -0.019542086158434016   -0.04183235093181167
0.4336385656576362   -0.019542086158434016   -0.04183235093181167
0.4336385656576362   -0.019542086158434016   -0.04183235093181167
0.4336385656576362   -0.019542086158434016   -0.04183235093181167
0.7022357416694452   0.08252826815704162   0.049072392077955766
0.7022357416694452   0.08252826815704162   0.049072392077955766
0.7022357416694452   0.08252826815704162   0.049072392077955766
0.7022357416694452   0.08252826815704162   0.049072392077955766
0.2584612520061055   -0.09538577090778319   -0.04490533352827769
0.2584612520061055   -0.09538577090778319   -0.04490533352827769
0.2584612520061055   -0.09538577090778319   -0.04490533352827769
0.2584612520061055   -0.09538577090778319   -0.04490533352827769
0.3165267019733089   0.012065691725978031   0.0334861994704852
0.3165267019733089   0.012065691725978031   0.0334861994704852
0.3165267019733089   0.012065691725978031   0.0334861994704852
0.3165267019733089   0.012065691725978031   0.0334861994704852
0.703652975777153   -0.00037849655283525574   -0.059750583388962344
0.703652975777153   -0.00037849655283525574   -0.059750583388962344
0.703652975777153   -0.00037849655283525574   -0.059750583388962344
0.703652975777153   -0.00037849655283525574   -0.059750583388962344
0.47563961907757984   -0.0038649043938147193   -0.025347456451347786
0.47563961907757984   -0.0038649043938147193   -0.025347456451347786
0.47563961907757984   -0.0038649043938147193   -0.025347456451347786
0.47563961907757984   -0.0038649043938147193   -0.025347456451347786
0.7428679714667868   0.09818823785987656   0.03775766064648858
0.7428679714667868   0.09818823785987656   0.03775766064648858
0.7428679714667868   0.09818823785987656   0.03775766064648858
0.7428679714667868   0.09818823785987656   0.03775766064648858
0.2802335535555468   -0.08357919541485549   -0.05233465547748799
0.2802335535555468   -0.08357919541485549   -0.05233465547748799
0.2802335535555468   -0.08357919541485549   -0.05233465547748799
0.2802335535555468   -0.08357919541485549   -0.05233465547748799
0.3385234116220318   0.04023777687655208   0.02902236036377969
0.3385234116220318   0.04023777687655208   0.02902236036377969
0.3385234116220318   0.04023777687655208   0.02902236036377969
0.3385234116220318   0.04023777687655208   0.02902236036377969
0.7564583689658134   0.03748257966837096   -0.06444880273436865
0.7564583689658134   0.03748257966837096   -0.06444880273436865
0.7564583689658134   0.03748257966837096   -0.06444880273436865
0.7564583689658134   0.03748257966837096   -0.06444880273436865
0.5015133666259413   0.015215765065103137   -0.011097247960527998
0.5015133666259413   0.015215765065103137   -0.011097247960527998
0.5015133666259413   0.015215765065103137   -0.011097247960527998
0.5015133666259413   0.015215765065103137   -0.011097247960527998
0.2833301900363527   0.03318600588101486   0.04515963571149202
0.2833301900363527   0.03318600588101486   0.04515963571149202
0.2833301900363527   0.03318600588101486   0.04515963571149202
0.2833301900363527   0.03318600588101486   0.04515963571149202
-0.13821392972539379   -0.10094715102633232   -0.019472067399016125
-0.13821392972539379   -0.10094715102633232   -0.019472067399016125
-0.13821392972539379   -0.10094715102633232   -0.019472067399016125
-0.13821392972539379   -0.10094715102633232   -0.019472067399016125
-0.0997873156520292   -0.02961035597078554   0.01365836076601206
-0.0997873156520292   -0.02961035597078554   0.01365836076601206
-0.0997873156520292   -0.02961035597078554   0.01365836076601206
-0.0997873156520292   -0.02961035597078554   0.01365836076601206
0.2855201591676429   0.0009502256962798591   -0.0059467943246569906
0.2855201591676429   0.0009502256962798591   -0.0059467943246569906
0.2855201591676429   0.0009502256962798591   -0.0059467943246569906
0.2855201591676429   0.0009502256962798591   -0.0059467943246569906
0.07898372025708342   -0.0213052281627193   -0.01781121458137903
0.07898372025708342   -0.0213052281627193   -0.01781121458137903
0.07898372025708342   -0.0213052281627193   -0.01781121458137903
0.07898372025708342   -0.0213052281627193   -0.01781121458137903
0.30596140203064387   0.05687470379155896   0.040334941895068324
0.30596140203064387   0.05687470379155896   0.040334941895068324
0.30596140203064387   0.05687470379155896   0.040334941895068324
0.30596140203064387   0.05687470379155896   0.040334941895068324
-0.11856902451891954   -0.08387530006995557   -0.025985239469271643
-0.11856902451891954   -0.08387530006995557   -0.025985239469271643
-0.11856902451891954   -0.08387530006995557   -0.025985239469271643
-0.11856902451891954   -0.08387530006995557   -0.025985239469271643
-0.07926964381931784   -0.005693531247208481   0.008629481813591331
-0.07926964381931784   -0.005693531247208481   0.008629481813591331
-0.07926964381931784   -0.005693531247208481   0.008629481813591331
-0.07926964381931784   -0.005693531247208481   0.008629481813591331
0.3096762713235579   0.0224040945257837   -0.011104356578073673
0.3096762713235579   0.0224040945257837   -0.011104356578073673
0.3096762713235579   0.0224040945257837   -0.011104356578073673
0.3096762713235579   0.0224040945257837   -0.011104356578073673
0.09880295970260855   -0.0024094604971611026   -0.007081051966163551
0.09880295970260855   -0.0024094604971611026   -0.007081051966163551
0.09880295970260855   -0.0024094604971611026   -0.007081051966163551
0.09880295970260855   -0.0024094604971611026   -0.007081051966163551
0.33093608854279766   0.08178456972607046   0.03581425431783663
0.33093608854279766   0.08178456972607046   0.03581425431783663
0.33093608854279766   0.08178456972607046   0.03581425431783663
0.33093608854279766   0.08178456972607046   0.03581425431783663
-0.09886674437877618   -0.06341128978770846   -0.031638262443200456
-0.09886674437877618   -0.06341128978770846   -0.031638262443200456
-0.09886674437877618   -0.06341128978770846   -0.031638262443200456
-0.09886674437877618   -0.06341128978770846   -0.031638262443200456
-0.05900796120125582   0.022023503567251516   0.0036246370301138793
-0.05900796120125582   0.022023503567251516   0.0036246370301138793
-0.05900796120125582   0.022023503567251516   0.0036246370301138793
-0.05900796120125582   0.022023503567251516   0.0036246370301138793
0.33109187708516824   0.04795801353717729   -0.015855548981157052
0.33109187708516824   0.04795801353717729   -0.015855548981157052
0.33109187708516824   0.04795801353717729   -0.015855548981157052
0.33109187708516824   0.04795801353717729   -0.015855548981157052
0.12330615102422347   0.02077129794229668   0.005448627973653343
0.12330615102422347   0.02077129794229668   0.005448627973653343
0.12330615102422347   0.02077129794229668   0.005448627973653343
0.12330615102422347   0.02077129794229668   0.005448627973653343
-0.10884500394905643   0.0072137634629802876   0.0192116469933601
-0.10884500394905643   0.0072137634629802876   0.0192116469933601
-0.10884500394905643   0.0072137634629802876   0.0192116469933601
-0.10884500394905643   0.0072137634629802876   0.0192116469933601
-0.5075443857606179   -0.08915637569012094   -0.002587969427899733
-0.5075443857606179   -0.08915637569012094   -0.002587969427899733
-0.5075443857606179   -0.08915637569012094   -0.002587969427899733
-0.5075443857606179   -0.08915637569012094   -0.002587969427899733
-0.48322536717593195   -0.05257966285434599   -0.011920128733422535
-0.48322536717593195   -0.05257966285434599   -0.011920128733422535
-0.48322536717593195   -0.05257966285434599   -0.011920128733422535
-0.48322536717593195   -0.05257966285434599   -0.011920128733422535
-0.09136766158166816   0.01338304892669617   0.01276322622033444
-0.09136766158166816   0.01338304892669617   0.01276322622033444
-0.09136766158166816   0.01338304892669617   0.01276322622033444
-0.09136766158166816   0.01338304892669617   0.01276322622033444
-0.29826802049560824   -0.027398416335471507   -0.011122633312733839
-0.29826802049560824   -0.027398416335471507   -0.011122633312733839
-0.29826802049560824   -0.027398416335471507   -0.011122633312733839
-0.29826802049560824   -0.027398416335471507   -0.011122633312733839
-0.08731003146941115   0.03189526264608522   0.01453916306223153
-0.08731003146941115   0.03189526264608522   0.01453916306223153
-0.08731003146941115   0.03189526264608522   0.01453916306223153
-0.08731003146941115   0.03189526264608522   0.01453916306223153
-0.4861713822876737   -0.06998026157322278   -0.00924960557325473
-0.4861713822876737   -0.06998026157322278   -0.00924960557325473
-0.4861713822876737   -0.06998026157322278   -0.00924960557325473
-0.4861713822876737   -0.06998026157322278   -0.00924960557325473
-0.4606098187465305   -0.026338850751978407   -0.016101934141651158
-0.4606098187465305   -0.026338850751978407   -0.016101934141651158
-0.4606098187465305   -0.026338850751978407   -0.016101934141651158
-0.4606098187465305   -0.026338850751978407   -0.016101934141651158
-0.07139842511150832   0.035056753066025584   0.007235291039407098
-0.07139842511150832   0.035056753066025584   0.007235291039407098
-0.07139842511150832   0.035056753066025584   0.007235291039407098
-0.07139842511150832   0.035056753066025584   0.007235291039407098
-0.27545627488438007   -0.005444431919420137   -0.00016858030634823995
-0.27545627488438007   -0.005444431919420137   -0.00016858030634823995
-0.27545627488438007   -0.005444431919420137   -0.00016858030634823995
-0.27545627488438007   -0.005444431919420137   -0.00016858030634823995
-0.06650064092994667   0.05754963720192949   0.009231327811311078
-0.06650064092994667   0.05754963720192949   0.009231327811311078
-0.06650064092994667   0.05754963720192949   0.009231327811311078
-0.06650064092994667   0.05754963720192949   0.009231327811311078
-0.4644757513852035   -0.0477998833449948   -0.013970564741999706
-0.4644757513852035   -0.0477998833449948   -0.013970564741999706
-0.4644757513852035   -0.0477998833449948   -0.013970564741999706
-0.4644757513852035   -0.0477998833449948   -0.013970564741999706
-0.4395568895990507   -0.0001826632544437018   -0.021096954608772502
-0.4395568895990507   -0.0001826632544437018   -0.021096954608772502
-0.4395568895990507   -0.0001826632544437018   -0.021096954608772502
-0.4395568895990507   -0.0001826632544437018   -0.021096954608772502
-0.05234224657615191   0.05718984887334874   0.0017868648495355383
-0.05234224657615191   0.05718984887334874   0.0017868648495355383
-0.05234224657615191   0.05718984887334874   0.0017868648495355383
-0.05234224657615191   0.05718984887334874   0.0017868648495355383
-0.2545036860439214   0.016427613324563654   0.010253679287740567
-0.2545036860439214   0.016427613324563654   0.010253679287740567
-0.2545036860439214   0.016427613324563654   0.010253679287740567
-0.2545036860439214   0.016427613324563654   0.010253679287740567
-0.49455801989482245   -0.019284824235590012   -0.0075276915534492304
-0.49455801989482245   -0.019284824235590012   -0.0075276915534492304
-0.49455801989482245   -0.019284824235590012   -0.0075276915534492304
-0.49455801989482245   -0.019284824235590012   -0.0075276915534492304
-0.8685695682279407   -0.07227778419157765   0.016685656077104104
-0.8685695682279407   -0.07227778419157765   0.016685656077104104
-0.8685695682279407   -0.07227778419157765   0.016685656077104104
-0.8685695682279407   -0.07227778419157765   0.016685656077104104
-0.8567999451275973   -0.07465266680075161   -0.035856942597420664
-0.8567999451275973   -0.07465266680075161   -0.035856942597420664
-0.8567999451275973   -0.07465266680075161   -0.035856942597420664
-0.8567999451275973   -0.07465266680075161   -0.035856942597420664
-0.45718122459431115   0.033670819480795935   0.03205010183954504
-0.45718122459431115   0.033670819480795935   0.03205010183954504
-0.45718122459431115   0.033670819480795935   0.03205010183954504
-0.45718122459431115   0.033670819480795935   0.03205010183954504
-0.6646473159025601   -0.02897095953127482   -0.0038806299116024776
-0.6646473159025601   -0.02897095953127482   -0.0038806299116024776
-0.6646473159025601   -0.02897095953127482   -0.0038806299116024776
-0.6646473159025601   -0.02897095953127482   -0.0038806299116024776
-0.4711486458142267   0.007354787187964701   -0.011470971967201902
-0.4711486458142267   0.007354787187964701   -0.011470971967201902
-0.4711486458142267   0.007354787187964701   -0.011470971967201902
-0.4711486458142267   0.007354787187964701   -0.011470971967201902
-0.8427660551760261   -0.04827016577626608   0.007930006135949998
-0.8427660551760261   -0.04827016577626608   0.007930006135949998
-0.8427660551760261   -0.04827016577626608   0.007930006135949998
-0.8427660551760261   -0.04827016577626608   0.007930006135949998
-0.8272373912327702   -0.049019410120813595   -0.03966072218892811
-0.8272373912327702   -0.049019410120813595   -0.03966072218892811
-0.8272373912327702   -0.049019410120813595   -0.03966072218892811
-0.8272373912327702   -0.049019410120813595   -0.03966072218892811
-0.4361312402096847   0.05433136052801259   0.025620747262590282
-0.4361312402096847   0.05433136052801259   0.025620747262590282
-0.4361312402096847   0.05433136052801259   0.025620747262590282
-0.4361312402096847   0.05433136052801259   0.025620747262590282
-0.6345625908086403   -0.0047078977899872865   0.00710857117241975
-0.6345625908086403   -0.0047078977899872865   0.00710857117241975
-0.6345625908086403   -0.0047078977899872865   0.00710857117241975
-0.6345625908086403   -0.0047078977899872865   0.00710857117241975
-0.4492431884849354   0.03115837345784135   -0.016766007043492556
-0.4492431884849354   0.03115837345784135   -0.016766007043492556
-0.4492431884849354   0.03115837345784135   -0.016766007043492556
-0.4492431884849354   0.03115837345784135   -0.016766007043492556
-0.8134221744610974   -0.02514315455421956   0.005539106102842188
-0.8134221744610974   -0.02514315455421956   0.005539106102842188
-0.8134221744610974   -0.02514315455421956   0.005539106102842188
-0.8134221744610974   -0.02514315455421956   0.005539106102842188
-0.800804249889182   -0.02124179018600117   -0.04170296026697004
-0.800804249889182   -0.02124179018600117   -0.04170296026697004
-0.800804249889182   -0.02124179018600117   -0.04170296026697004
-0.800804249889182   -0.02124179018600117   -0.04170296026697004
-0.41574386814862385   0.07704141734550551   0.02074407204341645
-0.41574386814862385   0.07704141734550551   0.02074407204341645
-0.41574386814862385   0.07704141734550551   0.02074407204341645
-0.41574386814862385   0.07704141734550551   0.02074407204341645
-0.6142405920893089   0.016028786294541464   0.016586191026751403
-0.6142405920893089   0.016028786294541464   0.016586191026751403
-0.6142405920893089   0.016028786294541464   0.016586191026751403
-0.6142405920893089   0.016028786294541464   0.016586191026751403
-0.8721837795849782   -0.041383340642430155   -0.03227984425722984
-0.8721837795849782   -0.041383340642430155   -0.03227984425722984
-0.8721837795849782   -0.041383340642430155   -0.03227984425722984
-0.8721837795849782   -0.041383340642430155   -0.03227984425722984
-1.2433190344259129   -0.044868962375687244   0.05592406237190056
-1.2433190344259129   -0.044868962375687244   0.05592406237190056
-1.2433190344259129   -0.044868962375687244   0.05592406237190056
-1.2433190344259129   -0.044868962375687244   0.05592406237190056
-1.2195618002286086   -0.08933498541008533   -0.04280426573486101
-1.2195618002286086   -0.08933498541008533   -0.04280426573486101
-1.2195618002286086   -0.08933498541008533   -0.04280426573486101
-1.2195618002286086   -0.08933498541008533   -0.04280426573486101
-0.8094322793690742   0.06946670725603596   0.05686201213839975
-0.8094322793690742   0.06946670725603596   0.05686201213839975
-0.8094322793690742   0.06946670725603596   0.05686201213839975
-0.8094322793690742   0.06946670725603596   0.05686201213839975
-0.9901602282284555   -0.012236837362648606   0.011521803644085268
-0.9901602282284555   -0.012236837362648606   0.011521803644085268
-0.9901602282284555   -0.012236837362648606   0.011521803644085268
-0.9901602282284555   -0.012236837362648606   0.011521803644085268
-0.8444620075354023   -0.012931798343258943   -0.03588812309394098
-0.8444620075354023   -0.012931798343258943   -0.03588812309394098
-0.8444620075354023   -0.012931798343258943   -0.03588812309394098
-0.8444620075354023   -0.012931798343258943   -0.03588812309394098
-1.183946653385513   -0.006351061134023089   0.05228754420454335
-1.183946653385513   -0.006351061134023089   0.05228754420454335
-1.183946653385513   -0.006351061134023089   0.05228754420454335
-1.183946653385513   -0.006351061134023089   0.05228754420454335
-1.1747901466590984   -0.07343228723268186   -0.05041663327322239
-1.1747901466590984   -0.07343228723268186   -0.05041663327322239
-1.1747901466590984   -0.07343228723268186   -0.05041663327322239
-1.1747901466590984   -0.07343228723268186   -0.05041663327322239
-0.7846334079632509   0.07927434608674735   0.04506543795110754
-0.7846334079632509   0.07927434608674735   0.04506543795110754
-0.7846334079632509   0.07927434608674735   0.04506543795110754
-0.7846334079632509   0.07927434608674735   0.04506543795110754
-0.9671214908582665   0.0051241646308587685   0.020655505135002514
-0.9671214908582665   0.0051241646308587685   0.020655505135002514
-0.9671214908582665   0.0051241646308587685   0.020655505135002514
-0.9671214908582665   0.0051241646308587685   0.020655505135002514
-0.8176917062726207   -9.967833544893834e-05   -0.04085202917354513
-0.8176917062726207   -9.967833544893834e-05   -0.04085202917354513
-0.8176917062726207   -9.967833544893834e-05   -0.04085202917354513
-0.8176917062726207   -9.967833544893834e-05   -0.04085202917354513
-1.1411467583560038   0.006526827183232414   0.03784119382631636
-1.1411467583560038   0.006526827183232414   0.03784119382631636
-1.1411467583560038   0.006526827183232414   0.03784119382631636
-1.1411467583560038   0.006526827183232414   0.03784119382631636
-1.1258352127370124   -0.054346091169972105   -0.057461447298098926
-1.1258352127370124   -0.054346091169972105   -0.057461447298098926
-1.1258352127370124   -0.054346091169972105   -0.057461447298098926
-1.1258352127370124   -0.054346091169972105   -0.057461447298098926
-0.7628485162335983   0.08845954097146408   0.03837437685347887
-0.7628485162335983   0.08845954097146408   0.03837437685347887
-0.7628485162335983   0.08845954097146408   0.03837437685347887
-0.7628485162335983   0.08845954097146408   0.03837437685347887
-0.9177041260935661   0.01954944378931378   0.03447719590833089
-0.9177041260935661   0.01954944378931378   0.03447719590833089
-0.9177041260935661   0.01954944378931378   0.03447719590833089
-0.9177041260935661   0.01954944378931378   0.03447719590833089
1.0931594419902788   0.0817259086538164   0.05782133907841364
1.0931594419902788   0.0817259086538164   0.05782133907841364
1.0931594419902788   0.0817259086538164   0.05782133907841364
1.0931594419902788   0.0817259086538164   0.05782133907841364
0.4820549361057048   -0.12857028323927672   -0.02660977111277145
0.4820549361057048   -0.12857028323927672   -0.02660977111277145
0.4820549361057048   -0.12857028323927672   -0.02660977111277145
0.4820549361057048   -0.12857028323927672   -0.02660977111277145
0.5373877795504518   -0.022679231011175638   0.03970083841041376
0.5373877795504518   -0.022679231011175638   0.03970083841041376
0.5373877795504518   -0.022679231011175638   0.03970083841041376
0.5373877795504518   -0.022679231011175638   0.03970083841041376
1.1051517647854503   -0.00185669508411751   -0.041680916391236056
1.1051517647854503   -0.00185669508411751   -0.041680916391236056
1.1051517647854503   -0.00185669508411751   -0.041680916391236056
1.1051517647854503   -0.00185669508411751   -0.041680916391236056
0.7573282904905031   -0.022892232852686323   -0.059175528008571406
0.7573282904905031   -0.022892232852686323   -0.059175528008571406
0.7573282904905031   -0.022892232852686323   -0.059175528008571406
0.7573282904905031   -0.022892232852686323   -0.059175528008571406
1.1435929762458095   0.10029610817591755   0.04837233765051954
1.1435929762458095   0.10029610817591755   0.04837233765051954
1.1435929762458095   0.10029610817591755   0.04837233765051954
1.1435929762458095   0.10029610817591755   0.04837233765051954
0.5026396717863982   -0.12113893057490421   -0.035580000846117454
0.5026396717863982   -0.12113893057490421   -0.035580000846117454
0.5026396717863982   -0.12113893057490421   -0.035580000846117454
0.5026396717863982   -0.12113893057490421   -0.035580000846117454
0.5590000093869252   -0.010940686174166492   0.032091434894609375
0.5590000093869252   -0.010940686174166492   0.032091434894609375
0.5590000093869252   -0.010940686174166492   0.032091434894609375
0.5590000093869252   -0.010940686174166492   0.032091434894609375
1.1429588623683968   0.011084274479302214   -0.05206212862574336
1.1429588623683968   0.011084274479302214   -0.05206212862574336
1.1429588623683968   0.011084274479302214   -0.05206212862574336
1.1429588623683968   0.011084274479302214   -0.05206212862574336
0.8048315557069422   -0.009067534265223998   -0.04026234859443999
0.8048315557069422   -0.009067534265223998   -0.04026234859443999
0.8048315557069422   -0.009067534265223998   -0.04026234859443999
0.8048315557069422   -0.009067534265223998   -0.04026234859443999
1.1811727125830724   0.11424487239294065   0.03584652453399711
1.1811727125830724   0.11424487239294065   0.03584652453399711
1.1811727125830724   0.11424487239294065   0.03584652453399711
1.1811727125830724   0.11424487239294065   0.03584652453399711
0.5240169855044835   -0.11087045775557074   -0.042893912936194586
0.5240169855044835   -0.11087045775557074   -0.042893912936194586
0.5240169855044835   -0.11087045775557074   -0.042893912936194586
0.5240169855044835   -0.11087045775557074   -0.042893912936194586
0.5785818245207446   0.02042416550618284   0.02813567089975951
0.5785818245207446   0.02042416550618284   0.02813567089975951
0.5785818245207446   0.02042416550618284   0.02813567089975951
0.5785818245207446   0.02042416550618284   0.02813567089975951
1.1894857278260988   0.04895432651414569   -0.05451372056683611
1.1894857278260988   0.04895432651414569   -0.05451372056683611
1.1894857278260988   0.04895432651414569   -0.05451372056683611
1.1894857278260988   0.04895432651414569   -0.05451372056683611
0.8225427215890292   0.009554608563695194   -0.027180199454217752
0.8225427215890292   0.009554608563695194   -0.027180199454217752
0.8225427215890292   0.009554608563695194   -0.027180199454217752
0.8225427215890292   0.009554608563695194   -0.027180199454217752
0.5332536013904348   0.04783618590912718   0.052977086162470835
0.5332536013904348   0.04783618590912718   0.052977086162470835
0.5332536013904348   0.04783618590912718   0.052977086162470835
0.5332536013904348   0.04783618590912718   0.052977086162470835
-0.06622754185901272   -0.15834674936759568   -0.015163203737768149
-0.06622754185901272   -0.15834674936759568   -0.015163203737768149
-0.06622754185901272   -0.15834674936759568   -0.015163203737768149
-0.06622754185901272   -0.15834674936759568   -0.015163203737768149
-0.018600967426405622   -0.05599651010873198   0.013440653244301676
-0.018600967426405622   -0.05599651010873198   0.013440653244301676
-0.018600967426405622   -0.05599651010873198   0.013440653244301676
-0.018600967426405622   -0.05599651010873198   0.013440653244301676
0.5287219055277841   -0.028954535111333113   0.0026467723972328425
0.5287219055277841   -0.028954535111333113   0.0026467723972328425
0.5287219055277841   -0.028954535111333113   0.0026467723972328425
0.5287219055277841   -0.028954535111333113   0.0026467723972328425
0.23766570504837167   -0.044064838216684395   -0.028171090744978245
0.23766570504837167   -0.044064838216684395   -0.028171090744978245
0.23766570504837167   -0.044064838216684395   -0.028171090744978245
0.23766570504837167   -0.044064838216684395   -0.028171090744978245
0.5565135986839318   0.06572367756483496   0.04692702550181098
0.5565135986839318   0.06572367756483496   0.04692702550181098
0.5565135986839318   0.06572367756483496   0.04692702550181098
0.5565135986839318   0.06572367756483496   0.04692702550181098
-0.04444340908282657   -0.14872547128517402   -0.023042593861361038
-0.04444340908282657   -0.14872547128517402   -0.023042593861361038
-0.04444340908282657   -0.14872547128517402   -0.023042593861361038
-0.04444340908282657   -0.14872547128517402   -0.023042593861361038
0.0034359811642371164   -0.03498429984812037   0.008193961711726707
0.0034359811642371164   -0.03498429984812037   0.008193961711726707
0.0034359811642371164   -0.03498429984812037   0.008193961711726707
0.0034359811642371164   -0.03498429984812037   0.008193961711726707
0.5512993479982189   -0.013110232278595854   -0.004242325944491591
0.5512993479982189   -0.013110232278595854   -0.004242325944491591
0.5512993479982189   -0.013110232278595854   -0.004242325944491591
0.5512993479982189   -0.013110232278595854   -0.004242325944491591
0.25679676085439285   -0.03116124734285112   -0.018255508709494682
0.25679676085439285   -0.03116124734285112   -0.018255508709494682
0.25679676085439285   -0.03116124734285112   -0.018255508709494682
0.25679676085439285   -0.03116124734285112   -0.018255508709494682
0.5805843397340019   0.08718421634554391   0.04188818411028301
0.5805843397340019   0.08718421634554391   0.04188818411028301
0.5805843397340019   0.08718421634554391   0.04188818411028301
0.5805843397340019   0.08718421634554391   0.04188818411028301
-0.024686861771794577   -0.13411659967250347   -0.03328795314404674
-0.024686861771794577   -0.13411659967250347   -0.03328795314404674
-0.024686861771794577   -0.13411659967250347   -0.03328795314404674
-0.024686861771794577   -0.13411659967250347   -0.03328795314404674
0.020736073251616166   -0.010363672526268528   0.0028918245351659327
0.020736073251616166   -0.010363672526268528   0.0028918245351659327
0.020736073251616166   -0.010363672526268528   0.0028918245351659327
0.020736073251616166   -0.010363672526268528   0.0028918245351659327
0.5681987382086777   0.0071065630748679415   -0.010462158229268055
0.5681987382086777   0.0071065630748679415   -0.010462158229268055
0.5681987382086777   0.0071065630748679415   -0.010462158229268055
0.5681987382086777   0.0071065630748679415   -0.010462158229268055
0.28026200296739445   -0.011855710014728703   -0.007609484981720333
0.28026200296739445   -0.011855710014728703   -0.007609484981720333
0.28026200296739445   -0.011855710014728703   -0.007609484981720333
0.28026200296739445   -0.011855710014728703   -0.007609484981720333
-0.02357554468134642   0.013420827473256451   0.02632920530971123
-0.02357554468134642   0.013420827473256451   0.02632920530971123
-0.02357554468134642   0.013420827473256451   0.02632920530971123
-0.02357554468134642   0.013420827473256451   0.02632920530971123
-0.6102643354771445   -0.19865571301266144   -0.01217513290528579
-0.6102643354771445   -0.19865571301266144   -0.01217513290528579
-0.6102643354771445   -0.19865571301266144   -0.01217513290528579
-0.6102643354771445   -0.19865571301266144   -0.01217513290528579
-0.5621238462818209   -0.0858909901419069   -0.012850784422497524
-0.5621238462818209   -0.0858909901419069   -0.012850784422497524
-0.5621238462818209   -0.0858909901419069   -0.012850784422497524
-0.5621238462818209   -0.0858909901419069   -0.012850784422497524
-0.021306542554336887   -0.06797839875064317   0.011894666246557422
-0.021306542554336887   -0.06797839875064317   0.011894666246557422
-0.021306542554336887   -0.06797839875064317   0.011894666246557422
-0.021306542554336887   -0.06797839875064317   0.011894666246557422
-0.3056956065309103   -0.08023067835797197   -0.025156778319764407
-0.3056956065309103   -0.08023067835797197   -0.025156778319764407
-0.3056956065309103   -0.08023067835797197   -0.025156778319764407
-0.3056956065309103   -0.08023067835797197   -0.025156778319764407
0.0009023270092733092   0.0335637703863387   0.021396844927625662
0.0009023270092733092   0.0335637703863387   0.021396844927625662
0.0009023270092733092   0.0335637703863387   0.021396844927625662
0.0009023270092733092   0.0335637703863387   0.021396844927625662
-0.5829238644285254   -0.18602430786198143   -0.016717557435945444
-0.5829238644285254   -0.18602430786198143   -0.016717557435945444
-0.5829238644285254   -0.18602430786198143   -0.016717557435945444
-0.5829238644285254   -0.18602430786198143   -0.016717557435945444
-0.5347879839270097   -0.06256624127317231   -0.017490121841111754
-0.5347879839270097   -0.06256624127317231   -0.017490121841111754
-0.5347879839270097   -0.06256624127317231   -0.017490121841111754
-0.5347879839270097   -0.06256624127317231   -0.017490121841111754
-0.000778857154949417   -0.052749950427978726   0.004885420695653444
-0.000778857154949417   -0.052749950427978726   0.004885420695653444
-0.000778857154949417   -0.052749950427978726   0.004885420695653444
-0.000778857154949417   -0.052749950427978726   0.004885420695653444
-0.27915908040623555   -0.0634574779545756   -0.013958900463721148
-0.27915908040623555   -0.0634574779545756   -0.013958900463721148
-0.27915908040623555   -0.0634574779545756   -0.013958900463721148
-0.27915908040623555   -0.0634574779545756   -0.013958900463721148
0.023300810954613334   0.05588025352872511   0.016653557286764244
0.023300810954613334   0.05588025352872511   0.016653557286764244
0.023300810954613334   0.05588025352872511   0.016653557286764244
0.023300810954613334   0.05588025352872511   0.016653557286764244
-0.5588695573935099   -0.17119835058682056   -0.029265879859964625
-0.5588695573935099   -0.17119835058682056   -0.029265879859964625
-0.5588695573935099   -0.17119835058682056   -0.029265879859964625
-0.5588695573935099   -0.17119835058682056   -0.029265879859964625
-0.51546914201603   -0.040327871275388893   -0.022674840454243936
-0.51546914201603   -0.040327871275388893   -0.022674840454243936
-0.51546914201603   -0.040327871275388893   -0.022674840454243936
-0.51546914201603   -0.040327871275388893   -0.022674840454243936
0.012696157646418054   -0.04056949724266026   -0.007101928774435439
0.012696157646418054   -0.04056949724266026   -0.007101928774435439
0.012696157646418054   -0.04056949724266026   -0.007101928774435439
0.012696157646418054   -0.04056949724266026   -0.007101928774435439
-0.25969712418704494   -0.04780767113060616   -0.006939977497571984
-0.25969712418704494   -0.04780767113060616   -0.006939977497571984
-0.25969712418704494   -0.04780767113060616   -0.006939977497571984
-0.25969712418704494   -0.04780767113060616   -0.006939977497571984
-0.5715393011314941   -0.016374997354703977   -0.0008306768349911377
-0.5715393011314941   -0.016374997354703977   -0.0008306768349911377
-0.5715393011314941   -0.016374997354703977   -0.0008306768349911377
-0.5715393011314941   -0.016374997354703977   -0.0008306768349911377
-1.1568795502064622   -0.21357862770257793   -0.009772130232553094
-1.1568795502064622   -0.21357862770257793   -0.009772130232553094
-1.1568795502064622   -0.21357862770257793   -0.009772130232553094
-1.1568795502064622   -0.21357862770257793   -0.009772130232553094
-1.1052195991780307   -0.10998399422788607   -0.03818559212017605
-1.1052195991780307   -0.10998399422788607   -0.03818559212017605
-1.1052195991780307   -0.10998399422788607   -0.03818559212017605
-1.1052195991780307   -0.10998399422788607   -0.03818559212017605
-0.5514647111867508   -0.07063502803698357   0.025188928947928346
-0.5514647111867508   -0.07063502803698357   0.025188928947928346
-0.5514647111867508   -0.07063502803698357   0.025188928947928346
-0.5514647111867508   -0.07063502803698357   0.025188928947928346
-0.8388737250317919   -0.09648876670786158   -0.0177266265348041
-0.8388737250317919   -0.09648876670786158   -0.0177266265348041
-0.8388737250317919   -0.09648876670786158   -0.0177266265348041
-0.8388737250317919   -0.09648876670786158   -0.0177266265348041
-0.541340055068078   0.009553724432500868   -0.004376542928190716
-0.541340055068078   0.009553724432500868   -0.004376542928190716
-0.541340055068078   0.009553724432500868   -0.004376542928190716
-0.541340055068078   0.009553724432500868   -0.004376542928190716
-1.1157785469492756   -0.19060703834994147   -0.010357286854336355
-1.1157785469492756   -0.19060703834994147   -0.010357286854336355
-1.1157785469492756   -0.19060703834994147   -0.010357286854336355
-1.1157785469492756   -0.19060703834994147   -0.010357286854336355
-1.0661330263295492   -0.08563647618373427   -0.04421665017624859
-1.0661330263295492   -0.08563647618373427   -0.04421665017624859
-1.0661330263295492   -0.08563647618373427   -0.04421665017624859
-1.0661330263295492   -0.08563647618373427   -0.04421665017624859
-0.5249259073293476   -0.052360729735212996   0.021614749609243863
-0.5249259073293476   -0.052360729735212996   0.021614749609243863
-0.5249259073293476   -0.052360729735212996   0.021614749609243863
-0.5249259073293476   -0.052360729735212996   0.021614749609243863
-0.7986873491609572   -0.07312856404887579   -0.005799035803465663
-0.7986873491609572   -0.07312856404887579   -0.005799035803465663
-0.7986873491609572   -0.07312856404887579   -0.005799035803465663
-0.7986873491609572   -0.07312856404887579   -0.005799035803465663
-0.5139413399708733   0.03206713538044324   -0.0078902787140459
-0.5139413399708733   0.03206713538044324   -0.0078902787140459
-0.5139413399708733   0.03206713538044324   -0.0078902787140459
-0.5139413399708733   0.03206713538044324   -0.0078902787140459
-1.07899123275044   -0.17193798036180452   -0.022206178102621505
-1.07899123275044   -0.17193798036180452   -0.022206178102621505
-1.07899123275044   -0.17193798036180452   -0.022206178102621505
-1.07899123275044   -0.17193798036180452   -0.022206178102621505
-1.034440113559438   -0.0599727253193095   -0.04563039586984435
-1.034440113559438   -0.0599727253193095   -0.04563039586984435
-1.034440113559438   -0.0599727253193095   -0.04563039586984435
-1.034440113559438   -0.0599727253193095   -0.04563039586984435
-0.5096847039838673   -0.04074273542345318   0.006662213854637524
-0.5096847039838673   -0.04074273542345318   0.006662213854637524
-0.5096847039838673   -0.04074273542345318   0.006662213854637524
-0.5096847039838673   -0.04074273542345318   0.006662213854637524
-0.7765688789778394   -0.05889133606718207   -0.0019004464828518697
-0.7765688789778394   -0.05889133606718207   -0.0019004464828518697
-0.7765688789778394   -0.05889133606718207   -0.0019004464828518697
-0.7765688789778394   -0.05889133606718207   -0.0019004464828518697
-1.1253812321893395   -0.038031706643886054   -0.027827461205631968
-1.1253812321893395   -0.038031706643886054   -0.027827461205631968
-1.1253812321893395   -0.038031706643886054   -0.027827461205631968
-1.1253812321893395   -0.038031706643886054   -0.027827461205631968
-1.6969808038945957   -0.14458418791078495   0.06396485447277739
-1.6969808038945957   -0.14458418791078495   0.06396485447277739
-1.6969808038945957   -0.14458418791078495   0.06396485447277739
-1.6969808038945957   -0.14458418791078495   0.06396485447277739
-1.638963249635167   -0.11526884048315092   -0.03728475629144203
-1.638963249635167   -0.11526884048315092   -0.03728475629144203
-1.638963249635167   -0.11526884048315092   -0.03728475629144203
-1.638963249635167   -0.11526884048315092   -0.03728475629144203
-1.0577356227447092   0.03039826251518657   0.058852033303349524
-1.0577356227447092   0.03039826251518657   0.058852033303349524
-1.0577356227447092   0.03039826251518657   0.058852033303349524
-1.0577356227447092   0.03039826251518657   0.058852033303349524
-1.3180143459246805   -0.04531969532944827   0.00641870119616756
-1.3180143459246805   -0.04531969532944827   0.00641870119616756
-1.3180143459246805   -0.04531969532944827   0.00641870119616756
-1.3180143459246805   -0.04531969532944827   0.00641870119616756
-1.0822846435014146   -0.0026459413259236064   -0.030848866639054034
-1.0822846435014146   -0.0026459413259236064   -0.030848866639054034
-1.0822846435014146   -0.0026459413259236064   -0.030848866639054034
-1.0822846435014146   -0.0026459413259236064   -0.030848866639054034
-1.610455730829496   -0.07826613859307596   0.06825013584682352
-1.610455730829496   -0.07826613859307596   0.06825013584682352
-1.610455730829496   -0.07826613859307596   0.06825013584682352
-1.610455730829496   -0.07826613859307596   0.06825013584682352
-1.5767116309195859   -0.09703482698941068   -0.04440220447334771
-1.5767116309195859   -0.09703482698941068   -0.04440220447334771
-1.5767116309195859   -0.09703482698941068   -0.04440220447334771
-1.5767116309195859   -0.09703482698941068   -0.04440220447334771
-1.019089162564206   0.04855349564505798   0.05681269682167696
-1.019089162564206   0.04855349564505798   0.05681269682167696
-1.019089162564206   0.04855349564505798   0.05681269682167696
-1.019089162564206   0.04855349564505798   0.05681269682167696
-1.281364273031353   -0.01827976084659283   0.026281999159539257
-1.281364273031353   -0.01827976084659283   0.026281999159539257
-1.281364273031353   -0.01827976084659283   0.026281999159539257
-1.281364273031353   -0.01827976084659283   0.026281999159539257
-1.044502636731981   0.011622647556962101   -0.033323825929093456
-1.044502636731981   0.011622647556962101   -0.033323825929093456
-1.044502636731981   0.011622647556962101   -0.033323825929093456
-1.044502636731981   0.011622647556962101   -0.033323825929093456
-1.5504908715316104   -0.059296693681110124   0.048963459158240935
-1.5504908715316104   -0.059296693681110124   0.048963459158240935
-1.5504908715316104   -0.059296693681110124   0.048963459158240935
-1.5504908715316104   -0.059296693681110124   0.048963459158240935
-1.5123205078496122   -0.07984324690024858   -0.053667570889101096
-1.5123205078496122   -0.07984324690024858   -0.053667570889101096
-1.5123205078496122   -0.07984324690024858   -0.053667570889101096
-1.5123205078496122   -0.07984324690024858   -0.053667570889101096
-0.9904881918369453   0.07022871772572986   0.04392776969758458
-0.9904881918369453   0.07022871772572986   0.04392776969758458
-0.9904881918369453   0.07022871772572986   0.04392776969758458
-0.9904881918369453   0.07022871772572986   0.04392776969758458
-1.2120746116188361   0.004823268787961299   0.046213650765319
-1.2120746116188361   0.004823268787961299   0.046213650765319
-1.2120746116188361   0.004823268787961299   0.046213650765319
-1.2120746116188361   0.004823268787961299   0.046213650765319
1.4920609133642593   0.08954928844089416   0.05398211002952803
1.4920609133642593   0.08954928844089416   0.05398211002952803
1.4920609133642593   0.08954928844089416   0.05398211002952803
1.4920609133642593   0.08954928844089416   0.05398211002952803
0.7110690499204924   -0.1330456084549158   0.011968822520427816
0.7110690499204924   -0.1330456084549158   0.011968822520427816
0.7110690499204924   -0.1330456084549158   0.011968822520427816
0.7110690499204924   -0.1330456084549158   0.011968822520427816
0.7502115898970785   -0.05620981617174908   0.04149365305900864
0.7502115898970785   -0.05620981617174908   0.04149365305900864
0.7502115898970785   -0.05620981617174908   0.04149365305900864
0.7502115898970785   -0.05620981617174908   0.04149365305900864
1.4998664309887   0.012952447525538313   -0.012104471181892881
1.4998664309887   0.012952447525538313   -0.012104471181892881
1.4998664309887   0.012952447525538313   -0.012104471181892881
1.4998664309887   0.012952447525538313   -0.012104471181892881
1.0488923602615872   -0.028518567490143226   -0.06962689984860963
1.0488923602615872   -0.028518567490143226   -0.06962689984860963
1.0488923602615872   -0.028518567490143226   -0.06962689984860963
1.0488923602615872   -0.028518567490143226   -0.06962689984860963
1.528157145033788   0.099617394631342   0.04268415193774361
1.528157145033788   0.099617394631342   0.04268415193774361
1.528157145033788   0.099617394631342   0.04268415193774361
1.528157145033788   0.099617394631342   0.04268415193774361
0.7287018641951597   -0.1360937749343817   0.013828983312047252
0.7287018641951597   -0.1360937749343817   0.013828983312047252
0.7287018641951597   -0.1360937749343817   0.013828983312047252
0.7287018641951597   -0.1360937749343817   0.013828983312047252
0.7650152233786831   -0.04777859216252897   0.03156717715481454
0.7650152233786831   -0.04777859216252897   0.03156717715481454
0.7650152233786831   -0.04777859216252897   0.03156717715481454
0.7650152233786831   -0.04777859216252897   0.03156717715481454
1.526069975508406   0.02245400670489528   -0.003784217149450639
1.526069975508406   0.02245400670489528   -0.003784217149450639
1.526069975508406   0.02245400670489528   -0.003784217149450639
1.526069975508406   0.02245400670489528   -0.003784217149450639
1.0920809086121175   -0.02253712312566236   -0.047587122287903946
1.0920809086121175   -0.02253712312566236   -0.047587122287903946
1.0920809086121175   -0.02253712312566236   -0.047587122287903946
1.0920809086121175   -0.02253712312566236   -0.047587122287903946
1.5500131296347657   0.10882055474597821   0.0295650054412634
1.5500131296347657   0.10882055474597821   0.0295650054412634
1.5500131296347657   0.10882055474597821   0.0295650054412634
1.5500131296347657   0.10882055474597821   0.0295650054412634
0.745788890054786   -0.12942831940114888   0.017085237773948728
0.745788890054786   -0.12942831940114888   0.017085237773948728
0.745788890054786   -0.12942831940114888   0.017085237773948728
0.745788890054786   -0.12942831940114888   0.017085237773948728
0.7868128727283079   -0.01490586372927949   0.028858183313828813
0.7868128727283079   -0.01490586372927949   0.028858183313828813
0.7868128727283079   -0.01490586372927949   0.028858183313828813
0.7868128727283079   -0.01490586372927949   0.028858183313828813
1.5533398394955067   0.04426460508761271   -0.0007101874156308918
1.5533398394955067   0.04426460508761271   -0.0007101874156308918
1.5533398394955067   0.04426460508761271   -0.0007101874156308918
1.5533398394955067   0.04426460508761271   -0.0007101874156308918
1.09737371985525   -0.010347618260671432   -0.035600381621847615
1.09737371985525   -0.010347618260671432   -0.035600381621847615
1.09737371985525   -0.010347618260671432   -0.035600381621847615
1.09737371985525   -0.010347618260671432   -0.035600381621847615
0.7504895351375729   0.019362029007881115   0.056663611143033456
0.7504895351375729   0.019362029007881115   0.056663611143033456
0.7504895351375729   0.019362029007881115   0.056663611143033456
0.7504895351375729   0.019362029007881115   0.056663611143033456
0.0389594060655392   -0.2646857450938652   0.02706724220901234
0.0389594060655392   -0.2646857450938652   0.02706724220901234
0.0389594060655392   -0.2646857450938652   0.02706724220901234
0.0389594060655392   -0.2646857450938652   0.02706724220901234
0.08992538425844687   -0.11218317455499847   0.025300096448243208
0.08992538425844687   -0.11218317455499847   0.025300096448243208
0.08992538425844687   -0.11218317455499847   0.025300096448243208
0.08992538425844687   -0.11218317455499847   0.025300096448243208
0.7312659104626131   -0.12671823050409073   0.01727367021901713
0.7312659104626131   -0.12671823050409073   0.01727367021901713
0.7312659104626131   -0.12671823050409073   0.01727367021901713
0.7312659104626131   -0.12671823050409073   0.01727367021901713
0.3895921089484191   -0.11848634945325741   -0.0444388103944765
0.3895921089484191   -0.11848634945325741   -0.0444388103944765
0.3895921089484191   -0.11848634945325741   -0.0444388103944765
0.3895921089484191   -0.11848634945325741   -0.0444388103944765
0.7681974639704875   0.027878219623854478   0.0473349876304522
0.7681974639704875   0.027878219623854478   0.0473349876304522
0.7681974639704875   0.027878219623854478   0.0473349876304522
0.7681974639704875   0.027878219623854478   0.0473349876304522
0.06274517259517584   -0.25702828283834667   0.03424414641523629
0.06274517259517584   -0.25702828283834667   0.03424414641523629
0.06274517259517584   -0.25702828283834667   0.03424414641523629
0.06274517259517584   -0.25702828283834667   0.03424414641523629
0.11040081917318392   -0.09677833713055145   0.018315678620765476
0.11040081917318392   -0.09677833713055145   0.018315678620765476
0.11040081917318392   -0.09677833713055145   0.018315678620765476
0.11040081917318392   -0.09677833713055145   0.018315678620765476
0.7487985414008689   -0.11863491553070893   0.021340090633923794
0.7487985414008689   -0.11863491553070893   0.021340090633923794
0.7487985414008689   -0.11863491553070893   0.021340090633923794
0.7487985414008689   -0.11863491553070893   0.021340090633923794
0.40700424792837747   -0.11257741484043074   -0.022222180355625065
0.40700424792837747   -0.11257741484043074   -0.022222180355625065
0.40700424792837747   -0.11257741484043074   -0.022222180355625065
0.40700424792837747   -0.11257741484043074   -0.022222180355625065
0.784718102873775   0.042402150315805354   0.03990083215193926
0.784718102873775   0.042402150315805354   0.03990083215193926
0.784718102873775   0.042402150315805354   0.03990083215193926
0.784718102873775   0.042402150315805354   0.03990083215193926
0.08386131418702651   -0.24843534649031396   0.037275163049741
0.08386131418702651   -0.24843534649031396   0.037275163049741
0.08386131418702651   -0.24843534649031396   0.037275163049741
0.08386131418702651   -0.24843534649031396   0.037275163049741
0.14183841213854467   -0.07365102726959044   0.012110216118603627
0.14183841213854467   -0.07365102726959044   0.012110216118603627
0.14183841213854467   -0.07365102726959044   0.012110216118603627
0.14183841213854467   -0.07365102726959044   0.012110216118603627
0.767979069610726   -0.10635469464060707   0.02613799863724521
0.767979069610726   -0.10635469464060707   0.02613799863724521
0.767979069610726   -0.10635469464060707   0.02613799863724521
0.767979069610726   -0.10635469464060707   0.02613799863724521
0.43759625654461964   -0.09828347493076368   0.00363911102570217
0.43759625654461964   -0.09828347493076368   0.00363911102570217
0.43759625654461964   -0.09828347493076368   0.00363911102570217
0.43759625654461964   -0.09828347493076368   0.00363911102570217
0.0837545171503936   -0.050121254498510875   0.03647830703792998
0.0837545171503936   -0.050121254498510875   0.03647830703792998
0.0837545171503936   -0.050121254498510875   0.03647830703792998
0.0837545171503936   -0.050121254498510875   0.03647830703792998
-0.6385990507910891   -0.45440049195806004   0.03929543170796791
-0.6385990507910891   -0.45440049195806004   0.03929543170796791
-0.6385990507910891   -0.45440049195806004   0.03929543170796791
-0.6385990507910891   -0.45440049195806004   0.03929543170796791
-0.5580690434325163   -0.17719876932745426   0.002555314240681436
-0.5580690434325163   -0.17719876932745426   0.002555314240681436
-0.5580690434325163   -0.17719876932745426   0.002555314240681436
-0.5580690434325163   -0.17719876932745426   0.002555314240681436
0.044316953190582015   -0.33000094508239386   0.015075711636314937
0.044316953190582015   -0.33000094508239386   0.015075711636314937
0.044316953190582015   -0.33000094508239386   0.015075711636314937
0.044316953190582015   -0.33000094508239386   0.015075711636314937
-0.27546407123069167   -0.2547375947517828   -0.05331897686091657
-0.27546407123069167   -0.2547375947517828   -0.05331897686091657
-0.27546407123069167   -0.2547375947517828   -0.05331897686091657
-0.27546407123069167   -0.2547375947517828   -0.05331897686091657
0.10519532173398513   -0.039303031073416636   0.028769640344352778
0.10519532173398513   -0.039303031073416636   0.028769640344352778
0.10519532173398513   -0.039303031073416636   0.028769640344352778
0.10519532173398513   -0.039303031073416636   0.028769640344352778
-0.6048215634581223   -0.4537708348186411   0.04536477960384443
-0.6048215634581223   -0.4537708348186411   0.04536477960384443
-0.6048215634581223   -0.4537708348186411   0.04536477960384443
-0.6048215634581223   -0.4537708348186411   0.04536477960384443
-0.5270037482157882   -0.15899765344112887   -0.00012820330922774098
-0.5270037482157882   -0.15899765344112887   -0.00012820330922774098
-0.5270037482157882   -0.15899765344112887   -0.00012820330922774098
-0.5270037482157882   -0.15899765344112887   -0.00012820330922774098
0.06590692554215513   -0.32267856686435925   0.021746440199429992
0.06590692554215513   -0.32267856686435925   0.021746440199429992
0.06590692554215513   -0.32267856686435925   0.021746440199429992
0.06590692554215513   -0.32267856686435925   0.021746440199429992
-0.24398838124462724   -0.24597937833975786   -0.019845668249257667
-0.24398838124462724   -0.24597937833975786   -0.019845668249257667
-0.24398838124462724   -0.24597937833975786   -0.019845668249257667
-0.24398838124462724   -0.24597937833975786   -0.019845668249257667
0.12479857764145821   -0.02492193403459899   0.018448067866184463
0.12479857764145821   -0.02492193403459899   0.018448067866184463
0.12479857764145821   -0.02492193403459899   0.018448067866184463
0.12479857764145821   -0.02492193403459899   0.018448067866184463
-0.5731578691215367   -0.44401675507733446   0.0541202937982459
-0.5731578691215367   -0.44401675507733446   0.0541202937982459
-0.5731578691215367   -0.44401675507733446   0.0541202937982459
-0.5731578691215367   -0.44401675507733446   0.0541202937982459
-0.47573718635761214   -0.13803721603714303   -0.006007178742849767
-0.47573718635761214   -0.13803721603714303   -0.006007178742849767
-0.47573718635761214   -0.13803721603714303   -0.006007178742849767
-0.47573718635761214   -0.13803721603714303   -0.006007178742849767
0.09960543487504593   -0.30234729496157564   0.02964159749309274
0.09960543487504593   -0.30234729496157564   0.02964159749309274
0.09960543487504593   -0.30234729496157564   0.02964159749309274
0.09960543487504593   -0.30234729496157564   0.02964159749309274
-0.20315420763196568   -0.22646328663501353   0.015151940962626481
-0.20315420763196568   -0.22646328663501353   0.015151940962626481
-0.20315420763196568   -0.22646328663501353   0.015151940962626481
-0.20315420763196568   -0.22646328663501353   0.015151940962626481
-0.5702643249406609   -0.090822869002084   0.01739143800412662
-0.5702643249406609   -0.090822869002084   0.01739143800412662
-0.5702643249406609   -0.090822869002084   0.01739143800412662
-0.5702643249406609   -0.090822869002084   0.01739143800412662
-1.4196292263845158   -0.7069728485918492   -0.03302198726653616
-1.4196292263845158   -0.7069728485918492   -0.03302198726653616
-1.4196292263845158   -0.7069728485918492   -0.03302198726653616
-1.4196292263845158   -0.7069728485918492   -0.03302198726653616
-1.2867807897978127   -0.23056600007379502   -0.03914985262506704
-1.2867807897978127   -0.23056600007379502   -0.03914985262506704
-1.2867807897978127   -0.23056600007379502   -0.03914985262506704
-1.2867807897978127   -0.23056600007379502   -0.03914985262506704
-0.6388729762504566   -0.5906532201534838   0.011990100977009227
-0.6388729762504566   -0.5906532201534838   0.011990100977009227
-0.6388729762504566   -0.5906532201534838   0.011990100977009227
-0.6388729762504566   -0.5906532201534838   0.011990100977009227
-0.9777918262891229   -0.41819143236109524   -0.056037547141385924
-0.9777918262891229   -0.41819143236109524   -0.056037547141385924
-0.9777918262891229   -0.41819143236109524   -0.056037547141385924
-0.9777918262891229   -0.41819143236109524   -0.056037547141385924
-0.5335747789521418   -0.06877437826385638   0.01660224557895635
-0.5335747789521418   -0.06877437826385638   0.01660224557895635
-0.5335747789521418   -0.06877437826385638   0.01660224557895635
-0.5335747789521418   -0.06877437826385638   0.01660224557895635
-1.3888006433658282   -0.7491664982331114   -0.030648622305819065
-1.3888006433658282   -0.7491664982331114   -0.030648622305819065
-1.3888006433658282   -0.7491664982331114   -0.030648622305819065
-1.3888006433658282   -0.7491664982331114   -0.030648622305819065
-1.2453911136983737   -0.20875874941427788   -0.03991014241702375
-1.2453911136983737   -0.20875874941427788   -0.03991014241702375
-1.2453911136983737   -0.20875874941427788   -0.03991014241702375
-1.2453911136983737   -0.20875874941427788   -0.03991014241702375
-0.6087311138271537   -0.5859164344174534   0.018153749610274994
-0.6087311138271537   -0.5859164344174534   0.018153749610274994
-0.6087311138271537   -0.5859164344174534   0.018153749610274994
-0.6087311138271537   -0.5859164344174534   0.018153749610274994
-0.9343042769330132   -0.40676939191037614   -0.03915461046548367
-0.9343042769330132   -0.40676939191037614   -0.03915461046548367
-0.9343042769330132   -0.40676939191037614   -0.03915461046548367
-0.9343042769330132   -0.40676939191037614   -0.03915461046548367
-0.5043514177549916   -0.05145135219289193   0.00558714774652494
-0.5043514177549916   -0.05145135219289193   0.00558714774652494
-0.5043514177549916   -0.05145135219289193   0.00558714774652494
-0.5043514177549916   -0.05145135219289193   0.00558714774652494
-1.3496523219176368   -0.7431053437859283   -0.026869589141677253
-1.3496523219176368   -0.7431053437859283   -0.026869589141677253
-1.3496523219176368   -0.7431053437859283   -0.026869589141677253
-1.3496523219176368   -0.7431053437859283   -0.026869589141677253
-1.1807923677282108   -0.18534632577959628   -0.04524807418173445
-1.1807923677282108   -0.18534632577959628   -0.04524807418173445
-1.1807923677282108   -0.18534632577959628   -0.04524807418173445
-1.1807923677282108   -0.18534632577959628   -0.04524807418173445
-0.5435142098610355   -0.5264849074690949   0.043555395171993735
-0.5435142098610355   -0.5264849074690949   0.043555395171993735
-0.5435142098610355   -0.5264849074690949   0.043555395171993735
-0.5435142098610355   -0.5264849074690949   0.043555395171993735
-0.8858390775912405   -0.36849641821015566   -0.021593697721868078
-0.8858390775912405   -0.36849641821015566   -0.021593697721868078
-0.8858390775912405   -0.36849641821015566   -0.021593697721868078
-0.8858390775912405   -0.36849641821015566   -0.021593697721868078
-1.2889395915356991   -0.07756520721368124   -0.008981454400621265
-1.2889395915356991   -0.07756520721368124   -0.008981454400621265
-1.2889395915356991   -0.07756520721368124   -0.008981454400621265
-1.2889395915356991   -0.07756520721368124   -0.008981454400621265
-2.2731920956524823   -0.4499954725038706   0.023214733133129398
-2.2731920956524823   -0.4499954725038706   0.023214733133129398
-2.2731920956524823   -0.4499954725038706   0.023214733133129398
-2.2731920956524823   -0.4499954725038706   0.023214733133129398
-2.183903261864905   -0.21615232487223723   -0.047733264513574306
-2.183903261864905   -0.21615232487223723   -0.047733264513574306
-2.183903261864905   -0.21615232487223723   -0.047733264513574306
-2.183903261864905   -0.21615232487223723   -0.047733264513574306
-1.2608477914731733   -0.23348310875813982   0.09343224768247414
-1.2608477914731733   -0.23348310875813982   0.09343224768247414
-1.2608477914731733   -0.23348310875813982   0.09343224768247414
-1.2608477914731733   -0.23348310875813982   0.09343224768247414
-1.6807940865605095   -0.2608889022456431   0.023873665146124465
-1.6807940865605095   -0.2608889022456431   0.023873665146124465
-1.6807940865605095   -0.2608889022456431   0.023873665146124465
-1.6807940865605095   -0.2608889022456431   0.023873665146124465
-1.2361821295620004   -0.017004963177419175   0.00028241165762304954
-1.2361821295620004   -0.017004963177419175   0.00028241165762304954
-1.2361821295620004   -0.017004963177419175   0.00028241165762304954
-1.2361821295620004   -0.017004963177419175   0.00028241165762304954
-2.2170279829918598   -0.4410895296687445   0.011580334648137292
-2.2170279829918598   -0.4410895296687445   0.011580334648137292
-2.2170279829918598   -0.4410895296687445   0.011580334648137292
-2.2170279829918598   -0.4410895296687445   0.011580334648137292
-2.13485398297543   -0.1980804845565331   -0.06059238377505395
-2.13485398297543   -0.1980804845565331   -0.06059238377505395
-2.13485398297543   -0.1980804845565331   -0.06059238377505395
-2.13485398297543   -0.1980804845565331   -0.06059238377505395
-1.218245704254026   -0.2218645914772629   0.10892274686771158
-1.218245704254026   -0.2218645914772629   0.10892274686771158
-1.218245704254026   -0.2218645914772629   0.10892274686771158
-1.218245704254026   -0.2218645914772629   0.10892274686771158
-1.6550171315276336   -0.21490611759041445   0.0229993064953325
-1.6550171315276336   -0.21490611759041445   0.0229993064953325
-1.6550171315276336   -0.21490611759041445   0.0229993064953325
-1.6550171315276336   -0.21490611759041445   0.0229993064953325
-1.1982335800041868   -0.0010118098994547076   -0.01186941346090098
-1.1982335800041868   -0.0010118098994547076   -0.01186941346090098
-1.1982335800041868   -0.0010118098994547076   -0.01186941346090098
-1.1982335800041868   -0.0010118098994547076   -0.01186941346090098
-2.157932131255718   -0.42199929016479387   0.047935680431749006
-2.157932131255718   -0.42199929016479387   0.047935680431749006
-2.157932131255718   -0.42199929016479387   0.047935680431749006
-2.157932131255718   -0.42199929016479387   0.047935680431749006
-2.0329855572268922   -0.16061618452155763   -0.06779937614890588
-2.0329855572268922   -0.16061618452155763   -0.06779937614890588
-2.0329855572268922   -0.16061618452155763   -0.06779937614890588
-2.0329855572268922   -0.16061618452155763   -0.06779937614890588
-1.151947779706874   -0.20638653992691933   0.12001508007227739
-1.151947779706874   -0.20638653992691933   0.12001508007227739
-1.151947779706874   -0.20638653992691933   0.12001508007227739
-1.151947779706874   -0.20638653992691933   0.12001508007227739
-1.5562863531309146   -0.1643245535453129   0.047342931728882556
-1.5562863531309146   -0.1643245535453129   0.047342931728882556
-1.5562863531309146   -0.1643245535453129   0.047342931728882556
-1.5562863531309146   -0.1643245535453129   0.047342931728882556
1.6342910974230282   0.05379482402236885   0.022948937404338884
1.6342910974230282   0.05379482402236885   0.022948937404338884
1.6342910974230282   0.05379482402236885   0.022948937404338884
1.6342910974230282   0.05379482402236885   0.022948937404338884
0.8341074315656575   -0.044082133176754634   0.016790720525685143
0.8341074315656575   -0.044082133176754634   0.016790720525685143
0.8341074315656575   -0.044082133176754634   0.016790720525685143
0.8341074315656575   -0.044082133176754634   0.016790720525685143
0.8016292109501231   -0.11764177808576151   0.033161620800184866
0.8016292109501231   -0.11764177808576151   0.033161620800184866
0.8016292109501231   -0.11764177808576151   0.033161620800184866
0.8016292109501231   -0.11764177808576151   0.033161620800184866
1.622441941914953   0.09139632746533699   0.012116389003503272
1.622441941914953   0.09139632746533699   0.012116389003503272
1.622441941914953   0.09139632746533699   0.012116389003503272
1.622441941914953   0.09139632746533699   0.012116389003503272
1.1579323758126232   -0.016381668452875225   -0.042779582924608345
1.1579323758126232   -0.016381668452875225   -0.042779582924608345
1.1579323758126232   -0.016381668452875225   -0.042779582924608345
1.1579323758126232   -0.016381668452875225   -0.042779582924608345
1.6135746212380004   0.04162516869049143   0.017550944393587495
1.6135746212380004   0.04162516869049143   0.017550944393587495
1.6135746212380004   0.04162516869049143   0.017550944393587495
1.6135746212380004   0.04162516869049143   0.017550944393587495
0.8078452620559304   -0.07052188888206334   0.01712198712552379
0.8078452620559304   -0.07052188888206334   0.01712198712552379
0.8078452620559304   -0.07052188888206334   0.01712198712552379
0.8078452620559304   -0.07052188888206334   0.01712198712552379
0.7808999439922727   -0.12033925553830416   0.027419503150685684
0.7808999439922727   -0.12033925553830416   0.027419503150685684
0.7808999439922727   -0.12033925553830416   0.027419503150685684
0.7808999439922727   -0.12033925553830416   0.027419503150685684
1.6035129784340536   0.08746161439730887   0.021031423425387857
1.6035129784340536   0.08746161439730887   0.021031423425387857
1.6035129784340536   0.08746161439730887   0.021031423425387857
1.6035129784340536   0.08746161439730887   0.021031423425387857
1.1545594587217034   -0.022593757850377982   -0.04946886945035188
1.1545594587217034   -0.022593757850377982   -0.04946886945035188
1.1545594587217034   -0.022593757850377982   -0.04946886945035188
1.1545594587217034   -0.022593757850377982   -0.04946886945035188
1.5902842394941452   0.0371029762971366   0.005246366826001589
1.5902842394941452   0.0371029762971366   0.005246366826001589
1.5902842394941452   0.0371029762971366   0.005246366826001589
1.5902842394941452   0.0371029762971366   0.005246366826001589
0.7893591536731274   -0.07475014669718577   0.024126442713840873
0.7893591536731274   -0.07475014669718577   0.024126442713840873
0.7893591536731274   -0.07475014669718577   0.024126442713840873
0.7893591536731274   -0.07475014669718577   0.024126442713840873
0.7590408507504124   -0.10971760043710332   0.023677773705883393
0.7590408507504124   -0.10971760043710332   0.023677773705883393
0.7590408507504124   -0.10971760043710332   0.023677773705883393
0.7590408507504124   -0.10971760043710332   0.023677773705883393
1.5743555098436255   0.0885183368884847   0.030295830508106913
1.5743555098436255   0.0885183368884847   0.030295830508106913
1.5743555098436255   0.0885183368884847   0.030295830508106913
1.5743555098436255   0.0885183368884847   0.030295830508106913
1.1112548200323296   -0.02274009356229567   -0.06674421699691488
1.1112548200323296   -0.02274009356229567   -0.06674421699691488
1.1112548200323296   -0.02274009356229567   -0.06674421699691488
1.1112548200323296   -0.02274009356229567   -0.06674421699691488
0.8268710877394524   -0.10434290296441498   0.040869771182320144
0.8268710877394524   -0.10434290296441498   0.040869771182320144
0.8268710877394524   -0.10434290296441498   0.040869771182320144
0.8268710877394524   -0.10434290296441498   0.040869771182320144
0.15974618729607876   -0.09845081209576349   0.008646397202556777
0.15974618729607876   -0.09845081209576349   0.008646397202556777
0.15974618729607876   -0.09845081209576349   0.008646397202556777
0.15974618729607876   -0.09845081209576349   0.008646397202556777
0.10372895708677449   -0.24696739055902883   0.04356482332022675
0.10372895708677449   -0.24696739055902883   0.04356482332022675
0.10372895708677449   -0.24696739055902883   0.04356482332022675
0.10372895708677449   -0.24696739055902883   0.04356482332022675
0.8313248917157439   0.03245633945956239   0.03154190708296562
0.8313248917157439   0.03245633945956239   0.03154190708296562
0.8313248917157439   0.03245633945956239   0.03154190708296562
0.8313248917157439   0.03245633945956239   0.03154190708296562
0.47302972684335887   -0.10474626414967399   -0.0018339448940352665
0.47302972684335887   -0.10474626414967399   -0.0018339448940352665
0.47302972684335887   -0.10474626414967399   -0.0018339448940352665
0.47302972684335887   -0.10474626414967399   -0.0018339448940352665
0.8036061634578937   -0.10885332741515905   0.034257932668438726
0.8036061634578937   -0.10885332741515905   0.034257932668438726
0.8036061634578937   -0.10885332741515905   0.034257932668438726
0.8036061634578937   -0.10885332741515905   0.034257932668438726
0.12444506498435866   -0.11266034404458053   0.012838316293697437
0.12444506498435866   -0.11266034404458053   0.012838316293697437
0.12444506498435866   -0.11266034404458053   0.012838316293697437
0.12444506498435866   -0.11266034404458053   0.012838316293697437
0.07862409215355724   -0.24913823555004128   0.038997939784573776
0.07862409215355724   -0.24913823555004128   0.038997939784573776
0.07862409215355724   -0.24913823555004128   0.038997939784573776
0.07862409215355724   -0.24913823555004128   0.038997939784573776
0.8122100162992325   0.02627607783048691   0.037354531316694216
0.8122100162992325   0.02627607783048691   0.037354531316694216
0.8122100162992325   0.02627607783048691   0.037354531316694216
0.8122100162992325   0.02627607783048691   0.037354531316694216
0.4389202682411785   -0.1116274265280829   -0.02263678573862743
0.4389202682411785   -0.1116274265280829   -0.02263678573862743
0.4389202682411785   -0.1116274265280829   -0.02263678573862743
0.4389202682411785   -0.1116274265280829   -0.02263678573862743
0.7830794609957606   -0.11037598601046683   0.02835381864028018
0.7830794609957606   -0.11037598601046683   0.02835381864028018
0.7830794609957606   -0.11037598601046683   0.02835381864028018
0.7830794609957606   -0.11037598601046683   0.02835381864028018
0.10014277163451943   -0.12009804753160486   0.017551149170948403
0.10014277163451943   -0.12009804753160486   0.017551149170948403
0.10014277163451943   -0.12009804753160486   0.017551149170948403
0.10014277163451943   -0.12009804753160486   0.017551149170948403
0.05053612470192369   -0.24897025464547917   0.03050314352168719
0.05053612470192369   -0.24897025464547917   0.03050314352168719
0.05053612470192369   -0.24897025464547917   0.03050314352168719
0.05053612470192369   -0.24897025464547917   0.03050314352168719
0.7905163741294066   0.026691561682678944   0.04464622848106967
0.7905163741294066   0.026691561682678944   0.04464622848106967
0.7905163741294066   0.026691561682678944   0.04464622848106967
0.7905163741294066   0.026691561682678944   0.04464622848106967
0.41811373090394144   -0.11073101000194013   -0.04032018638136357
0.41811373090394144   -0.11073101000194013   -0.04032018638136357
0.41811373090394144   -0.11073101000194013   -0.04032018638136357
0.41811373090394144   -0.11073101000194013   -0.04032018638136357
0.12458361749225827   -0.3022887478545337   0.03667148394222261
0.12458361749225827   -0.3022887478545337   0.03667148394222261
0.12458361749225827   -0.3022887478545337   0.03667148394222261
0.12458361749225827   -0.3022887478545337   0.03667148394222261
-0.4886098286957925   -0.15264538497509936   0.0004572637382183366
-0.4886098286957925   -0.15264538497509936   0.0004572637382183366
-0.4886098286957925   -0.15264538497509936   0.0004572637382183366
-0.4886098286957925   -0.15264538497509936   0.0004572637382183366
-0.5899524405675671   -0.44988437055462716   0.049927978033358925
-0.5899524405675671   -0.44988437055462716   0.049927978033358925
-0.5899524405675671   -0.44988437055462716   0.049927978033358925
-0.5899524405675671   -0.44988437055462716   0.049927978033358925
0.14331940060931103   -0.025417959925396923   0.019967610299276142
0.14331940060931103   -0.025417959925396923   0.019967610299276142
0.14331940060931103   -0.025417959925396923   0.019967610299276142
0.14331940060931103   -0.025417959925396923   0.019967610299276142
-0.19996990753946361   -0.22928112793448807   0.008640507096231494
-0.19996990753946361   -0.22928112793448807   0.008640507096231494
-0.19996990753946361   -0.22928112793448807   0.008640507096231494
-0.19996990753946361   -0.22928112793448807   0.008640507096231494
0.08579421459839864   -0.3194465758868598   0.02637029620617859
0.08579421459839864   -0.3194465758868598   0.02637029620617859
0.08579421459839864   -0.3194465758868598   0.02637029620617859
0.08579421459839864   -0.3194465758868598   0.02637029620617859
-0.5422345508250349   -0.1656630508615362   0.00429610705292565
-0.5422345508250349   -0.1656630508615362   0.00429610705292565
-0.5422345508250349   -0.1656630508615362   0.00429610705292565
-0.5422345508250349   -0.1656630508615362   0.00429610705292565
-0.6249079201472283   -0.4570525927043455   0.0406911566888824
-0.6249079201472283   -0.4570525927043455   0.0406911566888824
-0.6249079201472283   -0.4570525927043455   0.0406911566888824
-0.6249079201472283   -0.4570525927043455   0.0406911566888824
0.11979373073935703   -0.032276850908401884   0.02798474807193286
0.11979373073935703   -0.032276850908401884   0.02798474807193286
0.11979373073935703   -0.032276850908401884   0.02798474807193286
0.11979373073935703   -0.032276850908401884   0.02798474807193286
-0.24365681466872463   -0.24318794125811855   -0.02053137027743706
-0.24365681466872463   -0.24318794125811855   -0.02053137027743706
-0.24365681466872463   -0.24318794125811855   -0.02053137027743706
-0.24365681466872463   -0.24318794125811855   -0.02053137027743706
0.0590525929789813   -0.32499856645378505   0.017000774815437922
0.0590525929789813   -0.32499856645378505   0.017000774815437922
0.0590525929789813   -0.32499856645378505   0.017000774815437922
0.0590525929789813   -0.32499856645378505   0.017000774815437922
-0.5758437281095176   -0.1760078228816221   0.0049673470547065245
-0.5758437281095176   -0.1760078228816221   0.0049673470547065245
-0.5758437281095176   -0.1760078228816221   0.0049673470547065245
-0.5758437281095176   -0.1760078228816221   0.0049673470547065245
-0.6628055241641523   -0.45391560781978735   0.03421099224123238
-0.6628055241641523   -0.45391560781978735   0.03421099224123238
-0.6628055241641523   -0.45391560781978735   0.03421099224123238
-0.6628055241641523   -0.45391560781978735   0.03421099224123238
0.0936217711779444   -0.03608786444136993   0.0330489856976807
0.0936217711779444   -0.03608786444136993   0.0330489856976807
0.0936217711779444   -0.03608786444136993   0.0330489856976807
0.0936217711779444   -0.03608786444136993   0.0330489856976807
-0.2791131796394578   -0.24845960856421007   -0.049695479033604564
-0.2791131796394578   -0.24845960856421007   -0.049695479033604564
-0.2791131796394578   -0.24845960856421007   -0.049695479033604564
-0.2791131796394578   -0.24845960856421007   -0.049695479033604564
-0.553121134277087   -0.5183464687881099   0.04360181964475833
-0.553121134277087   -0.5183464687881099   0.04360181964475833
-0.553121134277087   -0.5183464687881099   0.04360181964475833
-0.553121134277087   -0.5183464687881099   0.04360181964475833
-1.225319014543929   -0.19000629392978075   -0.028318156878390423
-1.225319014543929   -0.19000629392978075   -0.028318156878390423
-1.225319014543929   -0.19000629392978075   -0.028318156878390423
-1.225319014543929   -0.19000629392978075   -0.028318156878390423
-1.4024556997972806   -0.7535482578170646   -0.03890236379413203
-1.4024556997972806   -0.7535482578170646   -0.03890236379413203
-1.4024556997972806   -0.7535482578170646   -0.03890236379413203
-1.4024556997972806   -0.7535482578170646   -0.03890236379413203
-0.5149719095919648   -0.0423063851643862   0.017252647521126346
-0.5149719095919648   -0.0423063851643862   0.017252647521126346
-0.5149719095919648   -0.0423063851643862   0.017252647521126346
-0.5149719095919648   -0.0423063851643862   0.017252647521126346
-0.9150938800556543   -0.36137806972210523   -0.03094325787438408
-0.9150938800556543   -0.36137806972210523   -0.03094325787438408
-0.9150938800556543   -0.36137806972210523   -0.03094325787438408
-0.9150938800556543   -0.36137806972210523   -0.03094325787438408
-0.624455009470235   -0.5872179119998003   0.014748674965189362
-0.624455009470235   -0.5872179119998003   0.014748674965189362
-0.624455009470235   -0.5872179119998003   0.014748674965189362
-0.624455009470235   -0.5872179119998003   0.014748674965189362
-1.2902050479441929   -0.20586917900684276   -0.025328183338928258
-1.2902050479441929   -0.20586917900684276   -0.025328183338928258
-1.2902050479441929   -0.20586917900684276   -0.025328183338928258
-1.2902050479441929   -0.20586917900684276   -0.025328183338928258
-1.4440485728329389   -0.7656079769283094   -0.044986503938280784
-1.4440485728329389   -0.7656079769283094   -0.044986503938280784
-1.4440485728329389   -0.7656079769283094   -0.044986503938280784
-1.4440485728329389   -0.7656079769283094   -0.044986503938280784
-0.5472081582375611   -0.05358051850821692   0.025717892041084163
-0.5472081582375611   -0.05358051850821692   0.025717892041084163
-0.5472081582375611   -0.05358051850821692   0.025717892041084163
-0.5472081582375611   -0.05358051850821692   0.025717892041084163
-0.9659394510518673   -0.400465084914718   -0.04394818155747862
-0.9659394510518673   -0.400465084914718   -0.04394818155747862
-0.9659394510518673   -0.400465084914718   -0.04394818155747862
-0.9659394510518673   -0.400465084914718   -0.04394818155747862
-0.6602189651979425   -0.5986900723895594   0.005773411120519045
-0.6602189651979425   -0.5986900723895594   0.005773411120519045
-0.6602189651979425   -0.5986900723895594   0.005773411120519045
-0.6602189651979425   -0.5986900723895594   0.005773411120519045
-1.3312750500770665   -0.2207357072514857   -0.025991159835754174
-1.3312750500770665   -0.2207357072514857   -0.025991159835754174
-1.3312750500770665   -0.2207357072514857   -0.025991159835754174
-1.3312750500770665   -0.2207357072514857   -0.025991159835754174
-1.4795054090233644   -0.7325396394761321   -0.05072706570086348
-1.4795054090233644   -0.7325396394761321   -0.05072706570086348
-1.4795054090233644   -0.7325396394761321   -0.05072706570086348
-1.4795054090233644   -0.7325396394761321   -0.05072706570086348
-0.5879994410036918   -0.06950997402370747   0.023835774247454818
-0.5879994410036918   -0.06950997402370747   0.023835774247454818
-0.5879994410036918   -0.06950997402370747   0.023835774247454818
-0.5879994410036918   -0.06950997402370747   0.023835774247454818
-1.012806964957858   -0.41376552362111485   -0.05640888364807234
-1.012806964957858   -0.41376552362111485   -0.05640888364807234
-1.012806964957858   -0.41376552362111485   -0.05640888364807234
-1.012806964957858   -0.41376552362111485   -0.05640888364807234
-1.20397724161123   -0.21926547129265553   0.10764988514795891
-1.20397724161123   -0.21926547129265553   0.10764988514795891
-1.20397724161123   -0.21926547129265553   0.10764988514795891
-1.20397724161123   -0.21926547129265553   0.10764988514795891
-2.1184798002335796   -0.15833463037955942   -0.03744851508422212
-2.1184798002335796   -0.15833463037955942   -0.03744851508422212
-2.1184798002335796   -0.15833463037955942   -0.03744851508422212
-2.1184798002335796   -0.15833463037955942   -0.03744851508422212
-2.2479424515712774   -0.4436830614835693   0.02952714415343094
-2.2479424515712774   -0.4436830614835693   0.02952714415343094
-2.2479424515712774   -0.4436830614835693   0.02952714415343094
-2.2479424515712774   -0.4436830614835693   0.02952714415343094
-1.2382208682242646   0.01801733756864443   0.01070619868522727
-1.2382208682242646   0.01801733756864443   0.01070619868522727
-1.2382208682242646   0.01801733756864443   0.01070619868522727
-1.2382208682242646   0.01801733756864443   0.01070619868522727
-1.621096940931879   -0.15584344273157225   0.03254349740312859
-1.621096940931879   -0.15584344273157225   0.03254349740312859
-1.621096940931879   -0.15584344273157225   0.03254349740312859
-1.621096940931879   -0.15584344273157225   0.03254349740312859
-1.27192152663505   -0.23528354707251586   0.0955037912724554
-1.27192152663505   -0.23528354707251586   0.0955037912724554
-1.27192152663505   -0.23528354707251586   0.0955037912724554
-1.27192152663505   -0.23528354707251586   0.0955037912724554
-2.2086080782422997   -0.18474846192421185   -0.0327355887610187
-2.2086080782422997   -0.18474846192421185   -0.0327355887610187
-2.2086080782422997   -0.18474846192421185   -0.0327355887610187
-2.2086080782422997   -0.18474846192421185   -0.0327355887610187
-2.3027755582181566   -0.4625264234753187   -0.009856559158436917
-2.3027755582181566   -0.4625264234753187   -0.009856559158436917
-2.3027755582181566   -0.4625264234753187   -0.009856559158436917
-2.3027755582181566   -0.4625264234753187   -0.009856559158436917
-1.2769457232995305   0.005351874507556864   0.01956789229288433
-1.2769457232995305   0.005351874507556864   0.01956789229288433
-1.2769457232995305   0.005351874507556864   0.01956789229288433
-1.2769457232995305   0.005351874507556864   0.01956789229288433
-1.7178402841153704   -0.2056867779856527   0.013366848568364346
-1.7178402841153704   -0.2056867779856527   0.013366848568364346
-1.7178402841153704   -0.2056867779856527   0.013366848568364346
-1.7178402841153704   -0.2056867779856527   0.013366848568364346
-1.3155657673998433   -0.24729103685015863   0.0791105831490349
-1.3155657673998433   -0.24729103685015863   0.0791105831490349
-1.3155657673998433   -0.24729103685015863   0.0791105831490349
-1.3155657673998433   -0.24729103685015863   0.0791105831490349
-2.252807834688509   -0.1985358326882632   -0.024008532297236818
-2.252807834688509   -0.1985358326882632   -0.024008532297236818
-2.252807834688509   -0.1985358326882632   -0.024008532297236818
-2.252807834688509   -0.1985358326882632   -0.024008532297236818
-2.3503799561992618   -0.47011124640067975   -0.00017627580413682133
-2.3503799561992618   -0.47011124640067975   -0.00017627580413682133
-2.3503799561992618   -0.47011124640067975   -0.00017627580413682133
-2.3503799561992618   -0.47011124640067975   -0.00017627580413682133
-1.3313455938376244   -0.050507918425612225   0.008040289177309444
-1.3313455938376244   -0.050507918425612225   0.008040289177309444
-1.3313455938376244   -0.050507918425612225   0.008040289177309444
-1.3313455938376244   -0.050507918425612225   0.008040289177309444
-1.7385940198892933   -0.24845929763306474   0.021087420456904933
-1.7385940198892933   -0.24845929763306474   0.021087420456904933
-1.7385940198892933   -0.24845929763306474   0.021087420456904933
-1.7385940198892933   -0.24845929763306474   0.021087420456904933
1.432289479021837   0.06599735249553432   -0.03099389856908078
1.432289479021837   0.06599735249553432   -0.03099389856908078
1.432289479021837   0.06599735249553432   -0.03099389856908078
1.432289479021837   0.06599735249553432   -0.03099389856908078
0.7206786609695198   -0.014673222374829598   0.015203697497929346
0.7206786609695198   -0.014673222374829598   0.015203697497929346
0.7206786609695198   -0.014673222374829598   0.015203697497929346
0.7206786609695198   -0.014673222374829598   0.015203697497929346
0.6749474683023147   -0.10601126474606015   -0.02742709844084444
0.6749474683023147   -0.10601126474606015   -0.02742709844084444
0.6749474683023147   -0.10601126474606015   -0.02742709844084444
0.6749474683023147   -0.10601126474606015   -0.02742709844084444
1.415737562087508   0.10333491151706126   0.017788121092128767
1.415737562087508   0.10333491151706126   0.017788121092128767
1.415737562087508   0.10333491151706126   0.017788121092128767
1.415737562087508   0.10333491151706126   0.017788121092128767
1.0053020971725335   0.002469231191559368   -0.03882891691745877
1.0053020971725335   0.002469231191559368   -0.03882891691745877
1.0053020971725335   0.002469231191559368   -0.03882891691745877
1.0053020971725335   0.002469231191559368   -0.03882891691745877
1.3926036078898423   0.03674669598649227   -0.0312934343656174
1.3926036078898423   0.03674669598649227   -0.0312934343656174
1.3926036078898423   0.03674669598649227   -0.0312934343656174
1.3926036078898423   0.03674669598649227   -0.0312934343656174
0.6968001329319182   -0.04070433878355087   0.016529298744657736
0.6968001329319182   -0.04070433878355087   0.016529298744657736
0.6968001329319182   -0.04070433878355087   0.016529298744657736
0.6968001329319182   -0.04070433878355087   0.016529298744657736
0.6503190675188346   -0.111915861741572   -0.022662046353797552
0.6503190675188346   -0.111915861741572   -0.022662046353797552
0.6503190675188346   -0.111915861741572   -0.022662046353797552
0.6503190675188346   -0.111915861741572   -0.022662046353797552
1.3815352796043694   0.09496021502601518   0.026030385955604633
1.3815352796043694   0.09496021502601518   0.026030385955604633
1.3815352796043694   0.09496021502601518   0.026030385955604633
1.3815352796043694   0.09496021502601518   0.026030385955604633
0.9919089642416183   -0.010022806086456282   -0.04631227218175443
0.9919089642416183   -0.010022806086456282   -0.04631227218175443
0.9919089642416183   -0.010022806086456282   -0.04631227218175443
0.9919089642416183   -0.010022806086456282   -0.04631227218175443
1.3582284535609117   0.029241432408720347   -0.024784961644389092
1.3582284535609117   0.029241432408720347   -0.024784961644389092
1.3582284535609117   0.029241432408720347   -0.024784961644389092
1.3582284535609117   0.029241432408720347   -0.024784961644389092
0.671844128552333   -0.047978844134240556   0.021026241206362394
0.671844128552333   -0.047978844134240556   0.021026241206362394
0.671844128552333   -0.047978844134240556   0.021026241206362394
0.671844128552333   -0.047978844134240556   0.021026241206362394
0.6264738261535066   -0.11022633816802285   -0.015545861084250726
0.6264738261535066   -0.11022633816802285   -0.015545861084250726
0.6264738261535066   -0.11022633816802285   -0.015545861084250726
0.6264738261535066   -0.11022633816802285   -0.015545861084250726
1.339193807374942   0.08931652431860165   0.03389529907446895
1.339193807374942   0.08931652431860165   0.03389529907446895
1.339193807374942   0.08931652431860165   0.03389529907446895
1.339193807374942   0.08931652431860165   0.03389529907446895
0.9429396121874882   -0.01747810652913606   -0.060804379699041705
0.9429396121874882   -0.01747810652913606   -0.060804379699041705
0.9429396121874882   -0.01747810652913606   -0.060804379699041705
0.9429396121874882   -0.01747810652913606   -0.060804379699041705
0.7247073876755581   0.014122475225228914   0.006551633428061775
0.7247073876755581   0.014122475225228914   0.006551633428061775
0.7247073876755581   0.014122475225228914   0.006551633428061775
0.7247073876755581   0.014122475225228914   0.006551633428061775
0.0692832273414492   -0.04350166776168077   -0.001695575054608359
0.0692832273414492   -0.04350166776168077   -0.001695575054608359
0.0692832273414492   -0.04350166776168077   -0.001695575054608359
0.0692832273414492   -0.04350166776168077   -0.001695575054608359
0.026189034553134843   -0.14016061205722988   -0.026406993338325524
0.026189034553134843   -0.14016061205722988   -0.026406993338325524
0.026189034553134843   -0.14016061205722988   -0.026406993338325524
0.026189034553134843   -0.14016061205722988   -0.026406993338325524
0.7255487191541958   0.08371294788555403   0.035854943186941345
0.7255487191541958   0.08371294788555403   0.035854943186941345
0.7255487191541958   0.08371294788555403   0.035854943186941345
0.7255487191541958   0.08371294788555403   0.035854943186941345
0.37934139028769015   -0.019624125008060614   -0.0150047890519585
0.37934139028769015   -0.019624125008060614   -0.0150047890519585
0.37934139028769015   -0.019624125008060614   -0.0150047890519585
0.37934139028769015   -0.019624125008060614   -0.0150047890519585
0.704466904430374   0.003006770063802261   0.011152047389585577
0.704466904430374   0.003006770063802261   0.011152047389585577
0.704466904430374   0.003006770063802261   0.011152047389585577
0.704466904430374   0.003006770063802261   0.011152047389585577
0.04807334338959332   -0.05865194012283948   0.0015058789095764545
0.04807334338959332   -0.05865194012283948   0.0015058789095764545
0.04807334338959332   -0.05865194012283948   0.0015058789095764545
0.04807334338959332   -0.05865194012283948   0.0015058789095764545
0.0024419758432864744   -0.1468275865303764   -0.01839575003167627
0.0024419758432864744   -0.1468275865303764   -0.01839575003167627
0.0024419758432864744   -0.1468275865303764   -0.01839575003167627
0.0024419758432864744   -0.1468275865303764   -0.01839575003167627
0.6994805802564398   0.07168616635531934   0.03954348923733608
0.6994805802564398   0.07168616635531934   0.03954348923733608
0.6994805802564398   0.07168616635531934   0.03954348923733608
0.6994805802564398   0.07168616635531934   0.03954348923733608
0.3519984153837633   -0.030700378877546647   -0.02124414540389591
0.3519984153837633   -0.030700378877546647   -0.02124414540389591
0.3519984153837633   -0.030700378877546647   -0.02124414540389591
0.3519984153837633   -0.030700378877546647   -0.02124414540389591
0.6795851128271084   -0.004474454531724431   0.01622677297772937
0.6795851128271084   -0.004474454531724431   0.01622677297772937
0.6795851128271084   -0.004474454531724431   0.01622677297772937
0.6795851128271084   -0.004474454531724431   0.01622677297772937
0.022226337995668154   -0.07077807092027587   0.004476545120131611
0.022226337995668154   -0.07077807092027587   0.004476545120131611
0.022226337995668154   -0.07077807092027587   0.004476545120131611
0.022226337995668154   -0.07077807092027587   0.004476545120131611
-0.023046818304726113   -0.14746224412758072   -0.012559608136095857
-0.023046818304726113   -0.14746224412758072   -0.012559608136095857
-0.023046818304726113   -0.14746224412758072   -0.012559608136095857
-0.023046818304726113   -0.14746224412758072   -0.012559608136095857
0.6731791111619901   0.06405434936250529   0.04369987642764325
0.6731791111619901   0.06405434936250529   0.04369987642764325
0.6731791111619901   0.06405434936250529   0.04369987642764325
0.6731791111619901   0.06405434936250529   0.04369987642764325
0.3306313161019505   -0.035094896763767855   -0.026596458336012808
0.3306313161019505   -0.035094896763767855   -0.026596458336012808
0.3306313161019505   -0.035094896763767855   -0.026596458336012808
0.3306313161019505   -0.035094896763767855   -0.026596458336012808
0.07073976494381355   -0.04037485829643467   0.002460303491969096
0.07073976494381355   -0.04037485829643467   0.002460303491969096
0.07073976494381355   -0.04037485829643467   0.002460303491969096
0.07073976494381355   -0.04037485829643467   0.002460303491969096
-0.5604153358635335   -0.06473969962516207   -0.017624669129444097
-0.5604153358635335   -0.06473969962516207   -0.017624669129444097
-0.5604153358635335   -0.06473969962516207   -0.017624669129444097
-0.5604153358635335   -0.06473969962516207   -0.017624669129444097
-0.6083249348234081   -0.18576217205234685   -0.030109114902754225
-0.6083249348234081   -0.18576217205234685   -0.030109114902754225
-0.6083249348234081   -0.18576217205234685   -0.030109114902754225
-0.6083249348234081   -0.18576217205234685   -0.030109114902754225
0.07589379621106633   0.06135777551870909   0.02059842737539319
0.07589379621106633   0.06135777551870909   0.02059842737539319
0.07589379621106633   0.06135777551870909   0.02059842737539319
0.07589379621106633   0.06135777551870909   0.02059842737539319
-0.25627770622813384   -0.05463328073477069   -0.014883164512337545
-0.25627770622813384   -0.05463328073477069   -0.014883164512337545
-0.25627770622813384   -0.05463328073477069   -0.014883164512337545
-0.25627770622813384   -0.05463328073477069   -0.014883164512337545
0.05289339792433679   -0.04508820019179571   0.012042411652250045
0.05289339792433679   -0.04508820019179571   0.012042411652250045
0.05289339792433679   -0.04508820019179571   0.012042411652250045
0.05289339792433679   -0.04508820019179571   0.012042411652250045
-0.5835615387441107   -0.07755319854927306   -0.014501108009340563
-0.5835615387441107   -0.07755319854927306   -0.014501108009340563
-0.5835615387441107   -0.07755319854927306   -0.014501108009340563
-0.5835615387441107   -0.07755319854927306   -0.014501108009340563
-0.6361700696464635   -0.19306066448725334   -0.0199705194365039
-0.6361700696464635   -0.19306066448725334   -0.0199705194365039
-0.6361700696464635   -0.19306066448725334   -0.0199705194365039
-0.6361700696464635   -0.19306066448725334   -0.0199705194365039
0.04984100107078625   0.048484992587552095   0.02328679698789346
0.04984100107078625   0.048484992587552095   0.02328679698789346
0.04984100107078625   0.048484992587552095   0.02328679698789346
0.04984100107078625   0.048484992587552095   0.02328679698789346
-0.2793168896629676   -0.06229005941585996   -0.01784896090890044
-0.2793168896629676   -0.06229005941585996   -0.01784896090890044
-0.2793168896629676   -0.06229005941585996   -0.01784896090890044
-0.2793168896629676   -0.06229005941585996   -0.01784896090890044
0.028237841750692962   -0.05286148310460352   0.016617476079583315
0.028237841750692962   -0.05286148310460352   0.016617476079583315
0.028237841750692962   -0.05286148310460352   0.016617476079583315
0.028237841750692962   -0.05286148310460352   0.016617476079583315
-0.6141950795667714   -0.09134235803549788   -0.01181387548979878
-0.6141950795667714   -0.09134235803549788   -0.01181387548979878
-0.6141950795667714   -0.09134235803549788   -0.01181387548979878
-0.6141950795667714   -0.09134235803549788   -0.01181387548979878
-0.6670628795511524   -0.19838497443560899   -0.017751913544417696
-0.6670628795511524   -0.19838497443560899   -0.017751913544417696
-0.6670628795511524   -0.19838497443560899   -0.017751913544417696
-0.6670628795511524   -0.19838497443560899   -0.017751913544417696
0.021660466151040246   0.037496320899911964   0.026018249115243308
0.021660466151040246   0.037496320899911964   0.026018249115243308
0.021660466151040246   0.037496320899911964   0.026018249115243308
0.021660466151040246   0.037496320899911964   0.026018249115243308
-0.30924458869637483   -0.07145667288522994   -0.024998528042178197
-0.30924458869637483   -0.07145667288522994   -0.024998528042178197
-0.30924458869637483   -0.07145667288522994   -0.024998528042178197
-0.30924458869637483   -0.07145667288522994   -0.024998528042178197
-0.5517612226731591   -0.047874887283758175   0.0087810844810127
-0.5517612226731591   -0.047874887283758175   0.0087810844810127
-0.5517612226731591   -0.047874887283758175   0.0087810844810127
-0.5517612226731591   -0.047874887283758175   0.0087810844810127
-1.1751464402039367   -0.07577489366332696   -0.03103179262155574
-1.1751464402039367   -0.07577489366332696   -0.03103179262155574
-1.1751464402039367   -0.07577489366332696   -0.03103179262155574
-1.1751464402039367   -0.07577489366332696   -0.03103179262155574
-1.2295947443589537   -0.19470405253447615   -0.030112854562334285
-1.2295947443589537   -0.19470405253447615   -0.030112854562334285
-1.2295947443589537   -0.19470405253447615   -0.030112854562334285
-1.2295947443589537   -0.19470405253447615   -0.030112854562334285
-0.5545972203238897   0.046900326365807904   0.0058669591766783435
-0.5545972203238897   0.046900326365807904   0.0058669591766783435
-0.5545972203238897   0.046900326365807904   0.0058669591766783435
-0.5545972203238897   0.046900326365807904   0.0058669591766783435
-0.8705497858190793   -0.06472056324009823   -0.012483946657034596
-0.8705497858190793   -0.06472056324009823   -0.012483946657034596
-0.8705497858190793   -0.06472056324009823   -0.012483946657034596
-0.8705497858190793   -0.06472056324009823   -0.012483946657034596
-0.5715248930804249   -0.05286810584528262   0.020997027605097866
-0.5715248930804249   -0.05286810584528262   0.020997027605097866
-0.5715248930804249   -0.05286810584528262   0.020997027605097866
-0.5715248930804249   -0.05286810584528262   0.020997027605097866
-1.2092158029174078   -0.09148435163837451   -0.0314378482507156
-1.2092158029174078   -0.09148435163837451   -0.0314378482507156
-1.2092158029174078   -0.09148435163837451   -0.0314378482507156
-1.2092158029174078   -0.09148435163837451   -0.0314378482507156
-1.268107772642478   -0.20713645655506294   -0.021162183788228664
-1.268107772642478   -0.20713645655506294   -0.021162183788228664
-1.268107772642478   -0.20713645655506294   -0.021162183788228664
-1.268107772642478   -0.20713645655506294   -0.021162183788228664
-0.5855706820279775   0.03279837593744403   0.007167378231229628
-0.5855706820279775   0.03279837593744403   0.007167378231229628
-0.5855706820279775   0.03279837593744403   0.007167378231229628
-0.5855706820279775   0.03279837593744403   0.007167378231229628
-0.8948755113359846   -0.07158924037151375   -0.012510543553681471
-0.8948755113359846   -0.07158924037151375   -0.012510543553681471
-0.8948755113359846   -0.07158924037151375   -0.012510543553681471
-0.8948755113359846   -0.07158924037151375   -0.012510543553681471
-0.6022778165174532   -0.06537667685679072   0.021806758578085533
-0.6022778165174532   -0.06537667685679072   0.021806758578085533
-0.6022778165174532   -0.06537667685679072   0.021806758578085533
-0.6022778165174532   -0.06537667685679072   0.021806758578085533
-1.2490865801522824   -0.10664734576010654   -0.02654533213221824
-1.2490865801522824   -0.10664734576010654   -0.02654533213221824
-1.2490865801522824   -0.10664734576010654   -0.02654533213221824
-1.2490865801522824   -0.10664734576010654   -0.02654533213221824
-1.3116795216100636   -0.2235397161800747   -0.022632855928070766
-1.3116795216100636   -0.2235397161800747   -0.022632855928070766
-1.3116795216100636   -0.2235397161800747   -0.022632855928070766
-1.3116795216100636   -0.2235397161800747   -0.022632855928070766
-0.6190462037417204   0.015385099820676457   0.008561391246446299
-0.6190462037417204   0.015385099820676457   0.008561391246446299
-0.6190462037417204   0.015385099820676457   0.008561391246446299
-0.6190462037417204   0.015385099820676457   0.008561391246446299
-0.9381379741952566   -0.08842763662585244   -0.020365410975114868
-0.9381379741952566   -0.08842763662585244   -0.020365410975114868
-0.9381379741952566   -0.08842763662585244   -0.020365410975114868
-0.9381379741952566   -0.08842763662585244   -0.020365410975114868
-1.1354284650798578   0.05343498127927615   0.03834820805623453
-1.1354284650798578   0.05343498127927615   0.03834820805623453
-1.1354284650798578   0.05343498127927615   0.03834820805623453
-1.1354284650798578   0.05343498127927615   0.03834820805623453
-1.7603708214931588   -0.08769490086613552   -0.023571391547137346
-1.7603708214931588   -0.08769490086613552   -0.023571391547137346
-1.7603708214931588   -0.08769490086613552   -0.023571391547137346
-1.7603708214931588   -0.08769490086613552   -0.023571391547137346
-1.80350626089013   -0.08931078846822726   0.03935096116673425
-1.80350626089013   -0.08931078846822726   0.03935096116673425
-1.80350626089013   -0.08931078846822726   0.03935096116673425
-1.80350626089013   -0.08931078846822726   0.03935096116673425
-1.1791776797074243   0.03662623162534584   -0.00935781546451761
-1.1791776797074243   0.03662623162534584   -0.00935781546451761
-1.1791776797074243   0.03662623162534584   -0.00935781546451761
-1.1791776797074243   0.03662623162534584   -0.00935781546451761
-1.401121395144227   0.001021548687337115   0.03558286432480379
-1.401121395144227   0.001021548687337115   0.03558286432480379
-1.401121395144227   0.001021548687337115   0.03558286432480379
-1.401121395144227   0.001021548687337115   0.03558286432480379
-1.1669773661751723   0.0398156625048649   0.04845432131721797
-1.1669773661751723   0.0398156625048649   0.04845432131721797
-1.1669773661751723   0.0398156625048649   0.04845432131721797
-1.1669773661751723   0.0398156625048649   0.04845432131721797
-1.8148990376762288   -0.09169268260159086   -0.015231028630396479
-1.8148990376762288   -0.09169268260159086   -0.015231028630396479
-1.8148990376762288   -0.09169268260159086   -0.015231028630396479
-1.8148990376762288   -0.09169268260159086   -0.015231028630396479
-1.8579406634704436   -0.10405330694746229   0.053536925188701893
-1.8579406634704436   -0.10405330694746229   0.053536925188701893
-1.8579406634704436   -0.10405330694746229   0.053536925188701893
-1.8579406634704436   -0.10405330694746229   0.053536925188701893
-1.2190854255389152   0.026606664684877657   -0.00979356951036639
-1.2190854255389152   0.026606664684877657   -0.00979356951036639
-1.2190854255389152   0.026606664684877657   -0.00979356951036639
-1.2190854255389152   0.026606664684877657   -0.00979356951036639
-1.471429728396213   -0.016223409723322313   0.019525772135346064
-1.471429728396213   -0.016223409723322313   0.019525772135346064
-1.471429728396213   -0.016223409723322313   0.019525772135346064
-1.471429728396213   -0.016223409723322313   0.019525772135346064
-1.207931596099006   0.02479797496991848   0.04778426740413885
-1.207931596099006   0.02479797496991848   0.04778426740413885
-1.207931596099006   0.02479797496991848   0.04778426740413885
-1.207931596099006   0.02479797496991848   0.04778426740413885
-1.8711952203974322   -0.1043453447195754   -0.012443821674114508
-1.8711952203974322   -0.1043453447195754   -0.012443821674114508
-1.8711952203974322   -0.1043453447195754   -0.012443821674114508
-1.8711952203974322   -0.1043453447195754   -0.012443821674114508
-1.9353480038479678   -0.16362326893899795   0.04646594662072401
-1.9353480038479678   -0.16362326893899795   0.04646594662072401
-1.9353480038479678   -0.16362326893899795   0.04646594662072401
-1.9353480038479678   -0.16362326893899795   0.04646594662072401
-1.2650984215315642   -0.004040700383001916   -0.009226371332653041
-1.2650984215315642   -0.004040700383001916   -0.009226371332653041
-1.2650984215315642   -0.004040700383001916   -0.009226371332653041
-1.2650984215315642   -0.004040700383001916   -0.009226371332653041
-1.5012312789571793   -0.037960934424796644   0.005436647606116896
-1.5012312789571793   -0.037960934424796644   0.005436647606116896
-1.5012312789571793   -0.037960934424796644   0.005436647606116896
-1.5012312789571793   -0.037960934424796644   0.005436647606116896
1.1616062980088118   0.06221931534170705   -0.04126125095868206
1.1616062980088118   0.06221931534170705   -0.04126125095868206
1.1616062980088118   0.06221931534170705   -0.04126125095868206
1.1616062980088118   0.06221931534170705   -0.04126125095868206
0.5756329688613117   -0.0007504910937342624   0.014908337582197138
0.5756329688613117   -0.0007504910937342624   0.014908337582197138
0.5756329688613117   -0.0007504910937342624   0.014908337582197138
0.5756329688613117   -0.0007504910937342624   0.014908337582197138
0.5262676977635293   -0.08569318302064649   -0.037882487272431625
0.5262676977635293   -0.08569318302064649   -0.037882487272431625
0.5262676977635293   -0.08569318302064649   -0.037882487272431625
0.5262676977635293   -0.08569318302064649   -0.037882487272431625
1.1398099010647533   0.09385354304951168   0.018702430617172534
1.1398099010647533   0.09385354304951168   0.018702430617172534
1.1398099010647533   0.09385354304951168   0.018702430617172534
1.1398099010647533   0.09385354304951168   0.018702430617172534
0.8068423215677647   0.007119290119482008   -0.026557842478677974
0.8068423215677647   0.007119290119482008   -0.026557842478677974
0.8068423215677647   0.007119290119482008   -0.026557842478677974
0.8068423215677647   0.007119290119482008   -0.026557842478677974
1.1157099686767566   0.03181919246819351   -0.03976288074148185
1.1157099686767566   0.03181919246819351   -0.03976288074148185
1.1157099686767566   0.03181919246819351   -0.03976288074148185
1.1157099686767566   0.03181919246819351   -0.03976288074148185
0.5493378539159166   -0.024688608674933665   0.0164637191437823
0.5493378539159166   -0.024688608674933665   0.0164637191437823
0.5493378539159166   -0.024688608674933665   0.0164637191437823
0.5493378539159166   -0.024688608674933665   0.0164637191437823
0.5015789574361291   -0.09282493783158116   -0.0329390561641061
0.5015789574361291   -0.09282493783158116   -0.0329390561641061
0.5015789574361291   -0.09282493783158116   -0.0329390561641061
0.5015789574361291   -0.09282493783158116   -0.0329390561641061
1.1028865342815786   0.08404312142307235   0.02559509124557243
1.1028865342815786   0.08404312142307235   0.02559509124557243
1.1028865342815786   0.08404312142307235   0.02559509124557243
1.1028865342815786   0.08404312142307235   0.02559509124557243
0.7875873278032843   -0.005751974606388127   -0.03483669140084679
0.7875873278032843   -0.005751974606388127   -0.03483669140084679
0.7875873278032843   -0.005751974606388127   -0.03483669140084679
0.7875873278032843   -0.005751974606388127   -0.03483669140084679
1.0792988560114345   0.02303901448324633   -0.031339193165303286
1.0792988560114345   0.02303901448324633   -0.031339193165303286
1.0792988560114345   0.02303901448324633   -0.031339193165303286
1.0792988560114345   0.02303901448324633   -0.031339193165303286
0.5242399134325932   -0.03274755316542785   0.020288339152056814
0.5242399134325932   -0.03274755316542785   0.020288339152056814
0.5242399134325932   -0.03274755316542785   0.020288339152056814
0.5242399134325932   -0.03274755316542785   0.020288339152056814
0.4790433184092734   -0.09487527467552721   -0.02691320693050675
0.4790433184092734   -0.09487527467552721   -0.02691320693050675
0.4790433184092734   -0.09487527467552721   -0.02691320693050675
0.4790433184092734   -0.09487527467552721   -0.02691320693050675
1.0612615333932556   0.0754912123187284   0.03187510175762263
1.0612615333932556   0.0754912123187284   0.03187510175762263
1.0612615333932556   0.0754912123187284   0.03187510175762263
1.0612615333932556   0.0754912123187284   0.03187510175762263
0.742506091691668   -0.014594984602491645   -0.04728964071501226
0.742506091691668   -0.014594984602491645   -0.04728964071501226
0.742506091691668   -0.014594984602491645   -0.04728964071501226
0.742506091691668   -0.014594984602491645   -0.04728964071501226
0.585608058281782   0.06075756012955566   0.0032757334612588986
0.585608058281782   0.06075756012955566   0.0032757334612588986
0.585608058281782   0.06075756012955566   0.0032757334612588986
0.585608058281782   0.06075756012955566   0.0032757334612588986
0.019695136733297133   -0.019303076502789927   -0.0024323178049728313
0.019695136733297133   -0.019303076502789927   -0.0024323178049728313
0.019695136733297133   -0.019303076502789927   -0.0024323178049728313
0.019695136733297133   -0.019303076502789927   -0.0024323178049728313
-0.017516380949148896   -0.07723134729643917   -0.025801432619679755
-0.017516380949148896   -0.07723134729643917   -0.025801432619679755
-0.017516380949148896   -0.07723134729643917   -0.025801432619679755
-0.017516380949148896   -0.07723134729643917   -0.025801432619679755
0.5743487723509727   0.08502342178771101   0.031806280856418206
0.5743487723509727   0.08502342178771101   0.031806280856418206
0.5743487723509727   0.08502342178771101   0.031806280856418206
0.5743487723509727   0.08502342178771101   0.031806280856418206
0.28600565647722276   0.012113521093522116   -0.003255498589104502
0.28600565647722276   0.012113521093522116   -0.003255498589104502
0.28600565647722276   0.012113521093522116   -0.003255498589104502
0.28600565647722276   0.012113521093522116   -0.003255498589104502
0.5612982451724713   0.045006064835121554   0.0065710019165028145
0.5612982451724713   0.045006064835121554   0.0065710019165028145
0.5612982451724713   0.045006064835121554   0.0065710019165028145
0.5612982451724713   0.045006064835121554   0.0065710019165028145
-0.004233018718948726   -0.036981155292150444   0.000365186527032383
-0.004233018718948726   -0.036981155292150444   0.000365186527032383
-0.004233018718948726   -0.036981155292150444   0.000365186527032383
-0.004233018718948726   -0.036981155292150444   0.000365186527032383
-0.04090323090882886   -0.08876156594823917   -0.02231136111518789
-0.04090323090882886   -0.08876156594823917   -0.02231136111518789
-0.04090323090882886   -0.08876156594823917   -0.02231136111518789
-0.04090323090882886   -0.08876156594823917   -0.02231136111518789
0.5478549974287538   0.07042611365507948   0.035190092312352275
0.5478549974287538   0.07042611365507948   0.035190092312352275
0.5478549974287538   0.07042611365507948   0.035190092312352275
0.5478549974287538   0.07042611365507948   0.035190092312352275
0.2574240242842642   -0.0022779229293461364   -0.011431010739211598
0.2574240242842642   -0.0022779229293461364   -0.011431010739211598
0.2574240242842642   -0.0022779229293461364   -0.011431010739211598
0.2574240242842642   -0.0022779229293461364   -0.011431010739211598
0.5352948782556599   0.03291954177340574   0.009896068328556915
0.5352948782556599   0.03291954177340574   0.009896068328556915
0.5352948782556599   0.03291954177340574   0.009896068328556915
0.5352948782556599   0.03291954177340574   0.009896068328556915
-0.028320977503491062   -0.051232859834322964   0.0030711997975849045
-0.028320977503491062   -0.051232859834322964   0.0030711997975849045
-0.028320977503491062   -0.051232859834322964   0.0030711997975849045
-0.028320977503491062   -0.051232859834322964   0.0030711997975849045
-0.0640508388574184   -0.09568361577103247   -0.017759999220637042
-0.0640508388574184   -0.09568361577103247   -0.017759999220637042
-0.0640508388574184   -0.09568361577103247   -0.017759999220637042
-0.0640508388574184   -0.09568361577103247   -0.017759999220637042
0.5226563733001574   0.05812970924143664   0.03814708360694272
0.5226563733001574   0.05812970924143664   0.03814708360694272
0.5226563733001574   0.05812970924143664   0.03814708360694272
0.5226563733001574   0.05812970924143664   0.03814708360694272
0.23631432839327873   -0.01146299830912225   -0.01745012337532387
0.23631432839327873   -0.01146299830912225   -0.01745012337532387
0.23631432839327873   -0.01146299830912225   -0.01745012337532387
0.23631432839327873   -0.01146299830912225   -0.01745012337532387
0.0389403546617416   0.06129542614389591   0.01319526919056561
0.0389403546617416   0.06129542614389591   0.01319526919056561
0.0389403546617416   0.06129542614389591   0.01319526919056561
0.0389403546617416   0.06129542614389591   0.01319526919056561
-0.51904198152673   -0.03368187037092088   -0.01784681244803009
-0.51904198152673   -0.03368187037092088   -0.01784681244803009
-0.51904198152673   -0.03368187037092088   -0.01784681244803009
-0.51904198152673   -0.03368187037092088   -0.01784681244803009
-0.5480727620279208   -0.07083006717878224   -0.01637422787304565
-0.5480727620279208   -0.07083006717878224   -0.01637422787304565
-0.5480727620279208   -0.07083006717878224   -0.01637422787304565
-0.5480727620279208   -0.07083006717878224   -0.01637422787304565
0.020103421735407946   0.06963023250888115   0.01543600099778357
0.020103421735407946   0.06963023250888115   0.01543600099778357
0.020103421735407946   0.06963023250888115   0.01543600099778357
0.020103421735407946   0.06963023250888115   0.01543600099778357
-0.2517008180052409   0.007774043885744951   0.000968404337462021
-0.2517008180052409   0.007774043885744951   0.000968404337462021
-0.2517008180052409   0.007774043885744951   0.000968404337462021
-0.2517008180052409   0.007774043885744951   0.000968404337462021
0.016122674776093464   0.04859697124887367   0.01656552746121922
0.016122674776093464   0.04859697124887367   0.01656552746121922
0.016122674776093464   0.04859697124887367   0.01656552746121922
0.016122674776093464   0.04859697124887367   0.01656552746121922
-0.5434534115161542   -0.04915820236632765   -0.014949340126667553
-0.5434534115161542   -0.04915820236632765   -0.014949340126667553
-0.5434534115161542   -0.04915820236632765   -0.014949340126667553
-0.5434534115161542   -0.04915820236632765   -0.014949340126667553
-0.573169382415154   -0.083496719702035   -0.013611380974101715
-0.573169382415154   -0.083496719702035   -0.013611380974101715
-0.573169382415154   -0.083496719702035   -0.013611380974101715
-0.573169382415154   -0.083496719702035   -0.013611380974101715
-0.004020222056097344   0.054615116901832954   0.01872700029839925
-0.004020222056097344   0.054615116901832954   0.01872700029839925
-0.004020222056097344   0.054615116901832954   0.01872700029839925
-0.004020222056097344   0.054615116901832954   0.01872700029839925
-0.27574640671860146   -0.004630572826738517   -0.005172150353289702
-0.27574640671860146   -0.004630572826738517   -0.005172150353289702
-0.27574640671860146   -0.004630572826738517   -0.005172150353289702
-0.27574640671860146   -0.004630572826738517   -0.005172150353289702
-0.007418960362139987   0.03637110503116006   0.019977320638857266
-0.007418960362139987   0.03637110503116006   0.019977320638857266
-0.007418960362139987   0.03637110503116006   0.019977320638857266
-0.007418960362139987   0.03637110503116006   0.019977320638857266
-0.5692232134420099   -0.06470527716425532   -0.012671978646160355
-0.5692232134420099   -0.06470527716425532   -0.012671978646160355
-0.5692232134420099   -0.06470527716425532   -0.012671978646160355
-0.5692232134420099   -0.06470527716425532   -0.012671978646160355
-0.5980941866142057   -0.09346177555690537   -0.00901758040356682
-0.5980941866142057   -0.09346177555690537   -0.00901758040356682
-0.5980941866142057   -0.09346177555690537   -0.00901758040356682
-0.5980941866142057   -0.09346177555690537   -0.00901758040356682
-0.029013334815141262   0.04047050409799733   0.0212734011217192
-0.029013334815141262   0.04047050409799733   0.0212734011217192
-0.029013334815141262   0.04047050409799733   0.0212734011217192
-0.029013334815141262   0.04047050409799733   0.0212734011217192
-0.30161989857730603   -0.01724557571814759   -0.011884474102533715
-0.30161989857730603   -0.01724557571814759   -0.011884474102533715
-0.30161989857730603   -0.01724557571814759   -0.011884474102533715
-0.30161989857730603   -0.01724557571814759   -0.011884474102533715
-0.4894660802726935   0.07236475128123505   0.023986072170003394
-0.4894660802726935   0.07236475128123505   0.023986072170003394
-0.4894660802726935   0.07236475128123505   0.023986072170003394
-0.4894660802726935   0.07236475128123505   0.023986072170003394
-1.0400446348587509   -0.046294628565611506   -0.02922734966787626
-1.0400446348587509   -0.046294628565611506   -0.02922734966787626
-1.0400446348587509   -0.046294628565611506   -0.02922734966787626
-1.0400446348587509   -0.046294628565611506   -0.02922734966787626
-1.062674755643337   -0.05683861242580324   -0.00475019946193013
-1.062674755643337   -0.05683861242580324   -0.00475019946193013
-1.062674755643337   -0.05683861242580324   -0.00475019946193013
-1.062674755643337   -0.05683861242580324   -0.00475019946193013
-0.520256107928545   0.052693532582719305   -0.000814557137664651
-0.520256107928545   0.052693532582719305   -0.000814557137664651
-0.520256107928545   0.052693532582719305   -0.000814557137664651
-0.520256107928545   0.052693532582719305   -0.000814557137664651
-0.772488492065001   0.00785712378481998   0.005638479711886239
-0.772488492065001   0.00785712378481998   0.005638479711886239
-0.772488492065001   0.00785712378481998   0.005638479711886239
-0.772488492065001   0.00785712378481998   0.005638479711886239
-0.5133776094515667   0.05935429189243595   0.026917175937509762
-0.5133776094515667   0.05935429189243595   0.026917175937509762
-0.5133776094515667   0.05935429189243595   0.026917175937509762
-0.5133776094515667   0.05935429189243595   0.026917175937509762
-1.0686888778658543   -0.06263499548106269   -0.02902442751926517
-1.0686888778658543   -0.06263499548106269   -0.02902442751926517
-1.0686888778658543   -0.06263499548106269   -0.02902442751926517
-1.0686888778658543   -0.06263499548106269   -0.02902442751926517
-1.0935794412165714   -0.07108290902406397   -0.0042302873876857786
-1.0935794412165714   -0.07108290902406397   -0.0042302873876857786
-1.0935794412165714   -0.07108290902406397   -0.0042302873876857786
-1.0935794412165714   -0.07108290902406397   -0.0042302873876857786
-0.5456515939980839   0.03836514796583845   0.0021156934433798347
-0.5456515939980839   0.03836514796583845   0.0021156934433798347
-0.5456515939980839   0.03836514796583845   0.0021156934433798347
-0.5456515939980839   0.03836514796583845   0.0021156934433798347
-0.7941075012289316   -0.0034792424115953346   0.000603281897845559
-0.7941075012289316   -0.0034792424115953346   0.000603281897845559
-0.7941075012289316   -0.0034792424115953346   0.000603281897845559
-0.7941075012289316   -0.0034792424115953346   0.000603281897845559
-0.5381162223311843   0.047072776816080686   0.031084922927634734
-0.5381162223311843   0.047072776816080686   0.031084922927634734
-0.5381162223311843   0.047072776816080686   0.031084922927634734
-0.5381162223311843   0.047072776816080686   0.031084922927634734
-1.099354898013807   -0.07803062300463995   -0.026159857393288827
-1.099354898013807   -0.07803062300463995   -0.026159857393288827
-1.099354898013807   -0.07803062300463995   -0.026159857393288827
-1.099354898013807   -0.07803062300463995   -0.026159857393288827
-1.1220305330828408   -0.08633851563551301   0.002927643306588755
-1.1220305330828408   -0.08633851563551301   0.002927643306588755
-1.1220305330828408   -0.08633851563551301   0.002927643306588755
-1.1220305330828408   -0.08633851563551301   0.002927643306588755
-0.5725645357765962   0.021306738256505087   0.0038621599710746204
-0.5725645357765962   0.021306738256505087   0.0038621599710746204
-0.5725645357765962   0.021306738256505087   0.0038621599710746204
-0.5725645357765962   0.021306738256505087   0.0038621599710746204
-0.8279035765888746   -0.01941448810214519   -0.006175135546860305
-0.8279035765888746   -0.01941448810214519   -0.006175135546860305
-0.8279035765888746   -0.01941448810214519   -0.006175135546860305
-0.8279035765888746   -0.01941448810214519   -0.006175135546860305
-1.0031985947095514   0.07516288941876206   0.033545333093739395
-1.0031985947095514   0.07516288941876206   0.033545333093739395
-1.0031985947095514   0.07516288941876206   0.033545333093739395
-1.0031985947095514   0.07516288941876206   0.033545333093739395
-1.535388801562872   -0.07103985059944001   -0.0268992410344671
-1.535388801562872   -0.07103985059944001   -0.0268992410344671
-1.535388801562872   -0.07103985059944001   -0.0268992410344671
-1.535388801562872   -0.07103985059944001   -0.0268992410344671
-1.5563745683562102   -0.031237724125845745   0.02851929442831031
-1.5563745683562102   -0.031237724125845745   0.02851929442831031
-1.5563745683562102   -0.031237724125845745   0.02851929442831031
-1.5563745683562102   -0.031237724125845745   0.02851929442831031
-1.0470428056822505   0.031615830030960995   -0.015044892113261432
-1.0470428056822505   0.031615830030960995   -0.015044892113261432
-1.0470428056822505   0.031615830030960995   -0.015044892113261432
-1.0470428056822505   0.031615830030960995   -0.015044892113261432
-1.228679390225735   0.015604679807553146   0.028265246993697583
-1.228679390225735   0.015604679807553146   0.028265246993697583
-1.228679390225735   0.015604679807553146   0.028265246993697583
-1.228679390225735   0.015604679807553146   0.028265246993697583
-1.027331238817494   0.07657736445377336   0.03855140778769663
-1.027331238817494   0.07657736445377336   0.03855140778769663
-1.027331238817494   0.07657736445377336   0.03855140778769663
-1.027331238817494   0.07657736445377336   0.03855140778769663
-1.574923101183676   -0.07503622451136877   -0.02042486932348475
-1.574923101183676   -0.07503622451136877   -0.02042486932348475
-1.574923101183676   -0.07503622451136877   -0.02042486932348475
-1.574923101183676   -0.07503622451136877   -0.02042486932348475
-1.5947618888092747   -0.03869054847339437   0.039396827968632996
-1.5947618888092747   -0.03869054847339437   0.039396827968632996
-1.5947618888092747   -0.03869054847339437   0.039396827968632996
-1.5947618888092747   -0.03869054847339437   0.039396827968632996
-1.0765177657325435   0.023381989170650347   -0.013386808162260122
-1.0765177657325435   0.023381989170650347   -0.013386808162260122
-1.0765177657325435   0.023381989170650347   -0.013386808162260122
-1.0765177657325435   0.023381989170650347   -0.013386808162260122
-1.2815573281938915   0.007705561370077718   0.018203296979694375
-1.2815573281938915   0.007705561370077718   0.018203296979694375
-1.2815573281938915   0.007705561370077718   0.018203296979694375
-1.2815573281938915   0.007705561370077718   0.018203296979694375
-1.05474535860886   0.07100402941526673   0.047853187211540735
-1.05474535860886   0.07100402941526673   0.047853187211540735
-1.05474535860886   0.07100402941526673   0.047853187211540735
-1.05474535860886   0.07100402941526673   0.047853187211540735
-1.615409046564603   -0.08518733934965322   -0.017342169931718707
-1.615409046564603   -0.08518733934965322   -0.017342169931718707
-1.615409046564603   -0.08518733934965322   -0.017342169931718707
-1.615409046564603   -0.08518733934965322   -0.017342169931718707
-1.6468308184884006   -0.07071070830992043   0.03915598598962183
-1.6468308184884006   -0.07071070830992043   0.03915598598962183
-1.6468308184884006   -0.07071070830992043   0.03915598598962183
-1.6468308184884006   -0.07071070830992043   0.03915598598962183
-1.1081347544128586   -0.0013518957557033529   -0.012580083223311701
-1.1081347544128586   -0.0013518957557033529   -0.012580083223311701
-1.1081347544128586   -0.0013518957557033529   -0.012580083223311701
-1.1081347544128586   -0.0013518957557033529   -0.012580083223311701
-1.296862312113681   -0.0036836543811485933   0.014889905908543798
-1.296862312113681   -0.0036836543811485933   0.014889905908543798
-1.296862312113681   -0.0036836543811485933   0.014889905908543798
-1.296862312113681   -0.0036836543811485933   0.014889905908543798
0.881407255832   0.049034309766782025   -0.04194194508592425
0.881407255832   0.049034309766782025   -0.04194194508592425
0.881407255832   0.049034309766782025   -0.04194194508592425
0.881407255832   0.049034309766782025   -0.04194194508592425
0.4190043263067198   0.008276225924688949   0.01596072671543466
0.4190043263067198   0.008276225924688949   0.01596072671543466
0.4190043263067198   0.008276225924688949   0.01596072671543466
0.4190043263067198   0.008276225924688949   0.01596072671543466
0.372421680935546   -0.0713347411006313   -0.039850770004335165
0.372421680935546   -0.0713347411006313   -0.039850770004335165
0.372421680935546   -0.0713347411006313   -0.039850770004335165
0.372421680935546   -0.0713347411006313   -0.039850770004335165
0.8623922066574469   0.0809455803814798   0.019740945246510707
0.8623922066574469   0.0809455803814798   0.019740945246510707
0.8623922066574469   0.0809455803814798   0.019740945246510707
0.8623922066574469   0.0809455803814798   0.019740945246510707
0.6010729786301113   0.008123609584680197   -0.017777527025483547
0.6010729786301113   0.008123609584680197   -0.017777527025483547
0.6010729786301113   0.008123609584680197   -0.017777527025483547
0.6010729786301113   0.008123609584680197   -0.017777527025483547
0.838716623040322   0.021963435691388866   -0.0396548281490148
0.838716623040322   0.021963435691388866   -0.0396548281490148
0.838716623040322   0.021963435691388866   -0.0396548281490148
0.838716623040322   0.021963435691388866   -0.0396548281490148
0.39563175794761196   -0.012818103015597812   0.01768297697095748
0.39563175794761196   -0.012818103015597812   0.01768297697095748
0.39563175794761196   -0.012818103015597812   0.01768297697095748
0.39563175794761196   -0.012818103015597812   0.01768297697095748
0.3506657696718751   -0.07831942181457999   -0.03399686033295525
0.3506657696718751   -0.07831942181457999   -0.03399686033295525
0.3506657696718751   -0.07831942181457999   -0.03399686033295525
0.3506657696718751   -0.07831942181457999   -0.03399686033295525
0.828562319724221   0.07095813135377739   0.02598201197087872
0.828562319724221   0.07095813135377739   0.02598201197087872
0.828562319724221   0.07095813135377739   0.02598201197087872
0.828562319724221   0.07095813135377739   0.02598201197087872
0.581641053599466   -0.003999167788968888   -0.024926379395446743
0.581641053599466   -0.003999167788968888   -0.024926379395446743
0.581641053599466   -0.003999167788968888   -0.024926379395446743
0.581641053599466   -0.003999167788968888   -0.024926379395446743
0.8054356981027828   0.01307945248474121   -0.031772417267269024
0.8054356981027828   0.01307945248474121   -0.031772417267269024
0.8054356981027828   0.01307945248474121   -0.031772417267269024
0.8054356981027828   0.01307945248474121   -0.031772417267269024
0.3732020570207773   -0.02103107721807712   0.021396231815049824
0.3732020570207773   -0.02103107721807712   0.021396231815049824
0.3732020570207773   -0.02103107721807712   0.021396231815049824
0.3732020570207773   -0.02103107721807712   0.021396231815049824
0.33106423384112077   -0.0825861720519372   -0.028314520543539647
0.33106423384112077   -0.0825861720519372   -0.028314520543539647
0.33106423384112077   -0.0825861720519372   -0.028314520543539647
0.33106423384112077   -0.0825861720519372   -0.028314520543539647
0.7904079997944795   0.06017101292387958   0.030880862098620246
0.7904079997944795   0.06017101292387958   0.030880862098620246
0.7904079997944795   0.06017101292387958   0.030880862098620246
0.7904079997944795   0.06017101292387958   0.030880862098620246
0.5430974375433986   -0.013147180695880042   -0.03552730687860689
0.5430974375433986   -0.013147180695880042   -0.03552730687860689
0.5430974375433986   -0.013147180695880042   -0.03552730687860689
0.5430974375433986   -0.013147180695880042   -0.03552730687860689
0.42605665134861176   0.061962837959321615   -0.002464260109731092
0.42605665134861176   0.061962837959321615   -0.002464260109731092
0.42605665134861176   0.061962837959321615   -0.002464260109731092
0.42605665134861176   0.061962837959321615   -0.002464260109731092
-0.027971479070951127   -0.00613539775158761   -0.0002542495681845615
-0.027971479070951127   -0.00613539775158761   -0.0002542495681845615
-0.027971479070951127   -0.00613539775158761   -0.0002542495681845615
-0.027971479070951127   -0.00613539775158761   -0.0002542495681845615
-0.06078765594214321   -0.05343622109385039   -0.025355505258272897
-0.06078765594214321   -0.05343622109385039   -0.025355505258272897
-0.06078765594214321   -0.05343622109385039   -0.025355505258272897
-0.06078765594214321   -0.05343622109385039   -0.025355505258272897
0.4150230436986151   0.07359339808458275   0.028227904625792565
0.4150230436986151   0.07359339808458275   0.028227904625792565
0.4150230436986151   0.07359339808458275   0.028227904625792565
0.4150230436986151   0.07359339808458275   0.028227904625792565
0.18517998069061387   0.018143161100074825   0.0013300382463476519
0.18517998069061387   0.018143161100074825   0.0013300382463476519
0.18517998069061387   0.018143161100074825   0.0013300382463476519
0.18517998069061387   0.018143161100074825   0.0013300382463476519
0.4038781705188801   0.04482286051028954   0.0012740763014195584
0.4038781705188801   0.04482286051028954   0.0012740763014195584
0.4038781705188801   0.04482286051028954   0.0012740763014195584
0.4038781705188801   0.04482286051028954   0.0012740763014195584
-0.049452638721084   -0.024475539478234193   0.002358899231406951
-0.049452638721084   -0.024475539478234193   0.002358899231406951
-0.049452638721084   -0.024475539478234193   0.002358899231406951
-0.049452638721084   -0.024475539478234193   0.002358899231406951
-0.0812787322540671   -0.06663353725861187   -0.02097443257328363
-0.0812787322540671   -0.06663353725861187   -0.02097443257328363
-0.0812787322540671   -0.06663353725861187   -0.02097443257328363
-0.0812787322540671   -0.06663353725861187   -0.02097443257328363
0.3908644368593849   0.0578199336946488   0.03085712009536132
0.3908644368593849   0.0578199336946488   0.03085712009536132
0.3908644368593849   0.0578199336946488   0.03085712009536132
0.3908644368593849   0.0578199336946488   0.03085712009536132
0.15991371704709925   0.002541527979018632   -0.0065012818321777835
0.15991371704709925   0.002541527979018632   -0.0065012818321777835
0.15991371704709925   0.002541527979018632   -0.0065012818321777835
0.15991371704709925   0.002541527979018632   -0.0065012818321777835
0.3800897408919475   0.0306631322298447   0.004140441722982358
0.3800897408919475   0.0306631322298447   0.004140441722982358
0.3800897408919475   0.0306631322298447   0.004140441722982358
0.3800897408919475   0.0306631322298447   0.004140441722982358
-0.07066215939776259   -0.03963485890493962   0.005109753354566594
-0.07066215939776259   -0.03963485890493962   0.005109753354566594
-0.07066215939776259   -0.03963485890493962   0.005109753354566594
-0.07066215939776259   -0.03963485890493962   0.005109753354566594
-0.101500018202948   -0.0777027010996473   -0.016858576595371516
-0.101500018202948   -0.0777027010996473   -0.016858576595371516
-0.101500018202948   -0.0777027010996473   -0.016858576595371516
-0.101500018202948   -0.0777027010996473   -0.016858576595371516
0.36855900951862797   0.04324945669485253   0.03332372909720584
0.36855900951862797   0.04324945669485253   0.03332372909720584
0.36855900951862797   0.04324945669485253   0.03332372909720584
0.36855900951862797   0.04324945669485253   0.03332372909720584
0.14055440756894735   -0.00926574199183541   -0.013019219322017118
0.14055440756894735   -0.00926574199183541   -0.013019219322017118
0.14055440756894735   -0.00926574199183541   -0.013019219322017118
0.14055440756894735   -0.00926574199183541   -0.013019219322017118
-0.009885844404174143   0.07377202062168485   0.010266505392427894
-0.009885844404174143   0.07377202062168485   0.010266505392427894
-0.009885844404174143   0.07377202062168485   0.010266505392427894
-0.009885844404174143   0.07377202062168485   0.010266505392427894
-0.4654376919599982   -0.020287275002971672   -0.015436735280149355
-0.4654376919599982   -0.020287275002971672   -0.015436735280149355
-0.4654376919599982   -0.020287275002971672   -0.015436735280149355
-0.4654376919599982   -0.020287275002971672   -0.015436735280149355
-0.4865856909883041   -0.03720690238401689   -0.012060560742963865
-0.4865856909883041   -0.03720690238401689   -0.012060560742963865
-0.4865856909883041   -0.03720690238401689   -0.012060560742963865
-0.4865856909883041   -0.03720690238401689   -0.012060560742963865
-0.030679364709407905   0.0594320641309258   0.012317665680626758
-0.030679364709407905   0.0594320641309258   0.012317665680626758
-0.030679364709407905   0.0594320641309258   0.012317665680626758
-0.030679364709407905   0.0594320641309258   0.012317665680626758
-0.24755846935061898   0.01904933948454922   0.004854047114365849
-0.24755846935061898   0.01904933948454922   0.004854047114365849
-0.24755846935061898   0.01904933948454922   0.004854047114365849
-0.24755846935061898   0.01904933948454922   0.004854047114365849
-0.03027413149871742   0.0593522506962475   0.014423645168758142
-0.03027413149871742   0.0593522506962475   0.014423645168758142
-0.03027413149871742   0.0593522506962475   0.014423645168758142
-0.03027413149871742   0.0593522506962475   0.014423645168758142
-0.48659615459626343   -0.03673231934660509   -0.012587461820172185
-0.48659615459626343   -0.03673231934660509   -0.012587461820172185
-0.48659615459626343   -0.03673231934660509   -0.012587461820172185
-0.48659615459626343   -0.03673231934660509   -0.012587461820172185
-0.5075751691472202   -0.05148925292915453   -0.008239901765445999
-0.5075751691472202   -0.05148925292915453   -0.008239901765445999
-0.5075751691472202   -0.05148925292915453   -0.008239901765445999
-0.5075751691472202   -0.05148925292915453   -0.008239901765445999
-0.05204421688574506   0.0431907629296611   0.015373844080053881
-0.05204421688574506   0.0431907629296611   0.015373844080053881
-0.05204421688574506   0.0431907629296611   0.015373844080053881
-0.05204421688574506   0.0431907629296611   0.015373844080053881
-0.26876408585868183   0.004950409028844853   -0.0014962769934723369
-0.26876408585868183   0.004950409028844853   -0.0014962769934723369
-0.26876408585868183   0.004950409028844853   -0.0014962769934723369
-0.26876408585868183   0.004950409028844853   -0.0014962769934723369
-0.05121467350895251   0.04497774277526688   0.01773458111841048
-0.05121467350895251   0.04497774277526688   0.01773458111841048
-0.05121467350895251   0.04497774277526688   0.01773458111841048
-0.05121467350895251   0.04497774277526688   0.01773458111841048
-0.5082904562731777   -0.053161976523926756   -0.010143613800452792
-0.5082904562731777   -0.053161976523926756   -0.010143613800452792
-0.5082904562731777   -0.053161976523926756   -0.010143613800452792
-0.5082904562731777   -0.053161976523926756   -0.010143613800452792
-0.5283149968491931   -0.06453579636677712   -0.004456439168101201
-0.5283149968491931   -0.06453579636677712   -0.004456439168101201
-0.5283149968491931   -0.06453579636677712   -0.004456439168101201
-0.5283149968491931   -0.06453579636677712   -0.004456439168101201
-0.07349799055553495   0.027482751365040393   0.017966109177008315
-0.07349799055553495   0.027482751365040393   0.017966109177008315
-0.07349799055553495   0.027482751365040393   0.017966109177008315
-0.07349799055553495   0.027482751365040393   0.017966109177008315
-0.29094297496846594   -0.009266193066294191   -0.00856971398294907
-0.29094297496846594   -0.009266193066294191   -0.00856971398294907
-0.29094297496846594   -0.009266193066294191   -0.00856971398294907
-0.29094297496846594   -0.009266193066294191   -0.00856971398294907
-0.43692050926174464   0.08462337260749289   0.02223853060064975
-0.43692050926174464   0.08462337260749289   0.02223853060064975
-0.43692050926174464   0.08462337260749289   0.02223853060064975
-0.43692050926174464   0.08462337260749289   0.02223853060064975
-0.8930078961822538   -0.03475155743413663   -0.027806642580256703
-0.8930078961822538   -0.03475155743413663   -0.027806642580256703
-0.8930078961822538   -0.03475155743413663   -0.027806642580256703
-0.8930078961822538   -0.03475155743413663   -0.027806642580256703
-0.9045604286331759   -0.02351951736729352   0.0024245138169021532
-0.9045604286331759   -0.02351951736729352   0.0024245138169021532
-0.9045604286331759   -0.02351951736729352   0.0024245138169021532
-0.9045604286331759   -0.02351951736729352   0.0024245138169021532
-0.46889939007628373   0.042696384446613805   -0.0035323430134893558
-0.46889939007628373   0.042696384446613805   -0.0035323430134893558
-0.46889939007628373   0.042696384446613805   -0.0035323430134893558
-0.46889939007628373   0.042696384446613805   -0.0035323430134893558
-0.6714517443505105   0.01811091814371235   0.008223862917603561
-0.6714517443505105   0.01811091814371235   0.008223862917603561
-0.6714517443505105   0.01811091814371235   0.008223862917603561
-0.6714517443505105   0.01811091814371235   0.008223862917603561
-0.4573467070016231   0.07068651296410036   0.026240943842324
-0.4573467070016231   0.07068651296410036   0.026240943842324
-0.4573467070016231   0.07068651296410036   0.026240943842324
-0.4573467070016231   0.07068651296410036   0.026240943842324
-0.9160089879515314   -0.05140552212847771   -0.026932278013699344
-0.9160089879515314   -0.05140552212847771   -0.026932278013699344
-0.9160089879515314   -0.05140552212847771   -0.026932278013699344
-0.9160089879515314   -0.05140552212847771   -0.026932278013699344
-0.9290036288689633   -0.03795882648099422   0.0038478560801265688
-0.9290036288689633   -0.03795882648099422   0.0038478560801265688
-0.9290036288689633   -0.03795882648099422   0.0038478560801265688
-0.9290036288689633   -0.03795882648099422   0.0038478560801265688
-0.4901842380136035   0.0276534296731753   -0.00042792869968406866
-0.4901842380136035   0.0276534296731753   -0.00042792869968406866
-0.4901842380136035   0.0276534296731753   -0.00042792869968406866
-0.4901842380136035   0.0276534296731753   -0.00042792869968406866
-0.6893645493017336   0.005545376731022733   0.002315616406166378
-0.6893645493017336   0.005545376731022733   0.002315616406166378
-0.6893645493017336   0.005545376731022733   0.002315616406166378
-0.6893645493017336   0.005545376731022733   0.002315616406166378
-0.47814758480037123   0.0574371371038616   0.02997162993579092
-0.47814758480037123   0.0574371371038616   0.02997162993579092
-0.47814758480037123   0.0574371371038616   0.02997162993579092
-0.47814758480037123   0.0574371371038616   0.02997162993579092
-0.9404220160951305   -0.06712426792461679   -0.024078638607086908
-0.9404220160951305   -0.06712426792461679   -0.024078638607086908
-0.9404220160951305   -0.06712426792461679   -0.024078638607086908
-0.9404220160951305   -0.06712426792461679   -0.024078638607086908
-0.9511691501423821   -0.05351034714008562   0.008381347353907002
-0.9511691501423821   -0.05351034714008562   0.008381347353907002
-0.9511691501423821   -0.05351034714008562   0.008381347353907002
-0.9511691501423821   -0.05351034714008562   0.008381347353907002
-0.5120662866619128   0.01043141664578666   0.001819898755742986
-0.5120662866619128   0.01043141664578666   0.001819898755742986
-0.5120662866619128   0.01043141664578666   0.001819898755742986
-0.5120662866619128   0.01043141664578666   0.001819898755742986
-0.7167011744725946   -0.01023815023111374   -0.005195535243715209
-0.7167011744725946   -0.01023815023111374   -0.005195535243715209
-0.7167011744725946   -0.01023815023111374   -0.005195535243715209
-0.7167011744725946   -0.01023815023111374   -0.005195535243715209
-0.8590352121612437   0.0758931329215925   0.03141208716906546
-0.8590352121612437   0.0758931329215925   0.03141208716906546
-0.8590352121612437   0.0758931329215925   0.03141208716906546
-0.8590352121612437   0.0758931329215925   0.03141208716906546
-1.2998498199901432   -0.0600055077718856   -0.03057562780310661
-1.2998498199901432   -0.0600055077718856   -0.03057562780310661
-1.2998498199901432   -0.0600055077718856   -0.03057562780310661
-1.2998498199901432   -0.0600055077718856   -0.03057562780310661
-1.3142323573387822   -0.013026144053803645   0.028934789119477604
-1.3142323573387822   -0.013026144053803645   0.028934789119477604
-1.3142323573387822   -0.013026144053803645   0.028934789119477604
-1.3142323573387822   -0.013026144053803645   0.028934789119477604
-0.8995895901827272   0.02160988216281237   -0.01785069346096157
-0.8995895901827272   0.02160988216281237   -0.01785069346096157
-0.8995895901827272   0.02160988216281237   -0.01785069346096157
-0.8995895901827272   0.02160988216281237   -0.01785069346096157
-1.0448017157342322   0.01701861216544981   0.025620602166853496
-1.0448017157342322   0.01701861216544981   0.025620602166853496
-1.0448017157342322   0.01701861216544981   0.025620602166853496
-1.0448017157342322   0.01701861216544981   0.025620602166853496
-0.8778033319311676   0.07584233266313414   0.03684814729651184
-0.8778033319311676   0.07584233266313414   0.03684814729651184
-0.8778033319311676   0.07584233266313414   0.03684814729651184
-0.8778033319311676   0.07584233266313414   0.03684814729651184
-1.3356538220088066   -0.06689380097258266   -0.024304877311857494
-1.3356538220088066   -0.06689380097258266   -0.024304877311857494
-1.3356538220088066   -0.06689380097258266   -0.024304877311857494
-1.3356538220088066   -0.06689380097258266   -0.024304877311857494
-1.3462379940213665   -0.02064668276292919   0.036190060458664866
-1.3462379940213665   -0.02064668276292919   0.036190060458664866
-1.3462379940213665   -0.02064668276292919   0.036190060458664866
-1.3462379940213665   -0.02064668276292919   0.036190060458664866
-0.9225667953974469   0.013363276694924875   -0.015290079738201429
-0.9225667953974469   0.013363276694924875   -0.015290079738201429
-0.9225667953974469   0.013363276694924875   -0.015290079738201429
-0.9225667953974469   0.013363276694924875   -0.015290079738201429
-1.0895810361105172   0.008519756244250665   0.015621595354117696
-1.0895810361105172   0.008519756244250665   0.015621595354117696
-1.0895810361105172   0.008519756244250665   0.015621595354117696
-1.0895810361105172   0.008519756244250665   0.015621595354117696
-0.8994571078875404   0.07016317439446224   0.04345846011178468
-0.8994571078875404   0.07016317439446224   0.04345846011178468
-0.8994571078875404   0.07016317439446224   0.04345846011178468
-0.8994571078875404   0.07016317439446224   0.04345846011178468
-1.3687423285046487   -0.07684122743583557   -0.020137067284832423
-1.3687423285046487   -0.07684122743583557   -0.020137067284832423
-1.3687423285046487   -0.07684122743583557   -0.020137067284832423
-1.3687423285046487   -0.07684122743583557   -0.020137067284832423
-1.388481465804632   -0.04780110267849444   0.03552059355450607
-1.388481465804632   -0.04780110267849444   0.03552059355450607
-1.388481465804632   -0.04780110267849444   0.03552059355450607
-1.388481465804632   -0.04780110267849444   0.03552059355450607
-0.9468366937318304   -0.009608330986601882   -0.013858386746823416
-0.9468366937318304   -0.009608330986601882   -0.013858386746823416
-0.9468366937318304   -0.009608330986601882   -0.013858386746823416
-0.9468366937318304   -0.009608330986601882   -0.013858386746823416
-1.1010346960452957   -0.002069980907311336   0.01230255138476858
-1.1010346960452957   -0.002069980907311336   0.01230255138476858
-1.1010346960452957   -0.002069980907311336   0.01230255138476858
-1.1010346960452957   -0.002069980907311336   0.01230255138476858
0.6062723124667316   0.03437838320835683   -0.040796473026256545
0.6062723124667316   0.03437838320835683   -0.040796473026256545
0.6062723124667316   0.03437838320835683   -0.040796473026256545
0.6062723124667316   0.03437838320835683   -0.040796473026256545
0.25895633477511926   0.016410393876704045   0.017479616553922293
0.25895633477511926   0.016410393876704045   0.017479616553922293
0.25895633477511926   0.016410393876704045   0.017479616553922293
0.25895633477511926   0.016410393876704045   0.017479616553922293
0.2169291922779182   -0.05970533395706326   -0.03805061206667605
0.2169291922779182   -0.05970533395706326   -0.03805061206667605
0.2169291922779182   -0.05970533395706326   -0.03805061206667605
0.2169291922779182   -0.05970533395706326   -0.03805061206667605
0.5921255492731247   0.06878259370889665   0.0212409666197648
0.5921255492731247   0.06878259370889665   0.0212409666197648
0.5921255492731247   0.06878259370889665   0.0212409666197648
0.5921255492731247   0.06878259370889665   0.0212409666197648
0.3964068788900049   0.008782484770169269   -0.010828087417590199
0.3964068788900049   0.008782484770169269   -0.010828087417590199
0.3964068788900049   0.008782484770169269   -0.010828087417590199
0.3964068788900049   0.008782484770169269   -0.010828087417590199
0.5686333946070938   0.010631821934836944   -0.03806903493633462
0.5686333946070938   0.010631821934836944   -0.03806903493633462
0.5686333946070938   0.010631821934836944   -0.03806903493633462
0.5686333946070938   0.010631821934836944   -0.03806903493633462
0.23997975059698282   -0.0019961585299725776   0.019493004101560418
0.23997975059698282   -0.0019961585299725776   0.019493004101560418
0.23997975059698282   -0.0019961585299725776   0.019493004101560418
0.23997975059698282   -0.0019961585299725776   0.019493004101560418
0.19903556782990817   -0.06662307240536833   -0.0323972549305371
0.19903556782990817   -0.06662307240536833   -0.0323972549305371
0.19903556782990817   -0.06662307240536833   -0.0323972549305371
0.19903556782990817   -0.06662307240536833   -0.0323972549305371
0.5626807180419363   0.05896524390538489   0.027392412151009533
0.5626807180419363   0.05896524390538489   0.027392412151009533
0.5626807180419363   0.05896524390538489   0.027392412151009533
0.5626807180419363   0.05896524390538489   0.027392412151009533
0.3779426330755956   -0.0026365279719685886   -0.017599612553437553
0.3779426330755956   -0.0026365279719685886   -0.017599612553437553
0.3779426330755956   -0.0026365279719685886   -0.017599612553437553
0.3779426330755956   -0.0026365279719685886   -0.017599612553437553
0.5395697421923163   0.0017698073457321495   -0.03096703053744187
0.5395697421923163   0.0017698073457321495   -0.03096703053744187
0.5395697421923163   0.0017698073457321495   -0.03096703053744187
0.5395697421923163   0.0017698073457321495   -0.03096703053744187
0.22149314090455877   -0.010081038620685559   0.023348576658034786
0.22149314090455877   -0.010081038620685559   0.023348576658034786
0.22149314090455877   -0.010081038620685559   0.023348576658034786
0.22149314090455877   -0.010081038620685559   0.023348576658034786
0.18304584650665268   -0.07287848866899546   -0.027004492577958873
0.18304584650665268   -0.07287848866899546   -0.027004492577958873
0.18304584650665268   -0.07287848866899546   -0.027004492577958873
0.18304584650665268   -0.07287848866899546   -0.027004492577958873
0.5282985314695141   0.04607823560587762   0.03127806888690471
0.5282985314695141   0.04607823560587762   0.03127806888690471
0.5282985314695141   0.04607823560587762   0.03127806888690471
0.5282985314695141   0.04607823560587762   0.03127806888690471
0.3466028349905431   -0.01199462958843063   -0.02691531748868626
0.3466028349905431   -0.01199462958843063   -0.02691531748868626
0.3466028349905431   -0.01199462958843063   -0.02691531748868626
0.3466028349905431   -0.01199462958843063   -0.02691531748868626
0.2607576930559366   0.050200539128640455   -0.007303737293931787
0.2607576930559366   0.050200539128640455   -0.007303737293931787
0.2607576930559366   0.050200539128640455   -0.007303737293931787
0.2607576930559366   0.050200539128640455   -0.007303737293931787
-0.0798955422876085   0.004251784427792383   0.0023408459430692492
-0.0798955422876085   0.004251784427792383   0.0023408459430692492
-0.0798955422876085   0.004251784427792383   0.0023408459430692492
-0.0798955422876085   0.004251784427792383   0.0023408459430692492
-0.10862770475178592   -0.041472932876523705   -0.02345300172933869
-0.10862770475178592   -0.041472932876523705   -0.02345300172933869
-0.10862770475178592   -0.041472932876523705   -0.02345300172933869
-0.10862770475178592   -0.041472932876523705   -0.02345300172933869
0.25358568661441655   0.060335931260263015   0.025190594398493547
0.25358568661441655   0.060335931260263015   0.025190594398493547
0.25358568661441655   0.060335931260263015   0.025190594398493547
0.25358568661441655   0.060335931260263015   0.025190594398493547
0.07966990052006354   0.017436758612661994   0.003059586608912277
0.07966990052006354   0.017436758612661994   0.003059586608912277
0.07966990052006354   0.017436758612661994   0.003059586608912277
0.07966990052006354   0.017436758612661994   0.003059586608912277
0.2422180500930333   0.032603739207230184   -0.003915396155392519
0.2422180500930333   0.032603739207230184   -0.003915396155392519
0.2422180500930333   0.032603739207230184   -0.003915396155392519
0.2422180500930333   0.032603739207230184   -0.003915396155392519
-0.09742974559705861   -0.013910418190141466   0.0049742793579156275
-0.09742974559705861   -0.013910418190141466   0.0049742793579156275
-0.09742974559705861   -0.013910418190141466   0.0049742793579156275
-0.09742974559705861   -0.013910418190141466   0.0049742793579156275
-0.12526852256416857   -0.05537491264317365   -0.01898415217019761
-0.12526852256416857   -0.05537491264317365   -0.01898415217019761
-0.12526852256416857   -0.05537491264317365   -0.01898415217019761
-0.12526852256416857   -0.05537491264317365   -0.01898415217019761
0.23317383782995785   0.04428330784182902   0.027387714822515688
0.23317383782995785   0.04428330784182902   0.027387714822515688
0.23317383782995785   0.04428330784182902   0.027387714822515688
0.23317383782995785   0.04428330784182902   0.027387714822515688
0.059137809086918486   0.001700348231169168   -0.0044995330140005195
0.059137809086918486   0.001700348231169168   -0.0044995330140005195
0.059137809086918486   0.001700348231169168   -0.0044995330140005195
0.059137809086918486   0.001700348231169168   -0.0044995330140005195
0.22216560870737936   0.017695599546219055   -0.0010657224947705803
0.22216560870737936   0.017695599546219055   -0.0010657224947705803
0.22216560870737936   0.017695599546219055   -0.0010657224947705803
0.22216560870737936   0.017695599546219055   -0.0010657224947705803
-0.11468770202538504   -0.029214612931366308   0.007759650811912639
-0.11468770202538504   -0.029214612931366308   0.007759650811912639
-0.11468770202538504   -0.029214612931366308   0.007759650811912639
-0.11468770202538504   -0.029214612931366308   0.007759650811912639
-0.14168673493814535   -0.06843549584422276   -0.014855289141366553
-0.14168673493814535   -0.06843549584422276   -0.014855289141366553
-0.14168673493814535   -0.06843549584422276   -0.014855289141366553
-0.14168673493814535   -0.06843549584422276   -0.014855289141366553
0.21475406116662013   0.028867603015252978   0.029790489037634777
0.21475406116662013   0.028867603015252978   0.029790489037634777
0.21475406116662013   0.028867603015252978   0.029790489037634777
0.21475406116662013   0.028867603015252978   0.029790489037634777
0.04266939925269551   -0.011347446688365041   -0.01117210941558016
0.04266939925269551   -0.011347446688365041   -0.01117210941558016
0.04266939925269551   -0.011347446688365041   -0.01117210941558016
0.04266939925269551   -0.011347446688365041   -0.01117210941558016
-0.06733376033492908   0.06358430533743453   0.005817234796824271
-0.06733376033492908   0.06358430533743453   0.005817234796824271
-0.06733376033492908   0.06358430533743453   0.005817234796824271
-0.06733376033492908   0.06358430533743453   0.005817234796824271
-0.4137052717134788   -0.010533516725908895   -0.012588615623368424
-0.4137052717134788   -0.010533516725908895   -0.012588615623368424
-0.4137052717134788   -0.010533516725908895   -0.012588615623368424
-0.4137052717134788   -0.010533516725908895   -0.012588615623368424
-0.4301302215475955   -0.024776247512762473   -0.009273035699626949
-0.4301302215475955   -0.024776247512762473   -0.009273035699626949
-0.4301302215475955   -0.024776247512762473   -0.009273035699626949
-0.4301302215475955   -0.024776247512762473   -0.009273035699626949
-0.08448785115196679   0.04600108842382841   0.009772244969404846
-0.08448785115196679   0.04600108842382841   0.009772244969404846
-0.08448785115196679   0.04600108842382841   0.009772244969404846
-0.08448785115196679   0.04600108842382841   0.009772244969404846
-0.24830654904990113   0.018276007781480863   0.004917562050539639
-0.24830654904990113   0.018276007781480863   0.004917562050539639
-0.24830654904990113   0.018276007781480863   0.004917562050539639
-0.24830654904990113   0.018276007781480863   0.004917562050539639
-0.08397809236513792   0.04831100910761205   0.010011118219765497
-0.08397809236513792   0.04831100910761205   0.010011118219765497
-0.08397809236513792   0.04831100910761205   0.010011118219765497
-0.08397809236513792   0.04831100910761205   0.010011118219765497
-0.4306888925824588   -0.027135080444581253   -0.009707557942120748
-0.4306888925824588   -0.027135080444581253   -0.009707557942120748
-0.4306888925824588   -0.027135080444581253   -0.009707557942120748
-0.4306888925824588   -0.027135080444581253   -0.009707557942120748
-0.44694415135586046   -0.03992303358429881   -0.005295204019630259
-0.44694415135586046   -0.03992303358429881   -0.005295204019630259
-0.44694415135586046   -0.03992303358429881   -0.005295204019630259
-0.44694415135586046   -0.03992303358429881   -0.005295204019630259
-0.10195078273666071   0.0294812322967856   0.01274840202738047
-0.10195078273666071   0.0294812322967856   0.01274840202738047
-0.10195078273666071   0.0294812322967856   0.01274840202738047
-0.10195078273666071   0.0294812322967856   0.01274840202738047
-0.265592719531081   0.0035234098829660943   -0.0015782336718588273
-0.265592719531081   0.0035234098829660943   -0.0015782336718588273
-0.265592719531081   0.0035234098829660943   -0.0015782336718588273
-0.265592719531081   0.0035234098829660943   -0.0015782336718588273
-0.10108134552779802   0.03301994371577817   0.013556876652703258
-0.10108134552779802   0.03301994371577817   0.013556876652703258
-0.10108134552779802   0.03301994371577817   0.013556876652703258
-0.10108134552779802   0.03301994371577817   0.013556876652703258
-0.4480851036443043   -0.04373326008286833   -0.007189738963276231
-0.4480851036443043   -0.04373326008286833   -0.007189738963276231
-0.4480851036443043   -0.04373326008286833   -0.007189738963276231
-0.4480851036443043   -0.04373326008286833   -0.007189738963276231
-0.46347228966628   -0.05439046596600186   -0.001425678367488586
-0.46347228966628   -0.05439046596600186   -0.001425678367488586
-0.46347228966628   -0.05439046596600186   -0.001425678367488586
-0.46347228966628   -0.05439046596600186   -0.001425678367488586
-0.119268103916396   0.013429897585976843   0.015372472537179119
-0.119268103916396   0.013429897585976843   0.015372472537179119
-0.119268103916396   0.013429897585976843   0.015372472537179119
-0.119268103916396   0.013429897585976843   0.015372472537179119
-0.2835932053607191   -0.011244704359008484   -0.008620680829427543
-0.2835932053607191   -0.011244704359008484   -0.008620680829427543
-0.2835932053607191   -0.011244704359008484   -0.008620680829427543
-0.2835932053607191   -0.011244704359008484   -0.008620680829427543
-0.39033438126213515   0.07507578170618605   0.01865653820125481
-0.39033438126213515   0.07507578170618605   0.01865653820125481
-0.39033438126213515   0.07507578170618605   0.01865653820125481
-0.39033438126213515   0.07507578170618605   0.01865653820125481
-0.7417023378565334   -0.025252882397319876   -0.02559290286985528
-0.7417023378565334   -0.025252882397319876   -0.02559290286985528
-0.7417023378565334   -0.025252882397319876   -0.02559290286985528
-0.7417023378565334   -0.025252882397319876   -0.02559290286985528
-0.7478678011116142   -0.011204678722515293   0.005930752176195625
-0.7478678011116142   -0.011204678722515293   0.005930752176195625
-0.7478678011116142   -0.011204678722515293   0.005930752176195625
-0.7478678011116142   -0.011204678722515293   0.005930752176195625
-0.41840796404959407   0.029987045852518296   -0.005425041574906121
-0.41840796404959407   0.029987045852518296   -0.005425041574906121
-0.41840796404959407   0.029987045852518296   -0.005425041574906121
-0.41840796404959407   0.029987045852518296   -0.005425041574906121
-0.5711613268645311   0.017316069222792746   0.007134315527641398
-0.5711613268645311   0.017316069222792746   0.007134315527641398
-0.5711613268645311   0.017316069222792746   0.007134315527641398
-0.5711613268645311   0.017316069222792746   0.007134315527641398
-0.406672359885418   0.060413553422653365   0.022826471675848642
-0.406672359885418   0.060413553422653365   0.022826471675848642
-0.406672359885418   0.060413553422653365   0.022826471675848642
-0.406672359885418   0.060413553422653365   0.022826471675848642
-0.7601193640137693   -0.04214714503062489   -0.02438459602647762
-0.7601193640137693   -0.04214714503062489   -0.02438459602647762
-0.7601193640137693   -0.04214714503062489   -0.02438459602647762
-0.7601193640137693   -0.04214714503062489   -0.02438459602647762
-0.7676919947391858   -0.026208428042824167   0.0077705394459008925
-0.7676919947391858   -0.026208428042824167   0.0077705394459008925
-0.7676919947391858   -0.026208428042824167   0.0077705394459008925
-0.7676919947391858   -0.026208428042824167   0.0077705394459008925
-0.435402573029154   0.014760776643451823   -0.002271122613853309
-0.435402573029154   0.014760776643451823   -0.002271122613853309
-0.435402573029154   0.014760776643451823   -0.002271122613853309
-0.435402573029154   0.014760776643451823   -0.002271122613853309
-0.5856994948916134   0.003947135268575652   0.0006241694030175646
-0.5856994948916134   0.003947135268575652   0.0006241694030175646
-0.5856994948916134   0.003947135268575652   0.0006241694030175646
-0.5856994948916134   0.003947135268575652   0.0006241694030175646
-0.42324424432375096   0.04648606138533681   0.026795236171285382
-0.42324424432375096   0.04648606138533681   0.026795236171285382
-0.42324424432375096   0.04648606138533681   0.026795236171285382
-0.42324424432375096   0.04648606138533681   0.026795236171285382
-0.7798970506734993   -0.05798044001362122   -0.02148272825487321
-0.7798970506734993   -0.05798044001362122   -0.02148272825487321
-0.7798970506734993   -0.05798044001362122   -0.02148272825487321
-0.7798970506734993   -0.05798044001362122   -0.02148272825487321
-0.78533712736051   -0.04220217989597426   0.011922756745566296
-0.78533712736051   -0.04220217989597426   0.011922756745566296
-0.78533712736051   -0.04220217989597426   0.011922756745566296
-0.78533712736051   -0.04220217989597426   0.011922756745566296
-0.45269549433627826   -0.002139168831991445   0.00020700114850428358
-0.45269549433627826   -0.002139168831991445   0.00020700114850428358
-0.45269549433627826   -0.002139168831991445   0.00020700114850428358
-0.45269549433627826   -0.002139168831991445   0.00020700114850428358
-0.6075624694483062   -0.01159066141089854   -0.006940093856251384
-0.6075624694483062   -0.01159066141089854   -0.006940093856251384
-0.6075624694483062   -0.01159066141089854   -0.006940093856251384
-0.6075624694483062   -0.01159066141089854   -0.006940093856251384
-0.7117521925785009   0.06959177624638851   0.029313164876598935
-0.7117521925785009   0.06959177624638851   0.029313164876598935
-0.7117521925785009   0.06959177624638851   0.029313164876598935
-0.7117521925785009   0.06959177624638851   0.029313164876598935
-1.050472899497906   -0.0484069198844998   -0.03316794613894151
-1.050472899497906   -0.0484069198844998   -0.03316794613894151
-1.050472899497906   -0.0484069198844998   -0.03316794613894151
-1.050472899497906   -0.0484069198844998   -0.03316794613894151
-1.0605582949314039   -0.001205171189715526   0.02904274452507552
-1.0605582949314039   -0.001205171189715526   0.02904274452507552
-1.0605582949314039   -0.001205171189715526   0.02904274452507552
-1.0605582949314039   -0.001205171189715526   0.02904274452507552
-0.748728309530725   0.010309210069456565   -0.019885678711338374
-0.748728309530725   0.010309210069456565   -0.019885678711338374
-0.748728309530725   0.010309210069456565   -0.019885678711338374
-0.748728309530725   0.010309210069456565   -0.019885678711338374
-0.8535740119559897   0.01609628907616284   0.021641368155681923
-0.8535740119559897   0.01609628907616284   0.021641368155681923
-0.8535740119559897   0.01609628907616284   0.021641368155681923
-0.8535740119559897   0.01609628907616284   0.021641368155681923
-0.7265565278654302   0.06670260104614989   0.03457983863844692
-0.7265565278654302   0.06670260104614989   0.03457983863844692
-0.7265565278654302   0.06670260104614989   0.03457983863844692
-0.7265565278654302   0.06670260104614989   0.03457983863844692
-1.0831716388066162   -0.05804012437632977   -0.027189021664378886
-1.0831716388066162   -0.05804012437632977   -0.027189021664378886
-1.0831716388066162   -0.05804012437632977   -0.027189021664378886
-1.0831716388066162   -0.05804012437632977   -0.027189021664378886
-1.0885768766627064   -0.009461322104282188   0.036597007531022956
-1.0885768766627064   -0.009461322104282188   0.036597007531022956
-1.0885768766627064   -0.009461322104282188   0.036597007531022956
-1.0885768766627064   -0.009461322104282188   0.036597007531022956
-0.7670001952046599   0.0019603686118578323   -0.016939259536159455
-0.7670001952046599   0.0019603686118578323   -0.016939259536159455
-0.7670001952046599   0.0019603686118578323   -0.016939259536159455
-0.7670001952046599   0.0019603686118578323   -0.016939259536159455
-0.8914215547752494   0.006612282916827722   0.011380246382111998
-0.8914215547752494   0.006612282916827722   0.011380246382111998
-0.8914215547752494   0.006612282916827722   0.011380246382111998
-0.8914215547752494   0.006612282916827722   0.011380246382111998
-0.7437923328223004   0.06032355779591489   0.04073686319158557
-0.7437923328223004   0.06032355779591489   0.04073686319158557
-0.7437923328223004   0.06032355779591489   0.04073686319158557
-0.7437923328223004   0.06032355779591489   0.04073686319158557
-1.1121032079247686   -0.06814298016803952   -0.02235299071553762
-1.1121032079247686   -0.06814298016803952   -0.02235299071553762
-1.1121032079247686   -0.06814298016803952   -0.02235299071553762
-1.1121032079247686   -0.06814298016803952   -0.02235299071553762
-1.126059516931723   -0.03534132309773491   0.03669947589737305
-1.126059516931723   -0.03534132309773491   0.03669947589737305
-1.126059516931723   -0.03534132309773491   0.03669947589737305
-1.126059516931723   -0.03534132309773491   0.03669947589737305
-0.7861241038517028   -0.019235212265496016   -0.01497909334088892
-0.7861241038517028   -0.019235212265496016   -0.01497909334088892
-0.7861241038517028   -0.019235212265496016   -0.01497909334088892
-0.7861241038517028   -0.019235212265496016   -0.01497909334088892
-0.9020459132295479   -0.004224439711457306   0.0065147861821278005
-0.9020459132295479   -0.004224439711457306   0.0065147861821278005
-0.9020459132295479   -0.004224439711457306   0.0065147861821278005
-0.9020459132295479   -0.004224439711457306   0.0065147861821278005
0.33473674554399   0.02007488556888183   -0.03997833575406508
0.33473674554399   0.02007488556888183   -0.03997833575406508
0.33473674554399   0.02007488556888183   -0.03997833575406508
0.33473674554399   0.02007488556888183   -0.03997833575406508
0.09769043706580062   0.023966817457817948   0.019093377615934243
0.09769043706580062   0.023966817457817948   0.019093377615934243
0.09769043706580062   0.023966817457817948   0.019093377615934243
0.09769043706580062   0.023966817457817948   0.019093377615934243
0.060493916691384333   -0.04884470343649737   -0.03526388652546511
0.060493916691384333   -0.04884470343649737   -0.03526388652546511
0.060493916691384333   -0.04884470343649737   -0.03526388652546511
0.060493916691384333   -0.04884470343649737   -0.03526388652546511
0.3255928389757081   0.056856748930059896   0.022971604092492683
0.3255928389757081   0.056856748930059896   0.022971604092492683
0.3255928389757081   0.056856748930059896   0.022971604092492683
0.3255928389757081   0.056856748930059896   0.022971604092492683
0.19269164093669713   0.009489754170891568   -0.004446297505892392
0.19269164093669713   0.009489754170891568   -0.004446297505892392
0.19269164093669713   0.009489754170891568   -0.004446297505892392
0.19269164093669713   0.009489754170891568   -0.004446297505892392
0.3021336621601821   -0.0007979027072180095   -0.036669628347861874
0.3021336621601821   -0.0007979027072180095   -0.036669628347861874
0.3021336621601821   -0.0007979027072180095   -0.036669628347861874
0.3021336621601821   -0.0007979027072180095   -0.036669628347861874
0.08322119313209475   0.008078047825963984   0.021449744415626498
0.08322119313209475   0.008078047825963984   0.021449744415626498
0.08322119313209475   0.008078047825963984   0.021449744415626498
0.08322119313209475   0.008078047825963984   0.021449744415626498
0.04645605197535267   -0.05575070054321665   -0.029962644025414598
0.04645605197535267   -0.05575070054321665   -0.029962644025414598
0.04645605197535267   -0.05575070054321665   -0.029962644025414598
0.04645605197535267   -0.05575070054321665   -0.029962644025414598
0.3003584982814155   0.04732880364920998   0.029527786121624447
0.3003584982814155   0.04732880364920998   0.029527786121624447
0.3003584982814155   0.04732880364920998   0.029527786121624447
0.3003584982814155   0.04732880364920998   0.029527786121624447
0.1751092699549215   -0.0013046794042206253   -0.011439079091938255
0.1751092699549215   -0.0013046794042206253   -0.011439079091938255
0.1751092699549215   -0.0013046794042206253   -0.011439079091938255
0.1751092699549215   -0.0013046794042206253   -0.011439079091938255
0.2770283485132266   -0.009668786870486654   -0.03012537219962602
0.2770283485132266   -0.009668786870486654   -0.03012537219962602
0.2770283485132266   -0.009668786870486654   -0.03012537219962602
0.2770283485132266   -0.009668786870486654   -0.03012537219962602
0.0688045988400062   0.00026528707294232873   0.025764102681695464
0.0688045988400062   0.00026528707294232873   0.025764102681695464
0.0688045988400062   0.00026528707294232873   0.025764102681695464
0.0688045988400062   0.00026528707294232873   0.025764102681695464
0.03390789281301675   -0.06404787390628136   -0.024961840017392836
0.03390789281301675   -0.06404787390628136   -0.024961840017392836
0.03390789281301675   -0.06404787390628136   -0.024961840017392836
0.03390789281301675   -0.06404787390628136   -0.024961840017392836
0.26910132218031113   0.03210898545670949   0.032797514827019744
0.26910132218031113   0.03210898545670949   0.032797514827019744
0.26910132218031113   0.03210898545670949   0.032797514827019744
0.26910132218031113   0.03210898545670949   0.032797514827019744
0.15071833569246465   -0.010903757016618804   -0.02000396669327211
0.15071833569246465   -0.010903757016618804   -0.02000396669327211
0.15071833569246465   -0.010903757016618804   -0.02000396669327211
0.15071833569246465   -0.010903757016618804   -0.02000396669327211
0.09402294075679526   0.036259878794839794   -0.011537165266115354
0.09402294075679526   0.036259878794839794   -0.011537165266115354
0.09402294075679526   0.036259878794839794   -0.011537165266115354
0.09402294075679526   0.036259878794839794   -0.011537165266115354
-0.1350279765961538   0.01158737641324243   0.0046120698857195835
-0.1350279765961538   0.01158737641324243   0.0046120698857195835
-0.1350279765961538   0.01158737641324243   0.0046120698857195835
-0.1350279765961538   0.01158737641324243   0.0046120698857195835
-0.15899232453503903   -0.03133704513303724   -0.0205962764185828
-0.15899232453503903   -0.03133704513303724   -0.0205962764185828
-0.15899232453503903   -0.03133704513303724   -0.0205962764185828
-0.15899232453503903   -0.03133704513303724   -0.0205962764185828
0.09069346367758255   0.044990437935251974   0.02189870703377743
0.09069346367758255   0.044990437935251974   0.02189870703377743
0.09069346367758255   0.044990437935251974   0.02189870703377743
0.09069346367758255   0.044990437935251974   0.02189870703377743
-0.028129409617078792   0.014724367778925305   0.0037593649933107248
-0.028129409617078792   0.014724367778925305   0.0037593649933107248
-0.028129409617078792   0.014724367778925305   0.0037593649933107248
-0.028129409617078792   0.014724367778925305   0.0037593649933107248
0.07937208318915275   0.018759616834076   -0.008477374307195933
0.07937208318915275   0.018759616834076   -0.008477374307195933
0.07937208318915275   0.018759616834076   -0.008477374307195933
0.07937208318915275   0.018759616834076   -0.008477374307195933
-0.14829673204867397   -0.005732012033923008   0.007276652914128348
-0.14829673204867397   -0.005732012033923008   0.007276652914128348
-0.14829673204867397   -0.005732012033923008   0.007276652914128348
-0.14829673204867397   -0.005732012033923008   0.007276652914128348
-0.17154876566850488   -0.045366920860460264   -0.016140825190437275
-0.17154876566850488   -0.045366920860460264   -0.016140825190437275
-0.17154876566850488   -0.045366920860460264   -0.016140825190437275
-0.17154876566850488   -0.045366920860460264   -0.016140825190437275
0.07421935634943738   0.029224508173242673   0.023878669128550807
0.07421935634943738   0.029224508173242673   0.023878669128550807
0.07421935634943738   0.029224508173242673   0.023878669128550807
0.07421935634943738   0.029224508173242673   0.023878669128550807
-0.04365167304212486   -0.00042372722857016674   -0.0035011250969159834
-0.04365167304212486   -0.00042372722857016674   -0.0035011250969159834
-0.04365167304212486   -0.00042372722857016674   -0.0035011250969159834
-0.04365167304212486   -0.00042372722857016674   -0.0035011250969159834
0.06323112140803061   0.003708018426576972   -0.005546015831818518
0.06323112140803061   0.003708018426576972   -0.005546015831818518
0.06323112140803061   0.003708018426576972   -0.005546015831818518
0.06323112140803061   0.003708018426576972   -0.005546015831818518
-0.16137076467317701   -0.02066066505986767   0.010042923985613461
-0.16137076467317701   -0.02066066505986767   0.010042923985613461
-0.16137076467317701   -0.02066066505986767   0.010042923985613461
-0.16137076467317701   -0.02066066505986767   0.010042923985613461
-0.18400829051305687   -0.05926591040424266   -0.01211472638019706
-0.18400829051305687   -0.05926591040424266   -0.01211472638019706
-0.18400829051305687   -0.05926591040424266   -0.01211472638019706
-0.18400829051305687   -0.05926591040424266   -0.01211472638019706
0.059794970446434614   0.013763795545852768   0.026661878697563257
0.059794970446434614   0.013763795545852768   0.026661878697563257
0.059794970446434614   0.013763795545852768   0.026661878697563257
0.059794970446434614   0.013763795545852768   0.026661878697563257
-0.05706992376359069   -0.013966484777365106   -0.010351747853912047
-0.05706992376359069   -0.013966484777365106   -0.010351747853912047
-0.05706992376359069   -0.013966484777365106   -0.010351747853912047
-0.05706992376359069   -0.013966484777365106   -0.010351747853912047
-0.12802127921313666   0.0494729929513688   0.0017599402626789495
-0.12802127921313666   0.0494729929513688   0.0017599402626789495
-0.12802127921313666   0.0494729929513688   0.0017599402626789495
-0.12802127921313666   0.0494729929513688   0.0017599402626789495
-0.3646067140359798   -0.004445499019802443   -0.010045162613267117
-0.3646067140359798   -0.004445499019802443   -0.010045162613267117
-0.3646067140359798   -0.004445499019802443   -0.010045162613267117
-0.3646067140359798   -0.004445499019802443   -0.010045162613267117
-0.37592303022491214   -0.015443217896600261   -0.006014107559793147
-0.37592303022491214   -0.015443217896600261   -0.006014107559793147
-0.37592303022491214   -0.015443217896600261   -0.006014107559793147
-0.37592303022491214   -0.015443217896600261   -0.006014107559793147
-0.14128767680611604   0.029622718776595267   0.0069671983163976815
-0.14128767680611604   0.029622718776595267   0.0069671983163976815
-0.14128767680611604   0.029622718776595267   0.0069671983163976815
-0.14128767680611604   0.029622718776595267   0.0069671983163976815
-0.2518582758312594   0.014485136568024783   0.0038899691455616912
-0.2518582758312594   0.014485136568024783   0.0038899691455616912
-0.2518582758312594   0.014485136568024783   0.0038899691455616912
-0.2518582758312594   0.014485136568024783   0.0038899691455616912
-0.14062114420088023   0.03400374736999383   0.005918832749178406
-0.14062114420088023   0.03400374736999383   0.005918832749178406
-0.14062114420088023   0.03400374736999383   0.005918832749178406
-0.14062114420088023   0.03400374736999383   0.005918832749178406
-0.3771382743922262   -0.020372958052087622   -0.007160588240875954
-0.3771382743922262   -0.020372958052087622   -0.007160588240875954
-0.3771382743922262   -0.020372958052087622   -0.007160588240875954
-0.3771382743922262   -0.020372958052087622   -0.007160588240875954
-0.388426250343171   -0.03075952532401649   -0.001979918470150291
-0.388426250343171   -0.03075952532401649   -0.001979918470150291
-0.388426250343171   -0.03075952532401649   -0.001979918470150291
-0.388426250343171   -0.03075952532401649   -0.001979918470150291
-0.15454045179807374   0.01363292660852105   0.009900896692737297
-0.15454045179807374   0.01363292660852105   0.009900896692737297
-0.15454045179807374   0.01363292660852105   0.009900896692737297
-0.15454045179807374   0.01363292660852105   0.009900896692737297
-0.2649017061165494   -6.580285274761927e-05   -0.0026165856073851503
-0.2649017061165494   -6.580285274761927e-05   -0.0026165856073851503
-0.2649017061165494   -6.580285274761927e-05   -0.0026165856073851503
-0.2649017061165494   -6.580285274761927e-05   -0.0026165856073851503
-0.15364640099761034   0.01849436974986511   0.0095097075537139
-0.15364640099761034   0.01849436974986511   0.0095097075537139
-0.15364640099761034   0.01849436974986511   0.0095097075537139
-0.15364640099761034   0.01849436974986511   0.0095097075537139
-0.39010005980339124   -0.03640072712511444   -0.004707763970153329
-0.39010005980339124   -0.03640072712511444   -0.004707763970153329
-0.39010005980339124   -0.03640072712511444   -0.004707763970153329
-0.39010005980339124   -0.03640072712511444   -0.004707763970153329
-0.40068703968365454   -0.04554279052690766   0.00192796774004576
-0.40068703968365454   -0.04554279052690766   0.00192796774004576
-0.40068703968365454   -0.04554279052690766   0.00192796774004576
-0.40068703968365454   -0.04554279052690766   0.00192796774004576
-0.16756931276486187   -0.0017675795189282736   0.012581831475464184
-0.16756931276486187   -0.0017675795189282736   0.012581831475464184
-0.16756931276486187   -0.0017675795189282736   0.012581831475464184
-0.16756931276486187   -0.0017675795189282736   0.012581831475464184
-0.27862769950036537   -0.014650118386868562   -0.009682212978534672
-0.27862769950036537   -0.014650118386868562   -0.009682212978534672
-0.27862769950036537   -0.014650118386868562   -0.009682212978534672
-0.27862769950036537   -0.014650118386868562   -0.009682212978534672
-0.3462136163958328   0.0620486731519356   0.015426153415729605
-0.3462136163958328   0.0620486731519356   0.015426153415729605
-0.3462136163958328   0.0620486731519356   0.015426153415729605
-0.3462136163958328   0.0620486731519356   0.015426153415729605
-0.5892621490411194   -0.01763453483830517   -0.022883512906089695
-0.5892621490411194   -0.01763453483830517   -0.022883512906089695
-0.5892621490411194   -0.01763453483830517   -0.022883512906089695
-0.5892621490411194   -0.01763453483830517   -0.022883512906089695
-0.5903785939282419   -0.0014349868012191458   0.009435425035023738
-0.5903785939282419   -0.0014349868012191458   0.009435425035023738
-0.5903785939282419   -0.0014349868012191458   0.009435425035023738
-0.5903785939282419   -0.0014349868012191458   0.009435425035023738
-0.3700214010901939   0.015241517031119367   -0.007190696813925677
-0.3700214010901939   0.015241517031119367   -0.007190696813925677
-0.3700214010901939   0.015241517031119367   -0.007190696813925677
-0.3700214010901939   0.015241517031119367   -0.007190696813925677
-0.4715422258203922   0.01452241476512002   0.005107769146387081
-0.4715422258203922   0.01452241476512002   0.005107769146387081
-0.4715422258203922   0.01452241476512002   0.005107769146387081
-0.4715422258203922   0.01452241476512002   0.005107769146387081
-0.35830982691495106   0.04701118317759577   0.019597507915816263
-0.35830982691495106   0.04701118317759577   0.019597507915816263
-0.35830982691495106   0.04701118317759577   0.019597507915816263
-0.35830982691495106   0.04701118317759577   0.019597507915816263
-0.6031424469655431   -0.03425693180975599   -0.02156189514295315
-0.6031424469655431   -0.03425693180975599   -0.02156189514295315
-0.6031424469655431   -0.03425693180975599   -0.02156189514295315
-0.6031424469655431   -0.03425693180975599   -0.02156189514295315
-0.6057739954236393   -0.016538022888687318   0.011606302119936174
-0.6057739954236393   -0.016538022888687318   0.011606302119936174
-0.6057739954236393   -0.016538022888687318   0.011606302119936174
-0.6057739954236393   -0.016538022888687318   0.011606302119936174
-0.38259033420367194   0.0005137879133920442   -0.004073651010068988
-0.38259033420367194   0.0005137879133920442   -0.004073651010068988
-0.38259033420367194   0.0005137879133920442   -0.004073651010068988
-0.38259033420367194   0.0005137879133920442   -0.004073651010068988
-0.4826152992855413   0.0009682958904737166   -0.0017117712732775785
-0.4826152992855413   0.0009682958904737166   -0.0017117712732775785
-0.4826152992855413   0.0009682958904737166   -0.0017117712732775785
-0.4826152992855413   0.0009682958904737166   -0.0017117712732775785
-0.37056777688420695   0.03291045424611437   0.023642469254539524
-0.37056777688420695   0.03291045424611437   0.023642469254539524
-0.37056777688420695   0.03291045424611437   0.023642469254539524
-0.37056777688420695   0.03291045424611437   0.023642469254539524
-0.6184529807952577   -0.04959111727356787   -0.018735530353282803
-0.6184529807952577   -0.04959111727356787   -0.018735530353282803
-0.6184529807952577   -0.04959111727356787   -0.018735530353282803
-0.6184529807952577   -0.04959111727356787   -0.018735530353282803
-0.6190667136177987   -0.03229054946478972   0.015821317266033433
-0.6190667136177987   -0.03229054946478972   0.015821317266033433
-0.6190667136177987   -0.03229054946478972   0.015821317266033433
-0.6190667136177987   -0.03229054946478972   0.015821317266033433
-0.395318049131891   -0.015248878014348502   -0.0015209920137001579
-0.395318049131891   -0.015248878014348502   -0.0015209920137001579
-0.395318049131891   -0.015248878014348502   -0.0015209920137001579
-0.395318049131891   -0.015248878014348502   -0.0015209920137001579
-0.4991196000547285   -0.013820141535563199   -0.009151889406196288
-0.4991196000547285   -0.013820141535563199   -0.009151889406196288
-0.4991196000547285   -0.013820141535563199   -0.009151889406196288
-0.4991196000547285   -0.013820141535563199   -0.009151889406196288
-0.5634763243181024   0.06109016629449557   0.027320909576194735
-0.5634763243181024   0.06109016629449557   0.027320909576194735
-0.5634763243181024   0.06109016629449557   0.027320909576194735
-0.5634763243181024   0.06109016629449557   0.027320909576194735
-0.7935822699403581   -0.036580099686195744   -0.03465270270828509
-0.7935822699403581   -0.036580099686195744   -0.03465270270828509
-0.7935822699403581   -0.036580099686195744   -0.03465270270828509
-0.7935822699403581   -0.036580099686195744   -0.03465270270828509
-0.7993617833570816   0.00990289922883067   0.02871624091188896
-0.7993617833570816   0.00990289922883067   0.02871624091188896
-0.7993617833570816   0.00990289922883067   0.02871624091188896
-0.7993617833570816   0.00990289922883067   0.02871624091188896
-0.5965477365388895   -0.0016929594845497276   -0.02115231533489271
-0.5965477365388895   -0.0016929594845497276   -0.02115231533489271
-0.5965477365388895   -0.0016929594845497276   -0.02115231533489271
-0.5965477365388895   -0.0016929594845497276   -0.02115231533489271
-0.6586409564339271   0.014590278312320515   0.01599567848459024
-0.6586409564339271   0.014590278312320515   0.01599567848459024
-0.6586409564339271   0.014590278312320515   0.01599567848459024
-0.6586409564339271   0.014590278312320515   0.01599567848459024
-0.5743927813332603   0.055616126410796635   0.03231337479790841
-0.5743927813332603   0.055616126410796635   0.03231337479790841
-0.5743927813332603   0.055616126410796635   0.03231337479790841
-0.5743927813332603   0.055616126410796635   0.03231337479790841
-0.8226377341482616   -0.04852718225206157   -0.0292334315631105
-0.8226377341482616   -0.04852718225206157   -0.0292334315631105
-0.8226377341482616   -0.04852718225206157   -0.0292334315631105
-0.8226377341482616   -0.04852718225206157   -0.0292334315631105
-0.823350609927276   0.0014112285124140145   0.03666545468923767
-0.823350609927276   0.0014112285124140145   0.03666545468923767
-0.823350609927276   0.0014112285124140145   0.03666545468923767
-0.823350609927276   0.0014112285124140145   0.03666545468923767
-0.610398568440814   -0.009910710648817711   -0.01814387520581969
-0.610398568440814   -0.009910710648817711   -0.01814387520581969
-0.610398568440814   -0.009910710648817711   -0.01814387520581969
-0.610398568440814   -0.009910710648817711   -0.01814387520581969
-0.6893505963401312   0.0045545187487272265   0.005828806536640918
-0.6893505963401312   0.0045545187487272265   0.005828806536640918
-0.6893505963401312   0.0045545187487272265   0.005828806536640918
-0.6893505963401312   0.0045545187487272265   0.005828806536640918
-0.5873082154547145   0.04897171023688124   0.0384254688389844
-0.5873082154547145   0.04897171023688124   0.0384254688389844
-0.5873082154547145   0.04897171023688124   0.0384254688389844
-0.5873082154547145   0.04897171023688124   0.0384254688389844
-0.847499771475638   -0.05853000093553931   -0.02413912360460363
-0.847499771475638   -0.05853000093553931   -0.02413912360460363
-0.847499771475638   -0.05853000093553931   -0.02413912360460363
-0.847499771475638   -0.05853000093553931   -0.02413912360460363
-0.8565146730300361   -0.02274879684747433   0.03784355292752223
-0.8565146730300361   -0.02274879684747433   0.03784355292752223
-0.8565146730300361   -0.02274879684747433   0.03784355292752223
-0.8565146730300361   -0.02274879684747433   0.03784355292752223
-0.6246948257809686   -0.02878676426575562   -0.015823028748862603
-0.6246948257809686   -0.02878676426575562   -0.015823028748862603
-0.6246948257809686   -0.02878676426575562   -0.015823028748862603
-0.6246948257809686   -0.02878676426575562   -0.015823028748862603
-0.6992893526252489   -0.006134249193339353   -0.00020255372086312035
-0.6992893526252489   -0.006134249193339353   -0.00020255372086312035
-0.6992893526252489   -0.006134249193339353   -0.00020255372086312035
-0.6992893526252489   -0.006134249193339353   -0.00020255372086312035
0.0626465696383259   0.005147467225974143   -0.03995950611580096
0.0626465696383259   0.005147467225974143   -0.03995950611580096
0.0626465696383259   0.005147467225974143   -0.03995950611580096
0.0626465696383259   0.005147467225974143   -0.03995950611580096
-0.06369689104044796   0.029905343389507427   0.020401476504777305
-0.06369689104044796   0.029905343389507427   0.020401476504777305
-0.06369689104044796   0.029905343389507427   0.020401476504777305
-0.06369689104044796   0.029905343389507427   0.020401476504777305
-0.09626553670385198   -0.0385494616148569   -0.03220107295253122
-0.09626553670385198   -0.0385494616148569   -0.03220107295253122
-0.09626553670385198   -0.0385494616148569   -0.03220107295253122
-0.09626553670385198   -0.0385494616148569   -0.03220107295253122
0.057712384574458986   0.042548957244085306   0.025030548766555347
0.057712384574458986   0.042548957244085306   0.025030548766555347
0.057712384574458986   0.042548957244085306   0.025030548766555347
0.057712384574458986   0.042548957244085306   0.025030548766555347
-0.011363162523725755   0.00934134680989253   0.003458139543821338
-0.011363162523725755   0.00934134680989253   0.003458139543821338
-0.011363162523725755   0.00934134680989253   0.003458139543821338
-0.011363162523725755   0.00934134680989253   0.003458139543821338
0.03442225542812391   -0.013121597118466274   -0.03574954260256921
0.03442225542812391   -0.013121597118466274   -0.03574954260256921
0.03442225542812391   -0.013121597118466274   -0.03574954260256921
0.03442225542812391   -0.013121597118466274   -0.03574954260256921
-0.07434674294861378   0.015749757356600218   0.023093676852202656
-0.07434674294861378   0.015749757356600218   0.023093676852202656
-0.07434674294861378   0.015749757356600218   0.023093676852202656
-0.07434674294861378   0.015749757356600218   0.023093676852202656
-0.10700920423086063   -0.04551321146041834   -0.02731458691424106
-0.10700920423086063   -0.04551321146041834   -0.02731458691424106
-0.10700920423086063   -0.04551321146041834   -0.02731458691424106
-0.10700920423086063   -0.04551321146041834   -0.02731458691424106
0.035623755489850376   0.03309901907475789   0.03435305006921495
0.035623755489850376   0.03309901907475789   0.03435305006921495
0.035623755489850376   0.03309901907475789   0.03435305006921495
0.035623755489850376   0.03309901907475789   0.03435305006921495
-0.02875097947575349   -0.0010949735420295714   -0.004575091620944817
-0.02875097947575349   -0.0010949735420295714   -0.004575091620944817
-0.02875097947575349   -0.0010949735420295714   -0.004575091620944817
-0.02875097947575349   -0.0010949735420295714   -0.004575091620944817
0.01178899075345527   -0.022195838323591156   -0.029525916214411654
0.01178899075345527   -0.022195838323591156   -0.029525916214411654
0.01178899075345527   -0.022195838323591156   -0.029525916214411654
0.01178899075345527   -0.022195838323591156   -0.029525916214411654
-0.08507987535284439   0.0078762100795501   0.028942635935870806
-0.08507987535284439   0.0078762100795501   0.028942635935870806
-0.08507987535284439   0.0078762100795501   0.028942635935870806
-0.08507987535284439   0.0078762100795501   0.028942635935870806
-0.11684801927299904   -0.05617112653172425   -0.02265370366183881
-0.11684801927299904   -0.05617112653172425   -0.02265370366183881
-0.11684801927299904   -0.05617112653172425   -0.02265370366183881
-0.11684801927299904   -0.05617112653172425   -0.02265370366183881
0.0049463048076593035   0.013321469658645013   0.03918732221384669
0.0049463048076593035   0.013321469658645013   0.03918732221384669
0.0049463048076593035   0.013321469658645013   0.03918732221384669
0.0049463048076593035   0.013321469658645013   0.03918732221384669
-0.04752236036925024   -0.011583258264548252   -0.013856809289229336
-0.04752236036925024   -0.011583258264548252   -0.013856809289229336
-0.04752236036925024   -0.011583258264548252   -0.013856809289229336
-0.04752236036925024   -0.011583258264548252   -0.013856809289229336
-0.07294459322518912   0.019912750753671844   -0.01584444178309293
-0.07294459322518912   0.019912750753671844   -0.01584444178309293
-0.07294459322518912   0.019912750753671844   -0.01584444178309293
-0.07294459322518912   0.019912750753671844   -0.01584444178309293
-0.1910501843150514   0.008046427344330254   0.005303534464641441
-0.1910501843150514   0.008046427344330254   0.005303534464641441
-0.1910501843150514   0.008046427344330254   0.005303534464641441
-0.1910501843150514   0.008046427344330254   0.005303534464641441
-0.2078766934086796   -0.022456629833996433   -0.016766474726233133
-0.2078766934086796   -0.022456629833996433   -0.016766474726233133
-0.2078766934086796   -0.022456629833996433   -0.016766474726233133
-0.2078766934086796   -0.022456629833996433   -0.016766474726233133
-0.07503515799842658   0.0193738371037155   0.01602752185602318
-0.07503515799842658   0.0193738371037155   0.01602752185602318
-0.07503515799842658   0.0193738371037155   0.01602752185602318
-0.07503515799842658   0.0193738371037155   0.01602752185602318
-0.1364565121951316   0.005823799043630572   0.0031196616977646535
-0.1364565121951316   0.005823799043630572   0.0031196616977646535
-0.1364565121951316   0.005823799043630572   0.0031196616977646535
-0.1364565121951316   0.005823799043630572   0.0031196616977646535
-0.08411106087347212   0.003045133779324513   -0.013023289194814724
-0.08411106087347212   0.003045133779324513   -0.013023289194814724
-0.08411106087347212   0.003045133779324513   -0.013023289194814724
-0.08411106087347212   0.003045133779324513   -0.013023289194814724
-0.19993040496989908   -0.007257540945874191   0.007765878579547248
-0.19993040496989908   -0.007257540945874191   0.007765878579547248
-0.19993040496989908   -0.007257540945874191   0.007765878579547248
-0.19993040496989908   -0.007257540945874191   0.007765878579547248
-0.21624660205196497   -0.03612270944655935   -0.012391460569056965
-0.21624660205196497   -0.03612270944655935   -0.012391460569056965
-0.21624660205196497   -0.03612270944655935   -0.012391460569056965
-0.21624660205196497   -0.03612270944655935   -0.012391460569056965
-0.08797531815369347   0.00426968472609086   0.01807194728508483
-0.08797531815369347   0.00426968472609086   0.01807194728508483
-0.08797531815369347   0.00426968472609086   0.01807194728508483
-0.08797531815369347   0.00426968472609086   0.01807194728508483
-0.14702860156139202   -0.007905022244486914   -0.0037738264183863283
-0.14702860156139202   -0.007905022244486914   -0.0037738264183863283
-0.14702860156139202   -0.007905022244486914   -0.0037738264183863283
-0.14702860156139202   -0.007905022244486914   -0.0037738264183863283
-0.0967276526797122   -0.011687196318401288   -0.009732844300516819
-0.0967276526797122   -0.011687196318401288   -0.009732844300516819
-0.0967276526797122   -0.011687196318401288   -0.009732844300516819
-0.0967276526797122   -0.011687196318401288   -0.009732844300516819
-0.20870767767994197   -0.021379238556063412   0.010559690400562007
-0.20870767767994197   -0.021379238556063412   0.010559690400562007
-0.20870767767994197   -0.021379238556063412   0.010559690400562007
-0.20870767767994197   -0.021379238556063412   0.010559690400562007
-0.22467165537642234   -0.05016555165296217   -0.008518231473654502
-0.22467165537642234   -0.05016555165296217   -0.008518231473654502
-0.22467165537642234   -0.05016555165296217   -0.008518231473654502
-0.22467165537642234   -0.05016555165296217   -0.008518231473654502
-0.09880084362896333   -0.011010126865101916   0.022421174891716626
-0.09880084362896333   -0.011010126865101916   0.022421174891716626
-0.09880084362896333   -0.011010126865101916   0.022421174891716626
-0.09880084362896333   -0.011010126865101916   0.022421174891716626
-0.15757421698294516   -0.02145892440076828   -0.010777868211145347
-0.15757421698294516   -0.02145892440076828   -0.010777868211145347
-0.15757421698294516   -0.02145892440076828   -0.010777868211145347
-0.15757421698294516   -0.02145892440076828   -0.010777868211145347
-0.1875265667986202   0.03264431069045828   -0.0016762612993305483
-0.1875265667986202   0.03264431069045828   -0.0016762612993305483
-0.1875265667986202   0.03264431069045828   -0.0016762612993305483
-0.1875265667986202   0.03264431069045828   -0.0016762612993305483
-0.31715804493085065   -0.010918725985879264   -0.008994716486141184
-0.31715804493085065   -0.010918725985879264   -0.008994716486141184
-0.31715804493085065   -0.010918725985879264   -0.008994716486141184
-0.31715804493085065   -0.010918725985879264   -0.008994716486141184
-0.3205116855942736   -0.008003056321369759   -0.001937668385239226
-0.3205116855942736   -0.008003056321369759   -0.001937668385239226
-0.3205116855942736   -0.008003056321369759   -0.001937668385239226
-0.3205116855942736   -0.008003056321369759   -0.001937668385239226
-0.19913646485833617   0.002000871086973735   0.0024771671045132684
-0.19913646485833617   0.002000871086973735   0.0024771671045132684
-0.19913646485833617   0.002000871086973735   0.0024771671045132684
-0.19913646485833617   0.002000871086973735   0.0024771671045132684
-0.2555444393862781   0.003675666226332426   0.0010923102014532126
-0.2555444393862781   0.003675666226332426   0.0010923102014532126
-0.2555444393862781   0.003675666226332426   0.0010923102014532126
-0.2555444393862781   0.003675666226332426   0.0010923102014532126
-0.19598863160593133   0.017777107536708567   0.0024400969168032836
-0.19598863160593133   0.017777107536708567   0.0024400969168032836
-0.19598863160593133   0.017777107536708567   0.0024400969168032836
-0.19598863160593133   0.017777107536708567   0.0024400969168032836
-0.3247474747258699   -0.0248672486502948   -0.0062524217142957
-0.3247474747258699   -0.0248672486502948   -0.0062524217142957
-0.3247474747258699   -0.0248672486502948   -0.0062524217142957
-0.3247474747258699   -0.0248672486502948   -0.0062524217142957
-0.3283627526840637   -0.022685303505197436   0.0021320470101348146
-0.3283627526840637   -0.022685303505197436   0.0021320470101348146
-0.3283627526840637   -0.022685303505197436   0.0021320470101348146
-0.3283627526840637   -0.022685303505197436   0.0021320470101348146
-0.2080079802857481   -0.012435777408403528   0.0051147162238715455
-0.2080079802857481   -0.012435777408403528   0.0051147162238715455
-0.2080079802857481   -0.012435777408403528   0.0051147162238715455
-0.2080079802857481   -0.012435777408403528   0.0051147162238715455
-0.26405104984467825   -0.009677633882020628   -0.005237992494442454
-0.26405104984467825   -0.009677633882020628   -0.005237992494442454
-0.26405104984467825   -0.009677633882020628   -0.005237992494442454
-0.26405104984467825   -0.009677633882020628   -0.005237992494442454
-0.20476806239820972   0.0028191090004829403   0.006059419252677053
-0.20476806239820972   0.0028191090004829403   0.006059419252677053
-0.20476806239820972   0.0028191090004829403   0.006059419252677053
-0.20476806239820972   0.0028191090004829403   0.006059419252677053
-0.3329147175088709   -0.03925223685135183   -0.0040608437677471295
-0.3329147175088709   -0.03925223685135183   -0.0040608437677471295
-0.3329147175088709   -0.03925223685135183   -0.0040608437677471295
-0.3329147175088709   -0.03925223685135183   -0.0040608437677471295
-0.33600772113735194   -0.03676401838635791   0.006038045510806047
-0.33600772113735194   -0.03676401838635791   0.006038045510806047
-0.33600772113735194   -0.03676401838635791   0.006038045510806047
-0.33600772113735194   -0.03676401838635791   0.006038045510806047
-0.2165324597014312   -0.02604865538261195   0.00806085063095445
-0.2165324597014312   -0.02604865538261195   0.00806085063095445
-0.2165324597014312   -0.02604865538261195   0.00806085063095445
-0.2165324597014312   -0.02604865538261195   0.00806085063095445
-0.2732047390350888   -0.023111013599480576   -0.012117090763101091
-0.2732047390350888   -0.023111013599480576   -0.012117090763101091
-0.2732047390350888   -0.023111013599480576   -0.012117090763101091
-0.2732047390350888   -0.023111013599480576   -0.012117090763101091
-0.301150430054657   0.047157864934994714   0.012966766973956968
-0.301150430054657   0.047157864934994714   0.012966766973956968
-0.301150430054657   0.047157864934994714   0.012966766973956968
-0.301150430054657   0.047157864934994714   0.012966766973956968
-0.4383828121325363   -0.01821038111297378   -0.02015758354859494
-0.4383828121325363   -0.01821038111297378   -0.02015758354859494
-0.4383828121325363   -0.01821038111297378   -0.02015758354859494
-0.4383828121325363   -0.01821038111297378   -0.02015758354859494
-0.4325475976547014   0.0068454978633062935   0.013355403911516512
-0.4325475976547014   0.0068454978633062935   0.013355403911516512
-0.4325475976547014   0.0068454978633062935   0.013355403911516512
-0.4325475976547014   0.0068454978633062935   0.013355403911516512
-0.3215636887150161   -0.006257200220435508   -0.008943540089885502
-0.3215636887150161   -0.006257200220435508   -0.008943540089885502
-0.3215636887150161   -0.006257200220435508   -0.008943540089885502
-0.3215636887150161   -0.006257200220435508   -0.008943540089885502
-0.3721035818017328   0.007430560478203993   0.0018254180771995476
-0.3721035818017328   0.007430560478203993   0.0018254180771995476
-0.3721035818017328   0.007430560478203993   0.0018254180771995476
-0.3721035818017328   0.007430560478203993   0.0018254180771995476
-0.30863015770885466   0.03237607334522466   0.017090841375261
-0.30863015770885466   0.03237607334522466   0.017090841375261
-0.30863015770885466   0.03237607334522466   0.017090841375261
-0.30863015770885466   0.03237607334522466   0.017090841375261
-0.44707031440710443   -0.03337696144859921   -0.019035720538600375
-0.44707031440710443   -0.03337696144859921   -0.019035720538600375
-0.44707031440710443   -0.03337696144859921   -0.019035720538600375
-0.44707031440710443   -0.03337696144859921   -0.019035720538600375
-0.4430641820799664   -0.007609606896489929   0.01578322281681564
-0.4430641820799664   -0.007609606896489929   0.01578322281681564
-0.4430641820799664   -0.007609606896489929   0.01578322281681564
-0.4430641820799664   -0.007609606896489929   0.01578322281681564
-0.3293463101335262   -0.01939358723050688   -0.006077456511869403
-0.3293463101335262   -0.01939358723050688   -0.006077456511869403
-0.3293463101335262   -0.01939358723050688   -0.006077456511869403
-0.3293463101335262   -0.01939358723050688   -0.006077456511869403
-0.3792435534847628   -0.005435013988763435   -0.005036225496036408
-0.3792435534847628   -0.005435013988763435   -0.005036225496036408
-0.3792435534847628   -0.005435013988763435   -0.005036225496036408
-0.3792435534847628   -0.005435013988763435   -0.005036225496036408
-0.31626928532458676   0.018812953293076057   0.021101127009245792
-0.31626928532458676   0.018812953293076057   0.021101127009245792
-0.31626928532458676   0.018812953293076057   0.021101127009245792
-0.31626928532458676   0.018812953293076057   0.021101127009245792
-0.45739614527375766   -0.04707108580492369   -0.016415114243706695
-0.45739614527375766   -0.04707108580492369   -0.016415114243706695
-0.45739614527375766   -0.04707108580492369   -0.016415114243706695
-0.45739614527375766   -0.04707108580492369   -0.016415114243706695
-0.4516114936526584   -0.022180385843512257   0.020114913361248443
-0.4516114936526584   -0.022180385843512257   0.020114913361248443
-0.4516114936526584   -0.022180385843512257   0.020114913361248443
-0.4516114936526584   -0.022180385843512257   0.020114913361248443
-0.33715937415364544   -0.03285409185882732   -0.0036301460981972497
-0.33715937415364544   -0.03285409185882732   -0.0036301460981972497
-0.33715937415364544   -0.03285409185882732   -0.0036301460981972497
-0.33715937415364544   -0.03285409185882732   -0.0036301460981972497
-0.3900043249964486   -0.01857371182856976   -0.012075008459067879
-0.3900043249964486   -0.01857371182856976   -0.012075008459067879
-0.3900043249964486   -0.01857371182856976   -0.012075008459067879
-0.3900043249964486   -0.01857371182856976   -0.012075008459067879
-0.4153539328021008   0.051126162234361464   0.025650269756247433
-0.4153539328021008   0.051126162234361464   0.025650269756247433
-0.4153539328021008   0.051126162234361464   0.025650269756247433
-0.4153539328021008   0.051126162234361464   0.025650269756247433
-0.5354014737336162   -0.02684457795893863   -0.03363513741566955
-0.5354014737336162   -0.02684457795893863   -0.03363513741566955
-0.5354014737336162   -0.02684457795893863   -0.03363513741566955
-0.5354014737336162   -0.02684457795893863   -0.03363513741566955
-0.5358482610909058   0.02033273174145883   0.028276665347135736
-0.5358482610909058   0.02033273174145883   0.028276665347135736
-0.5358482610909058   0.02033273174145883   0.028276665347135736
-0.5358482610909058   0.02033273174145883   0.028276665347135736
-0.44369744168468417   -0.014974904282217136   -0.02057341409287334
-0.44369744168468417   -0.014974904282217136   -0.02057341409287334
-0.44369744168468417   -0.014974904282217136   -0.02057341409287334
-0.44369744168468417   -0.014974904282217136   -0.02057341409287334
-0.4630235399583201   0.0120673674528705   0.009018093403040606
-0.4630235399583201   0.0120673674528705   0.009018093403040606
-0.4630235399583201   0.0120673674528705   0.009018093403040606
-0.4630235399583201   0.0120673674528705   0.009018093403040606
-0.4218294668156507   0.04353289060091041   0.030258665369158604
-0.4218294668156507   0.04353289060091041   0.030258665369158604
-0.4218294668156507   0.04353289060091041   0.030258665369158604
-0.4218294668156507   0.04353289060091041   0.030258665369158604
-0.5593693569919964   -0.039828184173730546   -0.02916789824312816
-0.5593693569919964   -0.039828184173730546   -0.02916789824312816
-0.5593693569919964   -0.039828184173730546   -0.02916789824312816
-0.5593693569919964   -0.039828184173730546   -0.02916789824312816
-0.5549736521427107   0.012087512405884654   0.03642232376958871
-0.5549736521427107   0.012087512405884654   0.03642232376958871
-0.5549736521427107   0.012087512405884654   0.03642232376958871
-0.5549736521427107   0.012087512405884654   0.03642232376958871
-0.4528072816438338   -0.022528466835652128   -0.018013415063356894
-0.4528072816438338   -0.022528466835652128   -0.018013415063356894
-0.4528072816438338   -0.022528466835652128   -0.018013415063356894
-0.4528072816438338   -0.022528466835652128   -0.018013415063356894
-0.4858163102083489   0.002049703975344014   -0.0005196112001745953
-0.4858163102083489   0.002049703975344014   -0.0005196112001745953
-0.4858163102083489   0.002049703975344014   -0.0005196112001745953
-0.4858163102083489   0.002049703975344014   -0.0005196112001745953
-0.4300345982542049   0.03704597119957648   0.03627556384955654
-0.4300345982542049   0.03704597119957648   0.03627556384955654
-0.4300345982542049   0.03704597119957648   0.03627556384955654
-0.4300345982542049   0.03704597119957648   0.03627556384955654
-0.5794278954675562   -0.0491684855645621   -0.024592894884184355
-0.5794278954675562   -0.0491684855645621   -0.024592894884184355
-0.5794278954675562   -0.0491684855645621   -0.024592894884184355
-0.5794278954675562   -0.0491684855645621   -0.024592894884184355
-0.5832067805901061   -0.009624431797800564   0.03850058840005018
-0.5832067805901061   -0.009624431797800564   0.03850058840005018
-0.5832067805901061   -0.009624431797800564   0.03850058840005018
-0.5832067805901061   -0.009624431797800564   0.03850058840005018
-0.4619563591535843   -0.03823071677350667   -0.015559083213388582
-0.4619563591535843   -0.03823071677350667   -0.015559083213388582
-0.4619563591535843   -0.03823071677350667   -0.015559083213388582
-0.4619563591535843   -0.03823071677350667   -0.015559083213388582
-0.49452585868566684   -0.007888170891553178   -0.007275903752404108
-0.49452585868566684   -0.007888170891553178   -0.007275903752404108
-0.49452585868566684   -0.007888170891553178   -0.007275903752404108
-0.49452585868566684   -0.007888170891553178   -0.007275903752404108
-0.2228780090110588   -0.014511083109835642   -0.042499538021332404
-0.2228780090110588   -0.014511083109835642   -0.042499538021332404
-0.2228780090110588   -0.014511083109835642   -0.042499538021332404
-0.2228780090110588   -0.014511083109835642   -0.042499538021332404
-0.22216223412704336   0.032444731309434385   0.019093606785973296
-0.22216223412704336   0.032444731309434385   0.019093606785973296
-0.22216223412704336   0.032444731309434385   0.019093606785973296
-0.22216223412704336   0.032444731309434385   0.019093606785973296
-0.25024335018483085   -0.029818829439045715   -0.02885264988980992
-0.25024335018483085   -0.029818829439045715   -0.02885264988980992
-0.25024335018483085   -0.029818829439045715   -0.02885264988980992
-0.25024335018483085   -0.029818829439045715   -0.02885264988980992
-0.2276001066740114   0.01723883395457939   0.02862150961245004
-0.2276001066740114   0.01723883395457939   0.02862150961245004
-0.2276001066740114   0.01723883395457939   0.02862150961245004
-0.2276001066740114   0.01723883395457939   0.02862150961245004
-0.2191316200589213   0.005533855241730251   0.019481262078283632
-0.2191316200589213   0.005533855241730251   0.019481262078283632
-0.2191316200589213   0.005533855241730251   0.019481262078283632
-0.2191316200589213   0.005533855241730251   0.019481262078283632
-0.2501332877270822   -0.031156166091000376   -0.03564939560732317
-0.2501332877270822   -0.031156166091000376   -0.03564939560732317
-0.2501332877270822   -0.031156166091000376   -0.03564939560732317
-0.2501332877270822   -0.031156166091000376   -0.03564939560732317
-0.23049226533794276   0.015794074400350064   0.02428987050523476
-0.23049226533794276   0.015794074400350064   0.02428987050523476
-0.23049226533794276   0.015794074400350064   0.02428987050523476
-0.23049226533794276   0.015794074400350064   0.02428987050523476
-0.2587397428151716   -0.037532568248515925   -0.024441388242132163
-0.2587397428151716   -0.037532568248515925   -0.024441388242132163
-0.2587397428151716   -0.037532568248515925   -0.024441388242132163
-0.2587397428151716   -0.037532568248515925   -0.024441388242132163
-0.24938139697898226   0.006754979785846597   0.0532836546061938
-0.24938139697898226   0.006754979785846597   0.0532836546061938
-0.24938139697898226   0.006754979785846597   0.0532836546061938
-0.24938139697898226   0.006754979785846597   0.0532836546061938
-0.23916313709390233   -0.007711392306398966   0.007818135990534037
-0.23916313709390233   -0.007711392306398966   0.007818135990534037
-0.23916313709390233   -0.007711392306398966   0.007818135990534037
-0.23916313709390233   -0.007711392306398966   0.007818135990534037
-0.2752552972627856   -0.04151131241250405   -0.0278195546144721
-0.2752552972627856   -0.04151131241250405   -0.0278195546144721
-0.2752552972627856   -0.04151131241250405   -0.0278195546144721
-0.2752552972627856   -0.04151131241250405   -0.0278195546144721
-0.23947511789787124   0.004124448583333946   0.03022471951251956
-0.23947511789787124   0.004124448583333946   0.03022471951251956
-0.23947511789787124   0.004124448583333946   0.03022471951251956
-0.23947511789787124   0.004124448583333946   0.03022471951251956
-0.26570514348618945   -0.052497725400248725   -0.0192572047867579
-0.26570514348618945   -0.052497725400248725   -0.0192572047867579
-0.26570514348618945   -0.052497725400248725   -0.0192572047867579
-0.26570514348618945   -0.052497725400248725   -0.0192572047867579
-0.2832160854463739   -0.02789178171398338   0.04985248248927541
-0.2832160854463739   -0.02789178171398338   0.04985248248927541
-0.2832160854463739   -0.02789178171398338   0.04985248248927541
-0.2832160854463739   -0.02789178171398338   0.04985248248927541
-0.2566183574855353   -0.023360224908715414   -0.01069937026796266
-0.2566183574855353   -0.023360224908715414   -0.01069937026796266
-0.2566183574855353   -0.023360224908715414   -0.01069937026796266
-0.2566183574855353   -0.023360224908715414   -0.01069937026796266
-0.23820112878753347   -0.00681307957041799   -0.021843055636624895
-0.23820112878753347   -0.00681307957041799   -0.021843055636624895
-0.23820112878753347   -0.00681307957041799   -0.021843055636624895
-0.23820112878753347   -0.00681307957041799   -0.021843055636624895
-0.24260215174635175   -0.029854481865419714   -0.0012782414653020602
-0.24260215174635175   -0.029854481865419714   -0.0012782414653020602
-0.24260215174635175   -0.029854481865419714   -0.0012782414653020602
-0.24260215174635175   -0.029854481865419714   -0.0012782414653020602
-0.24444996835592586   -0.019908094689030098   -0.010967326750205482
-0.24444996835592586   -0.019908094689030098   -0.010967326750205482
-0.24444996835592586   -0.019908094689030098   -0.010967326750205482
-0.24444996835592586   -0.019908094689030098   -0.010967326750205482
-0.24665667456015744   -0.040369894702459955   -0.0003682065030283744
-0.24665667456015744   -0.040369894702459955   -0.0003682065030283744
-0.24665667456015744   -0.040369894702459955   -0.0003682065030283744
-0.24665667456015744   -0.040369894702459955   -0.0003682065030283744
-0.24091599353256518   -0.02529122137399024   -0.0007897762043214129
-0.24091599353256518   -0.02529122137399024   -0.0007897762043214129
-0.24091599353256518   -0.02529122137399024   -0.0007897762043214129
-0.24091599353256518   -0.02529122137399024   -0.0007897762043214129
-0.24667993860373275   -0.021942923061018797   -0.01891149836234486
-0.24667993860373275   -0.021942923061018797   -0.01891149836234486
-0.24667993860373275   -0.021942923061018797   -0.01891149836234486
-0.24667993860373275   -0.021942923061018797   -0.01891149836234486
-0.24598463768644077   -0.0398929997045608   0.0013442316127507549
-0.24598463768644077   -0.0398929997045608   0.0013442316127507549
-0.24598463768644077   -0.0398929997045608   0.0013442316127507549
-0.24598463768644077   -0.0398929997045608   0.0013442316127507549
-0.2486204222863455   -0.03289359260038856   -0.007099335214644858
-0.2486204222863455   -0.03289359260038856   -0.007099335214644858
-0.2486204222863455   -0.03289359260038856   -0.007099335214644858
-0.2486204222863455   -0.03289359260038856   -0.007099335214644858
-0.2557070767923644   -0.05241559975907698   0.005604973382465036
-0.2557070767923644   -0.05241559975907698   0.005604973382465036
-0.2557070767923644   -0.05241559975907698   0.005604973382465036
-0.2557070767923644   -0.05241559975907698   0.005604973382465036
-0.24654324825400248   -0.03579407017013612   -0.006820076981200376
-0.24654324825400248   -0.03579407017013612   -0.006820076981200376
-0.24654324825400248   -0.03579407017013612   -0.006820076981200376
-0.24654324825400248   -0.03579407017013612   -0.006820076981200376
-0.2563183550493967   -0.03582226303535348   -0.014044754626420363
-0.2563183550493967   -0.03582226303535348   -0.014044754626420363
-0.2563183550493967   -0.03582226303535348   -0.014044754626420363
-0.2563183550493967   -0.03582226303535348   -0.014044754626420363
-0.25000050173940497   -0.05147828703420381   0.00458496195387144
-0.25000050173940497   -0.05147828703420381   0.00458496195387144
-0.25000050173940497   -0.05147828703420381   0.00458496195387144
-0.25000050173940497   -0.05147828703420381   0.00458496195387144
-0.2523743287222103   -0.04686314300149002   -0.00327042069697692
-0.2523743287222103   -0.04686314300149002   -0.00327042069697692
-0.2523743287222103   -0.04686314300149002   -0.00327042069697692
-0.2523743287222103   -0.04686314300149002   -0.00327042069697692
-0.2626434573119684   -0.06767721769078164   0.011230718374877009
-0.2626434573119684   -0.06767721769078164   0.011230718374877009
-0.2626434573119684   -0.06767721769078164   0.011230718374877009
-0.2626434573119684   -0.06767721769078164   0.011230718374877009
-0.2542442929352273   -0.04844740922555116   -0.01447539760669446
-0.2542442929352273   -0.04844740922555116   -0.01447539760669446
-0.2542442929352273   -0.04844740922555116   -0.01447539760669446
-0.2542442929352273   -0.04844740922555116   -0.01447539760669446
-0.23591286560125638   0.006326662213518727   -0.004012954818761778
-0.23591286560125638   0.006326662213518727   -0.004012954818761778
-0.23591286560125638   0.006326662213518727   -0.004012954818761778
-0.23591286560125638   0.006326662213518727   -0.004012954818761778
-0.2678981446423473   -0.050872603341570545   -0.012866521887539997
-0.2678981446423473   -0.050872603341570545   -0.012866521887539997
-0.2678981446423473   -0.050872603341570545   -0.012866521887539997
-0.2678981446423473   -0.050872603341570545   -0.012866521887539997
-0.2570345224514472   -0.00940773667830002   0.0033321858712554928
-0.2570345224514472   -0.00940773667830002   0.0033321858712554928
-0.2570345224514472   -0.00940773667830002   0.0033321858712554928
-0.2570345224514472   -0.00940773667830002   0.0033321858712554928
-0.250815654362422   -0.05479483821356953   -0.00790901325814605
-0.250815654362422   -0.05479483821356953   -0.00790901325814605
-0.250815654362422   -0.05479483821356953   -0.00790901325814605
-0.250815654362422   -0.05479483821356953   -0.00790901325814605
-0.2527378847042516   -0.02805101577651723   -0.005679258292652213
-0.2527378847042516   -0.02805101577651723   -0.005679258292652213
-0.2527378847042516   -0.02805101577651723   -0.005679258292652213
-0.2527378847042516   -0.02805101577651723   -0.005679258292652213
-0.2396009271866315   -0.006594581598449445   -3.563399431422143e-05
-0.2396009271866315   -0.006594581598449445   -3.563399431422143e-05
-0.2396009271866315   -0.006594581598449445   -3.563399431422143e-05
-0.2396009271866315   -0.006594581598449445   -3.563399431422143e-05
-0.26966529594403554   -0.05902403961021755   -0.0102053786597726
-0.26966529594403554   -0.05902403961021755   -0.0102053786597726
-0.26966529594403554   -0.05902403961021755   -0.0102053786597726
-0.26966529594403554   -0.05902403961021755   -0.0102053786597726
-0.26005183553847744   -0.022432771388620154   0.0071736015755177315
-0.26005183553847744   -0.022432771388620154   0.0071736015755177315
-0.26005183553847744   -0.022432771388620154   0.0071736015755177315
-0.26005183553847744   -0.022432771388620154   0.0071736015755177315
-0.2547197514519705   -0.06505448536976459   -0.00543508827339597
-0.2547197514519705   -0.06505448536976459   -0.00543508827339597
-0.2547197514519705   -0.06505448536976459   -0.00543508827339597
-0.2547197514519705   -0.06505448536976459   -0.00543508827339597
-0.2559352034583692   -0.03796670819262485   -0.010850743896935723
-0.2559352034583692   -0.03796670819262485   -0.010850743896935723
-0.2559352034583692   -0.03796670819262485   -0.010850743896935723
-0.2559352034583692   -0.03796670819262485   -0.010850743896935723
-0.24382427717822677   -0.019853683738799484   0.003841481464357915
-0.24382427717822677   -0.019853683738799484   0.003841481464357915
-0.24382427717822677   -0.019853683738799484   0.003841481464357915
-0.24382427717822677   -0.019853683738799484   0.003841481464357915
-0.2725292291979525   -0.06921549240531448   -0.008430645705163383
-0.2725292291979525   -0.06921549240531448   -0.008430645705163383
-0.2725292291979525   -0.06921549240531448   -0.008430645705163383
-0.2725292291979525   -0.06921549240531448   -0.008430645705163383
-0.2625208221160247   -0.03467168901614896   0.010934044877862831
-0.2625208221160247   -0.03467168901614896   0.010934044877862831
-0.2625208221160247   -0.03467168901614896   0.010934044877862831
-0.2625208221160247   -0.03467168901614896   0.010934044877862831
-0.25764865775581586   -0.07488016418660445   -0.0016250446798909152
-0.25764865775581586   -0.07488016418660445   -0.0016250446798909152
-0.25764865775581586   -0.07488016418660445   -0.0016250446798909152
-0.25764865775581586   -0.07488016418660445   -0.0016250446798909152
-0.25973628000833054   -0.048333676730987346   -0.01653180780891819
-0.25973628000833054   -0.048333676730987346   -0.01653180780891819
-0.25973628000833054   -0.048333676730987346   -0.01653180780891819
-0.25973628000833054   -0.048333676730987346   -0.01653180780891819
-0.24735637296267882   0.026516975053802364   0.01245275811542953
-0.24735637296267882   0.026516975053802364   0.01245275811542953
-0.24735637296267882   0.026516975053802364   0.01245275811542953
-0.24735637296267882   0.026516975053802364   0.01245275811542953
-0.2932239802807046   -0.038067458891812456   -0.017968554130578594
-0.2932239802807046   -0.038067458891812456   -0.017968554130578594
-0.2932239802807046   -0.038067458891812456   -0.017968554130578594
-0.2932239802807046   -0.038067458891812456   -0.017968554130578594
-0.27752802281377364   0.0077809698805630725   0.017211644513864928
-0.27752802281377364   0.0077809698805630725   0.017211644513864928
-0.27752802281377364   0.0077809698805630725   0.017211644513864928
-0.27752802281377364   0.0077809698805630725   0.017211644513864928
-0.2664447246974045   -0.04227103733882669   -0.01085552469800278
-0.2664447246974045   -0.04227103733882669   -0.01085552469800278
-0.2664447246974045   -0.04227103733882669   -0.01085552469800278
-0.2664447246974045   -0.04227103733882669   -0.01085552469800278
-0.2711007966328435   -0.011229073270876438   -0.0033907587392537093
-0.2711007966328435   -0.011229073270876438   -0.0033907587392537093
-0.2711007966328435   -0.011229073270876438   -0.0033907587392537093
-0.2711007966328435   -0.011229073270876438   -0.0033907587392537093
-0.24993413351629726   0.01311891467585613   0.01630747919284899
-0.24993413351629726   0.01311891467585613   0.01630747919284899
-0.24993413351629726   0.01311891467585613   0.01630747919284899
-0.24993413351629726   0.01311891467585613   0.01630747919284899
-0.29592105066977037   -0.049491418809011235   -0.01748110607654428
-0.29592105066977037   -0.049491418809011235   -0.01748110607654428
-0.29592105066977037   -0.049491418809011235   -0.01748110607654428
-0.29592105066977037   -0.049491418809011235   -0.01748110607654428
-0.28271297474028434   -0.004947084283948938   0.019521722827693766
-0.28271297474028434   -0.004947084283948938   0.019521722827693766
-0.28271297474028434   -0.004947084283948938   0.019521722827693766
-0.28271297474028434   -0.004947084283948938   0.019521722827693766
-0.2690794693977059   -0.051761611400652704   -0.008635727708593634
-0.2690794693977059   -0.051761611400652704   -0.008635727708593634
-0.2690794693977059   -0.051761611400652704   -0.008635727708593634
-0.2690794693977059   -0.051761611400652704   -0.008635727708593634
-0.27374123086429886   -0.02198301756285534   -0.00945802045874119
-0.27374123086429886   -0.02198301756285534   -0.00945802045874119
-0.27374123086429886   -0.02198301756285534   -0.00945802045874119
-0.27374123086429886   -0.02198301756285534   -0.00945802045874119
-0.2527600814168224   0.0011492249785333142   0.020050375816639487
-0.2527600814168224   0.0011492249785333142   0.020050375816639487
-0.2527600814168224   0.0011492249785333142   0.020050375816639487
-0.2527600814168224   0.0011492249785333142   0.020050375816639487
-0.3006631506329509   -0.05948870857491713   -0.015687532344670737
-0.3006631506329509   -0.05948870857491713   -0.015687532344670737
-0.3006631506329509   -0.05948870857491713   -0.015687532344670737
-0.3006631506329509   -0.05948870857491713   -0.015687532344670737
-0.286160015664791   -0.017165547055836096   0.023813219427904386
-0.286160015664791   -0.017165547055836096   0.023813219427904386
-0.286160015664791   -0.017165547055836096   0.023813219427904386
-0.286160015664791   -0.017165547055836096   0.023813219427904386
-0.271355398580578   -0.061298121133692055   -0.006612405327364104
-0.271355398580578   -0.061298121133692055   -0.006612405327364104
-0.271355398580578   -0.061298121133692055   -0.006612405327364104
-0.271355398580578   -0.061298121133692055   -0.006612405327364104
-0.2783336064848551   -0.0321329314135088   -0.015341896594192172
-0.2783336064848551   -0.0321329314135088   -0.015341896594192172
-0.2783336064848551   -0.0321329314135088   -0.015341896594192172
-0.2783336064848551   -0.0321329314135088   -0.015341896594192172
-0.2694286975926336   0.03805423736331956   0.02488616305464431
-0.2694286975926336   0.03805423736331956   0.02488616305464431
-0.2694286975926336   0.03805423736331956   0.02488616305464431
-0.2694286975926336   0.03805423736331956   0.02488616305464431
-0.28900961060745867   -0.02308532565935112   -0.02600516303154263
-0.28900961060745867   -0.02308532565935112   -0.02600516303154263
-0.28900961060745867   -0.02308532565935112   -0.02600516303154263
-0.28900961060745867   -0.02308532565935112   -0.02600516303154263
-0.2826423153304116   0.026883256019337352   0.02766226106062656
-0.2826423153304116   0.026883256019337352   0.02766226106062656
-0.2826423153304116   0.026883256019337352   0.02766226106062656
-0.2826423153304116   0.026883256019337352   0.02766226106062656
-0.2915780098669578   -0.029359543835027736   -0.015897777036472258
-0.2915780098669578   -0.029359543835027736   -0.015897777036472258
-0.2915780098669578   -0.029359543835027736   -0.015897777036472258
-0.2915780098669578   -0.029359543835027736   -0.015897777036472258
-0.27350123913999935   0.006739465820815409   0.001144718512376592
-0.27350123913999935   0.006739465820815409   0.001144718512376592
-0.27350123913999935   0.006739465820815409   0.001144718512376592
-0.27350123913999935   0.006739465820815409   0.001144718512376592
-0.27088143924022096   0.029456737898073126   0.02876879436411082
-0.27088143924022096   0.029456737898073126   0.02876879436411082
-0.27088143924022096   0.029456737898073126   0.02876879436411082
-0.27088143924022096   0.029456737898073126   0.02876879436411082
-0.3048775323951977   -0.03347167215181083   -0.02315889609214781
-0.3048775323951977   -0.03347167215181083   -0.02315889609214781
-0.3048775323951977   -0.03347167215181083   -0.02315889609214781
-0.3048775323951977   -0.03347167215181083   -0.02315889609214781
-0.2950875551855068   0.01973852214507063   0.03560180338192985
-0.2950875551855068   0.01973852214507063   0.03560180338192985
-0.2950875551855068   0.01973852214507063   0.03560180338192985
-0.2950875551855068   0.01973852214507063   0.03560180338192985
-0.2955168199320464   -0.034952176039895824   -0.014492411375176616
-0.2955168199320464   -0.034952176039895824   -0.014492411375176616
-0.2955168199320464   -0.034952176039895824   -0.014492411375176616
-0.2955168199320464   -0.034952176039895824   -0.014492411375176616
-0.28691856498829316   -0.0019101476561245306   -0.006038232941156227
-0.28691856498829316   -0.0019101476561245306   -0.006038232941156227
-0.28691856498829316   -0.0019101476561245306   -0.006038232941156227
-0.28691856498829316   -0.0019101476561245306   -0.006038232941156227
-0.2739993348106418   0.02372031098504058   0.03442252720690957
-0.2739993348106418   0.02372031098504058   0.03442252720690957
-0.2739993348106418   0.02372031098504058   0.03442252720690957
-0.2739993348106418   0.02372031098504058   0.03442252720690957
-0.31860385635200256   -0.04093278092495495   -0.021308399380516062
-0.31860385635200256   -0.04093278092495495   -0.021308399380516062
-0.31860385635200256   -0.04093278092495495   -0.021308399380516062
-0.31860385635200256   -0.04093278092495495   -0.021308399380516062
-0.31695250007762527   0.001488591610110064   0.03803359962873609
-0.31695250007762527   0.001488591610110064   0.03803359962873609
-0.31695250007762527   0.001488591610110064   0.03803359962873609
-0.31695250007762527   0.001488591610110064   0.03803359962873609
-0.29911785377610234   -0.04555065577182035   -0.01259086241268171
-0.29911785377610234   -0.04555065577182035   -0.01259086241268171
-0.29911785377610234   -0.04555065577182035   -0.01259086241268171
-0.29911785377610234   -0.04555065577182035   -0.01259086241268171
-0.29327534714435477   -0.009882527178378009   -0.012501934157981245
-0.29327534714435477   -0.009882527178378009   -0.012501934157981245
-0.29327534714435477   -0.009882527178378009   -0.012501934157981245
-0.29327534714435477   -0.009882527178378009   -0.012501934157981245
-0.5729878954861028   -0.05241654719556979   -0.05438712437999814
-0.5729878954861028   -0.05241654719556979   -0.05438712437999814
-0.5729878954861028   -0.05241654719556979   -0.05438712437999814
-0.5729878954861028   -0.05241654719556979   -0.05438712437999814
-0.3641780391494014   0.030826884524134346   0.012799503109671794
-0.3641780391494014   0.030826884524134346   0.012799503109671794
-0.3641780391494014   0.030826884524134346   0.012799503109671794
-0.3641780391494014   0.030826884524134346   0.012799503109671794
-0.382489600791798   -0.024328676409622663   -0.02432654809078897
-0.382489600791798   -0.024328676409622663   -0.02432654809078897
-0.382489600791798   -0.024328676409622663   -0.02432654809078897
-0.382489600791798   -0.024328676409622663   -0.02432654809078897
-0.6095346649157061   -0.06902275306252245   0.06079662142673252
-0.6095346649157061   -0.06902275306252245   0.06079662142673252
-0.6095346649157061   -0.06902275306252245   0.06079662142673252
-0.6095346649157061   -0.06902275306252245   0.06079662142673252
-0.4432970160396184   -0.01699342361324263   0.059040660852680955
-0.4432970160396184   -0.01699342361324263   0.059040660852680955
-0.4432970160396184   -0.01699342361324263   0.059040660852680955
-0.4432970160396184   -0.01699342361324263   0.059040660852680955
-0.6313095174840229   -0.07720619085448711   -0.039894203622880944
-0.6313095174840229   -0.07720619085448711   -0.039894203622880944
-0.6313095174840229   -0.07720619085448711   -0.039894203622880944
-0.6313095174840229   -0.07720619085448711   -0.039894203622880944
-0.37603869195987566   -0.03146918235405294   0.015068502013249599
-0.37603869195987566   -0.03146918235405294   0.015068502013249599
-0.37603869195987566   -0.03146918235405294   0.015068502013249599
-0.37603869195987566   -0.03146918235405294   0.015068502013249599
-0.3884748907987581   -0.0352224414507781   -0.01750995775715386
-0.3884748907987581   -0.0352224414507781   -0.01750995775715386
-0.3884748907987581   -0.0352224414507781   -0.01750995775715386
-0.3884748907987581   -0.0352224414507781   -0.01750995775715386
-0.6291037466733783   -0.09639815503559447   0.0014089784043434753
-0.6291037466733783   -0.09639815503559447   0.0014089784043434753
-0.6291037466733783   -0.09639815503559447   0.0014089784043434753
-0.6291037466733783   -0.09639815503559447   0.0014089784043434753
-0.4910420444022977   -0.05816321300996055   0.013674598575292926
-0.4910420444022977   -0.05816321300996055   0.013674598575292926
-0.4910420444022977   -0.05816321300996055   0.013674598575292926
-0.4910420444022977   -0.05816321300996055   0.013674598575292926
-0.6339930725574353   -0.08725937288449159   -0.032176433167038464
-0.6339930725574353   -0.08725937288449159   -0.032176433167038464
-0.6339930725574353   -0.08725937288449159   -0.032176433167038464
-0.6339930725574353   -0.08725937288449159   -0.032176433167038464
-0.3882161817911382   -0.0489918404783187   -0.0024470136915178495
-0.3882161817911382   -0.0489918404783187   -0.0024470136915178495
-0.3882161817911382   -0.0489918404783187   -0.0024470136915178495
-0.3882161817911382   -0.0489918404783187   -0.0024470136915178495
-0.38884317636401694   -0.061544221640460764   -0.012782626225468451
-0.38884317636401694   -0.061544221640460764   -0.012782626225468451
-0.38884317636401694   -0.061544221640460764   -0.012782626225468451
-0.38884317636401694   -0.061544221640460764   -0.012782626225468451
-0.6443650437848398   -0.14713910253540116   0.009522598246356696
-0.6443650437848398   -0.14713910253540116   0.009522598246356696
-0.6443650437848398   -0.14713910253540116   0.009522598246356696
-0.6443650437848398   -0.14713910253540116   0.009522598246356696
-0.49064351529765904   -0.0799257235910069   0.0010666919024258353
-0.49064351529765904   -0.0799257235910069   0.0010666919024258353
-0.49064351529765904   -0.0799257235910069   0.0010666919024258353
-0.49064351529765904   -0.0799257235910069   0.0010666919024258353
-0.3932373784939571   -0.06671661728306073   -0.03495369180590838
-0.3932373784939571   -0.06671661728306073   -0.03495369180590838
-0.3932373784939571   -0.06671661728306073   -0.03495369180590838
-0.3932373784939571   -0.06671661728306073   -0.03495369180590838
-0.27075488267517767   -0.1756452003649962   -0.0328988842732879
-0.27075488267517767   -0.1756452003649962   -0.0328988842732879
-0.27075488267517767   -0.1756452003649962   -0.0328988842732879
-0.27075488267517767   -0.1756452003649962   -0.0328988842732879
-0.23778189107172432   -0.03894787009961058   -0.0021328669772146406
-0.23778189107172432   -0.03894787009961058   -0.0021328669772146406
-0.23778189107172432   -0.03894787009961058   -0.0021328669772146406
-0.23778189107172432   -0.03894787009961058   -0.0021328669772146406
-0.41826476765639636   -0.18612319943904437   -0.04140785938436296
-0.41826476765639636   -0.18612319943904437   -0.04140785938436296
-0.41826476765639636   -0.18612319943904437   -0.04140785938436296
-0.41826476765639636   -0.18612319943904437   -0.04140785938436296
-0.32619482692612   -0.12398838548345557   -0.009525781729494903
-0.32619482692612   -0.12398838548345557   -0.009525781729494903
-0.32619482692612   -0.12398838548345557   -0.009525781729494903
-0.32619482692612   -0.12398838548345557   -0.009525781729494903
-0.392991564823314   -0.07483020032173743   -0.026334844336256866
-0.392991564823314   -0.07483020032173743   -0.026334844336256866
-0.392991564823314   -0.07483020032173743   -0.026334844336256866
-0.392991564823314   -0.07483020032173743   -0.026334844336256866
-0.2646452568585855   -0.15183103217069743   -0.023566533840439236
-0.2646452568585855   -0.15183103217069743   -0.023566533840439236
-0.2646452568585855   -0.15183103217069743   -0.023566533840439236
-0.2646452568585855   -0.15183103217069743   -0.023566533840439236
-0.24057341671071697   -0.05044671590570725   0.00031573256766625427
-0.24057341671071697   -0.05044671590570725   0.00031573256766625427
-0.24057341671071697   -0.05044671590570725   0.00031573256766625427
-0.24057341671071697   -0.05044671590570725   0.00031573256766625427
-0.4198435394718804   -0.185147509629339   -0.02442813294420857
-0.4198435394718804   -0.185147509629339   -0.02442813294420857
-0.4198435394718804   -0.185147509629339   -0.02442813294420857
-0.4198435394718804   -0.185147509629339   -0.02442813294420857
-0.32263151421363867   -0.11621907555678986   -0.010121550518468947
-0.32263151421363867   -0.11621907555678986   -0.010121550518468947
-0.32263151421363867   -0.11621907555678986   -0.010121550518468947
-0.32263151421363867   -0.11621907555678986   -0.010121550518468947
-0.3991149915362101   -0.0861706316361477   -0.01976227125904439
-0.3991149915362101   -0.0861706316361477   -0.01976227125904439
-0.3991149915362101   -0.0861706316361477   -0.01976227125904439
-0.3991149915362101   -0.0861706316361477   -0.01976227125904439
-0.2646041957380659   -0.15272582499057624   -0.017559053484209417
-0.2646041957380659   -0.15272582499057624   -0.017559053484209417
-0.2646041957380659   -0.15272582499057624   -0.017559053484209417
-0.2646041957380659   -0.15272582499057624   -0.017559053484209417
-0.24057884072818092   -0.0647473413920918   0.0038154832845386467
-0.24057884072818092   -0.0647473413920918   0.0038154832845386467
-0.24057884072818092   -0.0647473413920918   0.0038154832845386467
-0.24057884072818092   -0.0647473413920918   0.0038154832845386467
-0.41888776688182633   -0.18813903153415834   -0.03641076892082339
-0.41888776688182633   -0.18813903153415834   -0.03641076892082339
-0.41888776688182633   -0.18813903153415834   -0.03641076892082339
-0.41888776688182633   -0.18813903153415834   -0.03641076892082339
-0.3275923961036364   -0.12498931682906017   -0.018811791115942708
-0.3275923961036364   -0.12498931682906017   -0.018811791115942708
-0.3275923961036364   -0.12498931682906017   -0.018811791115942708
-0.3275923961036364   -0.12498931682906017   -0.018811791115942708
-0.23824745771350558   -0.042975461286896   -0.003031498543027919
-0.23824745771350558   -0.042975461286896   -0.003031498543027919
-0.23824745771350558   -0.042975461286896   -0.003031498543027919
-0.23824745771350558   -0.042975461286896   -0.003031498543027919
-0.20039177409210282   -0.13450279335991508   -0.023217495492603074
-0.20039177409210282   -0.13450279335991508   -0.023217495492603074
-0.20039177409210282   -0.13450279335991508   -0.023217495492603074
-0.20039177409210282   -0.13450279335991508   -0.023217495492603074
-0.1727202208464845   -0.03575545015704531   0.00919249350853755
-0.1727202208464845   -0.03575545015704531   0.00919249350853755
-0.1727202208464845   -0.03575545015704531   0.00919249350853755
-0.1727202208464845   -0.03575545015704531   0.00919249350853755
-0.2639048996124549   -0.1460799434939482   -0.025615836286533907
-0.2639048996124549   -0.1460799434939482   -0.025615836286533907
-0.2639048996124549   -0.1460799434939482   -0.025615836286533907
-0.2639048996124549   -0.1460799434939482   -0.025615836286533907
-0.2178593853176698   -0.09106458407131382   -0.010701964065696125
-0.2178593853176698   -0.09106458407131382   -0.010701964065696125
-0.2178593853176698   -0.09106458407131382   -0.010701964065696125
-0.2178593853176698   -0.09106458407131382   -0.010701964065696125
-0.23966475561776018   -0.050901556478674406   0.00040649667166410455
-0.23966475561776018   -0.050901556478674406   0.00040649667166410455
-0.23966475561776018   -0.050901556478674406   0.00040649667166410455
-0.23966475561776018   -0.050901556478674406   0.00040649667166410455
-0.19837364888439066   -0.13234712121553024   -0.02248297562250838
-0.19837364888439066   -0.13234712121553024   -0.02248297562250838
-0.19837364888439066   -0.13234712121553024   -0.02248297562250838
-0.19837364888439066   -0.13234712121553024   -0.02248297562250838
-0.17285356127102697   -0.045210285874502244   0.011919719021972225
-0.17285356127102697   -0.045210285874502244   0.011919719021972225
-0.17285356127102697   -0.045210285874502244   0.011919719021972225
-0.17285356127102697   -0.045210285874502244   0.011919719021972225
-0.2648083591824438   -0.14839395652133572   -0.022911739175338616
-0.2648083591824438   -0.14839395652133572   -0.022911739175338616
-0.2648083591824438   -0.14839395652133572   -0.022911739175338616
-0.2648083591824438   -0.14839395652133572   -0.022911739175338616
-0.21753174320569565   -0.09461072030051568   -0.013889574166923376
-0.21753174320569565   -0.09461072030051568   -0.013889574166923376
-0.21753174320569565   -0.09461072030051568   -0.013889574166923376
-0.21753174320569565   -0.09461072030051568   -0.013889574166923376
-0.24175879941348244   -0.06048904723147084   0.0044311503796024936
-0.24175879941348244   -0.06048904723147084   0.0044311503796024936
-0.24175879941348244   -0.06048904723147084   0.0044311503796024936
-0.24175879941348244   -0.06048904723147084   0.0044311503796024936
-0.19668148810883543   -0.13389356223321736   -0.018536638808355058
-0.19668148810883543   -0.13389356223321736   -0.018536638808355058
-0.19668148810883543   -0.13389356223321736   -0.018536638808355058
-0.19668148810883543   -0.13389356223321736   -0.018536638808355058
-0.17089972147391683   -0.054226767843856334   0.014893000751935292
-0.17089972147391683   -0.054226767843856334   0.014893000751935292
-0.17089972147391683   -0.054226767843856334   0.014893000751935292
-0.17089972147391683   -0.054226767843856334   0.014893000751935292
-0.26174204045243027   -0.15025533274986225   -0.01649252397893955
-0.26174204045243027   -0.15025533274986225   -0.01649252397893955
-0.26174204045243027   -0.15025533274986225   -0.01649252397893955
-0.26174204045243027   -0.15025533274986225   -0.01649252397893955
-0.21696126143780134   -0.09929547571618559   -0.016113489620401877
-0.21696126143780134   -0.09929547571618559   -0.016113489620401877
-0.21696126143780134   -0.09929547571618559   -0.016113489620401877
-0.21696126143780134   -0.09929547571618559   -0.016113489620401877
-0.16675894155186416   -0.005909971291829623   0.016353845140504794
-0.16675894155186416   -0.005909971291829623   0.016353845140504794
-0.16675894155186416   -0.005909971291829623   0.016353845140504794
-0.16675894155186416   -0.005909971291829623   0.016353845140504794
-0.15822698814773833   -0.07130964610870891   -0.013949120478102131
-0.15822698814773833   -0.07130964610870891   -0.013949120478102131
-0.15822698814773833   -0.07130964610870891   -0.013949120478102131
-0.15822698814773833   -0.07130964610870891   -0.013949120478102131
-0.1365023878640396   -0.010326681048263375   0.01892391992146426
-0.1365023878640396   -0.010326681048263375   0.01892391992146426
-0.1365023878640396   -0.010326681048263375   0.01892391992146426
-0.1365023878640396   -0.010326681048263375   0.01892391992146426
-0.1858339034099809   -0.08227167231816213   -0.009859697147828193
-0.1858339034099809   -0.08227167231816213   -0.009859697147828193
-0.1858339034099809   -0.08227167231816213   -0.009859697147828193
-0.1858339034099809   -0.08227167231816213   -0.009859697147828193
-0.16236629820186635   -0.042053242375765534   -0.005810692494438645
-0.16236629820186635   -0.042053242375765534   -0.005810692494438645
-0.16236629820186635   -0.042053242375765534   -0.005810692494438645
-0.16236629820186635   -0.042053242375765534   -0.005810692494438645
-0.16691917140994458   -0.016421969695747773   0.01886426022993956
-0.16691917140994458   -0.016421969695747773   0.01886426022993956
-0.16691917140994458   -0.016421969695747773   0.01886426022993956
-0.16691917140994458   -0.016421969695747773   0.01886426022993956
-0.15692643040283866   -0.07768569420943654   -0.015837279611350164
-0.15692643040283866   -0.07768569420943654   -0.015837279611350164
-0.15692643040283866   -0.07768569420943654   -0.015837279611350164
-0.15692643040283866   -0.07768569420943654   -0.015837279611350164
-0.1367685612739115   -0.01950286366800954   0.020347102830827794
-0.1367685612739115   -0.01950286366800954   0.020347102830827794
-0.1367685612739115   -0.01950286366800954   0.020347102830827794
-0.1367685612739115   -0.01950286366800954   0.020347102830827794
-0.1858471238172205   -0.0872917776812753   -0.010966601902223394
-0.1858471238172205   -0.0872917776812753   -0.010966601902223394
-0.1858471238172205   -0.0872917776812753   -0.010966601902223394
-0.1858471238172205   -0.0872917776812753   -0.010966601902223394
-0.16171928584811807   -0.04941473669627204   -0.009870347857561523
-0.16171928584811807   -0.04941473669627204   -0.009870347857561523
-0.16171928584811807   -0.04941473669627204   -0.009870347857561523
-0.16171928584811807   -0.04941473669627204   -0.009870347857561523
-0.1669672402683292   -0.025319843667390977   0.021460881828345966
-0.1669672402683292   -0.025319843667390977   0.021460881828345966
-0.1669672402683292   -0.025319843667390977   0.021460881828345966
-0.1669672402683292   -0.025319843667390977   0.021460881828345966
-0.1565628058257627   -0.08238915868485555   -0.01573782491158241
-0.1565628058257627   -0.08238915868485555   -0.01573782491158241
-0.1565628058257627   -0.08238915868485555   -0.01573782491158241
-0.1565628058257627   -0.08238915868485555   -0.01573782491158241
-0.13567346630509833   -0.028122525381194464   0.02358364115964419
-0.13567346630509833   -0.028122525381194464   0.02358364115964419
-0.13567346630509833   -0.028122525381194464   0.02358364115964419
-0.13567346630509833   -0.028122525381194464   0.02358364115964419
-0.1829901701709455   -0.09230528983577552   -0.007480720741288754
-0.1829901701709455   -0.09230528983577552   -0.007480720741288754
-0.1829901701709455   -0.09230528983577552   -0.007480720741288754
-0.1829901701709455   -0.09230528983577552   -0.007480720741288754
-0.16131153527260303   -0.05576076473178213   -0.012703853154888856
-0.16131153527260303   -0.05576076473178213   -0.012703853154888856
-0.16131153527260303   -0.05576076473178213   -0.012703853154888856
-0.16131153527260303   -0.05576076473178213   -0.012703853154888856
-0.13235932681920407   0.01855139309648667   0.025528146959381375
-0.13235932681920407   0.01855139309648667   0.025528146959381375
-0.13235932681920407   0.01855139309648667   0.025528146959381375
-0.13235932681920407   0.01855139309648667   0.025528146959381375
-0.08869497469564876   -0.023533668721729642   -0.008616205821126557
-0.08869497469564876   -0.023533668721729642   -0.008616205821126557
-0.08869497469564876   -0.023533668721729642   -0.008616205821126557
-0.08869497469564876   -0.023533668721729642   -0.008616205821126557
-0.07762462893119854   0.02165465359014327   0.02521982915360818
-0.07762462893119854   0.02165465359014327   0.02521982915360818
-0.07762462893119854   0.02165465359014327   0.02521982915360818
-0.07762462893119854   0.02165465359014327   0.02521982915360818
-0.1462857504614293   -0.03585052532887384   -0.004469048784873341
-0.1462857504614293   -0.03585052532887384   -0.004469048784873341
-0.1462857504614293   -0.03585052532887384   -0.004469048784873341
-0.1462857504614293   -0.03585052532887384   -0.004469048784873341
-0.10968338844042629   -0.0023164548067666872   -0.004568352991204493
-0.10968338844042629   -0.0023164548067666872   -0.004568352991204493
-0.10968338844042629   -0.0023164548067666872   -0.004568352991204493
-0.10968338844042629   -0.0023164548067666872   -0.004568352991204493
-0.1303195392194034   0.011645001767548454   0.02786648032884104
-0.1303195392194034   0.011645001767548454   0.02786648032884104
-0.1303195392194034   0.011645001767548454   0.02786648032884104
-0.1303195392194034   0.011645001767548454   0.02786648032884104
-0.09375084708023723   -0.026000880413292234   -0.007755727588149723
-0.09375084708023723   -0.026000880413292234   -0.007755727588149723
-0.09375084708023723   -0.026000880413292234   -0.007755727588149723
-0.09375084708023723   -0.026000880413292234   -0.007755727588149723
-0.08111732340285581   0.017170522466993902   0.031721584630081436
-0.08111732340285581   0.017170522466993902   0.031721584630081436
-0.08111732340285581   0.017170522466993902   0.031721584630081436
-0.08111732340285581   0.017170522466993902   0.031721584630081436
-0.14571124664283594   -0.03817673638695843   -0.005692451294854154
-0.14571124664283594   -0.03817673638695843   -0.005692451294854154
-0.14571124664283594   -0.03817673638695843   -0.005692451294854154
-0.14571124664283594   -0.03817673638695843   -0.005692451294854154
-0.11304158618605044   -0.007210937008905207   -0.006506901413376248
-0.11304158618605044   -0.007210937008905207   -0.006506901413376248
-0.11304158618605044   -0.007210937008905207   -0.006506901413376248
-0.11304158618605044   -0.007210937008905207   -0.006506901413376248
-0.12898809075206705   0.007667808687952825   0.03207878308407989
-0.12898809075206705   0.007667808687952825   0.03207878308407989
-0.12898809075206705   0.007667808687952825   0.03207878308407989
-0.12898809075206705   0.007667808687952825   0.03207878308407989
-0.09898550310572546   -0.029819046420018026   -0.010629744997262616
-0.09898550310572546   -0.029819046420018026   -0.010629744997262616
-0.09898550310572546   -0.029819046420018026   -0.010629744997262616
-0.09898550310572546   -0.029819046420018026   -0.010629744997262616
-0.09277850377911125   0.004837533514505023   0.03301073402195415
-0.09277850377911125   0.004837533514505023   0.03301073402195415
-0.09277850377911125   0.004837533514505023   0.03301073402195415
-0.09277850377911125   0.004837533514505023   0.03301073402195415
-0.1437770618467285   -0.04029501462575402   -0.004761847303955359
-0.1437770618467285   -0.04029501462575402   -0.004761847303955359
-0.1437770618467285   -0.04029501462575402   -0.004761847303955359
-0.1437770618467285   -0.04029501462575402   -0.004761847303955359
-0.11469492304405851   -0.010770772235812714   -0.00961057869214433
-0.11469492304405851   -0.010770772235812714   -0.00961057869214433
-0.11469492304405851   -0.010770772235812714   -0.00961057869214433
-0.11469492304405851   -0.010770772235812714   -0.00961057869214433
-1.3560641876247266   -0.19276165863893574   -0.11325706423035359
-1.3560641876247266   -0.19276165863893574   -0.11325706423035359
-1.3560641876247266   -0.19276165863893574   -0.11325706423035359
-1.3560641876247266   -0.19276165863893574   -0.11325706423035359
-0.4714458540603082   -0.7483885614937047   -0.08852096491574
-0.4714458540603082   -0.7483885614937047   -0.08852096491574
-0.4714458540603082   -0.7483885614937047   -0.08852096491574
-0.4714458540603082   -0.7483885614937047   -0.08852096491574
-0.36342229937251824   -0.03187765563248811   0.000409743033723986
-0.36342229937251824   -0.03187765563248811   0.000409743033723986
-0.36342229937251824   -0.03187765563248811   0.000409743033723986
-0.36342229937251824   -0.03187765563248811   0.000409743033723986
-1.4497223779668185   -0.8782537206691547   -0.46559521972719464
-1.4497223779668185   -0.8782537206691547   -0.46559521972719464
-1.4497223779668185   -0.8782537206691547   -0.46559521972719464
-1.4497223779668185   -0.8782537206691547   -0.46559521972719464
-0.8873797789924811   -0.43671400485922607   -0.06366156106834978
-0.8873797789924811   -0.43671400485922607   -0.06366156106834978
-0.8873797789924811   -0.43671400485922607   -0.06366156106834978
-0.8873797789924811   -0.43671400485922607   -0.06366156106834978
-1.2601600403246602   -0.24209550238897876   -0.15394174979658942
-1.2601600403246602   -0.24209550238897876   -0.15394174979658942
-1.2601600403246602   -0.24209550238897876   -0.15394174979658942
-1.2601600403246602   -0.24209550238897876   -0.15394174979658942
-0.5093865911385763   -0.6244378280365647   -0.13685154339248615
-0.5093865911385763   -0.6244378280365647   -0.13685154339248615
-0.5093865911385763   -0.6244378280365647   -0.13685154339248615
-0.5093865911385763   -0.6244378280365647   -0.13685154339248615
-0.3709933226596404   -0.04227456608843137   0.013916499126421053
-0.3709933226596404   -0.04227456608843137   0.013916499126421053
-0.3709933226596404   -0.04227456608843137   0.013916499126421053
-0.3709933226596404   -0.04227456608843137   0.013916499126421053
-1.3567703038886891   -0.7842170731052946   -0.42819747539879677
-1.3567703038886891   -0.7842170731052946   -0.42819747539879677
-1.3567703038886891   -0.7842170731052946   -0.42819747539879677
-1.3567703038886891   -0.7842170731052946   -0.42819747539879677
-0.835933536094271   -0.3940570534706659   0.03363556036598174
-0.835933536094271   -0.3940570534706659   0.03363556036598174
-0.835933536094271   -0.3940570534706659   0.03363556036598174
-0.835933536094271   -0.3940570534706659   0.03363556036598174
-1.1833848196174608   -0.2305279922790598   -0.11495913486889903
-1.1833848196174608   -0.2305279922790598   -0.11495913486889903
-1.1833848196174608   -0.2305279922790598   -0.11495913486889903
-1.1833848196174608   -0.2305279922790598   -0.11495913486889903
-0.4959083377062539   -0.5474931776900525   -0.10543996450502136
-0.4959083377062539   -0.5474931776900525   -0.10543996450502136
-0.4959083377062539   -0.5474931776900525   -0.10543996450502136
-0.4959083377062539   -0.5474931776900525   -0.10543996450502136
-0.42689254392161635   -0.1100269852254335   -0.022389315067036186
-0.42689254392161635   -0.1100269852254335   -0.022389315067036186
-0.42689254392161635   -0.1100269852254335   -0.022389315067036186
-0.42689254392161635   -0.1100269852254335   -0.022389315067036186
-1.2366924698050537   -0.6601282689332992   -0.3793641477476706
-1.2366924698050537   -0.6601282689332992   -0.3793641477476706
-1.2366924698050537   -0.6601282689332992   -0.3793641477476706
-1.2366924698050537   -0.6601282689332992   -0.3793641477476706
-0.77447692023309   -0.34182907065452006   0.1436193247057518
-0.77447692023309   -0.34182907065452006   0.1436193247057518
-0.77447692023309   -0.34182907065452006   0.1436193247057518
-0.77447692023309   -0.34182907065452006   0.1436193247057518
-0.347694585570626   -0.19007000073469624   -0.028083183226339195
-0.347694585570626   -0.19007000073469624   -0.028083183226339195
-0.347694585570626   -0.19007000073469624   -0.028083183226339195
-0.347694585570626   -0.19007000073469624   -0.028083183226339195
-0.1615237404238618   -0.2385856261788348   -0.03994593455701435
-0.1615237404238618   -0.2385856261788348   -0.03994593455701435
-0.1615237404238618   -0.2385856261788348   -0.03994593455701435
-0.1615237404238618   -0.2385856261788348   -0.03994593455701435
-0.14199904264093507   -0.1218668935393396   0.0036079450986918234
-0.14199904264093507   -0.1218668935393396   0.0036079450986918234
-0.14199904264093507   -0.1218668935393396   0.0036079450986918234
-0.14199904264093507   -0.1218668935393396   0.0036079450986918234
-0.4265409392976657   -0.3476657021333559   0.0006045899088582551
-0.4265409392976657   -0.3476657021333559   0.0006045899088582551
-0.4265409392976657   -0.3476657021333559   0.0006045899088582551
-0.4265409392976657   -0.3476657021333559   0.0006045899088582551
-0.22876307181050257   -0.16840617339498076   0.0735672319900866
-0.22876307181050257   -0.16840617339498076   0.0735672319900866
-0.22876307181050257   -0.16840617339498076   0.0735672319900866
-0.22876307181050257   -0.16840617339498076   0.0735672319900866
-0.3961481846016434   -0.17703148225008158   -0.01806585649430959
-0.3961481846016434   -0.17703148225008158   -0.01806585649430959
-0.3961481846016434   -0.17703148225008158   -0.01806585649430959
-0.3961481846016434   -0.17703148225008158   -0.01806585649430959
-0.18451505636112703   -0.3046243724467845   -0.02621464459482306
-0.18451505636112703   -0.3046243724467845   -0.02621464459482306
-0.18451505636112703   -0.3046243724467845   -0.02621464459482306
-0.18451505636112703   -0.3046243724467845   -0.02621464459482306
-0.1535932529532025   -0.12626021985604982   0.0037580294035669745
-0.1535932529532025   -0.12626021985604982   0.0037580294035669745
-0.1535932529532025   -0.12626021985604982   0.0037580294035669745
-0.1535932529532025   -0.12626021985604982   0.0037580294035669745
-0.4476842093445782   -0.34349083246693507   -0.0683216679197606
-0.4476842093445782   -0.34349083246693507   -0.0683216679197606
-0.4476842093445782   -0.34349083246693507   -0.0683216679197606
-0.4476842093445782   -0.34349083246693507   -0.0683216679197606
-0.27320583833388074   -0.21577654253543058   0.03338273861381382
-0.27320583833388074   -0.21577654253543058   0.03338273861381382
-0.27320583833388074   -0.21577654253543058   0.03338273861381382
-0.27320583833388074   -0.21577654253543058   0.03338273861381382
-0.4090515059590849   -0.18486106085815457   -0.03378792260107411
-0.4090515059590849   -0.18486106085815457   -0.03378792260107411
-0.4090515059590849   -0.18486106085815457   -0.03378792260107411
-0.4090515059590849   -0.18486106085815457   -0.03378792260107411
-0.19110649502052435   -0.2837705301466588   -0.026297870642433357
-0.19110649502052435   -0.2837705301466588   -0.026297870642433357
-0.19110649502052435   -0.2837705301466588   -0.026297870642433357
-0.19110649502052435   -0.2837705301466588   -0.026297870642433357
-0.17154282645648583   -0.13027938811550122   0.005542507747121721
-0.17154282645648583   -0.13027938811550122   0.005542507747121721
-0.17154282645648583   -0.13027938811550122   0.005542507747121721
-0.17154282645648583   -0.13027938811550122   0.005542507747121721
-0.4790740063477349   -0.333957624773131   -0.05936598764993328
-0.4790740063477349   -0.333957624773131   -0.05936598764993328
-0.4790740063477349   -0.333957624773131   -0.05936598764993328
-0.4790740063477349   -0.333957624773131   -0.05936598764993328
-0.28615572369487124   -0.2034170952352651   0.03527968137435763
-0.28615572369487124   -0.2034170952352651   0.03527968137435763
-0.28615572369487124   -0.2034170952352651   0.03527968137435763
-0.28615572369487124   -0.2034170952352651   0.03527968137435763
-0.1268526445041653   -0.11348890380940037   0.008312822672033732
-0.1268526445041653   -0.11348890380940037   0.008312822672033732
-0.1268526445041653   -0.11348890380940037   0.008312822672033732
-0.1268526445041653   -0.11348890380940037   0.008312822672033732
-0.07811249161805131   -0.07550421406607526   -0.019556013376668138
-0.07811249161805131   -0.07550421406607526   -0.019556013376668138
-0.07811249161805131   -0.07550421406607526   -0.019556013376668138
-0.07811249161805131   -0.07550421406607526   -0.019556013376668138
-0.07553733324358962   -0.10161715905526393   0.0083305195380298
-0.07553733324358962   -0.10161715905526393   0.0083305195380298
-0.07553733324358962   -0.10161715905526393   0.0083305195380298
-0.07553733324358962   -0.10161715905526393   0.0083305195380298
-0.14066347422286832   -0.10293695855772009   -0.008644147792592604
-0.14066347422286832   -0.10293695855772009   -0.008644147792592604
-0.14066347422286832   -0.10293695855772009   -0.008644147792592604
-0.14066347422286832   -0.10293695855772009   -0.008644147792592604
-0.08884751735596277   -0.08293663995031034   0.03693936571902674
-0.08884751735596277   -0.08293663995031034   0.03693936571902674
-0.08884751735596277   -0.08293663995031034   0.03693936571902674
-0.08884751735596277   -0.08293663995031034   0.03693936571902674
-0.13939891226665552   -0.11425603173444361   0.008997735165197508
-0.13939891226665552   -0.11425603173444361   0.008997735165197508
-0.13939891226665552   -0.11425603173444361   0.008997735165197508
-0.13939891226665552   -0.11425603173444361   0.008997735165197508
-0.07806535525939415   -0.09156154593813158   -0.014365203658125202
-0.07806535525939415   -0.09156154593813158   -0.014365203658125202
-0.07806535525939415   -0.09156154593813158   -0.014365203658125202
-0.07806535525939415   -0.09156154593813158   -0.014365203658125202
-0.07650672096466503   -0.10466595229354549   0.007426643745833784
-0.07650672096466503   -0.10466595229354549   0.007426643745833784
-0.07650672096466503   -0.10466595229354549   0.007426643745833784
-0.07650672096466503   -0.10466595229354549   0.007426643745833784
-0.1495496145889214   -0.11998943073337684   0.017705432102299638
-0.1495496145889214   -0.11998943073337684   0.017705432102299638
-0.1495496145889214   -0.11998943073337684   0.017705432102299638
-0.1495496145889214   -0.11998943073337684   0.017705432102299638
-0.0968143354548751   -0.09245350089607086   0.031168401802828136
-0.0968143354548751   -0.09245350089607086   0.031168401802828136
-0.0968143354548751   -0.09245350089607086   0.031168401802828136
-0.0968143354548751   -0.09245350089607086   0.031168401802828136
-0.1503650682330796   -0.11849600322230648   0.012134736370441917
-0.1503650682330796   -0.11849600322230648   0.012134736370441917
-0.1503650682330796   -0.11849600322230648   0.012134736370441917
-0.1503650682330796   -0.11849600322230648   0.012134736370441917
-0.08221523300724923   -0.1126833454913574   -0.013098523269275306
-0.08221523300724923   -0.1126833454913574   -0.013098523269275306
-0.08221523300724923   -0.1126833454913574   -0.013098523269275306
-0.08221523300724923   -0.1126833454913574   -0.013098523269275306
-0.07759290284114014   -0.10803650238901286   0.01045249021402499
-0.07759290284114014   -0.10803650238901286   0.01045249021402499
-0.07759290284114014   -0.10803650238901286   0.01045249021402499
-0.07759290284114014   -0.10803650238901286   0.01045249021402499
-0.17523273122382865   -0.14734782695944043   0.004161422754349504
-0.17523273122382865   -0.14734782695944043   0.004161422754349504
-0.17523273122382865   -0.14734782695944043   0.004161422754349504
-0.17523273122382865   -0.14734782695944043   0.004161422754349504
-0.10831949619537348   -0.10530214589009347   0.014554502419789003
-0.10831949619537348   -0.10530214589009347   0.014554502419789003
-0.10831949619537348   -0.10530214589009347   0.014554502419789003
-0.10831949619537348   -0.10530214589009347   0.014554502419789003
-0.06375410858437497   -0.04523242379607264   0.02196411152171099
-0.06375410858437497   -0.04523242379607264   0.02196411152171099
-0.06375410858437497   -0.04523242379607264   0.02196411152171099
-0.06375410858437497   -0.04523242379607264   0.02196411152171099
-0.045112703453072986   -0.0009272557984548492   -0.004416852421450978
-0.045112703453072986   -0.0009272557984548492   -0.004416852421450978
-0.045112703453072986   -0.0009272557984548492   -0.004416852421450978
-0.045112703453072986   -0.0009272557984548492   -0.004416852421450978
-0.04278340111646574   -0.04896804916657612   0.013607916316578988
-0.04278340111646574   -0.04896804916657612   0.013607916316578988
-0.04278340111646574   -0.04896804916657612   0.013607916316578988
-0.04278340111646574   -0.04896804916657612   0.013607916316578988
-0.05932127531486816   -0.00959118547567557   -0.002615164397951575
-0.05932127531486816   -0.00959118547567557   -0.002615164397951575
-0.05932127531486816   -0.00959118547567557   -0.002615164397951575
-0.05932127531486816   -0.00959118547567557   -0.002615164397951575
-0.04874787606142794   -0.02509206481007648   0.010892631464087511
-0.04874787606142794   -0.02509206481007648   0.010892631464087511
-0.04874787606142794   -0.02509206481007648   0.010892631464087511
-0.04874787606142794   -0.02509206481007648   0.010892631464087511
-0.06305327643602636   -0.05159739882474033   0.020731043345322546
-0.06305327643602636   -0.05159739882474033   0.020731043345322546
-0.06305327643602636   -0.05159739882474033   0.020731043345322546
-0.06305327643602636   -0.05159739882474033   0.020731043345322546
-0.03796124671473089   -0.005871682536934045   -0.005377678304381214
-0.03796124671473089   -0.005871682536934045   -0.005377678304381214
-0.03796124671473089   -0.005871682536934045   -0.005377678304381214
-0.03796124671473089   -0.005871682536934045   -0.005377678304381214
-0.03931329078825738   -0.05327832631702847   0.01256682189004764
-0.03931329078825738   -0.05327832631702847   0.01256682189004764
-0.03931329078825738   -0.05327832631702847   0.01256682189004764
-0.03931329078825738   -0.05327832631702847   0.01256682189004764
-0.059893044695112994   -0.018127079035256392   0.003956151835306115
-0.059893044695112994   -0.018127079035256392   0.003956151835306115
-0.059893044695112994   -0.018127079035256392   0.003956151835306115
-0.059893044695112994   -0.018127079035256392   0.003956151835306115
-0.04485876628110711   -0.028791124788733666   0.012892917329461798
-0.04485876628110711   -0.028791124788733666   0.012892917329461798
-0.04485876628110711   -0.028791124788733666   0.012892917329461798
-0.04485876628110711   -0.028791124788733666   0.012892917329461798
-0.06349613841606164   -0.055887949484615014   0.02370155367992026
-0.06349613841606164   -0.055887949484615014   0.02370155367992026
-0.06349613841606164   -0.055887949484615014   0.02370155367992026
-0.06349613841606164   -0.055887949484615014   0.02370155367992026
-0.03607902607798844   -0.01588628487834867   -0.008653895997279813
-0.03607902607798844   -0.01588628487834867   -0.008653895997279813
-0.03607902607798844   -0.01588628487834867   -0.008653895997279813
-0.03607902607798844   -0.01588628487834867   -0.008653895997279813
-0.03305646365676926   -0.05805640555504692   0.013829994148178055
-0.03305646365676926   -0.05805640555504692   0.013829994148178055
-0.03305646365676926   -0.05805640555504692   0.013829994148178055
-0.03305646365676926   -0.05805640555504692   0.013829994148178055
-0.06479929555972576   -0.03878109090534643   0.005165115137431587
-0.06479929555972576   -0.03878109090534643   0.005165115137431587
-0.06479929555972576   -0.03878109090534643   0.005165115137431587
-0.06479929555972576   -0.03878109090534643   0.005165115137431587
-0.043316959488383266   -0.03628182643402333   0.011039246139727803
-0.043316959488383266   -0.03628182643402333   0.011039246139727803
-0.043316959488383266   -0.03628182643402333   0.011039246139727803
-0.043316959488383266   -0.03628182643402333   0.011039246139727803
-0.04119132041154327   -0.007880946085946547   0.022143753073689328
-0.04119132041154327   -0.007880946085946547   0.022143753073689328
-0.04119132041154327   -0.007880946085946547   0.022143753073689328
-0.04119132041154327   -0.007880946085946547   0.022143753073689328
-0.007517501158851517   0.004647274301347705   -0.00044741066788074515
-0.007517501158851517   0.004647274301347705   -0.00044741066788074515
-0.007517501158851517   0.004647274301347705   -0.00044741066788074515
-0.007517501158851517   0.004647274301347705   -0.00044741066788074515
0.0020569605400712803   -0.0025416566432582455   0.013732583641711723
0.0020569605400712803   -0.0025416566432582455   0.013732583641711723
0.0020569605400712803   -0.0025416566432582455   0.013732583641711723
0.0020569605400712803   -0.0025416566432582455   0.013732583641711723
-0.035356859997522326   0.00337733776281339   -0.001604765018087153
-0.035356859997522326   0.00337733776281339   -0.001604765018087153
-0.035356859997522326   0.00337733776281339   -0.001604765018087153
-0.035356859997522326   0.00337733776281339   -0.001604765018087153
-0.020832142614215496   -0.001598134197086932   -0.0016847663624493497
-0.020832142614215496   -0.001598134197086932   -0.0016847663624493497
-0.020832142614215496   -0.001598134197086932   -0.0016847663624493497
-0.020832142614215496   -0.001598134197086932   -0.0016847663624493497
-0.032627755098437274   -0.007617914209393521   0.023036011449538707
-0.032627755098437274   -0.007617914209393521   0.023036011449538707
-0.032627755098437274   -0.007617914209393521   0.023036011449538707
-0.032627755098437274   -0.007617914209393521   0.023036011449538707
0.0005511400808886706   0.0096768797688522   -0.006015055066304098
0.0005511400808886706   0.0096768797688522   -0.006015055066304098
0.0005511400808886706   0.0096768797688522   -0.006015055066304098
0.0005511400808886706   0.0096768797688522   -0.006015055066304098
0.006825374050173081   -0.003144774422152193   0.016930737836160326
0.006825374050173081   -0.003144774422152193   0.016930737836160326
0.006825374050173081   -0.003144774422152193   0.016930737836160326
0.006825374050173081   -0.003144774422152193   0.016930737836160326
-0.031152814125516074   0.0024437784715704196   -0.0023528995848373807
-0.031152814125516074   0.0024437784715704196   -0.0023528995848373807
-0.031152814125516074   0.0024437784715704196   -0.0023528995848373807
-0.031152814125516074   0.0024437784715704196   -0.0023528995848373807
-0.0138083895267296   -0.0004397764419074618   0.002153567797908118
-0.0138083895267296   -0.0004397764419074618   0.002153567797908118
-0.0138083895267296   -0.0004397764419074618   0.002153567797908118
-0.0138083895267296   -0.0004397764419074618   0.002153567797908118
-0.027924274561202764   -0.008528446975000662   0.024762023683300556
-0.027924274561202764   -0.008528446975000662   0.024762023683300556
-0.027924274561202764   -0.008528446975000662   0.024762023683300556
-0.027924274561202764   -0.008528446975000662   0.024762023683300556
0.004685324107216695   0.008915940645774742   -0.005830226946548542
0.004685324107216695   0.008915940645774742   -0.005830226946548542
0.004685324107216695   0.008915940645774742   -0.005830226946548542
0.004685324107216695   0.008915940645774742   -0.005830226946548542
0.011633269663535919   -0.004967724057074403   0.01646427402917834
0.011633269663535919   -0.004967724057074403   0.01646427402917834
0.011633269663535919   -0.004967724057074403   0.01646427402917834
0.011633269663535919   -0.004967724057074403   0.01646427402917834
-0.024280347914280177   0.0023092255787043395   -0.0026550582731275584
-0.024280347914280177   0.0023092255787043395   -0.0026550582731275584
-0.024280347914280177   0.0023092255787043395   -0.0026550582731275584
-0.024280347914280177   0.0023092255787043395   -0.0026550582731275584
-0.007559456589656881   0.00023698352385419772   0.005497987696918253
-0.007559456589656881   0.00023698352385419772   0.005497987696918253
-0.007559456589656881   0.00023698352385419772   0.005497987696918253
-0.007559456589656881   0.00023698352385419772   0.005497987696918253
              </DataArray>   
             <DataArray type="Float64" NumberOfComponents="3" Name="Displacements" format="ascii">   
0.0   0.0   0.0
-0.0037798758972989407   -0.0024833625100027473   -0.0012664316147623963
0.0   0.0   0.0
0.0   0.0   0.0
-0.0037798758972989407   -0.0024833625100027473   -0.0012664316147623963
-0.002404948777393796   -0.0022323286991456914   -0.000930493964005622
0.0   0.0   0.0
-0.002357214046336732   -0.0023441497855906787   -0.0007796162269433217
0.0   0.0   0.0
0.0   0.0   0.0
-0.002357214046336732   -0.0023441497855906787   -0.0007796162269433217
0.0   0.0   0.0
0.0   0.0   0.0
-0.002357214046336732   -0.0023441497855906787   -0.0007796162269433217
-0.003955605543196121   -0.0026455027896772234   -0.0010168600443787661
-0.0037798758972989407   -0.0024833625100027473   -0.0012664316147623963
0.0   0.0   0.0
-0.002357214046336732   -0.0023441497855906787   -0.0007796162269433217
-0.0037798758972989407   -0.0024833625100027473   -0.0012664316147623963
0.0   0.0   0.0
0.0   0.0   0.0
-0.003955605543196121   -0.0026455027896772234   -0.0010168600443787661
0.0   0.0   0.0
0.0   0.0   0.0
-0.003955605543196121   -0.0026455027896772234   -0.0010168600443787661
-0.002357214046336732   -0.0023441497855906787   -0.0007796162269433217
0.0   0.0   0.0
-0.0023636751406081857   -0.0024014760923831363   -0.0006289771087947189
0.0   0.0   0.0
0.0   0.0   0.0
-0.0023636751406081857   -0.0024014760923831363   -0.0006289771087947189
0.0   0.0   0.0
0.0   0.0   0.0
-0.0023636751406081857   -0.0024014760923831363   -0.0006289771087947189
-0.004078933056799261   -0.0027243575465414364   -0.0007777720709805945
-0.003955605543196121   -0.0026455027896772234   -0.0010168600443787661
0.0   0.0   0.0
-0.0023636751406081857   -0.0024014760923831363   -0.0006289771087947189
-0.003955605543196121   -0.0026455027896772234   -0.0010168600443787661
0.0   0.0   0.0
0.0   0.0   0.0
-0.004078933056799261   -0.0027243575465414364   -0.0007777720709805945
0.0   0.0   0.0
0.0   0.0   0.0
-0.004078933056799261   -0.0027243575465414364   -0.0007777720709805945
-0.0023636751406081857   -0.0024014760923831363   -0.0006289771087947189
0.0   0.0   0.0
-0.002362222315512367   -0.0024162361022447643   -0.0004732408052084475
0.0   0.0   0.0
0.0   0.0   0.0
-0.002362222315512367   -0.0024162361022447643   -0.0004732408052084475
0.0   0.0   0.0
0.0   0.0   0.0
-0.002362222315512367   -0.0024162361022447643   -0.0004732408052084475
-0.004344799742996247   -0.0027841489714487636   -0.0005004222911999255
-0.004078933056799261   -0.0027243575465414364   -0.0007777720709805945
0.0   0.0   0.0
-0.002362222315512367   -0.0024162361022447643   -0.0004732408052084475
-0.004078933056799261   -0.0027243575465414364   -0.0007777720709805945
0.0   0.0   0.0
0.0   0.0   0.0
-0.002404948777393796   -0.0022323286991456914   -0.000930493964005622
0.0   0.0   0.0
0.0   0.0   0.0
-0.002404948777393796   -0.0022323286991456914   -0.000930493964005622
-0.0010954425443422027   -0.00214029966414414   -0.0007078329525140429
0.0   0.0   0.0
-0.001053399209359542   -0.0022130601471178337   -0.0006365825703826688
0.0   0.0   0.0
0.0   0.0   0.0
-0.001053399209359542   -0.0022130601471178337   -0.0006365825703826688
0.0   0.0   0.0
0.0   0.0   0.0
-0.001053399209359542   -0.0022130601471178337   -0.0006365825703826688
-0.002357214046336732   -0.0023441497855906787   -0.0007796162269433217
-0.002404948777393796   -0.0022323286991456914   -0.000930493964005622
0.0   0.0   0.0
-0.001053399209359542   -0.0022130601471178337   -0.0006365825703826688
-0.002404948777393796   -0.0022323286991456914   -0.000930493964005622
0.0   0.0   0.0
0.0   0.0   0.0
-0.002357214046336732   -0.0023441497855906787   -0.0007796162269433217
0.0   0.0   0.0
0.0   0.0   0.0
-0.002357214046336732   -0.0023441497855906787   -0.0007796162269433217
-0.001053399209359542   -0.0022130601471178337   -0.0006365825703826688
0.0   0.0   0.0
-0.0010297100733796247   -0.0022408014195635676   -0.0005672138194893626
0.0   0.0   0.0
0.0   0.0   0.0
-0.0010297100733796247   -0.0022408014195635676   -0.0005672138194893626
0.0   0.0   0.0
0.0   0.0   0.0
-0.0010297100733796247   -0.0022408014195635676   -0.0005672138194893626
-0.0023636751406081857   -0.0024014760923831363   -0.0006289771087947189
-0.002357214046336732   -0.0023441497855906787   -0.0007796162269433217
0.0   0.0   0.0
-0.0010297100733796247   -0.0022408014195635676   -0.0005672138194893626
-0.002357214046336732   -0.0023441497855906787   -0.0007796162269433217
0.0   0.0   0.0
0.0   0.0   0.0
-0.0023636751406081857   -0.0024014760923831363   -0.0006289771087947189
0.0   0.0   0.0
0.0   0.0   0.0
-0.0023636751406081857   -0.0024014760923831363   -0.0006289771087947189
-0.0010297100733796247   -0.0022408014195635676   -0.0005672138194893626
0.0   0.0   0.0
-0.001008108423293002   -0.0022292458017757963   -0.0004955209859683577
0.0   0.0   0.0
0.0   0.0   0.0
-0.001008108423293002   -0.0022292458017757963   -0.0004955209859683577
0.0   0.0   0.0
0.0   0.0   0.0
-0.001008108423293002   -0.0022292458017757963   -0.0004955209859683577
-0.002362222315512367   -0.0024162361022447643   -0.0004732408052084475
-0.0023636751406081857   -0.0024014760923831363   -0.0006289771087947189
0.0   0.0   0.0
-0.001008108423293002   -0.0022292458017757963   -0.0004955209859683577
-0.0023636751406081857   -0.0024014760923831363   -0.0006289771087947189
0.0   0.0   0.0
0.0   0.0   0.0
-0.0010954425443422027   -0.00214029966414414   -0.0007078329525140429
0.0   0.0   0.0
0.0   0.0   0.0
-0.0010954425443422027   -0.00214029966414414   -0.0007078329525140429
0.00014163531636415916   -0.00215212026438861   -0.0005660089706790496
0.0   0.0   0.0
0.00016855803809405438   -0.0021898065109572386   -0.0005758139847744278
0.0   0.0   0.0
0.0   0.0   0.0
0.00016855803809405438   -0.0021898065109572386   -0.0005758139847744278
0.0   0.0   0.0
0.0   0.0   0.0
0.00016855803809405438   -0.0021898065109572386   -0.0005758139847744278
-0.001053399209359542   -0.0022130601471178337   -0.0006365825703826688
-0.0010954425443422027   -0.00214029966414414   -0.0007078329525140429
0.0   0.0   0.0
0.00016855803809405438   -0.0021898065109572386   -0.0005758139847744278
-0.0010954425443422027   -0.00214029966414414   -0.0007078329525140429
0.0   0.0   0.0
0.0   0.0   0.0
-0.001053399209359542   -0.0022130601471178337   -0.0006365825703826688
0.0   0.0   0.0
0.0   0.0   0.0
-0.001053399209359542   -0.0022130601471178337   -0.0006365825703826688
0.00016855803809405438   -0.0021898065109572386   -0.0005758139847744278
0.0   0.0   0.0
0.0001898318291795936   -0.002186659327717413   -0.0005846888651158297
0.0   0.0   0.0
0.0   0.0   0.0
0.0001898318291795936   -0.002186659327717413   -0.0005846888651158297
0.0   0.0   0.0
0.0   0.0   0.0
0.0001898318291795936   -0.002186659327717413   -0.0005846888651158297
-0.0010297100733796247   -0.0022408014195635676   -0.0005672138194893626
-0.001053399209359542   -0.0022130601471178337   -0.0006365825703826688
0.0   0.0   0.0
0.0001898318291795936   -0.002186659327717413   -0.0005846888651158297
-0.001053399209359542   -0.0022130601471178337   -0.0006365825703826688
0.0   0.0   0.0
0.0   0.0   0.0
-0.0010297100733796247   -0.0022408014195635676   -0.0005672138194893626
0.0   0.0   0.0
0.0   0.0   0.0
-0.0010297100733796247   -0.0022408014195635676   -0.0005672138194893626
0.0001898318291795936   -0.002186659327717413   -0.0005846888651158297
0.0   0.0   0.0
0.00021839385165481383   -0.0021393336651019477   -0.0005938321020111673
0.0   0.0   0.0
0.0   0.0   0.0
0.00021839385165481383   -0.0021393336651019477   -0.0005938321020111673
0.0   0.0   0.0
0.0   0.0   0.0
0.00021839385165481383   -0.0021393336651019477   -0.0005938321020111673
-0.001008108423293002   -0.0022292458017757963   -0.0004955209859683577
-0.0010297100733796247   -0.0022408014195635676   -0.0005672138194893626
0.0   0.0   0.0
0.00021839385165481383   -0.0021393336651019477   -0.0005938321020111673
-0.0010297100733796247   -0.0022408014195635676   -0.0005672138194893626
0.0   0.0   0.0
0.0   0.0   0.0
0.00014163531636415916   -0.00215212026438861   -0.0005660089706790496
0.0   0.0   0.0
0.0   0.0   0.0
0.00014163531636415916   -0.00215212026438861   -0.0005660089706790496
0.0014846234274069824   -0.002256599552897345   -0.0004959545924714756
0.0   0.0   0.0
0.0014874751376260118   -0.0022685384989997804   -0.0005910497334555183
0.0   0.0   0.0
0.0   0.0   0.0
0.0014874751376260118   -0.0022685384989997804   -0.0005910497334555183
0.0   0.0   0.0
0.0   0.0   0.0
0.0014874751376260118   -0.0022685384989997804   -0.0005910497334555183
0.00016855803809405438   -0.0021898065109572386   -0.0005758139847744278
0.00014163531636415916   -0.00215212026438861   -0.0005660089706790496
0.0   0.0   0.0
0.0014874751376260118   -0.0022685384989997804   -0.0005910497334555183
0.00014163531636415916   -0.00215212026438861   -0.0005660089706790496
0.0   0.0   0.0
0.0   0.0   0.0
0.00016855803809405438   -0.0021898065109572386   -0.0005758139847744278
0.0   0.0   0.0
0.0   0.0   0.0
0.00016855803809405438   -0.0021898065109572386   -0.0005758139847744278
0.0014874751376260118   -0.0022685384989997804   -0.0005910497334555183
0.0   0.0   0.0
0.0014812870225405133   -0.0022361461431228474   -0.0006823059015556268
0.0   0.0   0.0
0.0   0.0   0.0
0.0014812870225405133   -0.0022361461431228474   -0.0006823059015556268
0.0   0.0   0.0
0.0   0.0   0.0
0.0014812870225405133   -0.0022361461431228474   -0.0006823059015556268
0.0001898318291795936   -0.002186659327717413   -0.0005846888651158297
0.00016855803809405438   -0.0021898065109572386   -0.0005758139847744278
0.0   0.0   0.0
0.0014812870225405133   -0.0022361461431228474   -0.0006823059015556268
0.00016855803809405438   -0.0021898065109572386   -0.0005758139847744278
0.0   0.0   0.0
0.0   0.0   0.0
0.0001898318291795936   -0.002186659327717413   -0.0005846888651158297
0.0   0.0   0.0
0.0   0.0   0.0
0.0001898318291795936   -0.002186659327717413   -0.0005846888651158297
0.0014812870225405133   -0.0022361461431228474   -0.0006823059015556268
0.0   0.0   0.0
0.0015101504773997988   -0.0021495281720600103   -0.000771847782449802
0.0   0.0   0.0
0.0   0.0   0.0
0.0015101504773997988   -0.0021495281720600103   -0.000771847782449802
0.0   0.0   0.0
0.0   0.0   0.0
0.0015101504773997988   -0.0021495281720600103   -0.000771847782449802
0.00021839385165481383   -0.0021393336651019477   -0.0005938321020111673
0.0001898318291795936   -0.002186659327717413   -0.0005846888651158297
0.0   0.0   0.0
0.0015101504773997988   -0.0021495281720600103   -0.000771847782449802
0.0001898318291795936   -0.002186659327717413   -0.0005846888651158297
0.0   0.0   0.0
0.0   0.0   0.0
0.0014846234274069824   -0.002256599552897345   -0.0004959545924714756
0.0   0.0   0.0
0.0   0.0   0.0
0.0014846234274069824   -0.002256599552897345   -0.0004959545924714756
0.003352869256830025   -0.0025215395585808232   -0.00046817651210448685
0.0   0.0   0.0
0.003149160426157933   -0.0024938931644137305   -0.0006838576372669175
0.0   0.0   0.0
0.0   0.0   0.0
0.003149160426157933   -0.0024938931644137305   -0.0006838576372669175
0.0   0.0   0.0
0.0   0.0   0.0
0.003149160426157933   -0.0024938931644137305   -0.0006838576372669175
0.0014874751376260118   -0.0022685384989997804   -0.0005910497334555183
0.0014846234274069824   -0.002256599552897345   -0.0004959545924714756
0.0   0.0   0.0
0.003149160426157933   -0.0024938931644137305   -0.0006838576372669175
0.0014846234274069824   -0.002256599552897345   -0.0004959545924714756
0.0   0.0   0.0
0.0   0.0   0.0
0.0014874751376260118   -0.0022685384989997804   -0.0005910497334555183
0.0   0.0   0.0
0.0   0.0   0.0
0.0014874751376260118   -0.0022685384989997804   -0.0005910497334555183
0.003149160426157933   -0.0024938931644137305   -0.0006838576372669175
0.0   0.0   0.0
0.0030553045839222773   -0.0024420457615592322   -0.0008662671540809769
0.0   0.0   0.0
0.0   0.0   0.0
0.0030553045839222773   -0.0024420457615592322   -0.0008662671540809769
0.0   0.0   0.0
0.0   0.0   0.0
0.0030553045839222773   -0.0024420457615592322   -0.0008662671540809769
0.0014812870225405133   -0.0022361461431228474   -0.0006823059015556268
0.0014874751376260118   -0.0022685384989997804   -0.0005910497334555183
0.0   0.0   0.0
0.0030553045839222773   -0.0024420457615592322   -0.0008662671540809769
0.0014874751376260118   -0.0022685384989997804   -0.0005910497334555183
0.0   0.0   0.0
0.0   0.0   0.0
0.0014812870225405133   -0.0022361461431228474   -0.0006823059015556268
0.0   0.0   0.0
0.0   0.0   0.0
0.0014812870225405133   -0.0022361461431228474   -0.0006823059015556268
0.0030553045839222773   -0.0024420457615592322   -0.0008662671540809769
0.0   0.0   0.0
0.00291545205982162   -0.0023094794243234077   -0.001059348020554008
0.0   0.0   0.0
0.0   0.0   0.0
0.00291545205982162   -0.0023094794243234077   -0.001059348020554008
0.0   0.0   0.0
0.0   0.0   0.0
0.00291545205982162   -0.0023094794243234077   -0.001059348020554008
0.0015101504773997988   -0.0021495281720600103   -0.000771847782449802
0.0014812870225405133   -0.0022361461431228474   -0.0006823059015556268
0.0   0.0   0.0
0.00291545205982162   -0.0023094794243234077   -0.001059348020554008
0.0014812870225405133   -0.0022361461431228474   -0.0006823059015556268
0.0   0.0   0.0
-0.0037798758972989407   -0.0024833625100027473   -0.0012664316147623963
-0.007057513419005407   -0.0069272059204623275   -0.0017063377310408804
-0.002404948777393796   -0.0022323286991456914   -0.000930493964005622
-0.003955605543196121   -0.0026455027896772234   -0.0010168600443787661
-0.007057513419005407   -0.0069272059204623275   -0.0017063377310408804
-0.004504423487143563   -0.006701526067467921   -0.001404771850863633
-0.002404948777393796   -0.0022323286991456914   -0.000930493964005622
-0.0045094192447150535   -0.006815885990483671   -0.0012652915283552148
-0.003955605543196121   -0.0026455027896772234   -0.0010168600443787661
-0.002357214046336732   -0.0023441497855906787   -0.0007796162269433217
-0.0045094192447150535   -0.006815885990483671   -0.0012652915283552148
-0.002404948777393796   -0.0022323286991456914   -0.000930493964005622
-0.003955605543196121   -0.0026455027896772234   -0.0010168600443787661
-0.0045094192447150535   -0.006815885990483671   -0.0012652915283552148
-0.007268528681967773   -0.0070868173085083894   -0.0014798931605894483
-0.007057513419005407   -0.0069272059204623275   -0.0017063377310408804
-0.003955605543196121   -0.0026455027896772234   -0.0010168600443787661
-0.0045094192447150535   -0.006815885990483671   -0.0012652915283552148
-0.007057513419005407   -0.0069272059204623275   -0.0017063377310408804
-0.002404948777393796   -0.0022323286991456914   -0.000930493964005622
-0.003955605543196121   -0.0026455027896772234   -0.0010168600443787661
-0.007268528681967773   -0.0070868173085083894   -0.0014798931605894483
-0.002357214046336732   -0.0023441497855906787   -0.0007796162269433217
-0.004078933056799261   -0.0027243575465414364   -0.0007777720709805945
-0.007268528681967773   -0.0070868173085083894   -0.0014798931605894483
-0.0045094192447150535   -0.006815885990483671   -0.0012652915283552148
-0.002357214046336732   -0.0023441497855906787   -0.0007796162269433217
-0.004526828929084549   -0.006885630939354692   -0.001131277980645255
-0.004078933056799261   -0.0027243575465414364   -0.0007777720709805945
-0.0023636751406081857   -0.0024014760923831363   -0.0006289771087947189
-0.004526828929084549   -0.006885630939354692   -0.001131277980645255
-0.002357214046336732   -0.0023441497855906787   -0.0007796162269433217
-0.004078933056799261   -0.0027243575465414364   -0.0007777720709805945
-0.004526828929084549   -0.006885630939354692   -0.001131277980645255
-0.007415002937055549   -0.007176987968510068   -0.0012581947075008214
-0.007268528681967773   -0.0070868173085083894   -0.0014798931605894483
-0.004078933056799261   -0.0027243575465414364   -0.0007777720709805945
-0.004526828929084549   -0.006885630939354692   -0.001131277980645255
-0.007268528681967773   -0.0070868173085083894   -0.0014798931605894483
-0.002357214046336732   -0.0023441497855906787   -0.0007796162269433217
-0.004078933056799261   -0.0027243575465414364   -0.0007777720709805945
-0.007415002937055549   -0.007176987968510068   -0.0012581947075008214
-0.0023636751406081857   -0.0024014760923831363   -0.0006289771087947189
-0.004344799742996247   -0.0027841489714487636   -0.0005004222911999255
-0.007415002937055549   -0.007176987968510068   -0.0012581947075008214
-0.004526828929084549   -0.006885630939354692   -0.001131277980645255
-0.0023636751406081857   -0.0024014760923831363   -0.0006289771087947189
-0.004512978966128517   -0.0069218741485939555   -0.0010058580351812614
-0.004344799742996247   -0.0027841489714487636   -0.0005004222911999255
-0.002362222315512367   -0.0024162361022447643   -0.0004732408052084475
-0.004512978966128517   -0.0069218741485939555   -0.0010058580351812614
-0.0023636751406081857   -0.0024014760923831363   -0.0006289771087947189
-0.004344799742996247   -0.0027841489714487636   -0.0005004222911999255
-0.004512978966128517   -0.0069218741485939555   -0.0010058580351812614
-0.007588114742744325   -0.007229507562462281   -0.0010565376633152625
-0.007415002937055549   -0.007176987968510068   -0.0012581947075008214
-0.004344799742996247   -0.0027841489714487636   -0.0005004222911999255
-0.004512978966128517   -0.0069218741485939555   -0.0010058580351812614
-0.007415002937055549   -0.007176987968510068   -0.0012581947075008214
-0.0023636751406081857   -0.0024014760923831363   -0.0006289771087947189
-0.002404948777393796   -0.0022323286991456914   -0.000930493964005622
-0.004504423487143563   -0.006701526067467921   -0.001404771850863633
-0.0010954425443422027   -0.00214029966414414   -0.0007078329525140429
-0.002357214046336732   -0.0023441497855906787   -0.0007796162269433217
-0.004504423487143563   -0.006701526067467921   -0.001404771850863633
-0.00209060432155151   -0.006596511541946853   -0.0011989452964639216
-0.0010954425443422027   -0.00214029966414414   -0.0007078329525140429
-0.002072238040100899   -0.006669261314134004   -0.00112743830354937
-0.002357214046336732   -0.0023441497855906787   -0.0007796162269433217
-0.001053399209359542   -0.0022130601471178337   -0.0006365825703826688
-0.002072238040100899   -0.006669261314134004   -0.00112743830354937
-0.0010954425443422027   -0.00214029966414414   -0.0007078329525140429
-0.002357214046336732   -0.0023441497855906787   -0.0007796162269433217
-0.002072238040100899   -0.006669261314134004   -0.00112743830354937
-0.0045094192447150535   -0.006815885990483671   -0.0012652915283552148
-0.004504423487143563   -0.006701526067467921   -0.001404771850863633
-0.002357214046336732   -0.0023441497855906787   -0.0007796162269433217
-0.002072238040100899   -0.006669261314134004   -0.00112743830354937
-0.004504423487143563   -0.006701526067467921   -0.001404771850863633
-0.0010954425443422027   -0.00214029966414414   -0.0007078329525140429
-0.002357214046336732   -0.0023441497855906787   -0.0007796162269433217
-0.0045094192447150535   -0.006815885990483671   -0.0012652915283552148
-0.001053399209359542   -0.0022130601471178337   -0.0006365825703826688
-0.0023636751406081857   -0.0024014760923831363   -0.0006289771087947189
-0.0045094192447150535   -0.006815885990483671   -0.0012652915283552148
-0.002072238040100899   -0.006669261314134004   -0.00112743830354937
-0.001053399209359542   -0.0022130601471178337   -0.0006365825703826688
-0.0020559253856182176   -0.006704556559101674   -0.0010626301851217005
-0.0023636751406081857   -0.0024014760923831363   -0.0006289771087947189
-0.0010297100733796247   -0.0022408014195635676   -0.0005672138194893626
-0.0020559253856182176   -0.006704556559101674   -0.0010626301851217005
-0.001053399209359542   -0.0022130601471178337   -0.0006365825703826688
-0.0023636751406081857   -0.0024014760923831363   -0.0006289771087947189
-0.0020559253856182176   -0.006704556559101674   -0.0010626301851217005
-0.004526828929084549   -0.006885630939354692   -0.001131277980645255
-0.0045094192447150535   -0.006815885990483671   -0.0012652915283552148
-0.0023636751406081857   -0.0024014760923831363   -0.0006289771087947189
-0.0020559253856182176   -0.006704556559101674   -0.0010626301851217005
-0.0045094192447150535   -0.006815885990483671   -0.0012652915283552148
-0.001053399209359542   -0.0022130601471178337   -0.0006365825703826688
-0.0023636751406081857   -0.0024014760923831363   -0.0006289771087947189
-0.004526828929084549   -0.006885630939354692   -0.001131277980645255
-0.0010297100733796247   -0.0022408014195635676   -0.0005672138194893626
-0.002362222315512367   -0.0024162361022447643   -0.0004732408052084475
-0.004526828929084549   -0.006885630939354692   -0.001131277980645255
-0.0020559253856182176   -0.006704556559101674   -0.0010626301851217005
-0.0010297100733796247   -0.0022408014195635676   -0.0005672138194893626
-0.0020317359484098253   -0.006703726873100011   -0.0010062241182086007
-0.002362222315512367   -0.0024162361022447643   -0.0004732408052084475
-0.001008108423293002   -0.0022292458017757963   -0.0004955209859683577
-0.0020317359484098253   -0.006703726873100011   -0.0010062241182086007
-0.0010297100733796247   -0.0022408014195635676   -0.0005672138194893626
-0.002362222315512367   -0.0024162361022447643   -0.0004732408052084475
-0.0020317359484098253   -0.006703726873100011   -0.0010062241182086007
-0.004512978966128517   -0.0069218741485939555   -0.0010058580351812614
-0.004526828929084549   -0.006885630939354692   -0.001131277980645255
-0.002362222315512367   -0.0024162361022447643   -0.0004732408052084475
-0.0020317359484098253   -0.006703726873100011   -0.0010062241182086007
-0.004526828929084549   -0.006885630939354692   -0.001131277980645255
-0.0010297100733796247   -0.0022408014195635676   -0.0005672138194893626
-0.0010954425443422027   -0.00214029966414414   -0.0007078329525140429
-0.00209060432155151   -0.006596511541946853   -0.0011989452964639216
0.00014163531636415916   -0.00215212026438861   -0.0005660089706790496
-0.001053399209359542   -0.0022130601471178337   -0.0006365825703826688
-0.00209060432155151   -0.006596511541946853   -0.0011989452964639216
0.00023683933462361107   -0.006599658018145494   -0.0010689022541220704
0.00014163531636415916   -0.00215212026438861   -0.0005660089706790496
0.0002593566933319048   -0.006634066501642363   -0.0010641064102935344
-0.001053399209359542   -0.0022130601471178337   -0.0006365825703826688
0.00016855803809405438   -0.0021898065109572386   -0.0005758139847744278
0.0002593566933319048   -0.006634066501642363   -0.0010641064102935344
0.00014163531636415916   -0.00215212026438861   -0.0005660089706790496
-0.001053399209359542   -0.0022130601471178337   -0.0006365825703826688
0.0002593566933319048   -0.006634066501642363   -0.0010641064102935344
-0.002072238040100899   -0.006669261314134004   -0.00112743830354937
-0.00209060432155151   -0.006596511541946853   -0.0011989452964639216
-0.001053399209359542   -0.0022130601471178337   -0.0006365825703826688
0.0002593566933319048   -0.006634066501642363   -0.0010641064102935344
-0.00209060432155151   -0.006596511541946853   -0.0011989452964639216
0.00014163531636415916   -0.00215212026438861   -0.0005660089706790496
-0.001053399209359542   -0.0022130601471178337   -0.0006365825703826688
-0.002072238040100899   -0.006669261314134004   -0.00112743830354937
0.00016855803809405438   -0.0021898065109572386   -0.0005758139847744278
-0.0010297100733796247   -0.0022408014195635676   -0.0005672138194893626
-0.002072238040100899   -0.006669261314134004   -0.00112743830354937
0.0002593566933319048   -0.006634066501642363   -0.0010641064102935344
0.00016855803809405438   -0.0021898065109572386   -0.0005758139847744278
0.0002746123339153223   -0.006631897309045655   -0.0010669124251551198
-0.0010297100733796247   -0.0022408014195635676   -0.0005672138194893626
0.0001898318291795936   -0.002186659327717413   -0.0005846888651158297
0.0002746123339153223   -0.006631897309045655   -0.0010669124251551198
0.00016855803809405438   -0.0021898065109572386   -0.0005758139847744278
-0.0010297100733796247   -0.0022408014195635676   -0.0005672138194893626
0.0002746123339153223   -0.006631897309045655   -0.0010669124251551198
-0.0020559253856182176   -0.006704556559101674   -0.0010626301851217005
-0.002072238040100899   -0.006669261314134004   -0.00112743830354937
-0.0010297100733796247   -0.0022408014195635676   -0.0005672138194893626
0.0002746123339153223   -0.006631897309045655   -0.0010669124251551198
-0.002072238040100899   -0.006669261314134004   -0.00112743830354937
0.00016855803809405438   -0.0021898065109572386   -0.0005758139847744278
-0.0010297100733796247   -0.0022408014195635676   -0.0005672138194893626
-0.0020559253856182176   -0.006704556559101674   -0.0010626301851217005
0.0001898318291795936   -0.002186659327717413   -0.0005846888651158297
-0.001008108423293002   -0.0022292458017757963   -0.0004955209859683577
-0.0020559253856182176   -0.006704556559101674   -0.0010626301851217005
0.0002746123339153223   -0.006631897309045655   -0.0010669124251551198
0.0001898318291795936   -0.002186659327717413   -0.0005846888651158297
0.00029095477764622807   -0.006592035871228443   -0.0010774400849746083
-0.001008108423293002   -0.0022292458017757963   -0.0004955209859683577
0.00021839385165481383   -0.0021393336651019477   -0.0005938321020111673
0.00029095477764622807   -0.006592035871228443   -0.0010774400849746083
0.0001898318291795936   -0.002186659327717413   -0.0005846888651158297
-0.001008108423293002   -0.0022292458017757963   -0.0004955209859683577
0.00029095477764622807   -0.006592035871228443   -0.0010774400849746083
-0.0020317359484098253   -0.006703726873100011   -0.0010062241182086007
-0.0020559253856182176   -0.006704556559101674   -0.0010626301851217005
-0.001008108423293002   -0.0022292458017757963   -0.0004955209859683577
0.00029095477764622807   -0.006592035871228443   -0.0010774400849746083
-0.0020559253856182176   -0.006704556559101674   -0.0010626301851217005
0.0001898318291795936   -0.002186659327717413   -0.0005846888651158297
0.00014163531636415916   -0.00215212026438861   -0.0005660089706790496
0.00023683933462361107   -0.006599658018145494   -0.0010689022541220704
0.0014846234274069824   -0.002256599552897345   -0.0004959545924714756
0.00016855803809405438   -0.0021898065109572386   -0.0005758139847744278
0.00023683933462361107   -0.006599658018145494   -0.0010689022541220704
0.00270346134451337   -0.006707067783948084   -0.0010083798778221886
0.0014846234274069824   -0.002256599552897345   -0.0004959545924714756
0.002716401564305844   -0.006706625905492998   -0.0010724562170417713
0.00016855803809405438   -0.0021898065109572386   -0.0005758139847744278
0.0014874751376260118   -0.0022685384989997804   -0.0005910497334555183
0.002716401564305844   -0.006706625905492998   -0.0010724562170417713
0.0014846234274069824   -0.002256599552897345   -0.0004959545924714756
0.00016855803809405438   -0.0021898065109572386   -0.0005758139847744278
0.002716401564305844   -0.006706625905492998   -0.0010724562170417713
0.0002593566933319048   -0.006634066501642363   -0.0010641064102935344
0.00023683933462361107   -0.006599658018145494   -0.0010689022541220704
0.00016855803809405438   -0.0021898065109572386   -0.0005758139847744278
0.002716401564305844   -0.006706625905492998   -0.0010724562170417713
0.00023683933462361107   -0.006599658018145494   -0.0010689022541220704
0.0014846234274069824   -0.002256599552897345   -0.0004959545924714756
0.00016855803809405438   -0.0021898065109572386   -0.0005758139847744278
0.0002593566933319048   -0.006634066501642363   -0.0010641064102935344
0.0014874751376260118   -0.0022685384989997804   -0.0005910497334555183
0.0001898318291795936   -0.002186659327717413   -0.0005846888651158297
0.0002593566933319048   -0.006634066501642363   -0.0010641064102935344
0.002716401564305844   -0.006706625905492998   -0.0010724562170417713
0.0014874751376260118   -0.0022685384989997804   -0.0005910497334555183
0.002704241041242837   -0.0066703275079417175   -0.001145132938953296
0.0001898318291795936   -0.002186659327717413   -0.0005846888651158297
0.0014812870225405133   -0.0022361461431228474   -0.0006823059015556268
0.002704241041242837   -0.0066703275079417175   -0.001145132938953296
0.0014874751376260118   -0.0022685384989997804   -0.0005910497334555183
0.0001898318291795936   -0.002186659327717413   -0.0005846888651158297
0.002704241041242837   -0.0066703275079417175   -0.001145132938953296
0.0002746123339153223   -0.006631897309045655   -0.0010669124251551198
0.0002593566933319048   -0.006634066501642363   -0.0010641064102935344
0.0001898318291795936   -0.002186659327717413   -0.0005846888651158297
0.002704241041242837   -0.0066703275079417175   -0.001145132938953296
0.0002593566933319048   -0.006634066501642363   -0.0010641064102935344
0.0014874751376260118   -0.0022685384989997804   -0.0005910497334555183
0.0001898318291795936   -0.002186659327717413   -0.0005846888651158297
0.0002746123339153223   -0.006631897309045655   -0.0010669124251551198
0.0014812870225405133   -0.0022361461431228474   -0.0006823059015556268
0.00021839385165481383   -0.0021393336651019477   -0.0005938321020111673
0.0002746123339153223   -0.006631897309045655   -0.0010669124251551198
0.002704241041242837   -0.0066703275079417175   -0.001145132938953296
0.0014812870225405133   -0.0022361461431228474   -0.0006823059015556268
0.0026974144642765525   -0.006588262992075056   -0.001223719782557453
0.00021839385165481383   -0.0021393336651019477   -0.0005938321020111673
0.0015101504773997988   -0.0021495281720600103   -0.000771847782449802
0.0026974144642765525   -0.006588262992075056   -0.001223719782557453
0.0014812870225405133   -0.0022361461431228474   -0.0006823059015556268
0.00021839385165481383   -0.0021393336651019477   -0.0005938321020111673
0.0026974144642765525   -0.006588262992075056   -0.001223719782557453
0.00029095477764622807   -0.006592035871228443   -0.0010774400849746083
0.0002746123339153223   -0.006631897309045655   -0.0010669124251551198
0.00021839385165481383   -0.0021393336651019477   -0.0005938321020111673
0.0026974144642765525   -0.006588262992075056   -0.001223719782557453
0.0002746123339153223   -0.006631897309045655   -0.0010669124251551198
0.0014812870225405133   -0.0022361461431228474   -0.0006823059015556268
0.0014846234274069824   -0.002256599552897345   -0.0004959545924714756
0.00270346134451337   -0.006707067783948084   -0.0010083798778221886
0.003352869256830025   -0.0025215395585808232   -0.00046817651210448685
0.0014874751376260118   -0.0022685384989997804   -0.0005910497334555183
0.00270346134451337   -0.006707067783948084   -0.0010083798778221886
0.005680479807617326   -0.006906646417443027   -0.0009923927261951248
0.003352869256830025   -0.0025215395585808232   -0.00046817651210448685
0.005565502220720084   -0.006887624191710117   -0.001136601606992521
0.0014874751376260118   -0.0022685384989997804   -0.0005910497334555183
0.003149160426157933   -0.0024938931644137305   -0.0006838576372669175
0.005565502220720084   -0.006887624191710117   -0.001136601606992521
0.003352869256830025   -0.0025215395585808232   -0.00046817651210448685
0.0014874751376260118   -0.0022685384989997804   -0.0005910497334555183
0.005565502220720084   -0.006887624191710117   -0.001136601606992521
0.002716401564305844   -0.006706625905492998   -0.0010724562170417713
0.00270346134451337   -0.006707067783948084   -0.0010083798778221886
0.0014874751376260118   -0.0022685384989997804   -0.0005910497334555183
0.005565502220720084   -0.006887624191710117   -0.001136601606992521
0.00270346134451337   -0.006707067783948084   -0.0010083798778221886
0.003352869256830025   -0.0025215395585808232   -0.00046817651210448685
0.0014874751376260118   -0.0022685384989997804   -0.0005910497334555183
0.002716401564305844   -0.006706625905492998   -0.0010724562170417713
0.003149160426157933   -0.0024938931644137305   -0.0006838576372669175
0.0014812870225405133   -0.0022361461431228474   -0.0006823059015556268
0.002716401564305844   -0.006706625905492998   -0.0010724562170417713
0.005565502220720084   -0.006887624191710117   -0.001136601606992521
0.003149160426157933   -0.0024938931644137305   -0.0006838576372669175
0.005462698434642163   -0.006831686931588307   -0.0012989015183910945
0.0014812870225405133   -0.0022361461431228474   -0.0006823059015556268
0.0030553045839222773   -0.0024420457615592322   -0.0008662671540809769
0.005462698434642163   -0.006831686931588307   -0.0012989015183910945
0.003149160426157933   -0.0024938931644137305   -0.0006838576372669175
0.0014812870225405133   -0.0022361461431228474   -0.0006823059015556268
0.005462698434642163   -0.006831686931588307   -0.0012989015183910945
0.002704241041242837   -0.0066703275079417175   -0.001145132938953296
0.002716401564305844   -0.006706625905492998   -0.0010724562170417713
0.0014812870225405133   -0.0022361461431228474   -0.0006823059015556268
0.005462698434642163   -0.006831686931588307   -0.0012989015183910945
0.002716401564305844   -0.006706625905492998   -0.0010724562170417713
0.003149160426157933   -0.0024938931644137305   -0.0006838576372669175
0.0014812870225405133   -0.0022361461431228474   -0.0006823059015556268
0.002704241041242837   -0.0066703275079417175   -0.001145132938953296
0.0030553045839222773   -0.0024420457615592322   -0.0008662671540809769
0.0015101504773997988   -0.0021495281720600103   -0.000771847782449802
0.002704241041242837   -0.0066703275079417175   -0.001145132938953296
0.005462698434642163   -0.006831686931588307   -0.0012989015183910945
0.0030553045839222773   -0.0024420457615592322   -0.0008662671540809769
0.005308399741786254   -0.0067073657194097885   -0.0014678911324076433
0.0015101504773997988   -0.0021495281720600103   -0.000771847782449802
0.00291545205982162   -0.0023094794243234077   -0.001059348020554008
0.005308399741786254   -0.0067073657194097885   -0.0014678911324076433
0.0030553045839222773   -0.0024420457615592322   -0.0008662671540809769
0.0015101504773997988   -0.0021495281720600103   -0.000771847782449802
0.005308399741786254   -0.0067073657194097885   -0.0014678911324076433
0.0026974144642765525   -0.006588262992075056   -0.001223719782557453
0.002704241041242837   -0.0066703275079417175   -0.001145132938953296
0.0015101504773997988   -0.0021495281720600103   -0.000771847782449802
0.005308399741786254   -0.0067073657194097885   -0.0014678911324076433
0.002704241041242837   -0.0066703275079417175   -0.001145132938953296
0.0030553045839222773   -0.0024420457615592322   -0.0008662671540809769
-0.007057513419005407   -0.0069272059204623275   -0.0017063377310408804
-0.009666851153793192   -0.012984610765051216   -0.0019438876430786802
-0.004504423487143563   -0.006701526067467921   -0.001404771850863633
-0.007268528681967773   -0.0070868173085083894   -0.0014798931605894483
-0.009666851153793192   -0.012984610765051216   -0.0019438876430786802
-0.006215468590834067   -0.012812251993397203   -0.001699496274517427
-0.004504423487143563   -0.006701526067467921   -0.001404771850863633
-0.006228687637097869   -0.012910890293043223   -0.0015913455511367544
-0.007268528681967773   -0.0070868173085083894   -0.0014798931605894483
-0.0045094192447150535   -0.006815885990483671   -0.0012652915283552148
-0.006228687637097869   -0.012910890293043223   -0.0015913455511367544
-0.004504423487143563   -0.006701526067467921   -0.001404771850863633
-0.007268528681967773   -0.0070868173085083894   -0.0014798931605894483
-0.006228687637097869   -0.012910890293043223   -0.0015913455511367544
-0.00983818594456054   -0.013119440185643618   -0.0017751577972807899
-0.009666851153793192   -0.012984610765051216   -0.0019438876430786802
-0.007268528681967773   -0.0070868173085083894   -0.0014798931605894483
-0.006228687637097869   -0.012910890293043223   -0.0015913455511367544
-0.009666851153793192   -0.012984610765051216   -0.0019438876430786802
-0.004504423487143563   -0.006701526067467921   -0.001404771850863633
-0.007268528681967773   -0.0070868173085083894   -0.0014798931605894483
-0.00983818594456054   -0.013119440185643618   -0.0017751577972807899
-0.0045094192447150535   -0.006815885990483671   -0.0012652915283552148
-0.007415002937055549   -0.007176987968510068   -0.0012581947075008214
-0.00983818594456054   -0.013119440185643618   -0.0017751577972807899
-0.006228687637097869   -0.012910890293043223   -0.0015913455511367544
-0.0045094192447150535   -0.006815885990483671   -0.0012652915283552148
-0.0062443039611854755   -0.012979571326757757   -0.0014910367682307035
-0.007415002937055549   -0.007176987968510068   -0.0012581947075008214
-0.004526828929084549   -0.006885630939354692   -0.001131277980645255
-0.0062443039611854755   -0.012979571326757757   -0.0014910367682307035
-0.0045094192447150535   -0.006815885990483671   -0.0012652915283552148
-0.007415002937055549   -0.007176987968510068   -0.0012581947075008214
-0.0062443039611854755   -0.012979571326757757   -0.0014910367682307035
-0.009946009922522049   -0.013204030044106925   -0.001617921657598161
-0.00983818594456054   -0.013119440185643618   -0.0017751577972807899
-0.007415002937055549   -0.007176987968510068   -0.0012581947075008214
-0.0062443039611854755   -0.012979571326757757   -0.0014910367682307035
-0.00983818594456054   -0.013119440185643618   -0.0017751577972807899
-0.0045094192447150535   -0.006815885990483671   -0.0012652915283552148
-0.007415002937055549   -0.007176987968510068   -0.0012581947075008214
-0.009946009922522049   -0.013204030044106925   -0.001617921657598161
-0.004526828929084549   -0.006885630939354692   -0.001131277980645255
-0.007588114742744325   -0.007229507562462281   -0.0010565376633152625
-0.009946009922522049   -0.013204030044106925   -0.001617921657598161
-0.0062443039611854755   -0.012979571326757757   -0.0014910367682307035
-0.004526828929084549   -0.006885630939354692   -0.001131277980645255
-0.006232166278527166   -0.013024814522645268   -0.0013968982112967094
-0.007588114742744325   -0.007229507562462281   -0.0010565376633152625
-0.004512978966128517   -0.0069218741485939555   -0.0010058580351812614
-0.006232166278527166   -0.013024814522645268   -0.0013968982112967094
-0.004526828929084549   -0.006885630939354692   -0.001131277980645255
-0.007588114742744325   -0.007229507562462281   -0.0010565376633152625
-0.006232166278527166   -0.013024814522645268   -0.0013968982112967094
-0.010068691429450346   -0.013264958564427864   -0.0014732544609065447
-0.009946009922522049   -0.013204030044106925   -0.001617921657598161
-0.007588114742744325   -0.007229507562462281   -0.0010565376633152625
-0.006232166278527166   -0.013024814522645268   -0.0013968982112967094
-0.009946009922522049   -0.013204030044106925   -0.001617921657598161
-0.004526828929084549   -0.006885630939354692   -0.001131277980645255
-0.004504423487143563   -0.006701526067467921   -0.001404771850863633
-0.006215468590834067   -0.012812251993397203   -0.001699496274517427
-0.00209060432155151   -0.006596511541946853   -0.0011989452964639216
-0.0045094192447150535   -0.006815885990483671   -0.0012652915283552148
-0.006215468590834067   -0.012812251993397203   -0.001699496274517427
-0.002961884227329038   -0.012726277011739685   -0.0015297238130586696
-0.00209060432155151   -0.006596511541946853   -0.0011989452964639216
-0.0029540623830566046   -0.012789314898439123   -0.0014685603988067615
-0.0045094192447150535   -0.006815885990483671   -0.0012652915283552148
-0.002072238040100899   -0.006669261314134004   -0.00112743830354937
-0.0029540623830566046   -0.012789314898439123   -0.0014685603988067615
-0.00209060432155151   -0.006596511541946853   -0.0011989452964639216
-0.0045094192447150535   -0.006815885990483671   -0.0012652915283552148
-0.0029540623830566046   -0.012789314898439123   -0.0014685603988067615
-0.006228687637097869   -0.012910890293043223   -0.0015913455511367544
-0.006215468590834067   -0.012812251993397203   -0.001699496274517427
-0.0045094192447150535   -0.006815885990483671   -0.0012652915283552148
-0.0029540623830566046   -0.012789314898439123   -0.0014685603988067615
-0.006215468590834067   -0.012812251993397203   -0.001699496274517427
-0.00209060432155151   -0.006596511541946853   -0.0011989452964639216
-0.0045094192447150535   -0.006815885990483671   -0.0012652915283552148
-0.006228687637097869   -0.012910890293043223   -0.0015913455511367544
-0.002072238040100899   -0.006669261314134004   -0.00112743830354937
-0.004526828929084549   -0.006885630939354692   -0.001131277980645255
-0.006228687637097869   -0.012910890293043223   -0.0015913455511367544
-0.0029540623830566046   -0.012789314898439123   -0.0014685603988067615
-0.002072238040100899   -0.006669261314134004   -0.00112743830354937
-0.0029445745135787426   -0.012826357775239784   -0.001414861706345194
-0.004526828929084549   -0.006885630939354692   -0.001131277980645255
-0.0020559253856182176   -0.006704556559101674   -0.0010626301851217005
-0.0029445745135787426   -0.012826357775239784   -0.001414861706345194
-0.002072238040100899   -0.006669261314134004   -0.00112743830354937
-0.004526828929084549   -0.006885630939354692   -0.001131277980645255
-0.0029445745135787426   -0.012826357775239784   -0.001414861706345194
-0.0062443039611854755   -0.012979571326757757   -0.0014910367682307035
-0.006228687637097869   -0.012910890293043223   -0.0015913455511367544
-0.004526828929084549   -0.006885630939354692   -0.001131277980645255
-0.0029445745135787426   -0.012826357775239784   -0.001414861706345194
-0.006228687637097869   -0.012910890293043223   -0.0015913455511367544
-0.002072238040100899   -0.006669261314134004   -0.00112743830354937
-0.004526828929084549   -0.006885630939354692   -0.001131277980645255
-0.0062443039611854755   -0.012979571326757757   -0.0014910367682307035
-0.0020559253856182176   -0.006704556559101674   -0.0010626301851217005
-0.004512978966128517   -0.0069218741485939555   -0.0010058580351812614
-0.0062443039611854755   -0.012979571326757757   -0.0014910367682307035
-0.0029445745135787426   -0.012826357775239784   -0.001414861706345194
-0.0020559253856182176   -0.006704556559101674   -0.0010626301851217005
-0.0029292303308388386   -0.012837935115905688   -0.0013686067183552107
-0.004512978966128517   -0.0069218741485939555   -0.0010058580351812614
-0.0020317359484098253   -0.006703726873100011   -0.0010062241182086007
-0.0029292303308388386   -0.012837935115905688   -0.0013686067183552107
-0.0020559253856182176   -0.006704556559101674   -0.0010626301851217005
-0.004512978966128517   -0.0069218741485939555   -0.0010058580351812614
-0.0029292303308388386   -0.012837935115905688   -0.0013686067183552107
-0.006232166278527166   -0.013024814522645268   -0.0013968982112967094
-0.0062443039611854755   -0.012979571326757757   -0.0014910367682307035
-0.004512978966128517   -0.0069218741485939555   -0.0010058580351812614
-0.0029292303308388386   -0.012837935115905688   -0.0013686067183552107
-0.0062443039611854755   -0.012979571326757757   -0.0014910367682307035
-0.0020559253856182176   -0.006704556559101674   -0.0010626301851217005
-0.00209060432155151   -0.006596511541946853   -0.0011989452964639216
-0.002961884227329038   -0.012726277011739685   -0.0015297238130586696
0.00023683933462361107   -0.006599658018145494   -0.0010689022541220704
-0.002072238040100899   -0.006669261314134004   -0.00112743830354937
-0.002961884227329038   -0.012726277011739685   -0.0015297238130586696
0.00019597098150220583   -0.01272169349756604   -0.001424557232261352
0.00023683933462361107   -0.006599658018145494   -0.0010689022541220704
0.00021003262318951984   -0.012749678602808664   -0.00141013207412853
-0.002072238040100899   -0.006669261314134004   -0.00112743830354937
0.0002593566933319048   -0.006634066501642363   -0.0010641064102935344
0.00021003262318951984   -0.012749678602808664   -0.00141013207412853
0.00023683933462361107   -0.006599658018145494   -0.0010689022541220704
-0.002072238040100899   -0.006669261314134004   -0.00112743830354937
0.00021003262318951984   -0.012749678602808664   -0.00141013207412853
-0.0029540623830566046   -0.012789314898439123   -0.0014685603988067615
-0.002961884227329038   -0.012726277011739685   -0.0015297238130586696
-0.002072238040100899   -0.006669261314134004   -0.00112743830354937
0.00021003262318951984   -0.012749678602808664   -0.00141013207412853
-0.002961884227329038   -0.012726277011739685   -0.0015297238130586696
0.00023683933462361107   -0.006599658018145494   -0.0010689022541220704
-0.002072238040100899   -0.006669261314134004   -0.00112743830354937
-0.0029540623830566046   -0.012789314898439123   -0.0014685603988067615
0.0002593566933319048   -0.006634066501642363   -0.0010641064102935344
-0.0020559253856182176   -0.006704556559101674   -0.0010626301851217005
-0.0029540623830566046   -0.012789314898439123   -0.0014685603988067615
0.00021003262318951984   -0.012749678602808664   -0.00141013207412853
0.0002593566933319048   -0.006634066501642363   -0.0010641064102935344
0.000219191477393523   -0.012751772203807524   -0.0014029780619391826
-0.0020559253856182176   -0.006704556559101674   -0.0010626301851217005
0.0002746123339153223   -0.006631897309045655   -0.0010669124251551198
0.000219191477393523   -0.012751772203807524   -0.0014029780619391826
0.0002593566933319048   -0.006634066501642363   -0.0010641064102935344
-0.0020559253856182176   -0.006704556559101674   -0.0010626301851217005
0.000219191477393523   -0.012751772203807524   -0.0014029780619391826
-0.0029445745135787426   -0.012826357775239784   -0.001414861706345194
-0.0029540623830566046   -0.012789314898439123   -0.0014685603988067615
-0.0020559253856182176   -0.006704556559101674   -0.0010626301851217005
0.000219191477393523   -0.012751772203807524   -0.0014029780619391826
-0.0029540623830566046   -0.012789314898439123   -0.0014685603988067615
0.0002593566933319048   -0.006634066501642363   -0.0010641064102935344
-0.0020559253856182176   -0.006704556559101674   -0.0010626301851217005
-0.0029445745135787426   -0.012826357775239784   -0.001414861706345194
0.0002746123339153223   -0.006631897309045655   -0.0010669124251551198
-0.0020317359484098253   -0.006703726873100011   -0.0010062241182086007
-0.0029445745135787426   -0.012826357775239784   -0.001414861706345194
0.000219191477393523   -0.012751772203807524   -0.0014029780619391826
0.0002746123339153223   -0.006631897309045655   -0.0010669124251551198
0.00022593304171426263   -0.01272758884915873   -0.0014035354886413804
-0.0020317359484098253   -0.006703726873100011   -0.0010062241182086007
0.00029095477764622807   -0.006592035871228443   -0.0010774400849746083
0.00022593304171426263   -0.01272758884915873   -0.0014035354886413804
0.0002746123339153223   -0.006631897309045655   -0.0010669124251551198
-0.0020317359484098253   -0.006703726873100011   -0.0010062241182086007
0.00022593304171426263   -0.01272758884915873   -0.0014035354886413804
-0.0029292303308388386   -0.012837935115905688   -0.0013686067183552107
-0.0029445745135787426   -0.012826357775239784   -0.001414861706345194
-0.0020317359484098253   -0.006703726873100011   -0.0010062241182086007
0.00022593304171426263   -0.01272758884915873   -0.0014035354886413804
-0.0029445745135787426   -0.012826357775239784   -0.001414861706345194
0.0002746123339153223   -0.006631897309045655   -0.0010669124251551198
0.00023683933462361107   -0.006599658018145494   -0.0010689022541220704
0.00019597098150220583   -0.01272169349756604   -0.001424557232261352
0.00270346134451337   -0.006707067783948084   -0.0010083798778221886
0.0002593566933319048   -0.006634066501642363   -0.0010641064102935344
0.00019597098150220583   -0.01272169349756604   -0.001424557232261352
0.003488721683164329   -0.012793659643684577   -0.0013822119516399924
0.00270346134451337   -0.006707067783948084   -0.0010083798778221886
0.00350109705909619   -0.01278950089457641   -0.001415492283747617
0.0002593566933319048   -0.006634066501642363   -0.0010641064102935344
0.002716401564305844   -0.006706625905492998   -0.0010724562170417713
0.00350109705909619   -0.01278950089457641   -0.001415492283747617
0.00270346134451337   -0.006707067783948084   -0.0010083798778221886
0.0002593566933319048   -0.006634066501642363   -0.0010641064102935344
0.00350109705909619   -0.01278950089457641   -0.001415492283747617
0.00021003262318951984   -0.012749678602808664   -0.00141013207412853
0.00019597098150220583   -0.01272169349756604   -0.001424557232261352
0.0002593566933319048   -0.006634066501642363   -0.0010641064102935344
0.00350109705909619   -0.01278950089457641   -0.001415492283747617
0.00019597098150220583   -0.01272169349756604   -0.001424557232261352
0.00270346134451337   -0.006707067783948084   -0.0010083798778221886
0.0002593566933319048   -0.006634066501642363   -0.0010641064102935344
0.00021003262318951984   -0.012749678602808664   -0.00141013207412853
0.002716401564305844   -0.006706625905492998   -0.0010724562170417713
0.0002746123339153223   -0.006631897309045655   -0.0010669124251551198
0.00021003262318951984   -0.012749678602808664   -0.00141013207412853
0.00350109705909619   -0.01278950089457641   -0.001415492283747617
0.002716401564305844   -0.006706625905492998   -0.0010724562170417713
0.003492705578513276   -0.012760020651108765   -0.0014555094879844968
0.0002746123339153223   -0.006631897309045655   -0.0010669124251551198
0.002704241041242837   -0.0066703275079417175   -0.001145132938953296
0.003492705578513276   -0.012760020651108765   -0.0014555094879844968
0.002716401564305844   -0.006706625905492998   -0.0010724562170417713
0.0002746123339153223   -0.006631897309045655   -0.0010669124251551198
0.003492705578513276   -0.012760020651108765   -0.0014555094879844968
0.000219191477393523   -0.012751772203807524   -0.0014029780619391826
0.00021003262318951984   -0.012749678602808664   -0.00141013207412853
0.0002746123339153223   -0.006631897309045655   -0.0010669124251551198
0.003492705578513276   -0.012760020651108765   -0.0014555094879844968
0.00021003262318951984   -0.012749678602808664   -0.00141013207412853
0.002716401564305844   -0.006706625905492998   -0.0010724562170417713
0.0002746123339153223   -0.006631897309045655   -0.0010669124251551198
0.000219191477393523   -0.012751772203807524   -0.0014029780619391826
0.002704241041242837   -0.0066703275079417175   -0.001145132938953296
0.00029095477764622807   -0.006592035871228443   -0.0010774400849746083
0.000219191477393523   -0.012751772203807524   -0.0014029780619391826
0.003492705578513276   -0.012760020651108765   -0.0014555094879844968
0.002704241041242837   -0.0066703275079417175   -0.001145132938953296
0.0034798689235593233   -0.012698932480048695   -0.0015030630123223016
0.00029095477764622807   -0.006592035871228443   -0.0010774400849746083
0.0026974144642765525   -0.006588262992075056   -0.001223719782557453
0.0034798689235593233   -0.012698932480048695   -0.0015030630123223016
0.002704241041242837   -0.0066703275079417175   -0.001145132938953296
0.00029095477764622807   -0.006592035871228443   -0.0010774400849746083
0.0034798689235593233   -0.012698932480048695   -0.0015030630123223016
0.00022593304171426263   -0.01272758884915873   -0.0014035354886413804
0.000219191477393523   -0.012751772203807524   -0.0014029780619391826
0.00029095477764622807   -0.006592035871228443   -0.0010774400849746083
0.0034798689235593233   -0.012698932480048695   -0.0015030630123223016
0.000219191477393523   -0.012751772203807524   -0.0014029780619391826
0.002704241041242837   -0.0066703275079417175   -0.001145132938953296
0.00270346134451337   -0.006707067783948084   -0.0010083798778221886
0.003488721683164329   -0.012793659643684577   -0.0013822119516399924
0.005680479807617326   -0.006906646417443027   -0.0009923927261951248
0.002716401564305844   -0.006706625905492998   -0.0010724562170417713
0.003488721683164329   -0.012793659643684577   -0.0013822119516399924
0.007238918687594538   -0.012924095042330419   -0.0013834282402452069
0.005680479807617326   -0.006906646417443027   -0.0009923927261951248
0.007176663365238448   -0.012901391532669443   -0.0014705059827048407
0.002716401564305844   -0.006706625905492998   -0.0010724562170417713
0.005565502220720084   -0.006887624191710117   -0.001136601606992521
0.007176663365238448   -0.012901391532669443   -0.0014705059827048407
0.005680479807617326   -0.006906646417443027   -0.0009923927261951248
0.002716401564305844   -0.006706625905492998   -0.0010724562170417713
0.007176663365238448   -0.012901391532669443   -0.0014705059827048407
0.00350109705909619   -0.01278950089457641   -0.001415492283747617
0.003488721683164329   -0.012793659643684577   -0.0013822119516399924
0.002716401564305844   -0.006706625905492998   -0.0010724562170417713
0.007176663365238448   -0.012901391532669443   -0.0014705059827048407
0.003488721683164329   -0.012793659643684577   -0.0013822119516399924
0.005680479807617326   -0.006906646417443027   -0.0009923927261951248
0.002716401564305844   -0.006706625905492998   -0.0010724562170417713
0.00350109705909619   -0.01278950089457641   -0.001415492283747617
0.005565502220720084   -0.006887624191710117   -0.001136601606992521
0.002704241041242837   -0.0066703275079417175   -0.001145132938953296
0.00350109705909619   -0.01278950089457641   -0.001415492283747617
0.007176663365238448   -0.012901391532669443   -0.0014705059827048407
0.005565502220720084   -0.006887624191710117   -0.001136601606992521
0.007114418597406856   -0.012856031589736906   -0.0015697323718265636
0.002704241041242837   -0.0066703275079417175   -0.001145132938953296
0.005462698434642163   -0.006831686931588307   -0.0012989015183910945
0.007114418597406856   -0.012856031589736906   -0.0015697323718265636
0.005565502220720084   -0.006887624191710117   -0.001136601606992521
0.002704241041242837   -0.0066703275079417175   -0.001145132938953296
0.007114418597406856   -0.012856031589736906   -0.0015697323718265636
0.003492705578513276   -0.012760020651108765   -0.0014555094879844968
0.00350109705909619   -0.01278950089457641   -0.001415492283747617
0.002704241041242837   -0.0066703275079417175   -0.001145132938953296
0.007114418597406856   -0.012856031589736906   -0.0015697323718265636
0.00350109705909619   -0.01278950089457641   -0.001415492283747617
0.005565502220720084   -0.006887624191710117   -0.001136601606992521
0.002704241041242837   -0.0066703275079417175   -0.001145132938953296
0.003492705578513276   -0.012760020651108765   -0.0014555094879844968
0.005462698434642163   -0.006831686931588307   -0.0012989015183910945
0.0026974144642765525   -0.006588262992075056   -0.001223719782557453
0.003492705578513276   -0.012760020651108765   -0.0014555094879844968
0.007114418597406856   -0.012856031589736906   -0.0015697323718265636
0.005462698434642163   -0.006831686931588307   -0.0012989015183910945
0.007003371753307159   -0.012761042324503969   -0.0016811205064511316
0.0026974144642765525   -0.006588262992075056   -0.001223719782557453
0.005308399741786254   -0.0067073657194097885   -0.0014678911324076433
0.007003371753307159   -0.012761042324503969   -0.0016811205064511316
0.005462698434642163   -0.006831686931588307   -0.0012989015183910945
0.0026974144642765525   -0.006588262992075056   -0.001223719782557453
0.007003371753307159   -0.012761042324503969   -0.0016811205064511316
0.0034798689235593233   -0.012698932480048695   -0.0015030630123223016
0.003492705578513276   -0.012760020651108765   -0.0014555094879844968
0.0026974144642765525   -0.006588262992075056   -0.001223719782557453
0.007003371753307159   -0.012761042324503969   -0.0016811205064511316
0.003492705578513276   -0.012760020651108765   -0.0014555094879844968
0.005462698434642163   -0.006831686931588307   -0.0012989015183910945
-0.009666851153793192   -0.012984610765051216   -0.0019438876430786802
-0.011540543188697057   -0.020163332964276758   -0.0020736286659850016
-0.006215468590834067   -0.012812251993397203   -0.001699496274517427
-0.00983818594456054   -0.013119440185643618   -0.0017751577972807899
-0.011540543188697057   -0.020163332964276758   -0.0020736286659850016
-0.007491821703089819   -0.020053770693176123   -0.0018745478799553148
-0.006215468590834067   -0.012812251993397203   -0.001699496274517427
-0.007500383697796982   -0.020138548631300678   -0.001797187758895533
-0.00983818594456054   -0.013119440185643618   -0.0017751577972807899
-0.006228687637097869   -0.012910890293043223   -0.0015913455511367544
-0.007500383697796982   -0.020138548631300678   -0.001797187758895533
-0.006215468590834067   -0.012812251993397203   -0.001699496274517427
-0.00983818594456054   -0.013119440185643618   -0.0017751577972807899
-0.007500383697796982   -0.020138548631300678   -0.001797187758895533
-0.01165570211330526   -0.020278049038783743   -0.0019617113902677752
-0.011540543188697057   -0.020163332964276758   -0.0020736286659850016
-0.00983818594456054   -0.013119440185643618   -0.0017751577972807899
-0.007500383697796982   -0.020138548631300678   -0.001797187758895533
-0.011540543188697057   -0.020163332964276758   -0.0020736286659850016
-0.006215468590834067   -0.012812251993397203   -0.001699496274517427
-0.00983818594456054   -0.013119440185643618   -0.0017751577972807899
-0.01165570211330526   -0.020278049038783743   -0.0019617113902677752
-0.006228687637097869   -0.012910890293043223   -0.0015913455511367544
-0.009946009922522049   -0.013204030044106925   -0.001617921657598161
-0.01165570211330526   -0.020278049038783743   -0.0019617113902677752
-0.007500383697796982   -0.020138548631300678   -0.001797187758895533
-0.006228687637097869   -0.012910890293043223   -0.0015913455511367544
-0.0075063483039729305   -0.020205800429299745   -0.001727544565874648
-0.009946009922522049   -0.013204030044106925   -0.001617921657598161
-0.0062443039611854755   -0.012979571326757757   -0.0014910367682307035
-0.0075063483039729305   -0.020205800429299745   -0.001727544565874648
-0.006228687637097869   -0.012910890293043223   -0.0015913455511367544
-0.009946009922522049   -0.013204030044106925   -0.001617921657598161
-0.0075063483039729305   -0.020205800429299745   -0.001727544565874648
-0.011721557072821869   -0.020359262020510947   -0.001860552795259013
-0.01165570211330526   -0.020278049038783743   -0.0019617113902677752
-0.009946009922522049   -0.013204030044106925   -0.001617921657598161
-0.0075063483039729305   -0.020205800429299745   -0.001727544565874648
-0.01165570211330526   -0.020278049038783743   -0.0019617113902677752
-0.006228687637097869   -0.012910890293043223   -0.0015913455511367544
-0.009946009922522049   -0.013204030044106925   -0.001617921657598161
-0.011721557072821869   -0.020359262020510947   -0.001860552795259013
-0.0062443039611854755   -0.012979571326757757   -0.0014910367682307035
-0.010068691429450346   -0.013264958564427864   -0.0014732544609065447
-0.011721557072821869   -0.020359262020510947   -0.001860552795259013
-0.0075063483039729305   -0.020205800429299745   -0.001727544565874648
-0.0062443039611854755   -0.012979571326757757   -0.0014910367682307035
-0.007490362650090152   -0.020261107699876567   -0.0016645896139335268
-0.010068691429450346   -0.013264958564427864   -0.0014732544609065447
-0.006232166278527166   -0.013024814522645268   -0.0013968982112967094
-0.007490362650090152   -0.020261107699876567   -0.0016645896139335268
-0.0062443039611854755   -0.012979571326757757   -0.0014910367682307035
-0.010068691429450346   -0.013264958564427864   -0.0014732544609065447
-0.007490362650090152   -0.020261107699876567   -0.0016645896139335268
-0.01178935344475036   -0.020432144040586922   -0.0017714343613871397
-0.011721557072821869   -0.020359262020510947   -0.001860552795259013
-0.010068691429450346   -0.013264958564427864   -0.0014732544609065447
-0.007490362650090152   -0.020261107699876567   -0.0016645896139335268
-0.011721557072821869   -0.020359262020510947   -0.001860552795259013
-0.0062443039611854755   -0.012979571326757757   -0.0014910367682307035
-0.006215468590834067   -0.012812251993397203   -0.001699496274517427
-0.007491821703089819   -0.020053770693176123   -0.0018745478799553148
-0.002961884227329038   -0.012726277011739685   -0.0015297238130586696
-0.006228687637097869   -0.012910890293043223   -0.0015913455511367544
-0.007491821703089819   -0.020053770693176123   -0.0018745478799553148
-0.003696629866282728   -0.01999707078429867   -0.0017367106407103856
-0.002961884227329038   -0.012726277011739685   -0.0015297238130586696
-0.0036891703609507934   -0.020050233781069595   -0.00168558244758389
-0.006228687637097869   -0.012910890293043223   -0.0015913455511367544
-0.0029540623830566046   -0.012789314898439123   -0.0014685603988067615
-0.0036891703609507934   -0.020050233781069595   -0.00168558244758389
-0.002961884227329038   -0.012726277011739685   -0.0015297238130586696
-0.006228687637097869   -0.012910890293043223   -0.0015913455511367544
-0.0036891703609507934   -0.020050233781069595   -0.00168558244758389
-0.007500383697796982   -0.020138548631300678   -0.001797187758895533
-0.007491821703089819   -0.020053770693176123   -0.0018745478799553148
-0.006228687637097869   -0.012910890293043223   -0.0015913455511367544
-0.0036891703609507934   -0.020050233781069595   -0.00168558244758389
-0.007491821703089819   -0.020053770693176123   -0.0018745478799553148
-0.002961884227329038   -0.012726277011739685   -0.0015297238130586696
-0.006228687637097869   -0.012910890293043223   -0.0015913455511367544
-0.007500383697796982   -0.020138548631300678   -0.001797187758895533
-0.0029540623830566046   -0.012789314898439123   -0.0014685603988067615
-0.0062443039611854755   -0.012979571326757757   -0.0014910367682307035
-0.007500383697796982   -0.020138548631300678   -0.001797187758895533
-0.0036891703609507934   -0.020050233781069595   -0.00168558244758389
-0.0029540623830566046   -0.012789314898439123   -0.0014685603988067615
-0.003679146281753222   -0.020088705878082456   -0.0016420528793588676
-0.0062443039611854755   -0.012979571326757757   -0.0014910367682307035
-0.0029445745135787426   -0.012826357775239784   -0.001414861706345194
-0.003679146281753222   -0.020088705878082456   -0.0016420528793588676
-0.0029540623830566046   -0.012789314898439123   -0.0014685603988067615
-0.0062443039611854755   -0.012979571326757757   -0.0014910367682307035
-0.003679146281753222   -0.020088705878082456   -0.0016420528793588676
-0.0075063483039729305   -0.020205800429299745   -0.001727544565874648
-0.007500383697796982   -0.020138548631300678   -0.001797187758895533
-0.0062443039611854755   -0.012979571326757757   -0.0014910367682307035
-0.003679146281753222   -0.020088705878082456   -0.0016420528793588676
-0.007500383697796982   -0.020138548631300678   -0.001797187758895533
-0.0029540623830566046   -0.012789314898439123   -0.0014685603988067615
-0.0062443039611854755   -0.012979571326757757   -0.0014910367682307035
-0.0075063483039729305   -0.020205800429299745   -0.001727544565874648
-0.0029445745135787426   -0.012826357775239784   -0.001414861706345194
-0.006232166278527166   -0.013024814522645268   -0.0013968982112967094
-0.0075063483039729305   -0.020205800429299745   -0.001727544565874648
-0.003679146281753222   -0.020088705878082456   -0.0016420528793588676
-0.0029445745135787426   -0.012826357775239784   -0.001414861706345194
-0.003664400579096498   -0.020112739748421735   -0.0016062495327436616
-0.006232166278527166   -0.013024814522645268   -0.0013968982112967094
-0.0029292303308388386   -0.012837935115905688   -0.0013686067183552107
-0.003664400579096498   -0.020112739748421735   -0.0016062495327436616
-0.0029445745135787426   -0.012826357775239784   -0.001414861706345194
-0.006232166278527166   -0.013024814522645268   -0.0013968982112967094
-0.003664400579096498   -0.020112739748421735   -0.0016062495327436616
-0.007490362650090152   -0.020261107699876567   -0.0016645896139335268
-0.0075063483039729305   -0.020205800429299745   -0.001727544565874648
-0.006232166278527166   -0.013024814522645268   -0.0013968982112967094
-0.003664400579096498   -0.020112739748421735   -0.0016062495327436616
-0.0075063483039729305   -0.020205800429299745   -0.001727544565874648
-0.0029445745135787426   -0.012826357775239784   -0.001414861706345194
-0.002961884227329038   -0.012726277011739685   -0.0015297238130586696
-0.003696629866282728   -0.01999707078429867   -0.0017367106407103856
0.00019597098150220583   -0.01272169349756604   -0.001424557232261352
-0.0029540623830566046   -0.012789314898439123   -0.0014685603988067615
-0.003696629866282728   -0.01999707078429867   -0.0017367106407103856
-4.607156927653856e-06   -0.019987274229523025   -0.0016565351197616923
0.00019597098150220583   -0.01272169349756604   -0.001424557232261352
9.064514576723371e-06   -0.020008637959236523   -0.0016318481995553843
-0.0029540623830566046   -0.012789314898439123   -0.0014685603988067615
0.00021003262318951984   -0.012749678602808664   -0.00141013207412853
9.064514576723371e-06   -0.020008637959236523   -0.0016318481995553843
0.00019597098150220583   -0.01272169349756604   -0.001424557232261352
-0.0029540623830566046   -0.012789314898439123   -0.0014685603988067615
9.064514576723371e-06   -0.020008637959236523   -0.0016318481995553843
-0.0036891703609507934   -0.020050233781069595   -0.00168558244758389
-0.003696629866282728   -0.01999707078429867   -0.0017367106407103856
-0.0029540623830566046   -0.012789314898439123   -0.0014685603988067615
9.064514576723371e-06   -0.020008637959236523   -0.0016318481995553843
-0.003696629866282728   -0.01999707078429867   -0.0017367106407103856
0.00019597098150220583   -0.01272169349756604   -0.001424557232261352
-0.0029540623830566046   -0.012789314898439123   -0.0014685603988067615
-0.0036891703609507934   -0.020050233781069595   -0.00168558244758389
0.00021003262318951984   -0.012749678602808664   -0.00141013207412853
-0.0029445745135787426   -0.012826357775239784   -0.001414861706345194
-0.0036891703609507934   -0.020050233781069595   -0.00168558244758389
9.064514576723371e-06   -0.020008637959236523   -0.0016318481995553843
0.00021003262318951984   -0.012749678602808664   -0.00141013207412853
1.8921286720808605e-05   -0.02001520893010783   -0.0016146652038184712
-0.0029445745135787426   -0.012826357775239784   -0.001414861706345194
0.000219191477393523   -0.012751772203807524   -0.0014029780619391826
1.8921286720808605e-05   -0.02001520893010783   -0.0016146652038184712
0.00021003262318951984   -0.012749678602808664   -0.00141013207412853
-0.0029445745135787426   -0.012826357775239784   -0.001414861706345194
1.8921286720808605e-05   -0.02001520893010783   -0.0016146652038184712
-0.003679146281753222   -0.020088705878082456   -0.0016420528793588676
-0.0036891703609507934   -0.020050233781069595   -0.00168558244758389
-0.0029445745135787426   -0.012826357775239784   -0.001414861706345194
1.8921286720808605e-05   -0.02001520893010783   -0.0016146652038184712
-0.0036891703609507934   -0.020050233781069595   -0.00168558244758389
0.00021003262318951984   -0.012749678602808664   -0.00141013207412853
-0.0029445745135787426   -0.012826357775239784   -0.001414861706345194
-0.003679146281753222   -0.020088705878082456   -0.0016420528793588676
0.000219191477393523   -0.012751772203807524   -0.0014029780619391826
-0.0029292303308388386   -0.012837935115905688   -0.0013686067183552107
-0.003679146281753222   -0.020088705878082456   -0.0016420528793588676
1.8921286720808605e-05   -0.02001520893010783   -0.0016146652038184712
0.000219191477393523   -0.012751772203807524   -0.0014029780619391826
2.5345551771651795e-05   -0.02000678392210561   -0.0016053168413984124
-0.0029292303308388386   -0.012837935115905688   -0.0013686067183552107
0.00022593304171426263   -0.01272758884915873   -0.0014035354886413804
2.5345551771651795e-05   -0.02000678392210561   -0.0016053168413984124
0.000219191477393523   -0.012751772203807524   -0.0014029780619391826
-0.0029292303308388386   -0.012837935115905688   -0.0013686067183552107
2.5345551771651795e-05   -0.02000678392210561   -0.0016053168413984124
-0.003664400579096498   -0.020112739748421735   -0.0016062495327436616
-0.003679146281753222   -0.020088705878082456   -0.0016420528793588676
-0.0029292303308388386   -0.012837935115905688   -0.0013686067183552107
2.5345551771651795e-05   -0.02000678392210561   -0.0016053168413984124
-0.003679146281753222   -0.020088705878082456   -0.0016420528793588676
0.000219191477393523   -0.012751772203807524   -0.0014029780619391826
0.00019597098150220583   -0.01272169349756604   -0.001424557232261352
-4.607156927653856e-06   -0.019987274229523025   -0.0016565351197616923
0.003488721683164329   -0.012793659643684577   -0.0013822119516399924
0.00021003262318951984   -0.012749678602808664   -0.00141013207412853
-4.607156927653856e-06   -0.019987274229523025   -0.0016565351197616923
0.0038144026762452357   -0.020020363131355738   -0.0016337145793193107
0.003488721683164329   -0.012793659643684577   -0.0013822119516399924
0.0038310700979113086   -0.020011762258496935   -0.0016360226987646748
0.00021003262318951984   -0.012749678602808664   -0.00141013207412853
0.00350109705909619   -0.01278950089457641   -0.001415492283747617
0.0038310700979113086   -0.020011762258496935   -0.0016360226987646748
0.003488721683164329   -0.012793659643684577   -0.0013822119516399924
0.00021003262318951984   -0.012749678602808664   -0.00141013207412853
0.0038310700979113086   -0.020011762258496935   -0.0016360226987646748
9.064514576723371e-06   -0.020008637959236523   -0.0016318481995553843
-4.607156927653856e-06   -0.019987274229523025   -0.0016565351197616923
0.00021003262318951984   -0.012749678602808664   -0.00141013207412853
0.0038310700979113086   -0.020011762258496935   -0.0016360226987646748
-4.607156927653856e-06   -0.019987274229523025   -0.0016565351197616923
0.003488721683164329   -0.012793659643684577   -0.0013822119516399924
0.00021003262318951984   -0.012749678602808664   -0.00141013207412853
9.064514576723371e-06   -0.020008637959236523   -0.0016318481995553843
0.00350109705909619   -0.01278950089457641   -0.001415492283747617
0.000219191477393523   -0.012751772203807524   -0.0014029780619391826
9.064514576723371e-06   -0.020008637959236523   -0.0016318481995553843
0.0038310700979113086   -0.020011762258496935   -0.0016360226987646748
0.00350109705909619   -0.01278950089457641   -0.001415492283747617
0.0038328284138286267   -0.0199895181369236   -0.0016454295897445135
0.000219191477393523   -0.012751772203807524   -0.0014029780619391826
0.003492705578513276   -0.012760020651108765   -0.0014555094879844968
0.0038328284138286267   -0.0199895181369236   -0.0016454295897445135
0.00350109705909619   -0.01278950089457641   -0.001415492283747617
0.000219191477393523   -0.012751772203807524   -0.0014029780619391826
0.0038328284138286267   -0.0199895181369236   -0.0016454295897445135
1.8921286720808605e-05   -0.02001520893010783   -0.0016146652038184712
9.064514576723371e-06   -0.020008637959236523   -0.0016318481995553843
0.000219191477393523   -0.012751772203807524   -0.0014029780619391826
0.0038328284138286267   -0.0199895181369236   -0.0016454295897445135
9.064514576723371e-06   -0.020008637959236523   -0.0016318481995553843
0.00350109705909619   -0.01278950089457641   -0.001415492283747617
0.000219191477393523   -0.012751772203807524   -0.0014029780619391826
1.8921286720808605e-05   -0.02001520893010783   -0.0016146652038184712
0.003492705578513276   -0.012760020651108765   -0.0014555094879844968
0.00022593304171426263   -0.01272758884915873   -0.0014035354886413804
1.8921286720808605e-05   -0.02001520893010783   -0.0016146652038184712
0.0038328284138286267   -0.0199895181369236   -0.0016454295897445135
0.003492705578513276   -0.012760020651108765   -0.0014555094879844968
0.0038249679389818006   -0.019948080320318234   -0.0016622071812789922
0.00022593304171426263   -0.01272758884915873   -0.0014035354886413804
0.0034798689235593233   -0.012698932480048695   -0.0015030630123223016
0.0038249679389818006   -0.019948080320318234   -0.0016622071812789922
0.003492705578513276   -0.012760020651108765   -0.0014555094879844968
0.00022593304171426263   -0.01272758884915873   -0.0014035354886413804
0.0038249679389818006   -0.019948080320318234   -0.0016622071812789922
2.5345551771651795e-05   -0.02000678392210561   -0.0016053168413984124
1.8921286720808605e-05   -0.02001520893010783   -0.0016146652038184712
0.00022593304171426263   -0.01272758884915873   -0.0014035354886413804
0.0038249679389818006   -0.019948080320318234   -0.0016622071812789922
1.8921286720808605e-05   -0.02001520893010783   -0.0016146652038184712
0.003492705578513276   -0.012760020651108765   -0.0014555094879844968
0.003488721683164329   -0.012793659643684577   -0.0013822119516399924
0.0038144026762452357   -0.020020363131355738   -0.0016337145793193107
0.007238918687594538   -0.012924095042330419   -0.0013834282402452069
0.00350109705909619   -0.01278950089457641   -0.001415492283747617
0.0038144026762452357   -0.020020363131355738   -0.0016337145793193107
0.008031482590850625   -0.020081092593736877   -0.0016558055305071573
0.007238918687594538   -0.012924095042330419   -0.0013834282402452069
0.008024863284342041   -0.02005217941648824   -0.0016871891334770271
0.00350109705909619   -0.01278950089457641   -0.001415492283747617
0.007176663365238448   -0.012901391532669443   -0.0014705059827048407
0.008024863284342041   -0.02005217941648824   -0.0016871891334770271
0.007238918687594538   -0.012924095042330419   -0.0013834282402452069
0.00350109705909619   -0.01278950089457641   -0.001415492283747617
0.008024863284342041   -0.02005217941648824   -0.0016871891334770271
0.0038310700979113086   -0.020011762258496935   -0.0016360226987646748
0.0038144026762452357   -0.020020363131355738   -0.0016337145793193107
0.00350109705909619   -0.01278950089457641   -0.001415492283747617
0.008024863284342041   -0.02005217941648824   -0.0016871891334770271
0.0038144026762452357   -0.020020363131355738   -0.0016337145793193107
0.007238918687594538   -0.012924095042330419   -0.0013834282402452069
0.00350109705909619   -0.01278950089457641   -0.001415492283747617
0.0038310700979113086   -0.020011762258496935   -0.0016360226987646748
0.007176663365238448   -0.012901391532669443   -0.0014705059827048407
0.003492705578513276   -0.012760020651108765   -0.0014555094879844968
0.0038310700979113086   -0.020011762258496935   -0.0016360226987646748
0.008024863284342041   -0.02005217941648824   -0.0016871891334770271
0.007176663365238448   -0.012901391532669443   -0.0014705059827048407
0.0080054653969979   -0.020015927148786   -0.0017300932576109814
0.003492705578513276   -0.012760020651108765   -0.0014555094879844968
0.007114418597406856   -0.012856031589736906   -0.0015697323718265636
0.0080054653969979   -0.020015927148786   -0.0017300932576109814
0.007176663365238448   -0.012901391532669443   -0.0014705059827048407
0.003492705578513276   -0.012760020651108765   -0.0014555094879844968
0.0080054653969979   -0.020015927148786   -0.0017300932576109814
0.0038328284138286267   -0.0199895181369236   -0.0016454295897445135
0.0038310700979113086   -0.020011762258496935   -0.0016360226987646748
0.003492705578513276   -0.012760020651108765   -0.0014555094879844968
0.0080054653969979   -0.020015927148786   -0.0017300932576109814
0.0038310700979113086   -0.020011762258496935   -0.0016360226987646748
0.007176663365238448   -0.012901391532669443   -0.0014705059827048407
0.003492705578513276   -0.012760020651108765   -0.0014555094879844968
0.0038328284138286267   -0.0199895181369236   -0.0016454295897445135
0.007114418597406856   -0.012856031589736906   -0.0015697323718265636
0.0034798689235593233   -0.012698932480048695   -0.0015030630123223016
0.0038328284138286267   -0.0199895181369236   -0.0016454295897445135
0.0080054653969979   -0.020015927148786   -0.0017300932576109814
0.007114418597406856   -0.012856031589736906   -0.0015697323718265636
0.007951392285716662   -0.01994697949110695   -0.0017844342972429946
0.0034798689235593233   -0.012698932480048695   -0.0015030630123223016
0.007003371753307159   -0.012761042324503969   -0.0016811205064511316
0.007951392285716662   -0.01994697949110695   -0.0017844342972429946
0.007114418597406856   -0.012856031589736906   -0.0015697323718265636
0.0034798689235593233   -0.012698932480048695   -0.0015030630123223016
0.007951392285716662   -0.01994697949110695   -0.0017844342972429946
0.0038249679389818006   -0.019948080320318234   -0.0016622071812789922
0.0038328284138286267   -0.0199895181369236   -0.0016454295897445135
0.0034798689235593233   -0.012698932480048695   -0.0015030630123223016
0.007951392285716662   -0.01994697949110695   -0.0017844342972429946
0.0038328284138286267   -0.0199895181369236   -0.0016454295897445135
0.007114418597406856   -0.012856031589736906   -0.0015697323718265636
-0.011540543188697057   -0.020163332964276758   -0.0020736286659850016
-0.012673425991987619   -0.027973780679849774   -0.0021121790880409812
-0.007491821703089819   -0.020053770693176123   -0.0018745478799553148
-0.01165570211330526   -0.020278049038783743   -0.0019617113902677752
-0.012673425991987619   -0.027973780679849774   -0.0021121790880409812
-0.008329142989041851   -0.02792922403564118   -0.0019537626794365642
-0.007491821703089819   -0.020053770693176123   -0.0018745478799553148
-0.008325435459768372   -0.0280014709959986   -0.0019063502161154981
-0.01165570211330526   -0.020278049038783743   -0.0019617113902677752
-0.007500383697796982   -0.020138548631300678   -0.001797187758895533
-0.008325435459768372   -0.0280014709959986   -0.0019063502161154981
-0.007491821703089819   -0.020053770693176123   -0.0018745478799553148
-0.01165570211330526   -0.020278049038783743   -0.0019617113902677752
-0.008325435459768372   -0.0280014709959986   -0.0019063502161154981
-0.012726925621411556   -0.028070921570881497   -0.002054579911215304
-0.012673425991987619   -0.027973780679849774   -0.0021121790880409812
-0.01165570211330526   -0.020278049038783743   -0.0019617113902677752
-0.008325435459768372   -0.0280014709959986   -0.0019063502161154981
-0.012673425991987619   -0.027973780679849774   -0.0021121790880409812
-0.007491821703089819   -0.020053770693176123   -0.0018745478799553148
-0.01165570211330526   -0.020278049038783743   -0.0019617113902677752
-0.012726925621411556   -0.028070921570881497   -0.002054579911215304
-0.007500383697796982   -0.020138548631300678   -0.001797187758895533
-0.011721557072821869   -0.020359262020510947   -0.001860552795259013
-0.012726925621411556   -0.028070921570881497   -0.002054579911215304
-0.008325435459768372   -0.0280014709959986   -0.0019063502161154981
-0.007500383697796982   -0.020138548631300678   -0.001797187758895533
-0.008313874512022656   -0.028068169011968392   -0.001866811972777224
-0.011721557072821869   -0.020359262020510947   -0.001860552795259013
-0.0075063483039729305   -0.020205800429299745   -0.001727544565874648
-0.008313874512022656   -0.028068169011968392   -0.001866811972777224
-0.007500383697796982   -0.020138548631300678   -0.001797187758895533
-0.011721557072821869   -0.020359262020510947   -0.001860552795259013
-0.008313874512022656   -0.028068169011968392   -0.001866811972777224
-0.012743638289537599   -0.028150212939629615   -0.0020083128091386553
-0.012726925621411556   -0.028070921570881497   -0.002054579911215304
-0.011721557072821869   -0.020359262020510947   -0.001860552795259013
-0.008313874512022656   -0.028068169011968392   -0.001866811972777224
-0.012726925621411556   -0.028070921570881497   -0.002054579911215304
-0.007500383697796982   -0.020138548631300678   -0.001797187758895533
-0.011721557072821869   -0.020359262020510947   -0.001860552795259013
-0.012743638289537599   -0.028150212939629615   -0.0020083128091386553
-0.0075063483039729305   -0.020205800429299745   -0.001727544565874648
-0.01178935344475036   -0.020432144040586922   -0.0017714343613871397
-0.012743638289537599   -0.028150212939629615   -0.0020083128091386553
-0.008313874512022656   -0.028068169011968392   -0.001866811972777224
-0.0075063483039729305   -0.020205800429299745   -0.001727544565874648
-0.008285985883491402   -0.028134406919515045   -0.0018345918980201572
-0.01178935344475036   -0.020432144040586922   -0.0017714343613871397
-0.007490362650090152   -0.020261107699876567   -0.0016645896139335268
-0.008285985883491402   -0.028134406919515045   -0.0018345918980201572
-0.0075063483039729305   -0.020205800429299745   -0.001727544565874648
-0.01178935344475036   -0.020432144040586922   -0.0017714343613871397
-0.008285985883491402   -0.028134406919515045   -0.0018345918980201572
-0.01274886904073309   -0.02823640700633   -0.0019743559068073346
-0.012743638289537599   -0.028150212939629615   -0.0020083128091386553
-0.01178935344475036   -0.020432144040586922   -0.0017714343613871397
-0.008285985883491402   -0.028134406919515045   -0.0018345918980201572
-0.012743638289537599   -0.028150212939629615   -0.0020083128091386553
-0.0075063483039729305   -0.020205800429299745   -0.001727544565874648
-0.007491821703089819   -0.020053770693176123   -0.0018745478799553148
-0.008329142989041851   -0.02792922403564118   -0.0019537626794365642
-0.003696629866282728   -0.01999707078429867   -0.0017367106407103856
-0.007500383697796982   -0.020138548631300678   -0.001797187758895533
-0.008329142989041851   -0.02792922403564118   -0.0019537626794365642
-0.004293701444550401   -0.02790355866377522   -0.0018459282202038573
-0.003696629866282728   -0.01999707078429867   -0.0017367106407103856
-0.004278240015227218   -0.027947252289887196   -0.001804524962424144
-0.007500383697796982   -0.020138548631300678   -0.001797187758895533
-0.0036891703609507934   -0.020050233781069595   -0.00168558244758389
-0.004278240015227218   -0.027947252289887196   -0.001804524962424144
-0.003696629866282728   -0.01999707078429867   -0.0017367106407103856
-0.007500383697796982   -0.020138548631300678   -0.001797187758895533
-0.004278240015227218   -0.027947252289887196   -0.001804524962424144
-0.008325435459768372   -0.0280014709959986   -0.0019063502161154981
-0.008329142989041851   -0.02792922403564118   -0.0019537626794365642
-0.007500383697796982   -0.020138548631300678   -0.001797187758895533
-0.004278240015227218   -0.027947252289887196   -0.001804524962424144
-0.008329142989041851   -0.02792922403564118   -0.0019537626794365642
-0.003696629866282728   -0.01999707078429867   -0.0017367106407103856
-0.007500383697796982   -0.020138548631300678   -0.001797187758895533
-0.008325435459768372   -0.0280014709959986   -0.0019063502161154981
-0.0036891703609507934   -0.020050233781069595   -0.00168558244758389
-0.0075063483039729305   -0.020205800429299745   -0.001727544565874648
-0.008325435459768372   -0.0280014709959986   -0.0019063502161154981
-0.004278240015227218   -0.027947252289887196   -0.001804524962424144
-0.0036891703609507934   -0.020050233781069595   -0.00168558244758389
-0.0042593742057665555   -0.027987387016896775   -0.0017710001666510124
-0.0075063483039729305   -0.020205800429299745   -0.001727544565874648
-0.003679146281753222   -0.020088705878082456   -0.0016420528793588676
-0.0042593742057665555   -0.027987387016896775   -0.0017710001666510124
-0.0036891703609507934   -0.020050233781069595   -0.00168558244758389
-0.0075063483039729305   -0.020205800429299745   -0.001727544565874648
-0.0042593742057665555   -0.027987387016896775   -0.0017710001666510124
-0.008313874512022656   -0.028068169011968392   -0.001866811972777224
-0.008325435459768372   -0.0280014709959986   -0.0019063502161154981
-0.0075063483039729305   -0.020205800429299745   -0.001727544565874648
-0.0042593742057665555   -0.027987387016896775   -0.0017710001666510124
-0.008325435459768372   -0.0280014709959986   -0.0019063502161154981
-0.0036891703609507934   -0.020050233781069595   -0.00168558244758389
-0.0075063483039729305   -0.020205800429299745   -0.001727544565874648
-0.008313874512022656   -0.028068169011968392   -0.001866811972777224
-0.003679146281753222   -0.020088705878082456   -0.0016420528793588676
-0.007490362650090152   -0.020261107699876567   -0.0016645896139335268
-0.008313874512022656   -0.028068169011968392   -0.001866811972777224
-0.0042593742057665555   -0.027987387016896775   -0.0017710001666510124
-0.003679146281753222   -0.020088705878082456   -0.0016420528793588676
-0.00423677775851584   -0.028024095650067454   -0.001745545374007916
-0.007490362650090152   -0.020261107699876567   -0.0016645896139335268
-0.003664400579096498   -0.020112739748421735   -0.0016062495327436616
-0.00423677775851584   -0.028024095650067454   -0.001745545374007916
-0.003679146281753222   -0.020088705878082456   -0.0016420528793588676
-0.007490362650090152   -0.020261107699876567   -0.0016645896139335268
-0.00423677775851584   -0.028024095650067454   -0.001745545374007916
-0.008285985883491402   -0.028134406919515045   -0.0018345918980201572
-0.008313874512022656   -0.028068169011968392   -0.001866811972777224
-0.007490362650090152   -0.020261107699876567   -0.0016645896139335268
-0.00423677775851584   -0.028024095650067454   -0.001745545374007916
-0.008313874512022656   -0.028068169011968392   -0.001866811972777224
-0.003679146281753222   -0.020088705878082456   -0.0016420528793588676
-0.003696629866282728   -0.01999707078429867   -0.0017367106407103856
-0.004293701444550401   -0.02790355866377522   -0.0018459282202038573
-4.607156927653856e-06   -0.019987274229523025   -0.0016565351197616923
-0.0036891703609507934   -0.020050233781069595   -0.00168558244758389
-0.004293701444550401   -0.02790355866377522   -0.0018459282202038573
-0.00036747987997934415   -0.02788879318690706   -0.0017902641636702238
-4.607156927653856e-06   -0.019987274229523025   -0.0016565351197616923
-0.0003460173655767058   -0.02790338993531377   -0.0017552888976635746
-0.0036891703609507934   -0.020050233781069595   -0.00168558244758389
9.064514576723371e-06   -0.020008637959236523   -0.0016318481995553843
-0.0003460173655767058   -0.02790338993531377   -0.0017552888976635746
-4.607156927653856e-06   -0.019987274229523025   -0.0016565351197616923
-0.0036891703609507934   -0.020050233781069595   -0.00168558244758389
-0.0003460173655767058   -0.02790338993531377   -0.0017552888976635746
-0.004278240015227218   -0.027947252289887196   -0.001804524962424144
-0.004293701444550401   -0.02790355866377522   -0.0018459282202038573
-0.0036891703609507934   -0.020050233781069595   -0.00168558244758389
-0.0003460173655767058   -0.02790338993531377   -0.0017552888976635746
-0.004293701444550401   -0.02790355866377522   -0.0018459282202038573
-4.607156927653856e-06   -0.019987274229523025   -0.0016565351197616923
-0.0036891703609507934   -0.020050233781069595   -0.00168558244758389
-0.004278240015227218   -0.027947252289887196   -0.001804524962424144
9.064514576723371e-06   -0.020008637959236523   -0.0016318481995553843
-0.003679146281753222   -0.020088705878082456   -0.0016420528793588676
-0.004278240015227218   -0.027947252289887196   -0.001804524962424144
-0.0003460173655767058   -0.02790338993531377   -0.0017552888976635746
9.064514576723371e-06   -0.020008637959236523   -0.0016318481995553843
-0.0003273812730351491   -0.027914173559163837   -0.0017281259700537713
-0.003679146281753222   -0.020088705878082456   -0.0016420528793588676
1.8921286720808605e-05   -0.02001520893010783   -0.0016146652038184712
-0.0003273812730351491   -0.027914173559163837   -0.0017281259700537713
9.064514576723371e-06   -0.020008637959236523   -0.0016318481995553843
-0.003679146281753222   -0.020088705878082456   -0.0016420528793588676
-0.0003273812730351491   -0.027914173559163837   -0.0017281259700537713
-0.0042593742057665555   -0.027987387016896775   -0.0017710001666510124
-0.004278240015227218   -0.027947252289887196   -0.001804524962424144
-0.003679146281753222   -0.020088705878082456   -0.0016420528793588676
-0.0003273812730351491   -0.027914173559163837   -0.0017281259700537713
-0.004278240015227218   -0.027947252289887196   -0.001804524962424144
9.064514576723371e-06   -0.020008637959236523   -0.0016318481995553843
-0.003679146281753222   -0.020088705878082456   -0.0016420528793588676
-0.0042593742057665555   -0.027987387016896775   -0.0017710001666510124
1.8921286720808605e-05   -0.02001520893010783   -0.0016146652038184712
-0.003664400579096498   -0.020112739748421735   -0.0016062495327436616
-0.0042593742057665555   -0.027987387016896775   -0.0017710001666510124
-0.0003273812730351491   -0.027914173559163837   -0.0017281259700537713
1.8921286720808605e-05   -0.02001520893010783   -0.0016146652038184712
-0.0003130735041194352   -0.027921087349499555   -0.0017090590417895217
-0.003664400579096498   -0.020112739748421735   -0.0016062495327436616
2.5345551771651795e-05   -0.02000678392210561   -0.0016053168413984124
-0.0003130735041194352   -0.027921087349499555   -0.0017090590417895217
1.8921286720808605e-05   -0.02001520893010783   -0.0016146652038184712
-0.003664400579096498   -0.020112739748421735   -0.0016062495327436616
-0.0003130735041194352   -0.027921087349499555   -0.0017090590417895217
-0.00423677775851584   -0.028024095650067454   -0.001745545374007916
-0.0042593742057665555   -0.027987387016896775   -0.0017710001666510124
-0.003664400579096498   -0.020112739748421735   -0.0016062495327436616
-0.0003130735041194352   -0.027921087349499555   -0.0017090590417895217
-0.0042593742057665555   -0.027987387016896775   -0.0017710001666510124
1.8921286720808605e-05   -0.02001520893010783   -0.0016146652038184712
-4.607156927653856e-06   -0.019987274229523025   -0.0016565351197616923
-0.00036747987997934415   -0.02788879318690706   -0.0017902641636702238
0.0038144026762452357   -0.020020363131355738   -0.0016337145793193107
9.064514576723371e-06   -0.020008637959236523   -0.0016318481995553843
-0.00036747987997934415   -0.02788879318690706   -0.0017902641636702238
0.003678485921139922   -0.027882380674356763   -0.001787277773027613
0.0038144026762452357   -0.020020363131355738   -0.0016337145793193107
0.0037068276662255654   -0.027868780909393567   -0.0017590507708756496
9.064514576723371e-06   -0.020008637959236523   -0.0016318481995553843
0.0038310700979113086   -0.020011762258496935   -0.0016360226987646748
0.0037068276662255654   -0.027868780909393567   -0.0017590507708756496
0.0038144026762452357   -0.020020363131355738   -0.0016337145793193107
9.064514576723371e-06   -0.020008637959236523   -0.0016318481995553843
0.0037068276662255654   -0.027868780909393567   -0.0017590507708756496
-0.0003460173655767058   -0.02790338993531377   -0.0017552888976635746
-0.00036747987997934415   -0.02788879318690706   -0.0017902641636702238
9.064514576723371e-06   -0.020008637959236523   -0.0016318481995553843
0.0037068276662255654   -0.027868780909393567   -0.0017590507708756496
-0.00036747987997934415   -0.02788879318690706   -0.0017902641636702238
0.0038144026762452357   -0.020020363131355738   -0.0016337145793193107
9.064514576723371e-06   -0.020008637959236523   -0.0016318481995553843
-0.0003460173655767058   -0.02790338993531377   -0.0017552888976635746
0.0038310700979113086   -0.020011762258496935   -0.0016360226987646748
1.8921286720808605e-05   -0.02001520893010783   -0.0016146652038184712
-0.0003460173655767058   -0.02790338993531377   -0.0017552888976635746
0.0037068276662255654   -0.027868780909393567   -0.0017590507708756496
0.0038310700979113086   -0.020011762258496935   -0.0016360226987646748
0.0037259738106851805   -0.02785300484258197   -0.0017384107606137759
1.8921286720808605e-05   -0.02001520893010783   -0.0016146652038184712
0.0038328284138286267   -0.0199895181369236   -0.0016454295897445135
0.0037259738106851805   -0.02785300484258197   -0.0017384107606137759
0.0038310700979113086   -0.020011762258496935   -0.0016360226987646748
1.8921286720808605e-05   -0.02001520893010783   -0.0016146652038184712
0.0037259738106851805   -0.02785300484258197   -0.0017384107606137759
-0.0003273812730351491   -0.027914173559163837   -0.0017281259700537713
-0.0003460173655767058   -0.02790338993531377   -0.0017552888976635746
1.8921286720808605e-05   -0.02001520893010783   -0.0016146652038184712
0.0037259738106851805   -0.02785300484258197   -0.0017384107606137759
-0.0003460173655767058   -0.02790338993531377   -0.0017552888976635746
0.0038310700979113086   -0.020011762258496935   -0.0016360226987646748
1.8921286720808605e-05   -0.02001520893010783   -0.0016146652038184712
-0.0003273812730351491   -0.027914173559163837   -0.0017281259700537713
0.0038328284138286267   -0.0199895181369236   -0.0016454295897445135
2.5345551771651795e-05   -0.02000678392210561   -0.0016053168413984124
-0.0003273812730351491   -0.027914173559163837   -0.0017281259700537713
0.0037259738106851805   -0.02785300484258197   -0.0017384107606137759
0.0038328284138286267   -0.0199895181369236   -0.0016454295897445135
0.003730244191023672   -0.027829901069724272   -0.0017252032179405066
2.5345551771651795e-05   -0.02000678392210561   -0.0016053168413984124
0.0038249679389818006   -0.019948080320318234   -0.0016622071812789922
0.003730244191023672   -0.027829901069724272   -0.0017252032179405066
0.0038328284138286267   -0.0199895181369236   -0.0016454295897445135
2.5345551771651795e-05   -0.02000678392210561   -0.0016053168413984124
0.003730244191023672   -0.027829901069724272   -0.0017252032179405066
-0.0003130735041194352   -0.027921087349499555   -0.0017090590417895217
-0.0003273812730351491   -0.027914173559163837   -0.0017281259700537713
2.5345551771651795e-05   -0.02000678392210561   -0.0016053168413984124
0.003730244191023672   -0.027829901069724272   -0.0017252032179405066
-0.0003273812730351491   -0.027914173559163837   -0.0017281259700537713
0.0038328284138286267   -0.0199895181369236   -0.0016454295897445135
0.0038144026762452357   -0.020020363131355738   -0.0016337145793193107
0.003678485921139922   -0.027882380674356763   -0.001787277773027613
0.008031482590850625   -0.020081092593736877   -0.0016558055305071573
0.0038310700979113086   -0.020011762258496935   -0.0016360226987646748
0.003678485921139922   -0.027882380674356763   -0.001787277773027613
0.008062737565835882   -0.02787337557792945   -0.0018317582447303588
0.008031482590850625   -0.020081092593736877   -0.0016558055305071573
0.00811807323865092   -0.027837475426655604   -0.001808464123165827
0.0038310700979113086   -0.020011762258496935   -0.0016360226987646748
0.008024863284342041   -0.02005217941648824   -0.0016871891334770271
0.00811807323865092   -0.027837475426655604   -0.001808464123165827
0.008031482590850625   -0.020081092593736877   -0.0016558055305071573
0.0038310700979113086   -0.020011762258496935   -0.0016360226987646748
0.00811807323865092   -0.027837475426655604   -0.001808464123165827
0.0037068276662255654   -0.027868780909393567   -0.0017590507708756496
0.003678485921139922   -0.027882380674356763   -0.001787277773027613
0.0038310700979113086   -0.020011762258496935   -0.0016360226987646748
0.00811807323865092   -0.027837475426655604   -0.001808464123165827
0.003678485921139922   -0.027882380674356763   -0.001787277773027613
0.008031482590850625   -0.020081092593736877   -0.0016558055305071573
0.0038310700979113086   -0.020011762258496935   -0.0016360226987646748
0.0037068276662255654   -0.027868780909393567   -0.0017590507708756496
0.008024863284342041   -0.02005217941648824   -0.0016871891334770271
0.0038328284138286267   -0.0199895181369236   -0.0016454295897445135
0.0037068276662255654   -0.027868780909393567   -0.0017590507708756496
0.00811807323865092   -0.027837475426655604   -0.001808464123165827
0.008024863284342041   -0.02005217941648824   -0.0016871891334770271
0.008147603014016397   -0.02780916488145236   -0.001796702937336199
0.0038328284138286267   -0.0199895181369236   -0.0016454295897445135
0.0080054653969979   -0.020015927148786   -0.0017300932576109814
0.008147603014016397   -0.02780916488145236   -0.001796702937336199
0.008024863284342041   -0.02005217941648824   -0.0016871891334770271
0.0038328284138286267   -0.0199895181369236   -0.0016454295897445135
0.008147603014016397   -0.02780916488145236   -0.001796702937336199
0.0037259738106851805   -0.02785300484258197   -0.0017384107606137759
0.0037068276662255654   -0.027868780909393567   -0.0017590507708756496
0.0038328284138286267   -0.0199895181369236   -0.0016454295897445135
0.008147603014016397   -0.02780916488145236   -0.001796702937336199
0.0037068276662255654   -0.027868780909393567   -0.0017590507708756496
0.008024863284342041   -0.02005217941648824   -0.0016871891334770271
0.0038328284138286267   -0.0199895181369236   -0.0016454295897445135
0.0037259738106851805   -0.02785300484258197   -0.0017384107606137759
0.0080054653969979   -0.020015927148786   -0.0017300932576109814
0.0038249679389818006   -0.019948080320318234   -0.0016622071812789922
0.0037259738106851805   -0.02785300484258197   -0.0017384107606137759
0.008147603014016397   -0.02780916488145236   -0.001796702937336199
0.0080054653969979   -0.020015927148786   -0.0017300932576109814
0.008155316802011276   -0.027763866483229725   -0.0017966714233972041
0.0038249679389818006   -0.019948080320318234   -0.0016622071812789922
0.007951392285716662   -0.01994697949110695   -0.0017844342972429946
0.008155316802011276   -0.027763866483229725   -0.0017966714233972041
0.0080054653969979   -0.020015927148786   -0.0017300932576109814
0.0038249679389818006   -0.019948080320318234   -0.0016622071812789922
0.008155316802011276   -0.027763866483229725   -0.0017966714233972041
0.003730244191023672   -0.027829901069724272   -0.0017252032179405066
0.0037259738106851805   -0.02785300484258197   -0.0017384107606137759
0.0038249679389818006   -0.019948080320318234   -0.0016622071812789922
0.008155316802011276   -0.027763866483229725   -0.0017966714233972041
0.0037259738106851805   -0.02785300484258197   -0.0017384107606137759
0.0080054653969979   -0.020015927148786   -0.0017300932576109814
-0.012673425991987619   -0.027973780679849774   -0.0021121790880409812
-0.01306663391970212   -0.03592139876820788   -0.0020770564407957587
-0.008329142989041851   -0.02792922403564118   -0.0019537626794365642
-0.012726925621411556   -0.028070921570881497   -0.002054579911215304
-0.01306663391970212   -0.03592139876820788   -0.0020770564407957587
-0.008729048176218578   -0.03594225071958307   -0.0019600585574490272
-0.008329142989041851   -0.02792922403564118   -0.0019537626794365642
-0.008705392251771624   -0.03600173820853703   -0.001942101641698436
-0.012726925621411556   -0.028070921570881497   -0.002054579911215304
-0.008325435459768372   -0.0280014709959986   -0.0019063502161154981
-0.008705392251771624   -0.03600173820853703   -0.001942101641698436
-0.008329142989041851   -0.02792922403564118   -0.0019537626794365642
-0.012726925621411556   -0.028070921570881497   -0.002054579911215304
-0.008705392251771624   -0.03600173820853703   -0.001942101641698436
-0.013051192893650792   -0.03600100781290731   -0.0020734771664913296
-0.01306663391970212   -0.03592139876820788   -0.0020770564407957587
-0.012726925621411556   -0.028070921570881497   -0.002054579911215304
-0.008705392251771624   -0.03600173820853703   -0.001942101641698436
-0.01306663391970212   -0.03592139876820788   -0.0020770564407957587
-0.008329142989041851   -0.02792922403564118   -0.0019537626794365642
-0.012726925621411556   -0.028070921570881497   -0.002054579911215304
-0.013051192893650792   -0.03600100781290731   -0.0020734771664913296
-0.008325435459768372   -0.0280014709959986   -0.0019063502161154981
-0.012743638289537599   -0.028150212939629615   -0.0020083128091386553
-0.013051192893650792   -0.03600100781290731   -0.0020734771664913296
-0.008705392251771624   -0.03600173820853703   -0.001942101641698436
-0.008325435459768372   -0.0280014709959986   -0.0019063502161154981
-0.00866865048274977   -0.03606771044982518   -0.0019322481906081852
-0.012743638289537599   -0.028150212939629615   -0.0020083128091386553
-0.008313874512022656   -0.028068169011968392   -0.001866811972777224
-0.00866865048274977   -0.03606771044982518   -0.0019322481906081852
-0.008325435459768372   -0.0280014709959986   -0.0019063502161154981
-0.012743638289537599   -0.028150212939629615   -0.0020083128091386553
-0.00866865048274977   -0.03606771044982518   -0.0019322481906081852
-0.01301094307631367   -0.03607838062729622   -0.0020820060742623
-0.013051192893650792   -0.03600100781290731   -0.0020734771664913296
-0.012743638289537599   -0.028150212939629615   -0.0020083128091386553
-0.00866865048274977   -0.03606771044982518   -0.0019322481906081852
-0.013051192893650792   -0.03600100781290731   -0.0020734771664913296
-0.008325435459768372   -0.0280014709959986   -0.0019063502161154981
-0.012743638289537599   -0.028150212939629615   -0.0020083128091386553
-0.01301094307631367   -0.03607838062729622   -0.0020820060742623
-0.008313874512022656   -0.028068169011968392   -0.001866811972777224
-0.01274886904073309   -0.02823640700633   -0.0019743559068073346
-0.01301094307631367   -0.03607838062729622   -0.0020820060742623
-0.00866865048274977   -0.03606771044982518   -0.0019322481906081852
-0.008313874512022656   -0.028068169011968392   -0.001866811972777224
-0.008621161380245247   -0.03614471438330481   -0.0019303622544271535
-0.01274886904073309   -0.02823640700633   -0.0019743559068073346
-0.008285985883491402   -0.028134406919515045   -0.0018345918980201572
-0.008621161380245247   -0.03614471438330481   -0.0019303622544271535
-0.008313874512022656   -0.028068169011968392   -0.001866811972777224
-0.01274886904073309   -0.02823640700633   -0.0019743559068073346
-0.008621161380245247   -0.03614471438330481   -0.0019303622544271535
-0.012945843388337428   -0.03617811598661699   -0.0021032610382784164
-0.01301094307631367   -0.03607838062729622   -0.0020820060742623
-0.01274886904073309   -0.02823640700633   -0.0019743559068073346
-0.008621161380245247   -0.03614471438330481   -0.0019303622544271535
-0.01301094307631367   -0.03607838062729622   -0.0020820060742623
-0.008313874512022656   -0.028068169011968392   -0.001866811972777224
-0.008329142989041851   -0.02792922403564118   -0.0019537626794365642
-0.008729048176218578   -0.03594225071958307   -0.0019600585574490272
-0.004293701444550401   -0.02790355866377522   -0.0018459282202038573
-0.008325435459768372   -0.0280014709959986   -0.0019063502161154981
-0.008729048176218578   -0.03594225071958307   -0.0019600585574490272
-0.004755567408832804   -0.0359467087409413   -0.0018823110869134972
-0.004293701444550401   -0.02790355866377522   -0.0018459282202038573
-0.004724020049250619   -0.03598079616413049   -0.0018503385501639966
-0.008325435459768372   -0.0280014709959986   -0.0019063502161154981
-0.004278240015227218   -0.027947252289887196   -0.001804524962424144
-0.004724020049250619   -0.03598079616413049   -0.0018503385501639966
-0.004293701444550401   -0.02790355866377522   -0.0018459282202038573
-0.008325435459768372   -0.0280014709959986   -0.0019063502161154981
-0.004724020049250619   -0.03598079616413049   -0.0018503385501639966
-0.008705392251771624   -0.03600173820853703   -0.001942101641698436
-0.008729048176218578   -0.03594225071958307   -0.0019600585574490272
-0.008325435459768372   -0.0280014709959986   -0.0019063502161154981
-0.004724020049250619   -0.03598079616413049   -0.0018503385501639966
-0.008729048176218578   -0.03594225071958307   -0.0019600585574490272
-0.004293701444550401   -0.02790355866377522   -0.0018459282202038573
-0.008325435459768372   -0.0280014709959986   -0.0019063502161154981
-0.008705392251771624   -0.03600173820853703   -0.001942101641698436
-0.004278240015227218   -0.027947252289887196   -0.001804524962424144
-0.008313874512022656   -0.028068169011968392   -0.001866811972777224
-0.008705392251771624   -0.03600173820853703   -0.001942101641698436
-0.004724020049250619   -0.03598079616413049   -0.0018503385501639966
-0.004278240015227218   -0.027947252289887196   -0.001804524962424144
-0.004688421322927841   -0.03602230189311529   -0.0018264983937090723
-0.008313874512022656   -0.028068169011968392   -0.001866811972777224
-0.0042593742057665555   -0.027987387016896775   -0.0017710001666510124
-0.004688421322927841   -0.03602230189311529   -0.0018264983937090723
-0.004278240015227218   -0.027947252289887196   -0.001804524962424144
-0.008313874512022656   -0.028068169011968392   -0.001866811972777224
-0.004688421322927841   -0.03602230189311529   -0.0018264983937090723
-0.00866865048274977   -0.03606771044982518   -0.0019322481906081852
-0.008705392251771624   -0.03600173820853703   -0.001942101641698436
-0.008313874512022656   -0.028068169011968392   -0.001866811972777224
-0.004688421322927841   -0.03602230189311529   -0.0018264983937090723
-0.008705392251771624   -0.03600173820853703   -0.001942101641698436
-0.004278240015227218   -0.027947252289887196   -0.001804524962424144
-0.008313874512022656   -0.028068169011968392   -0.001866811972777224
-0.00866865048274977   -0.03606771044982518   -0.0019322481906081852
-0.0042593742057665555   -0.027987387016896775   -0.0017710001666510124
-0.008285985883491402   -0.028134406919515045   -0.0018345918980201572
-0.00866865048274977   -0.03606771044982518   -0.0019322481906081852
-0.004688421322927841   -0.03602230189311529   -0.0018264983937090723
-0.0042593742057665555   -0.027987387016896775   -0.0017710001666510124
-0.004650076667584947   -0.036071355459510505   -0.0018110567518067613
-0.008285985883491402   -0.028134406919515045   -0.0018345918980201572
-0.00423677775851584   -0.028024095650067454   -0.001745545374007916
-0.004650076667584947   -0.036071355459510505   -0.0018110567518067613
-0.0042593742057665555   -0.027987387016896775   -0.0017710001666510124
-0.008285985883491402   -0.028134406919515045   -0.0018345918980201572
-0.004650076667584947   -0.036071355459510505   -0.0018110567518067613
-0.008621161380245247   -0.03614471438330481   -0.0019303622544271535
-0.00866865048274977   -0.03606771044982518   -0.0019322481906081852
-0.008285985883491402   -0.028134406919515045   -0.0018345918980201572
-0.004650076667584947   -0.036071355459510505   -0.0018110567518067613
-0.00866865048274977   -0.03606771044982518   -0.0019322481906081852
-0.0042593742057665555   -0.027987387016896775   -0.0017710001666510124
-0.004293701444550401   -0.02790355866377522   -0.0018459282202038573
-0.004755567408832804   -0.0359467087409413   -0.0018823110869134972
-0.00036747987997934415   -0.02788879318690706   -0.0017902641636702238
-0.004278240015227218   -0.027947252289887196   -0.001804524962424144
-0.004755567408832804   -0.0359467087409413   -0.0018823110869134972
-0.0008944417919019509   -0.03592556292711383   -0.0018506602060517259
-0.00036747987997934415   -0.02788879318690706   -0.0017902641636702238
-0.0008571782093222583   -0.035933381902967125   -0.0018053704872735235
-0.004278240015227218   -0.027947252289887196   -0.001804524962424144
-0.0003460173655767058   -0.02790338993531377   -0.0017552888976635746
-0.0008571782093222583   -0.035933381902967125   -0.0018053704872735235
-0.00036747987997934415   -0.02788879318690706   -0.0017902641636702238
-0.004278240015227218   -0.027947252289887196   -0.001804524962424144
-0.0008571782093222583   -0.035933381902967125   -0.0018053704872735235
-0.004724020049250619   -0.03598079616413049   -0.0018503385501639966
-0.004755567408832804   -0.0359467087409413   -0.0018823110869134972
-0.004278240015227218   -0.027947252289887196   -0.001804524962424144
-0.0008571782093222583   -0.035933381902967125   -0.0018053704872735235
-0.004755567408832804   -0.0359467087409413   -0.0018823110869134972
-0.00036747987997934415   -0.02788879318690706   -0.0017902641636702238
-0.004278240015227218   -0.027947252289887196   -0.001804524962424144
-0.004724020049250619   -0.03598079616413049   -0.0018503385501639966
-0.0003460173655767058   -0.02790338993531377   -0.0017552888976635746
-0.0042593742057665555   -0.027987387016896775   -0.0017710001666510124
-0.004724020049250619   -0.03598079616413049   -0.0018503385501639966
-0.0008571782093222583   -0.035933381902967125   -0.0018053704872735235
-0.0003460173655767058   -0.02790338993531377   -0.0017552888976635746
-0.0008219114639109585   -0.03594804415945735   -0.0017681576482542107
-0.0042593742057665555   -0.027987387016896775   -0.0017710001666510124
-0.0003273812730351491   -0.027914173559163837   -0.0017281259700537713
-0.0008219114639109585   -0.03594804415945735   -0.0017681576482542107
-0.0003460173655767058   -0.02790338993531377   -0.0017552888976635746
-0.0042593742057665555   -0.027987387016896775   -0.0017710001666510124
-0.0008219114639109585   -0.03594804415945735   -0.0017681576482542107
-0.004688421322927841   -0.03602230189311529   -0.0018264983937090723
-0.004724020049250619   -0.03598079616413049   -0.0018503385501639966
-0.0042593742057665555   -0.027987387016896775   -0.0017710001666510124
-0.0008219114639109585   -0.03594804415945735   -0.0017681576482542107
-0.004724020049250619   -0.03598079616413049   -0.0018503385501639966
-0.0003460173655767058   -0.02790338993531377   -0.0017552888976635746
-0.0042593742057665555   -0.027987387016896775   -0.0017710001666510124
-0.004688421322927841   -0.03602230189311529   -0.0018264983937090723
-0.0003273812730351491   -0.027914173559163837   -0.0017281259700537713
-0.00423677775851584   -0.028024095650067454   -0.001745545374007916
-0.004688421322927841   -0.03602230189311529   -0.0018264983937090723
-0.0008219114639109585   -0.03594804415945735   -0.0017681576482542107
-0.0003273812730351491   -0.027914173559163837   -0.0017281259700537713
-0.0007919217345229115   -0.035969881569745114   -0.0017393026831896586
-0.00423677775851584   -0.028024095650067454   -0.001745545374007916
-0.0003130735041194352   -0.027921087349499555   -0.0017090590417895217
-0.0007919217345229115   -0.035969881569745114   -0.0017393026831896586
-0.0003273812730351491   -0.027914173559163837   -0.0017281259700537713
-0.00423677775851584   -0.028024095650067454   -0.001745545374007916
-0.0007919217345229115   -0.035969881569745114   -0.0017393026831896586
-0.004650076667584947   -0.036071355459510505   -0.0018110567518067613
-0.004688421322927841   -0.03602230189311529   -0.0018264983937090723
-0.00423677775851584   -0.028024095650067454   -0.001745545374007916
-0.0007919217345229115   -0.035969881569745114   -0.0017393026831896586
-0.004688421322927841   -0.03602230189311529   -0.0018264983937090723
-0.0003273812730351491   -0.027914173559163837   -0.0017281259700537713
-0.00036747987997934415   -0.02788879318690706   -0.0017902641636702238
-0.0008944417919019509   -0.03592556292711383   -0.0018506602060517259
0.003678485921139922   -0.027882380674356763   -0.001787277773027613
-0.0003460173655767058   -0.02790338993531377   -0.0017552888976635746
-0.0008944417919019509   -0.03592556292711383   -0.0018506602060517259
0.0030826805877547793   -0.03587859665026738   -0.001866638482301055
0.003678485921139922   -0.027882380674356763   -0.001787277773027613
0.0031301638889360333   -0.03586005036500346   -0.0018082596953473652
-0.0003460173655767058   -0.02790338993531377   -0.0017552888976635746
0.0037068276662255654   -0.027868780909393567   -0.0017590507708756496
0.0031301638889360333   -0.03586005036500346   -0.0018082596953473652
0.003678485921139922   -0.027882380674356763   -0.001787277773027613
-0.0003460173655767058   -0.02790338993531377   -0.0017552888976635746
0.0031301638889360333   -0.03586005036500346   -0.0018082596953473652
-0.0008571782093222583   -0.035933381902967125   -0.0018053704872735235
-0.0008944417919019509   -0.03592556292711383   -0.0018506602060517259
-0.0003460173655767058   -0.02790338993531377   -0.0017552888976635746
0.0031301638889360333   -0.03586005036500346   -0.0018082596953473652
-0.0008944417919019509   -0.03592556292711383   -0.0018506602060517259
0.003678485921139922   -0.027882380674356763   -0.001787277773027613
-0.0003460173655767058   -0.02790338993531377   -0.0017552888976635746
-0.0008571782093222583   -0.035933381902967125   -0.0018053704872735235
0.0037068276662255654   -0.027868780909393567   -0.0017590507708756496
-0.0003273812730351491   -0.027914173559163837   -0.0017281259700537713
-0.0008571782093222583   -0.035933381902967125   -0.0018053704872735235
0.0031301638889360333   -0.03586005036500346   -0.0018082596953473652
0.0037068276662255654   -0.027868780909393567   -0.0017590507708756496
0.003174098796895291   -0.03585040007468376   -0.001757932326023536
-0.0003273812730351491   -0.027914173559163837   -0.0017281259700537713
0.0037259738106851805   -0.02785300484258197   -0.0017384107606137759
0.003174098796895291   -0.03585040007468376   -0.001757932326023536
0.0037068276662255654   -0.027868780909393567   -0.0017590507708756496
-0.0003273812730351491   -0.027914173559163837   -0.0017281259700537713
0.003174098796895291   -0.03585040007468376   -0.001757932326023536
-0.0008219114639109585   -0.03594804415945735   -0.0017681576482542107
-0.0008571782093222583   -0.035933381902967125   -0.0018053704872735235
-0.0003273812730351491   -0.027914173559163837   -0.0017281259700537713
0.003174098796895291   -0.03585040007468376   -0.001757932326023536
-0.0008571782093222583   -0.035933381902967125   -0.0018053704872735235
0.0037068276662255654   -0.027868780909393567   -0.0017590507708756496
-0.0003273812730351491   -0.027914173559163837   -0.0017281259700537713
-0.0008219114639109585   -0.03594804415945735   -0.0017681576482542107
0.0037259738106851805   -0.02785300484258197   -0.0017384107606137759
-0.0003130735041194352   -0.027921087349499555   -0.0017090590417895217
-0.0008219114639109585   -0.03594804415945735   -0.0017681576482542107
0.003174098796895291   -0.03585040007468376   -0.001757932326023536
0.0037259738106851805   -0.02785300484258197   -0.0017384107606137759
0.003197829884943457   -0.035845006027061574   -0.0017151307130733725
-0.0003130735041194352   -0.027921087349499555   -0.0017090590417895217
0.003730244191023672   -0.027829901069724272   -0.0017252032179405066
0.003197829884943457   -0.035845006027061574   -0.0017151307130733725
0.0037259738106851805   -0.02785300484258197   -0.0017384107606137759
-0.0003130735041194352   -0.027921087349499555   -0.0017090590417895217
0.003197829884943457   -0.035845006027061574   -0.0017151307130733725
-0.0007919217345229115   -0.035969881569745114   -0.0017393026831896586
-0.0008219114639109585   -0.03594804415945735   -0.0017681576482542107
-0.0003130735041194352   -0.027921087349499555   -0.0017090590417895217
0.003197829884943457   -0.035845006027061574   -0.0017151307130733725
-0.0008219114639109585   -0.03594804415945735   -0.0017681576482542107
0.0037259738106851805   -0.02785300484258197   -0.0017384107606137759
0.003678485921139922   -0.027882380674356763   -0.001787277773027613
0.0030826805877547793   -0.03587859665026738   -0.001866638482301055
0.008062737565835882   -0.02787337557792945   -0.0018317582447303588
0.0037068276662255654   -0.027868780909393567   -0.0017590507708756496
0.0030826805877547793   -0.03587859665026738   -0.001866638482301055
0.007340185363713666   -0.03579961240665993   -0.001932790359933455
0.008062737565835882   -0.02787337557792945   -0.0018317582447303588
0.0074638410899779874   -0.035757149908295344   -0.00185608576523785
0.0037068276662255654   -0.027868780909393567   -0.0017590507708756496
0.00811807323865092   -0.027837475426655604   -0.001808464123165827
0.0074638410899779874   -0.035757149908295344   -0.00185608576523785
0.008062737565835882   -0.02787337557792945   -0.0018317582447303588
0.0037068276662255654   -0.027868780909393567   -0.0017590507708756496
0.0074638410899779874   -0.035757149908295344   -0.00185608576523785
0.0031301638889360333   -0.03586005036500346   -0.0018082596953473652
0.0030826805877547793   -0.03587859665026738   -0.001866638482301055
0.0037068276662255654   -0.027868780909393567   -0.0017590507708756496
0.0074638410899779874   -0.035757149908295344   -0.00185608576523785
0.0030826805877547793   -0.03587859665026738   -0.001866638482301055
0.008062737565835882   -0.02787337557792945   -0.0018317582447303588
0.0037068276662255654   -0.027868780909393567   -0.0017590507708756496
0.0031301638889360333   -0.03586005036500346   -0.0018082596953473652
0.00811807323865092   -0.027837475426655604   -0.001808464123165827
0.0037259738106851805   -0.02785300484258197   -0.0017384107606137759
0.0031301638889360333   -0.03586005036500346   -0.0018082596953473652
0.0074638410899779874   -0.035757149908295344   -0.00185608576523785
0.00811807323865092   -0.027837475426655604   -0.001808464123165827
0.00754893963450896   -0.035736550317202805   -0.0017908529242226126
0.0037259738106851805   -0.02785300484258197   -0.0017384107606137759
0.008147603014016397   -0.02780916488145236   -0.001796702937336199
0.00754893963450896   -0.035736550317202805   -0.0017908529242226126
0.00811807323865092   -0.027837475426655604   -0.001808464123165827
0.0037259738106851805   -0.02785300484258197   -0.0017384107606137759
0.00754893963450896   -0.035736550317202805   -0.0017908529242226126
0.003174098796895291   -0.03585040007468376   -0.001757932326023536
0.0031301638889360333   -0.03586005036500346   -0.0018082596953473652
0.0037259738106851805   -0.02785300484258197   -0.0017384107606137759
0.00754893963450896   -0.035736550317202805   -0.0017908529242226126
0.0031301638889360333   -0.03586005036500346   -0.0018082596953473652
0.00811807323865092   -0.027837475426655604   -0.001808464123165827
0.0037259738106851805   -0.02785300484258197   -0.0017384107606137759
0.003174098796895291   -0.03585040007468376   -0.001757932326023536
0.008147603014016397   -0.02780916488145236   -0.001796702937336199
0.003730244191023672   -0.027829901069724272   -0.0017252032179405066
0.003174098796895291   -0.03585040007468376   -0.001757932326023536
0.00754893963450896   -0.035736550317202805   -0.0017908529242226126
0.008147603014016397   -0.02780916488145236   -0.001796702937336199
0.007624673525516917   -0.035714227826570674   -0.0017375694189135879
0.003730244191023672   -0.027829901069724272   -0.0017252032179405066
0.008155316802011276   -0.027763866483229725   -0.0017966714233972041
0.007624673525516917   -0.035714227826570674   -0.0017375694189135879
0.008147603014016397   -0.02780916488145236   -0.001796702937336199
0.003730244191023672   -0.027829901069724272   -0.0017252032179405066
0.007624673525516917   -0.035714227826570674   -0.0017375694189135879
0.003197829884943457   -0.035845006027061574   -0.0017151307130733725
0.003174098796895291   -0.03585040007468376   -0.001757932326023536
0.003730244191023672   -0.027829901069724272   -0.0017252032179405066
0.007624673525516917   -0.035714227826570674   -0.0017375694189135879
0.003174098796895291   -0.03585040007468376   -0.001757932326023536
0.008147603014016397   -0.02780916488145236   -0.001796702937336199
-0.01306663391970212   -0.03592139876820788   -0.0020770564407957587
-0.012715038740745985   -0.043507437253694575   -0.0019863258018599276
-0.008729048176218578   -0.03594225071958307   -0.0019600585574490272
-0.013051192893650792   -0.03600100781290731   -0.0020734771664913296
-0.012715038740745985   -0.043507437253694575   -0.0019863258018599276
-0.00869271272663528   -0.04359478526805968   -0.0019159609594266095
-0.008729048176218578   -0.03594225071958307   -0.0019600585574490272
-0.008641727681344096   -0.04363915935528263   -0.0019266462382675881
-0.013051192893650792   -0.03600100781290731   -0.0020734771664913296
-0.008705392251771624   -0.03600173820853703   -0.001942101641698436
-0.008641727681344096   -0.04363915935528263   -0.0019266462382675881
-0.008729048176218578   -0.03594225071958307   -0.0019600585574490272
-0.013051192893650792   -0.03600100781290731   -0.0020734771664913296
-0.008641727681344096   -0.04363915935528263   -0.0019266462382675881
-0.012622982296043226   -0.043567357208364854   -0.0020368123953680814
-0.012715038740745985   -0.043507437253694575   -0.0019863258018599276
-0.013051192893650792   -0.03600100781290731   -0.0020734771664913296
-0.008641727681344096   -0.04363915935528263   -0.0019266462382675881
-0.012715038740745985   -0.043507437253694575   -0.0019863258018599276
-0.008729048176218578   -0.03594225071958307   -0.0019600585574490272
-0.013051192893650792   -0.03600100781290731   -0.0020734771664913296
-0.012622982296043226   -0.043567357208364854   -0.0020368123953680814
-0.008705392251771624   -0.03600173820853703   -0.001942101641698436
-0.01301094307631367   -0.03607838062729622   -0.0020820060742623
-0.012622982296043226   -0.043567357208364854   -0.0020368123953680814
-0.008641727681344096   -0.04363915935528263   -0.0019266462382675881
-0.008705392251771624   -0.03600173820853703   -0.001942101641698436
-0.008572754194373347   -0.04370241052835608   -0.00194562873489266
-0.01301094307631367   -0.03607838062729622   -0.0020820060742623
-0.00866865048274977   -0.03606771044982518   -0.0019322481906081852
-0.008572754194373347   -0.04370241052835608   -0.00194562873489266
-0.008705392251771624   -0.03600173820853703   -0.001942101641698436
-0.01301094307631367   -0.03607838062729622   -0.0020820060742623
-0.008572754194373347   -0.04370241052835608   -0.00194562873489266
-0.012518023383519058   -0.04364099333199978   -0.002100346205666869
-0.012622982296043226   -0.043567357208364854   -0.0020368123953680814
-0.01301094307631367   -0.03607838062729622   -0.0020820060742623
-0.008572754194373347   -0.04370241052835608   -0.00194562873489266
-0.012622982296043226   -0.043567357208364854   -0.0020368123953680814
-0.008705392251771624   -0.03600173820853703   -0.001942101641698436
-0.01301094307631367   -0.03607838062729622   -0.0020820060742623
-0.012518023383519058   -0.04364099333199978   -0.002100346205666869
-0.00866865048274977   -0.03606771044982518   -0.0019322481906081852
-0.012945843388337428   -0.03617811598661699   -0.0021032610382784164
-0.012518023383519058   -0.04364099333199978   -0.002100346205666869
-0.008572754194373347   -0.04370241052835608   -0.00194562873489266
-0.00866865048274977   -0.03606771044982518   -0.0019322481906081852
-0.008498771313089532   -0.043788400902942747   -0.001973149275137617
-0.012945843388337428   -0.03617811598661699   -0.0021032610382784164
-0.008621161380245247   -0.03614471438330481   -0.0019303622544271535
-0.008498771313089532   -0.043788400902942747   -0.001973149275137617
-0.00866865048274977   -0.03606771044982518   -0.0019322481906081852
-0.012945843388337428   -0.03617811598661699   -0.0021032610382784164
-0.008498771313089532   -0.043788400902942747   -0.001973149275137617
-0.012375187411193858   -0.0437531308914368   -0.0021771739920148337
-0.012518023383519058   -0.04364099333199978   -0.002100346205666869
-0.012945843388337428   -0.03617811598661699   -0.0021032610382784164
-0.008498771313089532   -0.043788400902942747   -0.001973149275137617
-0.012518023383519058   -0.04364099333199978   -0.002100346205666869
-0.00866865048274977   -0.03606771044982518   -0.0019322481906081852
-0.008729048176218578   -0.03594225071958307   -0.0019600585574490272
-0.00869271272663528   -0.04359478526805968   -0.0019159609594266095
-0.004755567408832804   -0.0359467087409413   -0.0018823110869134972
-0.008705392251771624   -0.03600173820853703   -0.001942101641698436
-0.00869271272663528   -0.04359478526805968   -0.0019159609594266095
-0.005086498571921193   -0.043629250242549315   -0.0018709483825948825
-0.004755567408832804   -0.0359467087409413   -0.0018823110869134972
-0.005031008451532783   -0.043652287869410104   -0.0018476634031540256
-0.008705392251771624   -0.03600173820853703   -0.001942101641698436
-0.004724020049250619   -0.03598079616413049   -0.0018503385501639966
-0.005031008451532783   -0.043652287869410104   -0.0018476634031540256
-0.004755567408832804   -0.0359467087409413   -0.0018823110869134972
-0.008705392251771624   -0.03600173820853703   -0.001942101641698436
-0.005031008451532783   -0.043652287869410104   -0.0018476634031540256
-0.008641727681344096   -0.04363915935528263   -0.0019266462382675881
-0.00869271272663528   -0.04359478526805968   -0.0019159609594266095
-0.008705392251771624   -0.03600173820853703   -0.001942101641698436
-0.005031008451532783   -0.043652287869410104   -0.0018476634031540256
-0.00869271272663528   -0.04359478526805968   -0.0019159609594266095
-0.004755567408832804   -0.0359467087409413   -0.0018823110869134972
-0.008705392251771624   -0.03600173820853703   -0.001942101641698436
-0.008641727681344096   -0.04363915935528263   -0.0019266462382675881
-0.004724020049250619   -0.03598079616413049   -0.0018503385501639966
-0.00866865048274977   -0.03606771044982518   -0.0019322481906081852
-0.008641727681344096   -0.04363915935528263   -0.0019266462382675881
-0.005031008451532783   -0.043652287869410104   -0.0018476634031540256
-0.004724020049250619   -0.03598079616413049   -0.0018503385501639966
-0.004971329159915708   -0.04369346936105508   -0.001832573817272461
-0.00866865048274977   -0.03606771044982518   -0.0019322481906081852
-0.004688421322927841   -0.03602230189311529   -0.0018264983937090723
-0.004971329159915708   -0.04369346936105508   -0.001832573817272461
-0.004724020049250619   -0.03598079616413049   -0.0018503385501639966
-0.00866865048274977   -0.03606771044982518   -0.0019322481906081852
-0.004971329159915708   -0.04369346936105508   -0.001832573817272461
-0.008572754194373347   -0.04370241052835608   -0.00194562873489266
-0.008641727681344096   -0.04363915935528263   -0.0019266462382675881
-0.00866865048274977   -0.03606771044982518   -0.0019322481906081852
-0.004971329159915708   -0.04369346936105508   -0.001832573817272461
-0.008641727681344096   -0.04363915935528263   -0.0019266462382675881
-0.004724020049250619   -0.03598079616413049   -0.0018503385501639966
-0.00866865048274977   -0.03606771044982518   -0.0019322481906081852
-0.008572754194373347   -0.04370241052835608   -0.00194562873489266
-0.004688421322927841   -0.03602230189311529   -0.0018264983937090723
-0.008621161380245247   -0.03614471438330481   -0.0019303622544271535
-0.008572754194373347   -0.04370241052835608   -0.00194562873489266
-0.004971329159915708   -0.04369346936105508   -0.001832573817272461
-0.004688421322927841   -0.03602230189311529   -0.0018264983937090723
-0.004909986566142885   -0.043753312385202664   -0.0018260829288408269
-0.008621161380245247   -0.03614471438330481   -0.0019303622544271535
-0.004650076667584947   -0.036071355459510505   -0.0018110567518067613
-0.004909986566142885   -0.043753312385202664   -0.0018260829288408269
-0.004688421322927841   -0.03602230189311529   -0.0018264983937090723
-0.008621161380245247   -0.03614471438330481   -0.0019303622544271535
-0.004909986566142885   -0.043753312385202664   -0.0018260829288408269
-0.008498771313089532   -0.043788400902942747   -0.001973149275137617
-0.008572754194373347   -0.04370241052835608   -0.00194562873489266
-0.008621161380245247   -0.03614471438330481   -0.0019303622544271535
-0.004909986566142885   -0.043753312385202664   -0.0018260829288408269
-0.008572754194373347   -0.04370241052835608   -0.00194562873489266
-0.004688421322927841   -0.03602230189311529   -0.0018264983937090723
-0.004755567408832804   -0.0359467087409413   -0.0018823110869134972
-0.005086498571921193   -0.043629250242549315   -0.0018709483825948825
-0.0008944417919019509   -0.03592556292711383   -0.0018506602060517259
-0.004724020049250619   -0.03598079616413049   -0.0018503385501639966
-0.005086498571921193   -0.043629250242549315   -0.0018709483825948825
-0.0015893957313721282   -0.04360259960489477   -0.0018636662761806594
-0.0008944417919019509   -0.03592556292711383   -0.0018506602060517259
-0.0015280259753533867   -0.043603048184257254   -0.0018075762424511936
-0.004724020049250619   -0.03598079616413049   -0.0018503385501639966
-0.0008571782093222583   -0.035933381902967125   -0.0018053704872735235
-0.0015280259753533867   -0.043603048184257254   -0.0018075762424511936
-0.0008944417919019509   -0.03592556292711383   -0.0018506602060517259
-0.004724020049250619   -0.03598079616413049   -0.0018503385501639966
-0.0015280259753533867   -0.043603048184257254   -0.0018075762424511936
-0.005031008451532783   -0.043652287869410104   -0.0018476634031540256
-0.005086498571921193   -0.043629250242549315   -0.0018709483825948825
-0.004724020049250619   -0.03598079616413049   -0.0018503385501639966
-0.0015280259753533867   -0.043603048184257254   -0.0018075762424511936
-0.005086498571921193   -0.043629250242549315   -0.0018709483825948825
-0.0008944417919019509   -0.03592556292711383   -0.0018506602060517259
-0.004724020049250619   -0.03598079616413049   -0.0018503385501639966
-0.005031008451532783   -0.043652287869410104   -0.0018476634031540256
-0.0008571782093222583   -0.035933381902967125   -0.0018053704872735235
-0.004688421322927841   -0.03602230189311529   -0.0018264983937090723
-0.005031008451532783   -0.043652287869410104   -0.0018476634031540256
-0.0015280259753533867   -0.043603048184257254   -0.0018075762424511936
-0.0008571782093222583   -0.035933381902967125   -0.0018053704872735235
-0.0014682561651843222   -0.04362032077466746   -0.00175970356885988
-0.004688421322927841   -0.03602230189311529   -0.0018264983937090723
-0.0008219114639109585   -0.03594804415945735   -0.0017681576482542107
-0.0014682561651843222   -0.04362032077466746   -0.00175970356885988
-0.0008571782093222583   -0.035933381902967125   -0.0018053704872735235
-0.004688421322927841   -0.03602230189311529   -0.0018264983937090723
-0.0014682561651843222   -0.04362032077466746   -0.00175970356885988
-0.004971329159915708   -0.04369346936105508   -0.001832573817272461
-0.005031008451532783   -0.043652287869410104   -0.0018476634031540256
-0.004688421322927841   -0.03602230189311529   -0.0018264983937090723
-0.0014682561651843222   -0.04362032077466746   -0.00175970356885988
-0.005031008451532783   -0.043652287869410104   -0.0018476634031540256
-0.0008571782093222583   -0.035933381902967125   -0.0018053704872735235
-0.004688421322927841   -0.03602230189311529   -0.0018264983937090723
-0.004971329159915708   -0.04369346936105508   -0.001832573817272461
-0.0008219114639109585   -0.03594804415945735   -0.0017681576482542107
-0.004650076667584947   -0.036071355459510505   -0.0018110567518067613
-0.004971329159915708   -0.04369346936105508   -0.001832573817272461
-0.0014682561651843222   -0.04362032077466746   -0.00175970356885988
-0.0008219114639109585   -0.03594804415945735   -0.0017681576482542107
-0.0014149031282556022   -0.04365584089518098   -0.0017203331589883098
-0.004650076667584947   -0.036071355459510505   -0.0018110567518067613
-0.0007919217345229115   -0.035969881569745114   -0.0017393026831896586
-0.0014149031282556022   -0.04365584089518098   -0.0017203331589883098
-0.0008219114639109585   -0.03594804415945735   -0.0017681576482542107
-0.004650076667584947   -0.036071355459510505   -0.0018110567518067613
-0.0014149031282556022   -0.04365584089518098   -0.0017203331589883098
-0.004909986566142885   -0.043753312385202664   -0.0018260829288408269
-0.004971329159915708   -0.04369346936105508   -0.001832573817272461
-0.004650076667584947   -0.036071355459510505   -0.0018110567518067613
-0.0014149031282556022   -0.04365584089518098   -0.0017203331589883098
-0.004971329159915708   -0.04369346936105508   -0.001832573817272461
-0.0008219114639109585   -0.03594804415945735   -0.0017681576482542107
-0.0008944417919019509   -0.03592556292711383   -0.0018506602060517259
-0.0015893957313721282   -0.04360259960489477   -0.0018636662761806594
0.0030826805877547793   -0.03587859665026738   -0.001866638482301055
-0.0008571782093222583   -0.035933381902967125   -0.0018053704872735235
-0.0015893957313721282   -0.04360259960489477   -0.0018636662761806594
0.002027822367819645   -0.04351659361402474   -0.001897073280128088
0.0030826805877547793   -0.03587859665026738   -0.001866638482301055
0.0021028662297694965   -0.04349292940961671   -0.0018084787101703443
-0.0008571782093222583   -0.035933381902967125   -0.0018053704872735235
0.0031301638889360333   -0.03586005036500346   -0.0018082596953473652
0.0021028662297694965   -0.04349292940961671   -0.0018084787101703443
0.0030826805877547793   -0.03587859665026738   -0.001866638482301055
-0.0008571782093222583   -0.035933381902967125   -0.0018053704872735235
0.0021028662297694965   -0.04349292940961671   -0.0018084787101703443
-0.0015280259753533867   -0.043603048184257254   -0.0018075762424511936
-0.0015893957313721282   -0.04360259960489477   -0.0018636662761806594
-0.0008571782093222583   -0.035933381902967125   -0.0018053704872735235
0.0021028662297694965   -0.04349292940961671   -0.0018084787101703443
-0.0015893957313721282   -0.04360259960489477   -0.0018636662761806594
0.0030826805877547793   -0.03587859665026738   -0.001866638482301055
-0.0008571782093222583   -0.035933381902967125   -0.0018053704872735235
-0.0015280259753533867   -0.043603048184257254   -0.0018075762424511936
0.0031301638889360333   -0.03586005036500346   -0.0018082596953473652
-0.0008219114639109585   -0.03594804415945735   -0.0017681576482542107
-0.0015280259753533867   -0.043603048184257254   -0.0018075762424511936
0.0021028662297694965   -0.04349292940961671   -0.0018084787101703443
0.0031301638889360333   -0.03586005036500346   -0.0018082596953473652
0.002179846857357196   -0.04348849016064252   -0.001728625566423708
-0.0008219114639109585   -0.03594804415945735   -0.0017681576482542107
0.003174098796895291   -0.03585040007468376   -0.001757932326023536
0.002179846857357196   -0.04348849016064252   -0.001728625566423708
0.0031301638889360333   -0.03586005036500346   -0.0018082596953473652
-0.0008219114639109585   -0.03594804415945735   -0.0017681576482542107
0.002179846857357196   -0.04348849016064252   -0.001728625566423708
-0.0014682561651843222   -0.04362032077466746   -0.00175970356885988
-0.0015280259753533867   -0.043603048184257254   -0.0018075762424511936
-0.0008219114639109585   -0.03594804415945735   -0.0017681576482542107
0.002179846857357196   -0.04348849016064252   -0.001728625566423708
-0.0015280259753533867   -0.043603048184257254   -0.0018075762424511936
0.0031301638889360333   -0.03586005036500346   -0.0018082596953473652
-0.0008219114639109585   -0.03594804415945735   -0.0017681576482542107
-0.0014682561651843222   -0.04362032077466746   -0.00175970356885988
0.003174098796895291   -0.03585040007468376   -0.001757932326023536
-0.0007919217345229115   -0.035969881569745114   -0.0017393026831896586
-0.0014682561651843222   -0.04362032077466746   -0.00175970356885988
0.002179846857357196   -0.04348849016064252   -0.001728625566423708
0.003174098796895291   -0.03585040007468376   -0.001757932326023536
0.00223109704350722   -0.0434997352571825   -0.0016563604028500527
-0.0007919217345229115   -0.035969881569745114   -0.0017393026831896586
0.003197829884943457   -0.035845006027061574   -0.0017151307130733725
0.00223109704350722   -0.0434997352571825   -0.0016563604028500527
0.003174098796895291   -0.03585040007468376   -0.001757932326023536
-0.0007919217345229115   -0.035969881569745114   -0.0017393026831896586
0.00223109704350722   -0.0434997352571825   -0.0016563604028500527
-0.0014149031282556022   -0.04365584089518098   -0.0017203331589883098
-0.0014682561651843222   -0.04362032077466746   -0.00175970356885988
-0.0007919217345229115   -0.035969881569745114   -0.0017393026831896586
0.00223109704350722   -0.0434997352571825   -0.0016563604028500527
-0.0014682561651843222   -0.04362032077466746   -0.00175970356885988
0.003174098796895291   -0.03585040007468376   -0.001757932326023536
0.0030826805877547793   -0.03587859665026738   -0.001866638482301055
0.002027822367819645   -0.04351659361402474   -0.001897073280128088
0.007340185363713666   -0.03579961240665993   -0.001932790359933455
0.0031301638889360333   -0.03586005036500346   -0.0018082596953473652
0.002027822367819645   -0.04351659361402474   -0.001897073280128088
0.005874911902530389   -0.04336870380753074   -0.0019830048865775484
0.007340185363713666   -0.03579961240665993   -0.001932790359933455
0.006074603555355115   -0.043319991358963764   -0.001854044290939811
0.0031301638889360333   -0.03586005036500346   -0.0018082596953473652
0.0074638410899779874   -0.035757149908295344   -0.00185608576523785
0.006074603555355115   -0.043319991358963764   -0.001854044290939811
0.007340185363713666   -0.03579961240665993   -0.001932790359933455
0.0031301638889360333   -0.03586005036500346   -0.0018082596953473652
0.006074603555355115   -0.043319991358963764   -0.001854044290939811
0.0021028662297694965   -0.04349292940961671   -0.0018084787101703443
0.002027822367819645   -0.04351659361402474   -0.001897073280128088
0.0031301638889360333   -0.03586005036500346   -0.0018082596953473652
0.006074603555355115   -0.043319991358963764   -0.001854044290939811
0.002027822367819645   -0.04351659361402474   -0.001897073280128088
0.007340185363713666   -0.03579961240665993   -0.001932790359933455
0.0031301638889360333   -0.03586005036500346   -0.0018082596953473652
0.0021028662297694965   -0.04349292940961671   -0.0018084787101703443
0.0074638410899779874   -0.035757149908295344   -0.00185608576523785
0.003174098796895291   -0.03585040007468376   -0.001757932326023536
0.0021028662297694965   -0.04349292940961671   -0.0018084787101703443
0.006074603555355115   -0.043319991358963764   -0.001854044290939811
0.0074638410899779874   -0.035757149908295344   -0.00185608576523785
0.006222544494220209   -0.043306572419914126   -0.0017367133995940317
0.003174098796895291   -0.03585040007468376   -0.001757932326023536
0.00754893963450896   -0.035736550317202805   -0.0017908529242226126
0.006222544494220209   -0.043306572419914126   -0.0017367133995940317
0.0074638410899779874   -0.035757149908295344   -0.00185608576523785
0.003174098796895291   -0.03585040007468376   -0.001757932326023536
0.006222544494220209   -0.043306572419914126   -0.0017367133995940317
0.002179846857357196   -0.04348849016064252   -0.001728625566423708
0.0021028662297694965   -0.04349292940961671   -0.0018084787101703443
0.003174098796895291   -0.03585040007468376   -0.001757932326023536
0.006222544494220209   -0.043306572419914126   -0.0017367133995940317
0.0021028662297694965   -0.04349292940961671   -0.0018084787101703443
0.0074638410899779874   -0.035757149908295344   -0.00185608576523785
0.003174098796895291   -0.03585040007468376   -0.001757932326023536
0.002179846857357196   -0.04348849016064252   -0.001728625566423708
0.00754893963450896   -0.035736550317202805   -0.0017908529242226126
0.003197829884943457   -0.035845006027061574   -0.0017151307130733725
0.002179846857357196   -0.04348849016064252   -0.001728625566423708
0.006222544494220209   -0.043306572419914126   -0.0017367133995940317
0.00754893963450896   -0.035736550317202805   -0.0017908529242226126
0.006372657156956851   -0.04330647033756726   -0.0016315456649159997
0.003197829884943457   -0.035845006027061574   -0.0017151307130733725
0.007624673525516917   -0.035714227826570674   -0.0017375694189135879
0.006372657156956851   -0.04330647033756726   -0.0016315456649159997
0.00754893963450896   -0.035736550317202805   -0.0017908529242226126
0.003197829884943457   -0.035845006027061574   -0.0017151307130733725
0.006372657156956851   -0.04330647033756726   -0.0016315456649159997
0.00223109704350722   -0.0434997352571825   -0.0016563604028500527
0.002179846857357196   -0.04348849016064252   -0.001728625566423708
0.003197829884943457   -0.035845006027061574   -0.0017151307130733725
0.006372657156956851   -0.04330647033756726   -0.0016315456649159997
0.002179846857357196   -0.04348849016064252   -0.001728625566423708
0.00754893963450896   -0.035736550317202805   -0.0017908529242226126
-0.012715038740745985   -0.043507437253694575   -0.0019863258018599276
-0.011604519579394387   -0.050217493605930384   -0.001852672034416489
-0.00869271272663528   -0.04359478526805968   -0.0019159609594266095
-0.012622982296043226   -0.043567357208364854   -0.0020368123953680814
-0.011604519579394387   -0.050217493605930384   -0.001852672034416489
-0.008219813324306921   -0.0503748825609409   -0.0018413979968059124
-0.00869271272663528   -0.04359478526805968   -0.0019159609594266095
-0.008135509531355901   -0.05039763444186157   -0.0018786423261919203
-0.012622982296043226   -0.043567357208364854   -0.0020368123953680814
-0.008641727681344096   -0.04363915935528263   -0.0019266462382675881
-0.008135509531355901   -0.05039763444186157   -0.0018786423261919203
-0.00869271272663528   -0.04359478526805968   -0.0019159609594266095
-0.012622982296043226   -0.043567357208364854   -0.0020368123953680814
-0.008135509531355901   -0.05039763444186157   -0.0018786423261919203
-0.011428785105897564   -0.05025124191047993   -0.001957004031501533
-0.011604519579394387   -0.050217493605930384   -0.001852672034416489
-0.012622982296043226   -0.043567357208364854   -0.0020368123953680814
-0.008135509531355901   -0.05039763444186157   -0.0018786423261919203
-0.011604519579394387   -0.050217493605930384   -0.001852672034416489
-0.00869271272663528   -0.04359478526805968   -0.0019159609594266095
-0.012622982296043226   -0.043567357208364854   -0.0020368123953680814
-0.011428785105897564   -0.05025124191047993   -0.001957004031501533
-0.008641727681344096   -0.04363915935528263   -0.0019266462382675881
-0.012518023383519058   -0.04364099333199978   -0.002100346205666869
-0.011428785105897564   -0.05025124191047993   -0.001957004031501533
-0.008135509531355901   -0.05039763444186157   -0.0018786423261919203
-0.008641727681344096   -0.04363915935528263   -0.0019266462382675881
-0.008029615813217842   -0.050452206636848795   -0.001924296289529931
-0.012518023383519058   -0.04364099333199978   -0.002100346205666869
-0.008572754194373347   -0.04370241052835608   -0.00194562873489266
-0.008029615813217842   -0.050452206636848795   -0.001924296289529931
-0.008641727681344096   -0.04363915935528263   -0.0019266462382675881
-0.012518023383519058   -0.04364099333199978   -0.002100346205666869
-0.008029615813217842   -0.050452206636848795   -0.001924296289529931
-0.011253573221389177   -0.05031528899547374   -0.0020750284597900056
-0.011428785105897564   -0.05025124191047993   -0.001957004031501533
-0.012518023383519058   -0.04364099333199978   -0.002100346205666869
-0.008029615813217842   -0.050452206636848795   -0.001924296289529931
-0.011428785105897564   -0.05025124191047993   -0.001957004031501533
-0.008641727681344096   -0.04363915935528263   -0.0019266462382675881
-0.012518023383519058   -0.04364099333199978   -0.002100346205666869
-0.011253573221389177   -0.05031528899547374   -0.0020750284597900056
-0.008572754194373347   -0.04370241052835608   -0.00194562873489266
-0.012375187411193858   -0.0437531308914368   -0.0021771739920148337
-0.011253573221389177   -0.05031528899547374   -0.0020750284597900056
-0.008029615813217842   -0.050452206636848795   -0.001924296289529931
-0.008572754194373347   -0.04370241052835608   -0.00194562873489266
-0.007925146959425283   -0.05054170008364554   -0.001978280698897202
-0.012375187411193858   -0.0437531308914368   -0.0021771739920148337
-0.008498771313089532   -0.043788400902942747   -0.001973149275137617
-0.007925146959425283   -0.05054170008364554   -0.001978280698897202
-0.008572754194373347   -0.04370241052835608   -0.00194562873489266
-0.012375187411193858   -0.0437531308914368   -0.0021771739920148337
-0.007925146959425283   -0.05054170008364554   -0.001978280698897202
-0.011029159825365214   -0.05043471845794456   -0.002206499008942659
-0.011253573221389177   -0.05031528899547374   -0.0020750284597900056
-0.012375187411193858   -0.0437531308914368   -0.0021771739920148337
-0.007925146959425283   -0.05054170008364554   -0.001978280698897202
-0.011253573221389177   -0.05031528899547374   -0.0020750284597900056
-0.008572754194373347   -0.04370241052835608   -0.00194562873489266
-0.00869271272663528   -0.04359478526805968   -0.0019159609594266095
-0.008219813324306921   -0.0503748825609409   -0.0018413979968059124
-0.005086498571921193   -0.043629250242549315   -0.0018709483825948825
-0.008641727681344096   -0.04363915935528263   -0.0019266462382675881
-0.008219813324306921   -0.0503748825609409   -0.0018413979968059124
-0.005288141833476536   -0.05044846201493537   -0.001836968677500598
-0.005086498571921193   -0.043629250242549315   -0.0018709483825948825
-0.005201674381941042   -0.05045590064038346   -0.0018202665875410402
-0.008641727681344096   -0.04363915935528263   -0.0019266462382675881
-0.005031008451532783   -0.043652287869410104   -0.0018476634031540256
-0.005201674381941042   -0.05045590064038346   -0.0018202665875410402
-0.005086498571921193   -0.043629250242549315   -0.0018709483825948825
-0.008641727681344096   -0.04363915935528263   -0.0019266462382675881
-0.005201674381941042   -0.05045590064038346   -0.0018202665875410402
-0.008135509531355901   -0.05039763444186157   -0.0018786423261919203
-0.008219813324306921   -0.0503748825609409   -0.0018413979968059124
-0.008641727681344096   -0.04363915935528263   -0.0019266462382675881
-0.005201674381941042   -0.05045590064038346   -0.0018202665875410402
-0.008219813324306921   -0.0503748825609409   -0.0018413979968059124
-0.005086498571921193   -0.043629250242549315   -0.0018709483825948825
-0.008641727681344096   -0.04363915935528263   -0.0019266462382675881
-0.008135509531355901   -0.05039763444186157   -0.0018786423261919203
-0.005031008451532783   -0.043652287869410104   -0.0018476634031540256
-0.008572754194373347   -0.04370241052835608   -0.00194562873489266
-0.008135509531355901   -0.05039763444186157   -0.0018786423261919203
-0.005201674381941042   -0.05045590064038346   -0.0018202665875410402
-0.005031008451532783   -0.043652287869410104   -0.0018476634031540256
-0.0051124189725174655   -0.05049175817934701   -0.001811724994226256
-0.008572754194373347   -0.04370241052835608   -0.00194562873489266
-0.004971329159915708   -0.04369346936105508   -0.001832573817272461
-0.0051124189725174655   -0.05049175817934701   -0.001811724994226256
-0.005031008451532783   -0.043652287869410104   -0.0018476634031540256
-0.008572754194373347   -0.04370241052835608   -0.00194562873489266
-0.0051124189725174655   -0.05049175817934701   -0.001811724994226256
-0.008029615813217842   -0.050452206636848795   -0.001924296289529931
-0.008135509531355901   -0.05039763444186157   -0.0018786423261919203
-0.008572754194373347   -0.04370241052835608   -0.00194562873489266
-0.0051124189725174655   -0.05049175817934701   -0.001811724994226256
-0.008135509531355901   -0.05039763444186157   -0.0018786423261919203
-0.005031008451532783   -0.043652287869410104   -0.0018476634031540256
-0.008572754194373347   -0.04370241052835608   -0.00194562873489266
-0.008029615813217842   -0.050452206636848795   -0.001924296289529931
-0.004971329159915708   -0.04369346936105508   -0.001832573817272461
-0.008498771313089532   -0.043788400902942747   -0.001973149275137617
-0.008029615813217842   -0.050452206636848795   -0.001924296289529931
-0.0051124189725174655   -0.05049175817934701   -0.001811724994226256
-0.004971329159915708   -0.04369346936105508   -0.001832573817272461
-0.005023303861762547   -0.050557695757232415   -0.001811243637106058
-0.008498771313089532   -0.043788400902942747   -0.001973149275137617
-0.004909986566142885   -0.043753312385202664   -0.0018260829288408269
-0.005023303861762547   -0.050557695757232415   -0.001811243637106058
-0.004971329159915708   -0.04369346936105508   -0.001832573817272461
-0.008498771313089532   -0.043788400902942747   -0.001973149275137617
-0.005023303861762547   -0.050557695757232415   -0.001811243637106058
-0.007925146959425283   -0.05054170008364554   -0.001978280698897202
-0.008029615813217842   -0.050452206636848795   -0.001924296289529931
-0.008498771313089532   -0.043788400902942747   -0.001973149275137617
-0.005023303861762547   -0.050557695757232415   -0.001811243637106058
-0.008029615813217842   -0.050452206636848795   -0.001924296289529931
-0.004971329159915708   -0.04369346936105508   -0.001832573817272461
-0.005086498571921193   -0.043629250242549315   -0.0018709483825948825
-0.005288141833476536   -0.05044846201493537   -0.001836968677500598
-0.0015893957313721282   -0.04360259960489477   -0.0018636662761806594
-0.005031008451532783   -0.043652287869410104   -0.0018476634031540256
-0.005288141833476536   -0.05044846201493537   -0.001836968677500598
-0.002453698764476393   -0.05043481880431956   -0.0018581134084514274
-0.0015893957313721282   -0.04360259960489477   -0.0018636662761806594
-0.002358989595244515   -0.050425048411409296   -0.0017893547613005156
-0.005031008451532783   -0.043652287869410104   -0.0018476634031540256
-0.0015280259753533867   -0.043603048184257254   -0.0018075762424511936
-0.002358989595244515   -0.050425048411409296   -0.0017893547613005156
-0.0015893957313721282   -0.04360259960489477   -0.0018636662761806594
-0.005031008451532783   -0.043652287869410104   -0.0018476634031540256
-0.002358989595244515   -0.050425048411409296   -0.0017893547613005156
-0.005201674381941042   -0.05045590064038346   -0.0018202665875410402
-0.005288141833476536   -0.05044846201493537   -0.001836968677500598
-0.005031008451532783   -0.043652287869410104   -0.0018476634031540256
-0.002358989595244515   -0.050425048411409296   -0.0017893547613005156
-0.005288141833476536   -0.05044846201493537   -0.001836968677500598
-0.0015893957313721282   -0.04360259960489477   -0.0018636662761806594
-0.005031008451532783   -0.043652287869410104   -0.0018476634031540256
-0.005201674381941042   -0.05045590064038346   -0.0018202665875410402
-0.0015280259753533867   -0.043603048184257254   -0.0018075762424511936
-0.004971329159915708   -0.04369346936105508   -0.001832573817272461
-0.005201674381941042   -0.05045590064038346   -0.0018202665875410402
-0.002358989595244515   -0.050425048411409296   -0.0017893547613005156
-0.0015280259753533867   -0.043603048184257254   -0.0018075762424511936
-0.002267057687742281   -0.05044099205226526   -0.0017292954425732338
-0.004971329159915708   -0.04369346936105508   -0.001832573817272461
-0.0014682561651843222   -0.04362032077466746   -0.00175970356885988
-0.002267057687742281   -0.05044099205226526   -0.0017292954425732338
-0.0015280259753533867   -0.043603048184257254   -0.0018075762424511936
-0.004971329159915708   -0.04369346936105508   -0.001832573817272461
-0.002267057687742281   -0.05044099205226526   -0.0017292954425732338
-0.0051124189725174655   -0.05049175817934701   -0.001811724994226256
-0.005201674381941042   -0.05045590064038346   -0.0018202665875410402
-0.004971329159915708   -0.04369346936105508   -0.001832573817272461
-0.002267057687742281   -0.05044099205226526   -0.0017292954425732338
-0.005201674381941042   -0.05045590064038346   -0.0018202665875410402
-0.0015280259753533867   -0.043603048184257254   -0.0018075762424511936
-0.004971329159915708   -0.04369346936105508   -0.001832573817272461
-0.0051124189725174655   -0.05049175817934701   -0.001811724994226256
-0.0014682561651843222   -0.04362032077466746   -0.00175970356885988
-0.004909986566142885   -0.043753312385202664   -0.0018260829288408269
-0.0051124189725174655   -0.05049175817934701   -0.001811724994226256
-0.002267057687742281   -0.05044099205226526   -0.0017292954425732338
-0.0014682561651843222   -0.04362032077466746   -0.00175970356885988
-0.0021839861071008453   -0.05048635202025149   -0.0016771843929831041
-0.004909986566142885   -0.043753312385202664   -0.0018260829288408269
-0.0014149031282556022   -0.04365584089518098   -0.0017203331589883098
-0.0021839861071008453   -0.05048635202025149   -0.0016771843929831041
-0.0014682561651843222   -0.04362032077466746   -0.00175970356885988
-0.004909986566142885   -0.043753312385202664   -0.0018260829288408269
-0.0021839861071008453   -0.05048635202025149   -0.0016771843929831041
-0.005023303861762547   -0.050557695757232415   -0.001811243637106058
-0.0051124189725174655   -0.05049175817934701   -0.001811724994226256
-0.004909986566142885   -0.043753312385202664   -0.0018260829288408269
-0.0021839861071008453   -0.05048635202025149   -0.0016771843929831041
-0.0051124189725174655   -0.05049175817934701   -0.001811724994226256
-0.0014682561651843222   -0.04362032077466746   -0.00175970356885988
-0.0015893957313721282   -0.04360259960489477   -0.0018636662761806594
-0.002453698764476393   -0.05043481880431956   -0.0018581134084514274
0.002027822367819645   -0.04351659361402474   -0.001897073280128088
-0.0015280259753533867   -0.043603048184257254   -0.0018075762424511936
-0.002453698764476393   -0.05043481880431956   -0.0018581134084514274
0.0005128910204609084   -0.05033082693339526   -0.0019094296900686477
0.002027822367819645   -0.04351659361402474   -0.001897073280128088
0.0006281347399321083   -0.05029922115625196   -0.0017887847392082192
-0.0015280259753533867   -0.043603048184257254   -0.0018075762424511936
0.0021028662297694965   -0.04349292940961671   -0.0018084787101703443
0.0006281347399321083   -0.05029922115625196   -0.0017887847392082192
0.002027822367819645   -0.04351659361402474   -0.001897073280128088
-0.0015280259753533867   -0.043603048184257254   -0.0018075762424511936
0.0006281347399321083   -0.05029922115625196   -0.0017887847392082192
-0.002358989595244515   -0.050425048411409296   -0.0017893547613005156
-0.002453698764476393   -0.05043481880431956   -0.0018581134084514274
-0.0015280259753533867   -0.043603048184257254   -0.0018075762424511936
0.0006281347399321083   -0.05029922115625196   -0.0017887847392082192
-0.002453698764476393   -0.05043481880431956   -0.0018581134084514274
0.002027822367819645   -0.04351659361402474   -0.001897073280128088
-0.0015280259753533867   -0.043603048184257254   -0.0018075762424511936
-0.002358989595244515   -0.050425048411409296   -0.0017893547613005156
0.0021028662297694965   -0.04349292940961671   -0.0018084787101703443
-0.0014682561651843222   -0.04362032077466746   -0.00175970356885988
-0.002358989595244515   -0.050425048411409296   -0.0017893547613005156
0.0006281347399321083   -0.05029922115625196   -0.0017887847392082192
0.0021028662297694965   -0.04349292940961671   -0.0018084787101703443
0.0007496324319670536   -0.05029636294366021   -0.0016791632725848928
-0.0014682561651843222   -0.04362032077466746   -0.00175970356885988
0.002179846857357196   -0.04348849016064252   -0.001728625566423708
0.0007496324319670536   -0.05029636294366021   -0.0016791632725848928
0.0021028662297694965   -0.04349292940961671   -0.0018084787101703443
-0.0014682561651843222   -0.04362032077466746   -0.00175970356885988
0.0007496324319670536   -0.05029636294366021   -0.0016791632725848928
-0.002267057687742281   -0.05044099205226526   -0.0017292954425732338
-0.002358989595244515   -0.050425048411409296   -0.0017893547613005156
-0.0014682561651843222   -0.04362032077466746   -0.00175970356885988
0.0007496324319670536   -0.05029636294366021   -0.0016791632725848928
-0.002358989595244515   -0.050425048411409296   -0.0017893547613005156
0.0021028662297694965   -0.04349292940961671   -0.0018084787101703443
-0.0014682561651843222   -0.04362032077466746   -0.00175970356885988
-0.002267057687742281   -0.05044099205226526   -0.0017292954425732338
0.002179846857357196   -0.04348849016064252   -0.001728625566423708
-0.0014149031282556022   -0.04365584089518098   -0.0017203331589883098
-0.002267057687742281   -0.05044099205226526   -0.0017292954425732338
0.0007496324319670536   -0.05029636294366021   -0.0016791632725848928
0.002179846857357196   -0.04348849016064252   -0.001728625566423708
0.0008384905067606005   -0.05032093713343183   -0.001577130191368223
-0.0014149031282556022   -0.04365584089518098   -0.0017203331589883098
0.00223109704350722   -0.0434997352571825   -0.0016563604028500527
0.0008384905067606005   -0.05032093713343183   -0.001577130191368223
0.002179846857357196   -0.04348849016064252   -0.001728625566423708
-0.0014149031282556022   -0.04365584089518098   -0.0017203331589883098
0.0008384905067606005   -0.05032093713343183   -0.001577130191368223
-0.0021839861071008453   -0.05048635202025149   -0.0016771843929831041
-0.002267057687742281   -0.05044099205226526   -0.0017292954425732338
-0.0014149031282556022   -0.04365584089518098   -0.0017203331589883098
0.0008384905067606005   -0.05032093713343183   -0.001577130191368223
-0.002267057687742281   -0.05044099205226526   -0.0017292954425732338
0.002179846857357196   -0.04348849016064252   -0.001728625566423708
0.002027822367819645   -0.04351659361402474   -0.001897073280128088
0.0005128910204609084   -0.05033082693339526   -0.0019094296900686477
0.005874911902530389   -0.04336870380753074   -0.0019830048865775484
0.0021028662297694965   -0.04349292940961671   -0.0018084787101703443
0.0005128910204609084   -0.05033082693339526   -0.0019094296900686477
0.0036743287675036077   -0.050126646687421644   -0.0020189141869750306
0.005874911902530389   -0.04336870380753074   -0.0019830048865775484
0.003966593042988295   -0.05006602600356415   -0.001834248897380083
0.0021028662297694965   -0.04349292940961671   -0.0018084787101703443
0.006074603555355115   -0.043319991358963764   -0.001854044290939811
0.003966593042988295   -0.05006602600356415   -0.001834248897380083
0.005874911902530389   -0.04336870380753074   -0.0019830048865775484
0.0021028662297694965   -0.04349292940961671   -0.0018084787101703443
0.003966593042988295   -0.05006602600356415   -0.001834248897380083
0.0006281347399321083   -0.05029922115625196   -0.0017887847392082192
0.0005128910204609084   -0.05033082693339526   -0.0019094296900686477
0.0021028662297694965   -0.04349292940961671   -0.0018084787101703443
0.003966593042988295   -0.05006602600356415   -0.001834248897380083
0.0005128910204609084   -0.05033082693339526   -0.0019094296900686477
0.005874911902530389   -0.04336870380753074   -0.0019830048865775484
0.0021028662297694965   -0.04349292940961671   -0.0018084787101703443
0.0006281347399321083   -0.05029922115625196   -0.0017887847392082192
0.006074603555355115   -0.043319991358963764   -0.001854044290939811
0.002179846857357196   -0.04348849016064252   -0.001728625566423708
0.0006281347399321083   -0.05029922115625196   -0.0017887847392082192
0.003966593042988295   -0.05006602600356415   -0.001834248897380083
0.006074603555355115   -0.043319991358963764   -0.001854044290939811
0.004190706397828131   -0.05005552767148087   -0.0016632553242891222
0.002179846857357196   -0.04348849016064252   -0.001728625566423708
0.006222544494220209   -0.043306572419914126   -0.0017367133995940317
0.004190706397828131   -0.05005552767148087   -0.0016632553242891222
0.006074603555355115   -0.043319991358963764   -0.001854044290939811
0.002179846857357196   -0.04348849016064252   -0.001728625566423708
0.004190706397828131   -0.05005552767148087   -0.0016632553242891222
0.0007496324319670536   -0.05029636294366021   -0.0016791632725848928
0.0006281347399321083   -0.05029922115625196   -0.0017887847392082192
0.002179846857357196   -0.04348849016064252   -0.001728625566423708
0.004190706397828131   -0.05005552767148087   -0.0016632553242891222
0.0006281347399321083   -0.05029922115625196   -0.0017887847392082192
0.006074603555355115   -0.043319991358963764   -0.001854044290939811
0.002179846857357196   -0.04348849016064252   -0.001728625566423708
0.0007496324319670536   -0.05029636294366021   -0.0016791632725848928
0.006222544494220209   -0.043306572419914126   -0.0017367133995940317
0.00223109704350722   -0.0434997352571825   -0.0016563604028500527
0.0007496324319670536   -0.05029636294366021   -0.0016791632725848928
0.004190706397828131   -0.05005552767148087   -0.0016632553242891222
0.006222544494220209   -0.043306572419914126   -0.0017367133995940317
0.004423056971367807   -0.05007356501097866   -0.0015073276564087506
0.00223109704350722   -0.0434997352571825   -0.0016563604028500527
0.006372657156956851   -0.04330647033756726   -0.0016315456649159997
0.004423056971367807   -0.05007356501097866   -0.0015073276564087506
0.006222544494220209   -0.043306572419914126   -0.0017367133995940317
0.00223109704350722   -0.0434997352571825   -0.0016563604028500527
0.004423056971367807   -0.05007356501097866   -0.0015073276564087506
0.0008384905067606005   -0.05032093713343183   -0.001577130191368223
0.0007496324319670536   -0.05029636294366021   -0.0016791632725848928
0.00223109704350722   -0.0434997352571825   -0.0016563604028500527
0.004423056971367807   -0.05007356501097866   -0.0015073276564087506
0.0007496324319670536   -0.05029636294366021   -0.0016791632725848928
0.006222544494220209   -0.043306572419914126   -0.0017367133995940317
-0.011604519579394387   -0.050217493605930384   -0.001852672034416489
-0.009722452454935318   -0.05548341508664152   -0.0016811870139880447
-0.008219813324306921   -0.0503748825609409   -0.0018413979968059124
-0.011428785105897564   -0.05025124191047993   -0.001957004031501533
-0.009722452454935318   -0.05548341508664152   -0.0016811870139880447
-0.007313292216575268   -0.055716269485480245   -0.0017509866196847752
-0.008219813324306921   -0.0503748825609409   -0.0018413979968059124
-0.007192075859853067   -0.05570434571253901   -0.0018082932755658454
-0.011428785105897564   -0.05025124191047993   -0.001957004031501533
-0.008135509531355901   -0.05039763444186157   -0.0018786423261919203
-0.007192075859853067   -0.05570434571253901   -0.0018082932755658454
-0.008219813324306921   -0.0503748825609409   -0.0018413979968059124
-0.011428785105897564   -0.05025124191047993   -0.001957004031501533
-0.007192075859853067   -0.05570434571253901   -0.0018082932755658454
-0.009460835835437276   -0.055476906633284986   -0.0018356863840301547
-0.009722452454935318   -0.05548341508664152   -0.0016811870139880447
-0.011428785105897564   -0.05025124191047993   -0.001957004031501533
-0.007192075859853067   -0.05570434571253901   -0.0018082932755658454
-0.009722452454935318   -0.05548341508664152   -0.0016811870139880447
-0.008219813324306921   -0.0503748825609409   -0.0018413979968059124
-0.011428785105897564   -0.05025124191047993   -0.001957004031501533
-0.009460835835437276   -0.055476906633284986   -0.0018356863840301547
-0.008135509531355901   -0.05039763444186157   -0.0018786423261919203
-0.011253573221389177   -0.05031528899547374   -0.0020750284597900056
-0.009460835835437276   -0.055476906633284986   -0.0018356863840301547
-0.007192075859853067   -0.05570434571253901   -0.0018082932755658454
-0.008135509531355901   -0.05039763444186157   -0.0018786423261919203
-0.0070494570505979905   -0.05573798459824921   -0.0018741826448758667
-0.011253573221389177   -0.05031528899547374   -0.0020750284597900056
-0.008029615813217842   -0.050452206636848795   -0.001924296289529931
-0.0070494570505979905   -0.05573798459824921   -0.0018741826448758667
-0.008135509531355901   -0.05039763444186157   -0.0018786423261919203
-0.011253573221389177   -0.05031528899547374   -0.0020750284597900056
-0.0070494570505979905   -0.05573798459824921   -0.0018741826448758667
-0.009219731466622949   -0.05551844918594968   -0.0020022769352641256
-0.009460835835437276   -0.055476906633284986   -0.0018356863840301547
-0.011253573221389177   -0.05031528899547374   -0.0020750284597900056
-0.0070494570505979905   -0.05573798459824921   -0.0018741826448758667
-0.009460835835437276   -0.055476906633284986   -0.0018356863840301547
-0.008135509531355901   -0.05039763444186157   -0.0018786423261919203
-0.011253573221389177   -0.05031528899547374   -0.0020750284597900056
-0.009219731466622949   -0.05551844918594968   -0.0020022769352641256
-0.008029615813217842   -0.050452206636848795   -0.001924296289529931
-0.011029159825365214   -0.05043471845794456   -0.002206499008942659
-0.009219731466622949   -0.05551844918594968   -0.0020022769352641256
-0.0070494570505979905   -0.05573798459824921   -0.0018741826448758667
-0.008029615813217842   -0.050452206636848795   -0.001924296289529931
-0.006920076540274122   -0.05581796007954703   -0.0019481068018169603
-0.011029159825365214   -0.05043471845794456   -0.002206499008942659
-0.007925146959425283   -0.05054170008364554   -0.001978280698897202
-0.006920076540274122   -0.05581796007954703   -0.0019481068018169603
-0.008029615813217842   -0.050452206636848795   -0.001924296289529931
-0.011029159825365214   -0.05043471845794456   -0.002206499008942659
-0.006920076540274122   -0.05581796007954703   -0.0019481068018169603
-0.008925630485017795   -0.055629225017775605   -0.002180252042116237
-0.009219731466622949   -0.05551844918594968   -0.0020022769352641256
-0.011029159825365214   -0.05043471845794456   -0.002206499008942659
-0.006920076540274122   -0.05581796007954703   -0.0019481068018169603
-0.009219731466622949   -0.05551844918594968   -0.0020022769352641256
-0.008029615813217842   -0.050452206636848795   -0.001924296289529931
-0.008219813324306921   -0.0503748825609409   -0.0018413979968059124
-0.007313292216575268   -0.055716269485480245   -0.0017509866196847752
-0.005288141833476536   -0.05044846201493537   -0.001836968677500598
-0.008135509531355901   -0.05039763444186157   -0.0018786423261919203
-0.007313292216575268   -0.055716269485480245   -0.0017509866196847752
-0.0053438406872538145   -0.05586687224192714   -0.0018056228548157037
-0.005288141833476536   -0.05044846201493537   -0.001836968677500598
-0.005219500876735246   -0.05584769723624537   -0.001788101267944353
-0.008135509531355901   -0.05039763444186157   -0.0018786423261919203
-0.005201674381941042   -0.05045590064038346   -0.0018202665875410402
-0.005219500876735246   -0.05584769723624537   -0.001788101267944353
-0.005288141833476536   -0.05044846201493537   -0.001836968677500598
-0.008135509531355901   -0.05039763444186157   -0.0018786423261919203
-0.005219500876735246   -0.05584769723624537   -0.001788101267944353
-0.007192075859853067   -0.05570434571253901   -0.0018082932755658454
-0.007313292216575268   -0.055716269485480245   -0.0017509866196847752
-0.008135509531355901   -0.05039763444186157   -0.0018786423261919203
-0.005219500876735246   -0.05584769723624537   -0.001788101267944353
-0.007313292216575268   -0.055716269485480245   -0.0017509866196847752
-0.005288141833476536   -0.05044846201493537   -0.001836968677500598
-0.008135509531355901   -0.05039763444186157   -0.0018786423261919203
-0.007192075859853067   -0.05570434571253901   -0.0018082932755658454
-0.005201674381941042   -0.05045590064038346   -0.0018202665875410402
-0.008029615813217842   -0.050452206636848795   -0.001924296289529931
-0.007192075859853067   -0.05570434571253901   -0.0018082932755658454
-0.005219500876735246   -0.05584769723624537   -0.001788101267944353
-0.005201674381941042   -0.05045590064038346   -0.0018202665875410402
-0.005096881783839876   -0.05586786619191282   -0.0017789191818358494
-0.008029615813217842   -0.050452206636848795   -0.001924296289529931
-0.0051124189725174655   -0.05049175817934701   -0.001811724994226256
-0.005096881783839876   -0.05586786619191282   -0.0017789191818358494
-0.005201674381941042   -0.05045590064038346   -0.0018202665875410402
-0.008029615813217842   -0.050452206636848795   -0.001924296289529931
-0.005096881783839876   -0.05586786619191282   -0.0017789191818358494
-0.0070494570505979905   -0.05573798459824921   -0.0018741826448758667
-0.007192075859853067   -0.05570434571253901   -0.0018082932755658454
-0.008029615813217842   -0.050452206636848795   -0.001924296289529931
-0.005096881783839876   -0.05586786619191282   -0.0017789191818358494
-0.007192075859853067   -0.05570434571253901   -0.0018082932755658454
-0.005201674381941042   -0.05045590064038346   -0.0018202665875410402
-0.008029615813217842   -0.050452206636848795   -0.001924296289529931
-0.0070494570505979905   -0.05573798459824921   -0.0018741826448758667
-0.0051124189725174655   -0.05049175817934701   -0.001811724994226256
-0.007925146959425283   -0.05054170008364554   -0.001978280698897202
-0.0070494570505979905   -0.05573798459824921   -0.0018741826448758667
-0.005096881783839876   -0.05586786619191282   -0.0017789191818358494
-0.0051124189725174655   -0.05049175817934701   -0.001811724994226256
-0.004984027460967782   -0.05592867465861524   -0.0017798186287470315
-0.007925146959425283   -0.05054170008364554   -0.001978280698897202
-0.005023303861762547   -0.050557695757232415   -0.001811243637106058
-0.004984027460967782   -0.05592867465861524   -0.0017798186287470315
-0.0051124189725174655   -0.05049175817934701   -0.001811724994226256
-0.007925146959425283   -0.05054170008364554   -0.001978280698897202
-0.004984027460967782   -0.05592867465861524   -0.0017798186287470315
-0.006920076540274122   -0.05581796007954703   -0.0019481068018169603
-0.0070494570505979905   -0.05573798459824921   -0.0018741826448758667
-0.007925146959425283   -0.05054170008364554   -0.001978280698897202
-0.004984027460967782   -0.05592867465861524   -0.0017798186287470315
-0.0070494570505979905   -0.05573798459824921   -0.0018741826448758667
-0.0051124189725174655   -0.05049175817934701   -0.001811724994226256
-0.005288141833476536   -0.05044846201493537   -0.001836968677500598
-0.0053438406872538145   -0.05586687224192714   -0.0018056228548157037
-0.002453698764476393   -0.05043481880431956   -0.0018581134084514274
-0.005201674381941042   -0.05045590064038346   -0.0018202665875410402
-0.0053438406872538145   -0.05586687224192714   -0.0018056228548157037
-0.0034574057720621796   -0.05594549537196549   -0.0018702964834272939
-0.002453698764476393   -0.05043481880431956   -0.0018581134084514274
-0.0033172501807020058   -0.05591776369224087   -0.001782187604279664
-0.005201674381941042   -0.05045590064038346   -0.0018202665875410402
-0.002358989595244515   -0.050425048411409296   -0.0017893547613005156
-0.0033172501807020058   -0.05591776369224087   -0.001782187604279664
-0.002453698764476393   -0.05043481880431956   -0.0018581134084514274
-0.005201674381941042   -0.05045590064038346   -0.0018202665875410402
-0.0033172501807020058   -0.05591776369224087   -0.001782187604279664
-0.005219500876735246   -0.05584769723624537   -0.001788101267944353
-0.0053438406872538145   -0.05586687224192714   -0.0018056228548157037
-0.005201674381941042   -0.05045590064038346   -0.0018202665875410402
-0.0033172501807020058   -0.05591776369224087   -0.001782187604279664
-0.0053438406872538145   -0.05586687224192714   -0.0018056228548157037
-0.002453698764476393   -0.05043481880431956   -0.0018581134084514274
-0.005201674381941042   -0.05045590064038346   -0.0018202665875410402
-0.005219500876735246   -0.05584769723624537   -0.001788101267944353
-0.002358989595244515   -0.050425048411409296   -0.0017893547613005156
-0.0051124189725174655   -0.05049175817934701   -0.001811724994226256
-0.005219500876735246   -0.05584769723624537   -0.001788101267944353
-0.0033172501807020058   -0.05591776369224087   -0.001782187604279664
-0.002358989595244515   -0.050425048411409296   -0.0017893547613005156
-0.0031836243154881342   -0.055924655516792106   -0.001701461999437405
-0.0051124189725174655   -0.05049175817934701   -0.001811724994226256
-0.002267057687742281   -0.05044099205226526   -0.0017292954425732338
-0.0031836243154881342   -0.055924655516792106   -0.001701461999437405
-0.002358989595244515   -0.050425048411409296   -0.0017893547613005156
-0.0051124189725174655   -0.05049175817934701   -0.001811724994226256
-0.0031836243154881342   -0.055924655516792106   -0.001701461999437405
-0.005096881783839876   -0.05586786619191282   -0.0017789191818358494
-0.005219500876735246   -0.05584769723624537   -0.001788101267944353
-0.0051124189725174655   -0.05049175817934701   -0.001811724994226256
-0.0031836243154881342   -0.055924655516792106   -0.001701461999437405
-0.005219500876735246   -0.05584769723624537   -0.001788101267944353
-0.002358989595244515   -0.050425048411409296   -0.0017893547613005156
-0.0051124189725174655   -0.05049175817934701   -0.001811724994226256
-0.005096881783839876   -0.05586786619191282   -0.0017789191818358494
-0.002267057687742281   -0.05044099205226526   -0.0017292954425732338
-0.005023303861762547   -0.050557695757232415   -0.001811243637106058
-0.005096881783839876   -0.05586786619191282   -0.0017789191818358494
-0.0031836243154881342   -0.055924655516792106   -0.001701461999437405
-0.002267057687742281   -0.05044099205226526   -0.0017292954425732338
-0.003072446530546258   -0.055972867248385974   -0.0016327059913478282
-0.005023303861762547   -0.050557695757232415   -0.001811243637106058
-0.0021839861071008453   -0.05048635202025149   -0.0016771843929831041
-0.003072446530546258   -0.055972867248385974   -0.0016327059913478282
-0.002267057687742281   -0.05044099205226526   -0.0017292954425732338
-0.005023303861762547   -0.050557695757232415   -0.001811243637106058
-0.003072446530546258   -0.055972867248385974   -0.0016327059913478282
-0.004984027460967782   -0.05592867465861524   -0.0017798186287470315
-0.005096881783839876   -0.05586786619191282   -0.0017789191818358494
-0.005023303861762547   -0.050557695757232415   -0.001811243637106058
-0.003072446530546258   -0.055972867248385974   -0.0016327059913478282
-0.005096881783839876   -0.05586786619191282   -0.0017789191818358494
-0.002267057687742281   -0.05044099205226526   -0.0017292954425732338
-0.002453698764476393   -0.05043481880431956   -0.0018581134084514274
-0.0034574057720621796   -0.05594549537196549   -0.0018702964834272939
0.0005128910204609084   -0.05033082693339526   -0.0019094296900686477
-0.002358989595244515   -0.050425048411409296   -0.0017893547613005156
-0.0034574057720621796   -0.05594549537196549   -0.0018702964834272939
-0.0014521432527183043   -0.0559245571651967   -0.001946571507438654
0.0005128910204609084   -0.05033082693339526   -0.0019094296900686477
-0.0012721933199767584   -0.05588106390947326   -0.0017909063099420376
-0.002358989595244515   -0.050425048411409296   -0.0017893547613005156
0.0006281347399321083   -0.05029922115625196   -0.0017887847392082192
-0.0012721933199767584   -0.05588106390947326   -0.0017909063099420376
0.0005128910204609084   -0.05033082693339526   -0.0019094296900686477
-0.002358989595244515   -0.050425048411409296   -0.0017893547613005156
-0.0012721933199767584   -0.05588106390947326   -0.0017909063099420376
-0.0033172501807020058   -0.05591776369224087   -0.001782187604279664
-0.0034574057720621796   -0.05594549537196549   -0.0018702964834272939
-0.002358989595244515   -0.050425048411409296   -0.0017893547613005156
-0.0012721933199767584   -0.05588106390947326   -0.0017909063099420376
-0.0034574057720621796   -0.05594549537196549   -0.0018702964834272939
0.0005128910204609084   -0.05033082693339526   -0.0019094296900686477
-0.002358989595244515   -0.050425048411409296   -0.0017893547613005156
-0.0033172501807020058   -0.05591776369224087   -0.001782187604279664
0.0006281347399321083   -0.05029922115625196   -0.0017887847392082192
-0.002267057687742281   -0.05044099205226526   -0.0017292954425732338
-0.0033172501807020058   -0.05591776369224087   -0.001782187604279664
-0.0012721933199767584   -0.05588106390947326   -0.0017909063099420376
0.0006281347399321083   -0.05029922115625196   -0.0017887847392082192
-0.0010881103260851606   -0.05587345251134108   -0.0016431325583486885
-0.002267057687742281   -0.05044099205226526   -0.0017292954425732338
0.0007496324319670536   -0.05029636294366021   -0.0016791632725848928
-0.0010881103260851606   -0.05587345251134108   -0.0016431325583486885
0.0006281347399321083   -0.05029922115625196   -0.0017887847392082192
-0.002267057687742281   -0.05044099205226526   -0.0017292954425732338
-0.0010881103260851606   -0.05587345251134108   -0.0016431325583486885
-0.0031836243154881342   -0.055924655516792106   -0.001701461999437405
-0.0033172501807020058   -0.05591776369224087   -0.001782187604279664
-0.002267057687742281   -0.05044099205226526   -0.0017292954425732338
-0.0010881103260851606   -0.05587345251134108   -0.0016431325583486885
-0.0033172501807020058   -0.05591776369224087   -0.001782187604279664
0.0006281347399321083   -0.05029922115625196   -0.0017887847392082192
-0.002267057687742281   -0.05044099205226526   -0.0017292954425732338
-0.0031836243154881342   -0.055924655516792106   -0.001701461999437405
0.0007496324319670536   -0.05029636294366021   -0.0016791632725848928
-0.0021839861071008453   -0.05048635202025149   -0.0016771843929831041
-0.0031836243154881342   -0.055924655516792106   -0.001701461999437405
-0.0010881103260851606   -0.05587345251134108   -0.0016431325583486885
0.0007496324319670536   -0.05029636294366021   -0.0016791632725848928
-0.0009518266121821692   -0.05590940954951418   -0.0015088689161108634
-0.0021839861071008453   -0.05048635202025149   -0.0016771843929831041
0.0008384905067606005   -0.05032093713343183   -0.001577130191368223
-0.0009518266121821692   -0.05590940954951418   -0.0015088689161108634
0.0007496324319670536   -0.05029636294366021   -0.0016791632725848928
-0.0021839861071008453   -0.05048635202025149   -0.0016771843929831041
-0.0009518266121821692   -0.05590940954951418   -0.0015088689161108634
-0.003072446530546258   -0.055972867248385974   -0.0016327059913478282
-0.0031836243154881342   -0.055924655516792106   -0.001701461999437405
-0.0021839861071008453   -0.05048635202025149   -0.0016771843929831041
-0.0009518266121821692   -0.05590940954951418   -0.0015088689161108634
-0.0031836243154881342   -0.055924655516792106   -0.001701461999437405
0.0007496324319670536   -0.05029636294366021   -0.0016791632725848928
0.0005128910204609084   -0.05033082693339526   -0.0019094296900686477
-0.0014521432527183043   -0.0559245571651967   -0.001946571507438654
0.0036743287675036077   -0.050126646687421644   -0.0020189141869750306
0.0006281347399321083   -0.05029922115625196   -0.0017887847392082192
-0.0014521432527183043   -0.0559245571651967   -0.001946571507438654
0.0007046168643110329   -0.055731604159571   -0.0021025589257236475
0.0036743287675036077   -0.050126646687421644   -0.0020189141869750306
0.001124804120231672   -0.05563706216346253   -0.0018479783292372788
0.0006281347399321083   -0.05029922115625196   -0.0017887847392082192
0.003966593042988295   -0.05006602600356415   -0.001834248897380083
0.001124804120231672   -0.05563706216346253   -0.0018479783292372788
0.0036743287675036077   -0.050126646687421644   -0.0020189141869750306
0.0006281347399321083   -0.05029922115625196   -0.0017887847392082192
0.001124804120231672   -0.05563706216346253   -0.0018479783292372788
-0.0012721933199767584   -0.05588106390947326   -0.0017909063099420376
-0.0014521432527183043   -0.0559245571651967   -0.001946571507438654
0.0006281347399321083   -0.05029922115625196   -0.0017887847392082192
0.001124804120231672   -0.05563706216346253   -0.0018479783292372788
-0.0014521432527183043   -0.0559245571651967   -0.001946571507438654
0.0036743287675036077   -0.050126646687421644   -0.0020189141869750306
0.0006281347399321083   -0.05029922115625196   -0.0017887847392082192
-0.0012721933199767584   -0.05588106390947326   -0.0017909063099420376
0.003966593042988295   -0.05006602600356415   -0.001834248897380083
0.0007496324319670536   -0.05029636294366021   -0.0016791632725848928
-0.0012721933199767584   -0.05588106390947326   -0.0017909063099420376
0.001124804120231672   -0.05563706216346253   -0.0018479783292372788
0.003966593042988295   -0.05006602600356415   -0.001834248897380083
0.0014549745521973282   -0.05561796616279666   -0.0016088767334002125
0.0007496324319670536   -0.05029636294366021   -0.0016791632725848928
0.004190706397828131   -0.05005552767148087   -0.0016632553242891222
0.0014549745521973282   -0.05561796616279666   -0.0016088767334002125
0.003966593042988295   -0.05006602600356415   -0.001834248897380083
0.0007496324319670536   -0.05029636294366021   -0.0016791632725848928
0.0014549745521973282   -0.05561796616279666   -0.0016088767334002125
-0.0010881103260851606   -0.05587345251134108   -0.0016431325583486885
-0.0012721933199767584   -0.05588106390947326   -0.0017909063099420376
0.0007496324319670536   -0.05029636294366021   -0.0016791632725848928
0.0014549745521973282   -0.05561796616279666   -0.0016088767334002125
-0.0012721933199767584   -0.05588106390947326   -0.0017909063099420376
0.003966593042988295   -0.05006602600356415   -0.001834248897380083
0.0007496324319670536   -0.05029636294366021   -0.0016791632725848928
-0.0010881103260851606   -0.05587345251134108   -0.0016431325583486885
0.004190706397828131   -0.05005552767148087   -0.0016632553242891222
0.0008384905067606005   -0.05032093713343183   -0.001577130191368223
-0.0010881103260851606   -0.05587345251134108   -0.0016431325583486885
0.0014549745521973282   -0.05561796616279666   -0.0016088767334002125
0.004190706397828131   -0.05005552767148087   -0.0016632553242891222
0.001798289578626212   -0.0556342779571252   -0.0013904309311618237
0.0008384905067606005   -0.05032093713343183   -0.001577130191368223
0.004423056971367807   -0.05007356501097866   -0.0015073276564087506
0.001798289578626212   -0.0556342779571252   -0.0013904309311618237
0.004190706397828131   -0.05005552767148087   -0.0016632553242891222
0.0008384905067606005   -0.05032093713343183   -0.001577130191368223
0.001798289578626212   -0.0556342779571252   -0.0013904309311618237
-0.0009518266121821692   -0.05590940954951418   -0.0015088689161108634
-0.0010881103260851606   -0.05587345251134108   -0.0016431325583486885
0.0008384905067606005   -0.05032093713343183   -0.001577130191368223
0.001798289578626212   -0.0556342779571252   -0.0013904309311618237
-0.0010881103260851606   -0.05587345251134108   -0.0016431325583486885
0.004190706397828131   -0.05005552767148087   -0.0016632553242891222
-0.009722452454935318   -0.05548341508664152   -0.0016811870139880447
-0.007137020239970345   -0.05861498943636578   -0.001479687125030542
-0.007313292216575268   -0.055716269485480245   -0.0017509866196847752
-0.009460835835437276   -0.055476906633284986   -0.0018356863840301547
-0.007137020239970345   -0.05861498943636578   -0.001479687125030542
-0.006014203158081646   -0.05890932143241854   -0.0016563345049920586
-0.007313292216575268   -0.055716269485480245   -0.0017509866196847752
-0.00586141362925302   -0.058851326215773506   -0.00171736858377456
-0.009460835835437276   -0.055476906633284986   -0.0018356863840301547
-0.007192075859853067   -0.05570434571253901   -0.0018082932755658454
-0.00586141362925302   -0.058851326215773506   -0.00171736858377456
-0.007313292216575268   -0.055716269485480245   -0.0017509866196847752
-0.009460835835437276   -0.055476906633284986   -0.0018356863840301547
-0.00586141362925302   -0.058851326215773506   -0.00171736858377456
-0.006811194782928493   -0.05854963016160125   -0.0016650041137730276
-0.007137020239970345   -0.05861498943636578   -0.001479687125030542
-0.009460835835437276   -0.055476906633284986   -0.0018356863840301547
-0.00586141362925302   -0.058851326215773506   -0.00171736858377456
-0.007137020239970345   -0.05861498943636578   -0.001479687125030542
-0.007313292216575268   -0.055716269485480245   -0.0017509866196847752
-0.009460835835437276   -0.055476906633284986   -0.0018356863840301547
-0.006811194782928493   -0.05854963016160125   -0.0016650041137730276
-0.007192075859853067   -0.05570434571253901   -0.0018082932755658454
-0.009219731466622949   -0.05551844918594968   -0.0020022769352641256
-0.006811194782928493   -0.05854963016160125   -0.0016650041137730276
-0.00586141362925302   -0.058851326215773506   -0.00171736858377456
-0.007192075859853067   -0.05570434571253901   -0.0018082932755658454
-0.005692111632965082   -0.05885441041322499   -0.0017790250234330455
-0.009219731466622949   -0.05551844918594968   -0.0020022769352641256
-0.0070494570505979905   -0.05573798459824921   -0.0018741826448758667
-0.005692111632965082   -0.05885441041322499   -0.0017790250234330455
-0.007192075859853067   -0.05570434571253901   -0.0018082932755658454
-0.009219731466622949   -0.05551844918594968   -0.0020022769352641256
-0.005692111632965082   -0.05885441041322499   -0.0017790250234330455
-0.00653009185956055   -0.058555467150009206   -0.0018496266188331636
-0.006811194782928493   -0.05854963016160125   -0.0016650041137730276
-0.009219731466622949   -0.05551844918594968   -0.0020022769352641256
-0.005692111632965082   -0.05885441041322499   -0.0017790250234330455
-0.006811194782928493   -0.05854963016160125   -0.0016650041137730276
-0.007192075859853067   -0.05570434571253901   -0.0018082932755658454
-0.009219731466622949   -0.05551844918594968   -0.0020022769352641256
-0.00653009185956055   -0.058555467150009206   -0.0018496266188331636
-0.0070494570505979905   -0.05573798459824921   -0.0018741826448758667
-0.008925630485017795   -0.055629225017775605   -0.002180252042116237
-0.00653009185956055   -0.058555467150009206   -0.0018496266188331636
-0.005692111632965082   -0.05885441041322499   -0.0017790250234330455
-0.0070494570505979905   -0.05573798459824921   -0.0018741826448758667
-0.005534877938133843   -0.0589188678930141   -0.0018415614641614192
-0.008925630485017795   -0.055629225017775605   -0.002180252042116237
-0.006920076540274122   -0.05581796007954703   -0.0019481068018169603
-0.005534877938133843   -0.0589188678930141   -0.0018415614641614192
-0.0070494570505979905   -0.05573798459824921   -0.0018741826448758667
-0.008925630485017795   -0.055629225017775605   -0.002180252042116237
-0.005534877938133843   -0.0589188678930141   -0.0018415614641614192
-0.00619660406105824   -0.05863661207111124   -0.002038219714435198
-0.00653009185956055   -0.058555467150009206   -0.0018496266188331636
-0.008925630485017795   -0.055629225017775605   -0.002180252042116237
-0.005534877938133843   -0.0589188678930141   -0.0018415614641614192
-0.00653009185956055   -0.058555467150009206   -0.0018496266188331636
-0.0070494570505979905   -0.05573798459824921   -0.0018741826448758667
-0.007313292216575268   -0.055716269485480245   -0.0017509866196847752
-0.006014203158081646   -0.05890932143241854   -0.0016563345049920586
-0.0053438406872538145   -0.05586687224192714   -0.0018056228548157037
-0.007192075859853067   -0.05570434571253901   -0.0018082932755658454
-0.006014203158081646   -0.05890932143241854   -0.0016563345049920586
-0.0051910436790515   -0.05920390561059744   -0.0018123993225232435
-0.0053438406872538145   -0.05586687224192714   -0.0018056228548157037
-0.005029921371647264   -0.05914435746662908   -0.0017698713425381566
-0.007192075859853067   -0.05570434571253901   -0.0018082932755658454
-0.005219500876735246   -0.05584769723624537   -0.001788101267944353
-0.005029921371647264   -0.05914435746662908   -0.0017698713425381566
-0.0053438406872538145   -0.05586687224192714   -0.0018056228548157037
-0.007192075859853067   -0.05570434571253901   -0.0018082932755658454
-0.005029921371647264   -0.05914435746662908   -0.0017698713425381566
-0.00586141362925302   -0.058851326215773506   -0.00171736858377456
-0.006014203158081646   -0.05890932143241854   -0.0016563345049920586
-0.007192075859853067   -0.05570434571253901   -0.0018082932755658454
-0.005029921371647264   -0.05914435746662908   -0.0017698713425381566
-0.006014203158081646   -0.05890932143241854   -0.0016563345049920586
-0.0053438406872538145   -0.05586687224192714   -0.0018056228548157037
-0.007192075859853067   -0.05570434571253901   -0.0018082932755658454
-0.00586141362925302   -0.058851326215773506   -0.00171736858377456
-0.005219500876735246   -0.05584769723624537   -0.001788101267944353
-0.0070494570505979905   -0.05573798459824921   -0.0018741826448758667
-0.00586141362925302   -0.058851326215773506   -0.00171736858377456
-0.005029921371647264   -0.05914435746662908   -0.0017698713425381566
-0.005219500876735246   -0.05584769723624537   -0.001788101267944353
-0.0048741020119756695   -0.059143452083123584   -0.0017268202421471845
-0.0070494570505979905   -0.05573798459824921   -0.0018741826448758667
-0.005096881783839876   -0.05586786619191282   -0.0017789191818358494
-0.0048741020119756695   -0.059143452083123584   -0.0017268202421471845
-0.005219500876735246   -0.05584769723624537   -0.001788101267944353
-0.0070494570505979905   -0.05573798459824921   -0.0018741826448758667
-0.0048741020119756695   -0.059143452083123584   -0.0017268202421471845
-0.005692111632965082   -0.05885441041322499   -0.0017790250234330455
-0.00586141362925302   -0.058851326215773506   -0.00171736858377456
-0.0070494570505979905   -0.05573798459824921   -0.0018741826448758667
-0.0048741020119756695   -0.059143452083123584   -0.0017268202421471845
-0.00586141362925302   -0.058851326215773506   -0.00171736858377456
-0.005219500876735246   -0.05584769723624537   -0.001788101267944353
-0.0070494570505979905   -0.05573798459824921   -0.0018741826448758667
-0.005692111632965082   -0.05885441041322499   -0.0017790250234330455
-0.005096881783839876   -0.05586786619191282   -0.0017789191818358494
-0.006920076540274122   -0.05581796007954703   -0.0019481068018169603
-0.005692111632965082   -0.05885441041322499   -0.0017790250234330455
-0.0048741020119756695   -0.059143452083123584   -0.0017268202421471845
-0.005096881783839876   -0.05586786619191282   -0.0017789191818358494
-0.004711683689998273   -0.05919997542830407   -0.0016854833932011311
-0.006920076540274122   -0.05581796007954703   -0.0019481068018169603
-0.004984027460967782   -0.05592867465861524   -0.0017798186287470315
-0.004711683689998273   -0.05919997542830407   -0.0016854833932011311
-0.005096881783839876   -0.05586786619191282   -0.0017789191818358494
-0.006920076540274122   -0.05581796007954703   -0.0019481068018169603
-0.004711683689998273   -0.05919997542830407   -0.0016854833932011311
-0.005534877938133843   -0.0589188678930141   -0.0018415614641614192
-0.005692111632965082   -0.05885441041322499   -0.0017790250234330455
-0.006920076540274122   -0.05581796007954703   -0.0019481068018169603
-0.004711683689998273   -0.05919997542830407   -0.0016854833932011311
-0.005692111632965082   -0.05885441041322499   -0.0017790250234330455
-0.005096881783839876   -0.05586786619191282   -0.0017789191818358494
-0.0053438406872538145   -0.05586687224192714   -0.0018056228548157037
-0.0051910436790515   -0.05920390561059744   -0.0018123993225232435
-0.0034574057720621796   -0.05594549537196549   -0.0018702964834272939
-0.005219500876735246   -0.05584769723624537   -0.001788101267944353
-0.0051910436790515   -0.05920390561059744   -0.0018123993225232435
-0.004438992412947462   -0.0595585414072138   -0.001984378182050146
-0.0034574057720621796   -0.05594549537196549   -0.0018702964834272939
-0.004241526421718193   -0.05950677387445358   -0.0018324963562210545
-0.005219500876735246   -0.05584769723624537   -0.001788101267944353
-0.0033172501807020058   -0.05591776369224087   -0.001782187604279664
-0.004241526421718193   -0.05950677387445358   -0.0018324963562210545
-0.0034574057720621796   -0.05594549537196549   -0.0018702964834272939
-0.005219500876735246   -0.05584769723624537   -0.001788101267944353
-0.004241526421718193   -0.05950677387445358   -0.0018324963562210545
-0.005029921371647264   -0.05914435746662908   -0.0017698713425381566
-0.0051910436790515   -0.05920390561059744   -0.0018123993225232435
-0.005219500876735246   -0.05584769723624537   -0.001788101267944353
-0.004241526421718193   -0.05950677387445358   -0.0018324963562210545
-0.0051910436790515   -0.05920390561059744   -0.0018123993225232435
-0.0034574057720621796   -0.05594549537196549   -0.0018702964834272939
-0.005219500876735246   -0.05584769723624537   -0.001788101267944353
-0.005029921371647264   -0.05914435746662908   -0.0017698713425381566
-0.0033172501807020058   -0.05591776369224087   -0.001782187604279664
-0.005096881783839876   -0.05586786619191282   -0.0017789191818358494
-0.005029921371647264   -0.05914435746662908   -0.0017698713425381566
-0.004241526421718193   -0.05950677387445358   -0.0018324963562210545
-0.0033172501807020058   -0.05591776369224087   -0.001782187604279664
-0.004058498126204951   -0.05950409792059285   -0.0016810927877527408
-0.005096881783839876   -0.05586786619191282   -0.0017789191818358494
-0.0031836243154881342   -0.055924655516792106   -0.001701461999437405
-0.004058498126204951   -0.05950409792059285   -0.0016810927877527408
-0.0033172501807020058   -0.05591776369224087   -0.001782187604279664
-0.005096881783839876   -0.05586786619191282   -0.0017789191818358494
-0.004058498126204951   -0.05950409792059285   -0.0016810927877527408
-0.0048741020119756695   -0.059143452083123584   -0.0017268202421471845
-0.005029921371647264   -0.05914435746662908   -0.0017698713425381566
-0.005096881783839876   -0.05586786619191282   -0.0017789191818358494
-0.004058498126204951   -0.05950409792059285   -0.0016810927877527408
-0.005029921371647264   -0.05914435746662908   -0.0017698713425381566
-0.0033172501807020058   -0.05591776369224087   -0.001782187604279664
-0.005096881783839876   -0.05586786619191282   -0.0017789191818358494
-0.0048741020119756695   -0.059143452083123584   -0.0017268202421471845
-0.0031836243154881342   -0.055924655516792106   -0.001701461999437405
-0.004984027460967782   -0.05592867465861524   -0.0017798186287470315
-0.0048741020119756695   -0.059143452083123584   -0.0017268202421471845
-0.004058498126204951   -0.05950409792059285   -0.0016810927877527408
-0.0031836243154881342   -0.055924655516792106   -0.001701461999437405
-0.0038620725153547643   -0.05954788712593856   -0.0015294112691202203
-0.004984027460967782   -0.05592867465861524   -0.0017798186287470315
-0.003072446530546258   -0.055972867248385974   -0.0016327059913478282
-0.0038620725153547643   -0.05954788712593856   -0.0015294112691202203
-0.0031836243154881342   -0.055924655516792106   -0.001701461999437405
-0.004984027460967782   -0.05592867465861524   -0.0017798186287470315
-0.0038620725153547643   -0.05954788712593856   -0.0015294112691202203
-0.004711683689998273   -0.05919997542830407   -0.0016854833932011311
-0.0048741020119756695   -0.059143452083123584   -0.0017268202421471845
-0.004984027460967782   -0.05592867465861524   -0.0017798186287470315
-0.0038620725153547643   -0.05954788712593856   -0.0015294112691202203
-0.0048741020119756695   -0.059143452083123584   -0.0017268202421471845
-0.0031836243154881342   -0.055924655516792106   -0.001701461999437405
-0.0034574057720621796   -0.05594549537196549   -0.0018702964834272939
-0.004438992412947462   -0.0595585414072138   -0.001984378182050146
-0.0014521432527183043   -0.0559245571651967   -0.001946571507438654
-0.0033172501807020058   -0.05591776369224087   -0.001782187604279664
-0.004438992412947462   -0.0595585414072138   -0.001984378182050146
-0.0036988398237657195   -0.06   -0.0021169483152158586
-0.0014521432527183043   -0.0559245571651967   -0.001946571507438654
-0.0034503516578884906   -0.06   -0.0018859127276253187
-0.0033172501807020058   -0.05591776369224087   -0.001782187604279664
-0.0012721933199767584   -0.05588106390947326   -0.0017909063099420376
-0.0034503516578884906   -0.06   -0.0018859127276253187
-0.0014521432527183043   -0.0559245571651967   -0.001946571507438654
-0.0033172501807020058   -0.05591776369224087   -0.001782187604279664
-0.0034503516578884906   -0.06   -0.0018859127276253187
-0.004241526421718193   -0.05950677387445358   -0.0018324963562210545
-0.004438992412947462   -0.0595585414072138   -0.001984378182050146
-0.0033172501807020058   -0.05591776369224087   -0.001782187604279664
-0.0034503516578884906   -0.06   -0.0018859127276253187
-0.004438992412947462   -0.0595585414072138   -0.001984378182050146
-0.0014521432527183043   -0.0559245571651967   -0.001946571507438654
-0.0033172501807020058   -0.05591776369224087   -0.001782187604279664
-0.004241526421718193   -0.05950677387445358   -0.0018324963562210545
-0.0012721933199767584   -0.05588106390947326   -0.0017909063099420376
-0.0031836243154881342   -0.055924655516792106   -0.001701461999437405
-0.004241526421718193   -0.05950677387445358   -0.0018324963562210545
-0.0034503516578884906   -0.06   -0.0018859127276253187
-0.0012721933199767584   -0.05588106390947326   -0.0017909063099420376
-0.0032005791164245847   -0.06   -0.0016521407570634999
-0.0031836243154881342   -0.055924655516792106   -0.001701461999437405
-0.0010881103260851606   -0.05587345251134108   -0.0016431325583486885
-0.0032005791164245847   -0.06   -0.0016521407570634999
-0.0012721933199767584   -0.05588106390947326   -0.0017909063099420376
-0.0031836243154881342   -0.055924655516792106   -0.001701461999437405
-0.0032005791164245847   -0.06   -0.0016521407570634999
-0.004058498126204951   -0.05950409792059285   -0.0016810927877527408
-0.004241526421718193   -0.05950677387445358   -0.0018324963562210545
-0.0031836243154881342   -0.055924655516792106   -0.001701461999437405
-0.0032005791164245847   -0.06   -0.0016521407570634999
-0.004241526421718193   -0.05950677387445358   -0.0018324963562210545
-0.0012721933199767584   -0.05588106390947326   -0.0017909063099420376
-0.0031836243154881342   -0.055924655516792106   -0.001701461999437405
-0.004058498126204951   -0.05950409792059285   -0.0016810927877527408
-0.0010881103260851606   -0.05587345251134108   -0.0016431325583486885
-0.003072446530546258   -0.055972867248385974   -0.0016327059913478282
-0.004058498126204951   -0.05950409792059285   -0.0016810927877527408
-0.0032005791164245847   -0.06   -0.0016521407570634999
-0.0010881103260851606   -0.05587345251134108   -0.0016431325583486885
-0.002956550088747443   -0.06   -0.00142146823409587
-0.003072446530546258   -0.055972867248385974   -0.0016327059913478282
-0.0009518266121821692   -0.05590940954951418   -0.0015088689161108634
-0.002956550088747443   -0.06   -0.00142146823409587
-0.0010881103260851606   -0.05587345251134108   -0.0016431325583486885
-0.003072446530546258   -0.055972867248385974   -0.0016327059913478282
-0.002956550088747443   -0.06   -0.00142146823409587
-0.0038620725153547643   -0.05954788712593856   -0.0015294112691202203
-0.004058498126204951   -0.05950409792059285   -0.0016810927877527408
-0.003072446530546258   -0.055972867248385974   -0.0016327059913478282
-0.002956550088747443   -0.06   -0.00142146823409587
-0.004058498126204951   -0.05950409792059285   -0.0016810927877527408
-0.0010881103260851606   -0.05587345251134108   -0.0016431325583486885
-0.0014521432527183043   -0.0559245571651967   -0.001946571507438654
-0.0036988398237657195   -0.06   -0.0021169483152158586
0.0007046168643110329   -0.055731604159571   -0.0021025589257236475
-0.0012721933199767584   -0.05588106390947326   -0.0017909063099420376
-0.0036988398237657195   -0.06   -0.0021169483152158586
-0.003160817672399813   -0.06   -0.002277500648871258
0.0007046168643110329   -0.055731604159571   -0.0021025589257236475
-0.002640436416849146   -0.06   -0.0019430764752762042
-0.0012721933199767584   -0.05588106390947326   -0.0017909063099420376
0.001124804120231672   -0.05563706216346253   -0.0018479783292372788
-0.002640436416849146   -0.06   -0.0019430764752762042
0.0007046168643110329   -0.055731604159571   -0.0021025589257236475
-0.0012721933199767584   -0.05588106390947326   -0.0017909063099420376
-0.002640436416849146   -0.06   -0.0019430764752762042
-0.0034503516578884906   -0.06   -0.0018859127276253187
-0.0036988398237657195   -0.06   -0.0021169483152158586
-0.0012721933199767584   -0.05588106390947326   -0.0017909063099420376
-0.002640436416849146   -0.06   -0.0019430764752762042
-0.0036988398237657195   -0.06   -0.0021169483152158586
0.0007046168643110329   -0.055731604159571   -0.0021025589257236475
-0.0012721933199767584   -0.05588106390947326   -0.0017909063099420376
-0.0034503516578884906   -0.06   -0.0018859127276253187
0.001124804120231672   -0.05563706216346253   -0.0018479783292372788
-0.0010881103260851606   -0.05587345251134108   -0.0016431325583486885
-0.0034503516578884906   -0.06   -0.0018859127276253187
-0.002640436416849146   -0.06   -0.0019430764752762042
0.001124804120231672   -0.05563706216346253   -0.0018479783292372788
-0.0022254484324477487   -0.06   -0.0016231684439568525
-0.0010881103260851606   -0.05587345251134108   -0.0016431325583486885
0.0014549745521973282   -0.05561796616279666   -0.0016088767334002125
-0.0022254484324477487   -0.06   -0.0016231684439568525
0.001124804120231672   -0.05563706216346253   -0.0018479783292372788
-0.0010881103260851606   -0.05587345251134108   -0.0016431325583486885
-0.0022254484324477487   -0.06   -0.0016231684439568525
-0.0032005791164245847   -0.06   -0.0016521407570634999
-0.0034503516578884906   -0.06   -0.0018859127276253187
-0.0010881103260851606   -0.05587345251134108   -0.0016431325583486885
-0.0022254484324477487   -0.06   -0.0016231684439568525
-0.0034503516578884906   -0.06   -0.0018859127276253187
0.001124804120231672   -0.05563706216346253   -0.0018479783292372788
-0.0010881103260851606   -0.05587345251134108   -0.0016431325583486885
-0.0032005791164245847   -0.06   -0.0016521407570634999
0.0014549745521973282   -0.05561796616279666   -0.0016088767334002125
-0.0009518266121821692   -0.05590940954951418   -0.0015088689161108634
-0.0032005791164245847   -0.06   -0.0016521407570634999
-0.0022254484324477487   -0.06   -0.0016231684439568525
0.0014549745521973282   -0.05561796616279666   -0.0016088767334002125
-0.0017128454833752014   -0.06   -0.001291058924100638
-0.0009518266121821692   -0.05590940954951418   -0.0015088689161108634
0.001798289578626212   -0.0556342779571252   -0.0013904309311618237
-0.0017128454833752014   -0.06   -0.001291058924100638
0.0014549745521973282   -0.05561796616279666   -0.0016088767334002125
-0.0009518266121821692   -0.05590940954951418   -0.0015088689161108634
-0.0017128454833752014   -0.06   -0.001291058924100638
-0.002956550088747443   -0.06   -0.00142146823409587
-0.0032005791164245847   -0.06   -0.0016521407570634999
-0.0009518266121821692   -0.05590940954951418   -0.0015088689161108634
-0.0017128454833752014   -0.06   -0.001291058924100638
-0.0032005791164245847   -0.06   -0.0016521407570634999
0.0014549745521973282   -0.05561796616279666   -0.0016088767334002125
-0.007137020239970345   -0.05861498943636578   -0.001479687125030542
-0.004276698075416126   -0.058780073167867875   -0.0012666369372584647
-0.006014203158081646   -0.05890932143241854   -0.0016563345049920586
-0.006811194782928493   -0.05854963016160125   -0.0016650041137730276
-0.004276698075416126   -0.058780073167867875   -0.0012666369372584647
-0.004530871507735583   -0.0590072057794527   -0.0014941069690199104
-0.006014203158081646   -0.05890932143241854   -0.0016563345049920586
-0.004415255957155425   -0.05892796965753924   -0.0015772720686383411
-0.006811194782928493   -0.05854963016160125   -0.0016650041137730276
-0.00586141362925302   -0.058851326215773506   -0.00171736858377456
-0.004415255957155425   -0.05892796965753924   -0.0015772720686383411
-0.006014203158081646   -0.05890932143241854   -0.0016563345049920586
-0.006811194782928493   -0.05854963016160125   -0.0016650041137730276
-0.004415255957155425   -0.05892796965753924   -0.0015772720686383411
-0.003981266516813325   -0.058678306754304244   -0.0014613667752281672
-0.004276698075416126   -0.058780073167867875   -0.0012666369372584647
-0.006811194782928493   -0.05854963016160125   -0.0016650041137730276
-0.004415255957155425   -0.05892796965753924   -0.0015772720686383411
-0.004276698075416126   -0.058780073167867875   -0.0012666369372584647
-0.006014203158081646   -0.05890932143241854   -0.0016563345049920586
-0.006811194782928493   -0.05854963016160125   -0.0016650041137730276
-0.003981266516813325   -0.058678306754304244   -0.0014613667752281672
-0.00586141362925302   -0.058851326215773506   -0.00171736858377456
-0.00653009185956055   -0.058555467150009206   -0.0018496266188331636
-0.003981266516813325   -0.058678306754304244   -0.0014613667752281672
-0.004415255957155425   -0.05892796965753924   -0.0015772720686383411
-0.00586141362925302   -0.058851326215773506   -0.00171736858377456
-0.004279595918354134   -0.05889893929780777   -0.001654034546558983
-0.00653009185956055   -0.058555467150009206   -0.0018496266188331636
-0.005692111632965082   -0.05885441041322499   -0.0017790250234330455
-0.004279595918354134   -0.05889893929780777   -0.001654034546558983
-0.00586141362925302   -0.058851326215773506   -0.00171736858377456
-0.00653009185956055   -0.058555467150009206   -0.0018496266188331636
-0.004279595918354134   -0.05889893929780777   -0.001654034546558983
-0.003735366822688616   -0.0586472284151492   -0.0016481532859118448
-0.003981266516813325   -0.058678306754304244   -0.0014613667752281672
-0.00653009185956055   -0.058555467150009206   -0.0018496266188331636
-0.004279595918354134   -0.05889893929780777   -0.001654034546558983
-0.003981266516813325   -0.058678306754304244   -0.0014613667752281672
-0.00586141362925302   -0.058851326215773506   -0.00171736858377456
-0.00653009185956055   -0.058555467150009206   -0.0018496266188331636
-0.003735366822688616   -0.0586472284151492   -0.0016481532859118448
-0.005692111632965082   -0.05885441041322499   -0.0017790250234330455
-0.00619660406105824   -0.05863661207111124   -0.002038219714435198
-0.003735366822688616   -0.0586472284151492   -0.0016481532859118448
-0.004279595918354134   -0.05889893929780777   -0.001654034546558983
-0.005692111632965082   -0.05885441041322499   -0.0017790250234330455
-0.004163413598740457   -0.05892054430802354   -0.0017239964774667259
-0.00619660406105824   -0.05863661207111124   -0.002038219714435198
-0.005534877938133843   -0.0589188678930141   -0.0018415614641614192
-0.004163413598740457   -0.05892054430802354   -0.0017239964774667259
-0.005692111632965082   -0.05885441041322499   -0.0017790250234330455
-0.00619660406105824   -0.05863661207111124   -0.002038219714435198
-0.004163413598740457   -0.05892054430802354   -0.0017239964774667259
-0.003457041028612466   -0.0586741712360993   -0.0018261738623772837
-0.003735366822688616   -0.0586472284151492   -0.0016481532859118448
-0.00619660406105824   -0.05863661207111124   -0.002038219714435198
-0.004163413598740457   -0.05892054430802354   -0.0017239964774667259
-0.003735366822688616   -0.0586472284151492   -0.0016481532859118448
-0.005692111632965082   -0.05885441041322499   -0.0017790250234330455
-0.006014203158081646   -0.05890932143241854   -0.0016563345049920586
-0.004530871507735583   -0.0590072057794527   -0.0014941069690199104
-0.0051910436790515   -0.05920390561059744   -0.0018123993225232435
-0.00586141362925302   -0.058851326215773506   -0.00171736858377456
-0.004530871507735583   -0.0590072057794527   -0.0014941069690199104
-0.004877073590226906   -0.05914727220594968   -0.00167592722309724
-0.0051910436790515   -0.05920390561059744   -0.0018123993225232435
-0.004774780964342432   -0.05907650360132036   -0.0016780548307753944
-0.00586141362925302   -0.058851326215773506   -0.00171736858377456
-0.005029921371647264   -0.05914435746662908   -0.0017698713425381566
-0.004774780964342432   -0.05907650360132036   -0.0016780548307753944
-0.0051910436790515   -0.05920390561059744   -0.0018123993225232435
-0.00586141362925302   -0.058851326215773506   -0.00171736858377456
-0.004774780964342432   -0.05907650360132036   -0.0016780548307753944
-0.004415255957155425   -0.05892796965753924   -0.0015772720686383411
-0.004530871507735583   -0.0590072057794527   -0.0014941069690199104
-0.00586141362925302   -0.058851326215773506   -0.00171736858377456
-0.004774780964342432   -0.05907650360132036   -0.0016780548307753944
-0.004530871507735583   -0.0590072057794527   -0.0014941069690199104
-0.0051910436790515   -0.05920390561059744   -0.0018123993225232435
-0.00586141362925302   -0.058851326215773506   -0.00171736858377456
-0.004415255957155425   -0.05892796965753924   -0.0015772720686383411
-0.005029921371647264   -0.05914435746662908   -0.0017698713425381566
-0.005692111632965082   -0.05885441041322499   -0.0017790250234330455
-0.004415255957155425   -0.05892796965753924   -0.0015772720686383411
-0.004774780964342432   -0.05907650360132036   -0.0016780548307753944
-0.005029921371647264   -0.05914435746662908   -0.0017698713425381566
-0.004660935666910915   -0.059051204490414864   -0.0016718820556836738
-0.005692111632965082   -0.05885441041322499   -0.0017790250234330455
-0.0048741020119756695   -0.059143452083123584   -0.0017268202421471845
-0.004660935666910915   -0.059051204490414864   -0.0016718820556836738
-0.005029921371647264   -0.05914435746662908   -0.0017698713425381566
-0.005692111632965082   -0.05885441041322499   -0.0017790250234330455
-0.004660935666910915   -0.059051204490414864   -0.0016718820556836738
-0.004279595918354134   -0.05889893929780777   -0.001654034546558983
-0.004415255957155425   -0.05892796965753924   -0.0015772720686383411
-0.005692111632965082   -0.05885441041322499   -0.0017790250234330455
-0.004660935666910915   -0.059051204490414864   -0.0016718820556836738
-0.004415255957155425   -0.05892796965753924   -0.0015772720686383411
-0.005029921371647264   -0.05914435746662908   -0.0017698713425381566
-0.005692111632965082   -0.05885441041322499   -0.0017790250234330455
-0.004279595918354134   -0.05889893929780777   -0.001654034546558983
-0.0048741020119756695   -0.059143452083123584   -0.0017268202421471845
-0.005534877938133843   -0.0589188678930141   -0.0018415614641614192
-0.004279595918354134   -0.05889893929780777   -0.001654034546558983
-0.004660935666910915   -0.059051204490414864   -0.0016718820556836738
-0.0048741020119756695   -0.059143452083123584   -0.0017268202421471845
-0.004545200391541238   -0.059069315642482294   -0.0016591952451121981
-0.005534877938133843   -0.0589188678930141   -0.0018415614641614192
-0.004711683689998273   -0.05919997542830407   -0.0016854833932011311
-0.004545200391541238   -0.059069315642482294   -0.0016591952451121981
-0.0048741020119756695   -0.059143452083123584   -0.0017268202421471845
-0.005534877938133843   -0.0589188678930141   -0.0018415614641614192
-0.004545200391541238   -0.059069315642482294   -0.0016591952451121981
-0.004163413598740457   -0.05892054430802354   -0.0017239964774667259
-0.004279595918354134   -0.05889893929780777   -0.001654034546558983
-0.005534877938133843   -0.0589188678930141   -0.0018415614641614192
-0.004545200391541238   -0.059069315642482294   -0.0016591952451121981
-0.004279595918354134   -0.05889893929780777   -0.001654034546558983
-0.0048741020119756695   -0.059143452083123584   -0.0017268202421471845
-0.0051910436790515   -0.05920390561059744   -0.0018123993225232435
-0.004877073590226906   -0.05914727220594968   -0.00167592722309724
-0.004438992412947462   -0.0595585414072138   -0.001984378182050146
-0.005029921371647264   -0.05914435746662908   -0.0017698713425381566
-0.004877073590226906   -0.05914727220594968   -0.00167592722309724
-0.005248483940241484   -0.05920559185822911   -0.0018549375243821075
-0.004438992412947462   -0.0595585414072138   -0.001984378182050146
-0.005142517874126873   -0.05913806758941977   -0.001779137579463146
-0.005029921371647264   -0.05914435746662908   -0.0017698713425381566
-0.004241526421718193   -0.05950677387445358   -0.0018324963562210545
-0.005142517874126873   -0.05913806758941977   -0.001779137579463146
-0.004438992412947462   -0.0595585414072138   -0.001984378182050146
-0.005029921371647264   -0.05914435746662908   -0.0017698713425381566
-0.005142517874126873   -0.05913806758941977   -0.001779137579463146
-0.004774780964342432   -0.05907650360132036   -0.0016780548307753944
-0.004877073590226906   -0.05914727220594968   -0.00167592722309724
-0.005029921371647264   -0.05914435746662908   -0.0017698713425381566
-0.005142517874126873   -0.05913806758941977   -0.001779137579463146
-0.004877073590226906   -0.05914727220594968   -0.00167592722309724
-0.004438992412947462   -0.0595585414072138   -0.001984378182050146
-0.005029921371647264   -0.05914435746662908   -0.0017698713425381566
-0.004774780964342432   -0.05907650360132036   -0.0016780548307753944
-0.004241526421718193   -0.05950677387445358   -0.0018324963562210545
-0.0048741020119756695   -0.059143452083123584   -0.0017268202421471845
-0.004774780964342432   -0.05907650360132036   -0.0016780548307753944
-0.005142517874126873   -0.05913806758941977   -0.001779137579463146
-0.004241526421718193   -0.05950677387445358   -0.0018324963562210545
-0.005015451541300595   -0.05911675135967705   -0.0016932273159824395
-0.0048741020119756695   -0.059143452083123584   -0.0017268202421471845
-0.004058498126204951   -0.05950409792059285   -0.0016810927877527408
-0.005015451541300595   -0.05911675135967705   -0.0016932273159824395
-0.004241526421718193   -0.05950677387445358   -0.0018324963562210545
-0.0048741020119756695   -0.059143452083123584   -0.0017268202421471845
-0.005015451541300595   -0.05911675135967705   -0.0016932273159824395
-0.004660935666910915   -0.059051204490414864   -0.0016718820556836738
-0.004774780964342432   -0.05907650360132036   -0.0016780548307753944
-0.0048741020119756695   -0.059143452083123584   -0.0017268202421471845
-0.005015451541300595   -0.05911675135967705   -0.0016932273159824395
-0.004774780964342432   -0.05907650360132036   -0.0016780548307753944
-0.004241526421718193   -0.05950677387445358   -0.0018324963562210545
-0.0048741020119756695   -0.059143452083123584   -0.0017268202421471845
-0.004660935666910915   -0.059051204490414864   -0.0016718820556836738
-0.004058498126204951   -0.05950409792059285   -0.0016810927877527408
-0.004711683689998273   -0.05919997542830407   -0.0016854833932011311
-0.004660935666910915   -0.059051204490414864   -0.0016718820556836738
-0.005015451541300595   -0.05911675135967705   -0.0016932273159824395
-0.004058498126204951   -0.05950409792059285   -0.0016810927877527408
-0.00488480149247215   -0.05913442732002627   -0.0016017445967522073
-0.004711683689998273   -0.05919997542830407   -0.0016854833932011311
-0.0038620725153547643   -0.05954788712593856   -0.0015294112691202203
-0.00488480149247215   -0.05913442732002627   -0.0016017445967522073
-0.004058498126204951   -0.05950409792059285   -0.0016810927877527408
-0.004711683689998273   -0.05919997542830407   -0.0016854833932011311
-0.00488480149247215   -0.05913442732002627   -0.0016017445967522073
-0.004545200391541238   -0.059069315642482294   -0.0016591952451121981
-0.004660935666910915   -0.059051204490414864   -0.0016718820556836738
-0.004711683689998273   -0.05919997542830407   -0.0016854833932011311
-0.00488480149247215   -0.05913442732002627   -0.0016017445967522073
-0.004660935666910915   -0.059051204490414864   -0.0016718820556836738
-0.004058498126204951   -0.05950409792059285   -0.0016810927877527408
-0.004438992412947462   -0.0595585414072138   -0.001984378182050146
-0.005248483940241484   -0.05920559185822911   -0.0018549375243821075
-0.0036988398237657195   -0.06   -0.0021169483152158586
-0.004241526421718193   -0.05950677387445358   -0.0018324963562210545
-0.005248483940241484   -0.05920559185822911   -0.0018549375243821075
-0.005786567958716767   -0.05914122315820648   -0.0020251637122662065
-0.0036988398237657195   -0.06   -0.0021169483152158586
-0.005648170695830256   -0.059077391829084315   -0.0018751360886994507
-0.004241526421718193   -0.05950677387445358   -0.0018324963562210545
-0.0034503516578884906   -0.06   -0.0018859127276253187
-0.005648170695830256   -0.059077391829084315   -0.0018751360886994507
-0.0036988398237657195   -0.06   -0.0021169483152158586
-0.004241526421718193   -0.05950677387445358   -0.0018324963562210545
-0.005648170695830256   -0.059077391829084315   -0.0018751360886994507
-0.005142517874126873   -0.05913806758941977   -0.001779137579463146
-0.005248483940241484   -0.05920559185822911   -0.0018549375243821075
-0.004241526421718193   -0.05950677387445358   -0.0018324963562210545
-0.005648170695830256   -0.059077391829084315   -0.0018751360886994507
-0.005248483940241484   -0.05920559185822911   -0.0018549375243821075
-0.0036988398237657195   -0.06   -0.0021169483152158586
-0.004241526421718193   -0.05950677387445358   -0.0018324963562210545
-0.005142517874126873   -0.05913806758941977   -0.001779137579463146
-0.0034503516578884906   -0.06   -0.0018859127276253187
-0.004058498126204951   -0.05950409792059285   -0.0016810927877527408
-0.005142517874126873   -0.05913806758941977   -0.001779137579463146
-0.005648170695830256   -0.059077391829084315   -0.0018751360886994507
-0.0034503516578884906   -0.06   -0.0018859127276253187
-0.005465472538084689   -0.05906298718858403   -0.0017138365232982262
-0.004058498126204951   -0.05950409792059285   -0.0016810927877527408
-0.0032005791164245847   -0.06   -0.0016521407570634999
-0.005465472538084689   -0.05906298718858403   -0.0017138365232982262
-0.0034503516578884906   -0.06   -0.0018859127276253187
-0.004058498126204951   -0.05950409792059285   -0.0016810927877527408
-0.005465472538084689   -0.05906298718858403   -0.0017138365232982262
-0.005015451541300595   -0.05911675135967705   -0.0016932273159824395
-0.005142517874126873   -0.05913806758941977   -0.001779137579463146
-0.004058498126204951   -0.05950409792059285   -0.0016810927877527408
-0.005465472538084689   -0.05906298718858403   -0.0017138365232982262
-0.005142517874126873   -0.05913806758941977   -0.001779137579463146
-0.0034503516578884906   -0.06   -0.0018859127276253187
-0.004058498126204951   -0.05950409792059285   -0.0016810927877527408
-0.005015451541300595   -0.05911675135967705   -0.0016932273159824395
-0.0032005791164245847   -0.06   -0.0016521407570634999
-0.0038620725153547643   -0.05954788712593856   -0.0015294112691202203
-0.005015451541300595   -0.05911675135967705   -0.0016932273159824395
-0.005465472538084689   -0.05906298718858403   -0.0017138365232982262
-0.0032005791164245847   -0.06   -0.0016521407570634999
-0.005293744555157272   -0.05908850213345997   -0.0015463388839401834
-0.0038620725153547643   -0.05954788712593856   -0.0015294112691202203
-0.002956550088747443   -0.06   -0.00142146823409587
-0.005293744555157272   -0.05908850213345997   -0.0015463388839401834
-0.0032005791164245847   -0.06   -0.0016521407570634999
-0.0038620725153547643   -0.05954788712593856   -0.0015294112691202203
-0.005293744555157272   -0.05908850213345997   -0.0015463388839401834
-0.00488480149247215   -0.05913442732002627   -0.0016017445967522073
-0.005015451541300595   -0.05911675135967705   -0.0016932273159824395
-0.0038620725153547643   -0.05954788712593856   -0.0015294112691202203
-0.005293744555157272   -0.05908850213345997   -0.0015463388839401834
-0.005015451541300595   -0.05911675135967705   -0.0016932273159824395
-0.0032005791164245847   -0.06   -0.0016521407570634999
-0.0036988398237657195   -0.06   -0.0021169483152158586
-0.005786567958716767   -0.05914122315820648   -0.0020251637122662065
-0.003160817672399813   -0.06   -0.002277500648871258
-0.0034503516578884906   -0.06   -0.0018859127276253187
-0.005786567958716767   -0.05914122315820648   -0.0020251637122662065
-0.006834533522471948   -0.05885198178080295   -0.0022059455220673667
-0.003160817672399813   -0.06   -0.002277500648871258
-0.006465721342830161   -0.05879804171797853   -0.0019598239843533465
-0.0034503516578884906   -0.06   -0.0018859127276253187
-0.002640436416849146   -0.06   -0.0019430764752762042
-0.006465721342830161   -0.05879804171797853   -0.0019598239843533465
-0.003160817672399813   -0.06   -0.002277500648871258
-0.0034503516578884906   -0.06   -0.0018859127276253187
-0.006465721342830161   -0.05879804171797853   -0.0019598239843533465
-0.005648170695830256   -0.059077391829084315   -0.0018751360886994507
-0.005786567958716767   -0.05914122315820648   -0.0020251637122662065
-0.0034503516578884906   -0.06   -0.0018859127276253187
-0.006465721342830161   -0.05879804171797853   -0.0019598239843533465
-0.005786567958716767   -0.05914122315820648   -0.0020251637122662065
-0.003160817672399813   -0.06   -0.002277500648871258
-0.0034503516578884906   -0.06   -0.0018859127276253187
-0.005648170695830256   -0.059077391829084315   -0.0018751360886994507
-0.002640436416849146   -0.06   -0.0019430764752762042
-0.0032005791164245847   -0.06   -0.0016521407570634999
-0.005648170695830256   -0.059077391829084315   -0.0018751360886994507
-0.006465721342830161   -0.05879804171797853   -0.0019598239843533465
-0.002640436416849146   -0.06   -0.0019430764752762042
-0.006127036703987342   -0.05879073195108344   -0.0016971998858419898
-0.0032005791164245847   -0.06   -0.0016521407570634999
-0.0022254484324477487   -0.06   -0.0016231684439568525
-0.006127036703987342   -0.05879073195108344   -0.0016971998858419898
-0.002640436416849146   -0.06   -0.0019430764752762042
-0.0032005791164245847   -0.06   -0.0016521407570634999
-0.006127036703987342   -0.05879073195108344   -0.0016971998858419898
-0.005465472538084689   -0.05906298718858403   -0.0017138365232982262
-0.005648170695830256   -0.059077391829084315   -0.0018751360886994507
-0.0032005791164245847   -0.06   -0.0016521407570634999
-0.006127036703987342   -0.05879073195108344   -0.0016971998858419898
-0.005648170695830256   -0.059077391829084315   -0.0018751360886994507
-0.002640436416849146   -0.06   -0.0019430764752762042
-0.0032005791164245847   -0.06   -0.0016521407570634999
-0.005465472538084689   -0.05906298718858403   -0.0017138365232982262
-0.0022254484324477487   -0.06   -0.0016231684439568525
-0.002956550088747443   -0.06   -0.00142146823409587
-0.005465472538084689   -0.05906298718858403   -0.0017138365232982262
-0.006127036703987342   -0.05879073195108344   -0.0016971998858419898
-0.0022254484324477487   -0.06   -0.0016231684439568525
-0.005699280910510013   -0.05886148466790543   -0.0014226061277865612
-0.002956550088747443   -0.06   -0.00142146823409587
-0.0017128454833752014   -0.06   -0.001291058924100638
-0.005699280910510013   -0.05886148466790543   -0.0014226061277865612
-0.0022254484324477487   -0.06   -0.0016231684439568525
-0.002956550088747443   -0.06   -0.00142146823409587
-0.005699280910510013   -0.05886148466790543   -0.0014226061277865612
-0.005293744555157272   -0.05908850213345997   -0.0015463388839401834
-0.005465472538084689   -0.05906298718858403   -0.0017138365232982262
-0.002956550088747443   -0.06   -0.00142146823409587
-0.005699280910510013   -0.05886148466790543   -0.0014226061277865612
-0.005465472538084689   -0.05906298718858403   -0.0017138365232982262
-0.0022254484324477487   -0.06   -0.0016231684439568525
-0.004276698075416126   -0.058780073167867875   -0.0012666369372584647
-0.001758520004326821   -0.056570731573627714   -0.0010940646748496788
-0.004530871507735583   -0.0590072057794527   -0.0014941069690199104
-0.003981266516813325   -0.058678306754304244   -0.0014613667752281672
-0.001758520004326821   -0.056570731573627714   -0.0010940646748496788
-0.0032577751014725084   -0.05674230368748105   -0.0013357383050133572
-0.004530871507735583   -0.0590072057794527   -0.0014941069690199104
-0.0031756178989580802   -0.05664640937856999   -0.0014099417150375082
-0.003981266516813325   -0.058678306754304244   -0.0014613667752281672
-0.004415255957155425   -0.05892796965753924   -0.0015772720686383411
-0.0031756178989580802   -0.05664640937856999   -0.0014099417150375082
-0.004530871507735583   -0.0590072057794527   -0.0014941069690199104
-0.003981266516813325   -0.058678306754304244   -0.0014613667752281672
-0.0031756178989580802   -0.05664640937856999   -0.0014099417150375082
-0.0015227630617503031   -0.05645202398091748   -0.0012625136581410716
-0.001758520004326821   -0.056570731573627714   -0.0010940646748496788
-0.003981266516813325   -0.058678306754304244   -0.0014613667752281672
-0.0031756178989580802   -0.05664640937856999   -0.0014099417150375082
-0.001758520004326821   -0.056570731573627714   -0.0010940646748496788
-0.004530871507735583   -0.0590072057794527   -0.0014941069690199104
-0.003981266516813325   -0.058678306754304244   -0.0014613667752281672
-0.0015227630617503031   -0.05645202398091748   -0.0012625136581410716
-0.004415255957155425   -0.05892796965753924   -0.0015772720686383411
-0.003735366822688616   -0.0586472284151492   -0.0016481532859118448
-0.0015227630617503031   -0.05645202398091748   -0.0012625136581410716
-0.0031756178989580802   -0.05664640937856999   -0.0014099417150375082
-0.004415255957155425   -0.05892796965753924   -0.0015772720686383411
-0.0030830682697005844   -0.0565934922321637   -0.0014774858022489426
-0.003735366822688616   -0.0586472284151492   -0.0016481532859118448
-0.004279595918354134   -0.05889893929780777   -0.001654034546558983
-0.0030830682697005844   -0.0565934922321637   -0.0014774858022489426
-0.004415255957155425   -0.05892796965753924   -0.0015772720686383411
-0.003735366822688616   -0.0586472284151492   -0.0016481532859118448
-0.0030830682697005844   -0.0565934922321637   -0.0014774858022489426
-0.0013372446329217506   -0.05639573295504075   -0.0014210935833298066
-0.0015227630617503031   -0.05645202398091748   -0.0012625136581410716
-0.003735366822688616   -0.0586472284151492   -0.0016481532859118448
-0.0030830682697005844   -0.0565934922321637   -0.0014774858022489426
-0.0015227630617503031   -0.05645202398091748   -0.0012625136581410716
-0.004415255957155425   -0.05892796965753924   -0.0015772720686383411
-0.003735366822688616   -0.0586472284151492   -0.0016481532859118448
-0.0013372446329217506   -0.05639573295504075   -0.0014210935833298066
-0.004279595918354134   -0.05889893929780777   -0.001654034546558983
-0.003457041028612466   -0.0586741712360993   -0.0018261738623772837
-0.0013372446329217506   -0.05639573295504075   -0.0014210935833298066
-0.0030830682697005844   -0.0565934922321637   -0.0014774858022489426
-0.004279595918354134   -0.05889893929780777   -0.001654034546558983
-0.0030121269096875197   -0.05658207122483795   -0.0015385852225535692
-0.003457041028612466   -0.0586741712360993   -0.0018261738623772837
-0.004163413598740457   -0.05892054430802354   -0.0017239964774667259
-0.0030121269096875197   -0.05658207122483795   -0.0015385852225535692
-0.004279595918354134   -0.05889893929780777   -0.001654034546558983
-0.003457041028612466   -0.0586741712360993   -0.0018261738623772837
-0.0030121269096875197   -0.05658207122483795   -0.0015385852225535692
-0.0011345119779122353   -0.056385638754550375   -0.0015693896771250008
-0.0013372446329217506   -0.05639573295504075   -0.0014210935833298066
-0.003457041028612466   -0.0586741712360993   -0.0018261738623772837
-0.0030121269096875197   -0.05658207122483795   -0.0015385852225535692
-0.0013372446329217506   -0.05639573295504075   -0.0014210935833298066
-0.004279595918354134   -0.05889893929780777   -0.001654034546558983
-0.004530871507735583   -0.0590072057794527   -0.0014941069690199104
-0.0032577751014725084   -0.05674230368748105   -0.0013357383050133572
-0.004877073590226906   -0.05914727220594968   -0.00167592722309724
-0.004415255957155425   -0.05892796965753924   -0.0015772720686383411
-0.0032577751014725084   -0.05674230368748105   -0.0013357383050133572
-0.004738694304176188   -0.056802748067218564   -0.0015327707252232627
-0.004877073590226906   -0.05914727220594968   -0.00167592722309724
-0.004669652774179453   -0.056719096076007454   -0.0015368059943460907
-0.004415255957155425   -0.05892796965753924   -0.0015772720686383411
-0.004774780964342432   -0.05907650360132036   -0.0016780548307753944
-0.004669652774179453   -0.056719096076007454   -0.0015368059943460907
-0.004877073590226906   -0.05914727220594968   -0.00167592722309724
-0.004415255957155425   -0.05892796965753924   -0.0015772720686383411
-0.004669652774179453   -0.056719096076007454   -0.0015368059943460907
-0.0031756178989580802   -0.05664640937856999   -0.0014099417150375082
-0.0032577751014725084   -0.05674230368748105   -0.0013357383050133572
-0.004415255957155425   -0.05892796965753924   -0.0015772720686383411
-0.004669652774179453   -0.056719096076007454   -0.0015368059943460907
-0.0032577751014725084   -0.05674230368748105   -0.0013357383050133572
-0.004877073590226906   -0.05914727220594968   -0.00167592722309724
-0.004415255957155425   -0.05892796965753924   -0.0015772720686383411
-0.0031756178989580802   -0.05664640937856999   -0.0014099417150375082
-0.004774780964342432   -0.05907650360132036   -0.0016780548307753944
-0.004279595918354134   -0.05889893929780777   -0.001654034546558983
-0.0031756178989580802   -0.05664640937856999   -0.0014099417150375082
-0.004669652774179453   -0.056719096076007454   -0.0015368059943460907
-0.004774780964342432   -0.05907650360132036   -0.0016780548307753944
-0.004598238417519224   -0.056674183377969464   -0.0015346731331822357
-0.004279595918354134   -0.05889893929780777   -0.001654034546558983
-0.004660935666910915   -0.059051204490414864   -0.0016718820556836738
-0.004598238417519224   -0.056674183377969464   -0.0015346731331822357
-0.004774780964342432   -0.05907650360132036   -0.0016780548307753944
-0.004279595918354134   -0.05889893929780777   -0.001654034546558983
-0.004598238417519224   -0.056674183377969464   -0.0015346731331822357
-0.0030830682697005844   -0.0565934922321637   -0.0014774858022489426
-0.0031756178989580802   -0.05664640937856999   -0.0014099417150375082
-0.004279595918354134   -0.05889893929780777   -0.001654034546558983
-0.004598238417519224   -0.056674183377969464   -0.0015346731331822357
-0.0031756178989580802   -0.05664640937856999   -0.0014099417150375082
-0.004774780964342432   -0.05907650360132036   -0.0016780548307753944
-0.004279595918354134   -0.05889893929780777   -0.001654034546558983
-0.0030830682697005844   -0.0565934922321637   -0.0014774858022489426
-0.004660935666910915   -0.059051204490414864   -0.0016718820556836738
-0.004163413598740457   -0.05892054430802354   -0.0017239964774667259
-0.0030830682697005844   -0.0565934922321637   -0.0014774858022489426
-0.004598238417519224   -0.056674183377969464   -0.0015346731331822357
-0.004660935666910915   -0.059051204490414864   -0.0016718820556836738
-0.004529374327675497   -0.05666615756563875   -0.0015263180732852668
-0.004163413598740457   -0.05892054430802354   -0.0017239964774667259
-0.004545200391541238   -0.059069315642482294   -0.0016591952451121981
-0.004529374327675497   -0.05666615756563875   -0.0015263180732852668
-0.004660935666910915   -0.059051204490414864   -0.0016718820556836738
-0.004163413598740457   -0.05892054430802354   -0.0017239964774667259
-0.004529374327675497   -0.05666615756563875   -0.0015263180732852668
-0.0030121269096875197   -0.05658207122483795   -0.0015385852225535692
-0.0030830682697005844   -0.0565934922321637   -0.0014774858022489426
-0.004163413598740457   -0.05892054430802354   -0.0017239964774667259
-0.004529374327675497   -0.05666615756563875   -0.0015263180732852668
-0.0030830682697005844   -0.0565934922321637   -0.0014774858022489426
-0.004660935666910915   -0.059051204490414864   -0.0016718820556836738
-0.004877073590226906   -0.05914727220594968   -0.00167592722309724
-0.004738694304176188   -0.056802748067218564   -0.0015327707252232627
-0.005248483940241484   -0.05920559185822911   -0.0018549375243821075
-0.004774780964342432   -0.05907650360132036   -0.0016780548307753944
-0.004738694304176188   -0.056802748067218564   -0.0015327707252232627
-0.006209513025246098   -0.056748824072829766   -0.0017171965708958241
-0.005248483940241484   -0.05920559185822911   -0.0018549375243821075
-0.006141017304219432   -0.056674510212967086   -0.0016539419548956505
-0.004774780964342432   -0.05907650360132036   -0.0016780548307753944
-0.005142517874126873   -0.05913806758941977   -0.001779137579463146
-0.006141017304219432   -0.056674510212967086   -0.0016539419548956505
-0.005248483940241484   -0.05920559185822911   -0.0018549375243821075
-0.004774780964342432   -0.05907650360132036   -0.0016780548307753944
-0.006141017304219432   -0.056674510212967086   -0.0016539419548956505
-0.004669652774179453   -0.056719096076007454   -0.0015368059943460907
-0.004738694304176188   -0.056802748067218564   -0.0015327707252232627
-0.004774780964342432   -0.05907650360132036   -0.0016780548307753944
-0.006141017304219432   -0.056674510212967086   -0.0016539419548956505
-0.004738694304176188   -0.056802748067218564   -0.0015327707252232627
-0.005248483940241484   -0.05920559185822911   -0.0018549375243821075
-0.004774780964342432   -0.05907650360132036   -0.0016780548307753944
-0.004669652774179453   -0.056719096076007454   -0.0015368059943460907
-0.005142517874126873   -0.05913806758941977   -0.001779137579463146
-0.004660935666910915   -0.059051204490414864   -0.0016718820556836738
-0.004669652774179453   -0.056719096076007454   -0.0015368059943460907
-0.006141017304219432   -0.056674510212967086   -0.0016539419548956505
-0.005142517874126873   -0.05913806758941977   -0.001779137579463146
-0.006064150892646377   -0.05663828998612231   -0.0015846122496840274
-0.004660935666910915   -0.059051204490414864   -0.0016718820556836738
-0.005015451541300595   -0.05911675135967705   -0.0016932273159824395
-0.006064150892646377   -0.05663828998612231   -0.0015846122496840274
-0.005142517874126873   -0.05913806758941977   -0.001779137579463146
-0.004660935666910915   -0.059051204490414864   -0.0016718820556836738
-0.006064150892646377   -0.05663828998612231   -0.0015846122496840274
-0.004598238417519224   -0.056674183377969464   -0.0015346731331822357
-0.004669652774179453   -0.056719096076007454   -0.0015368059943460907
-0.004660935666910915   -0.059051204490414864   -0.0016718820556836738
-0.006064150892646377   -0.05663828998612231   -0.0015846122496840274
-0.004669652774179453   -0.056719096076007454   -0.0015368059943460907
-0.005142517874126873   -0.05913806758941977   -0.001779137579463146
-0.004660935666910915   -0.059051204490414864   -0.0016718820556836738
-0.004598238417519224   -0.056674183377969464   -0.0015346731331822357
-0.005015451541300595   -0.05911675135967705   -0.0016932273159824395
-0.004545200391541238   -0.059069315642482294   -0.0016591952451121981
-0.004598238417519224   -0.056674183377969464   -0.0015346731331822357
-0.006064150892646377   -0.05663828998612231   -0.0015846122496840274
-0.005015451541300595   -0.05911675135967705   -0.0016932273159824395
-0.005986984358117285   -0.05663651737710873   -0.0015084676018450077
-0.004545200391541238   -0.059069315642482294   -0.0016591952451121981
-0.00488480149247215   -0.05913442732002627   -0.0016017445967522073
-0.005986984358117285   -0.05663651737710873   -0.0015084676018450077
-0.005015451541300595   -0.05911675135967705   -0.0016932273159824395
-0.004545200391541238   -0.059069315642482294   -0.0016591952451121981
-0.005986984358117285   -0.05663651737710873   -0.0015084676018450077
-0.004529374327675497   -0.05666615756563875   -0.0015263180732852668
-0.004598238417519224   -0.056674183377969464   -0.0015346731331822357
-0.004545200391541238   -0.059069315642482294   -0.0016591952451121981
-0.005986984358117285   -0.05663651737710873   -0.0015084676018450077
-0.004598238417519224   -0.056674183377969464   -0.0015346731331822357
-0.005015451541300595   -0.05911675135967705   -0.0016932273159824395
-0.005248483940241484   -0.05920559185822911   -0.0018549375243821075
-0.006209513025246098   -0.056748824072829766   -0.0017171965708958241
-0.005786567958716767   -0.05914122315820648   -0.0020251637122662065
-0.005142517874126873   -0.05913806758941977   -0.001779137579463146
-0.006209513025246098   -0.056748824072829766   -0.0017171965708958241
-0.007825057539895146   -0.05657342398141446   -0.001886669245419909
-0.005786567958716767   -0.05914122315820648   -0.0020251637122662065
-0.007741158969575115   -0.05650845398124067   -0.0017576041840819245
-0.005142517874126873   -0.05913806758941977   -0.001779137579463146
-0.005648170695830256   -0.059077391829084315   -0.0018751360886994507
-0.007741158969575115   -0.05650845398124067   -0.0017576041840819245
-0.005786567958716767   -0.05914122315820648   -0.0020251637122662065
-0.005142517874126873   -0.05913806758941977   -0.001779137579463146
-0.007741158969575115   -0.05650845398124067   -0.0017576041840819245
-0.006141017304219432   -0.056674510212967086   -0.0016539419548956505
-0.006209513025246098   -0.056748824072829766   -0.0017171965708958241
-0.005142517874126873   -0.05913806758941977   -0.001779137579463146
-0.007741158969575115   -0.05650845398124067   -0.0017576041840819245
-0.006209513025246098   -0.056748824072829766   -0.0017171965708958241
-0.005786567958716767   -0.05914122315820648   -0.0020251637122662065
-0.005142517874126873   -0.05913806758941977   -0.001779137579463146
-0.006141017304219432   -0.056674510212967086   -0.0016539419548956505
-0.005648170695830256   -0.059077391829084315   -0.0018751360886994507
-0.005015451541300595   -0.05911675135967705   -0.0016932273159824395
-0.006141017304219432   -0.056674510212967086   -0.0016539419548956505
-0.007741158969575115   -0.05650845398124067   -0.0017576041840819245
-0.005648170695830256   -0.059077391829084315   -0.0018751360886994507
-0.00762527473697836   -0.05648089171400557   -0.001622915030571653
-0.005015451541300595   -0.05911675135967705   -0.0016932273159824395
-0.005465472538084689   -0.05906298718858403   -0.0017138365232982262
-0.00762527473697836   -0.05648089171400557   -0.001622915030571653
-0.005648170695830256   -0.059077391829084315   -0.0018751360886994507
-0.005015451541300595   -0.05911675135967705   -0.0016932273159824395
-0.00762527473697836   -0.05648089171400557   -0.001622915030571653
-0.006064150892646377   -0.05663828998612231   -0.0015846122496840274
-0.006141017304219432   -0.056674510212967086   -0.0016539419548956505
-0.005015451541300595   -0.05911675135967705   -0.0016932273159824395
-0.00762527473697836   -0.05648089171400557   -0.001622915030571653
-0.006141017304219432   -0.056674510212967086   -0.0016539419548956505
-0.005648170695830256   -0.059077391829084315   -0.0018751360886994507
-0.005015451541300595   -0.05911675135967705   -0.0016932273159824395
-0.006064150892646377   -0.05663828998612231   -0.0015846122496840274
-0.005465472538084689   -0.05906298718858403   -0.0017138365232982262
-0.00488480149247215   -0.05913442732002627   -0.0016017445967522073
-0.006064150892646377   -0.05663828998612231   -0.0015846122496840274
-0.00762527473697836   -0.05648089171400557   -0.001622915030571653
-0.005465472538084689   -0.05906298718858403   -0.0017138365232982262
-0.007524212765737542   -0.056490776675003004   -0.0014788623491521834
-0.00488480149247215   -0.05913442732002627   -0.0016017445967522073
-0.005293744555157272   -0.05908850213345997   -0.0015463388839401834
-0.007524212765737542   -0.056490776675003004   -0.0014788623491521834
-0.005465472538084689   -0.05906298718858403   -0.0017138365232982262
-0.00488480149247215   -0.05913442732002627   -0.0016017445967522073
-0.007524212765737542   -0.056490776675003004   -0.0014788623491521834
-0.005986984358117285   -0.05663651737710873   -0.0015084676018450077
-0.006064150892646377   -0.05663828998612231   -0.0015846122496840274
-0.00488480149247215   -0.05913442732002627   -0.0016017445967522073
-0.007524212765737542   -0.056490776675003004   -0.0014788623491521834
-0.006064150892646377   -0.05663828998612231   -0.0015846122496840274
-0.005465472538084689   -0.05906298718858403   -0.0017138365232982262
-0.005786567958716767   -0.05914122315820648   -0.0020251637122662065
-0.007825057539895146   -0.05657342398141446   -0.001886669245419909
-0.006834533522471948   -0.05885198178080295   -0.0022059455220673667
-0.005648170695830256   -0.059077391829084315   -0.0018751360886994507
-0.007825057539895146   -0.05657342398141446   -0.001886669245419909
-0.00990541260906295   -0.05628816580995659   -0.0020495376220695458
-0.006834533522471948   -0.05885198178080295   -0.0022059455220673667
-0.009634474514967678   -0.05621764126322682   -0.0018457438924319002
-0.005648170695830256   -0.059077391829084315   -0.0018751360886994507
-0.006465721342830161   -0.05879804171797853   -0.0019598239843533465
-0.009634474514967678   -0.05621764126322682   -0.0018457438924319002
-0.006834533522471948   -0.05885198178080295   -0.0022059455220673667
-0.005648170695830256   -0.059077391829084315   -0.0018751360886994507
-0.009634474514967678   -0.05621764126322682   -0.0018457438924319002
-0.007741158969575115   -0.05650845398124067   -0.0017576041840819245
-0.007825057539895146   -0.05657342398141446   -0.001886669245419909
-0.005648170695830256   -0.059077391829084315   -0.0018751360886994507
-0.009634474514967678   -0.05621764126322682   -0.0018457438924319002
-0.007825057539895146   -0.05657342398141446   -0.001886669245419909
-0.006834533522471948   -0.05885198178080295   -0.0022059455220673667
-0.005648170695830256   -0.059077391829084315   -0.0018751360886994507
-0.007741158969575115   -0.05650845398124067   -0.0017576041840819245
-0.006465721342830161   -0.05879804171797853   -0.0019598239843533465
-0.005465472538084689   -0.05906298718858403   -0.0017138365232982262
-0.007741158969575115   -0.05650845398124067   -0.0017576041840819245
-0.009634474514967678   -0.05621764126322682   -0.0018457438924319002
-0.006465721342830161   -0.05879804171797853   -0.0019598239843533465
-0.009391767069921432   -0.05619214705284507   -0.001630144766739811
-0.005465472538084689   -0.05906298718858403   -0.0017138365232982262
-0.006127036703987342   -0.05879073195108344   -0.0016971998858419898
-0.009391767069921432   -0.05619214705284507   -0.001630144766739811
-0.006465721342830161   -0.05879804171797853   -0.0019598239843533465
-0.005465472538084689   -0.05906298718858403   -0.0017138365232982262
-0.009391767069921432   -0.05619214705284507   -0.001630144766739811
-0.00762527473697836   -0.05648089171400557   -0.001622915030571653
-0.007741158969575115   -0.05650845398124067   -0.0017576041840819245
-0.005465472538084689   -0.05906298718858403   -0.0017138365232982262
-0.009391767069921432   -0.05619214705284507   -0.001630144766739811
-0.007741158969575115   -0.05650845398124067   -0.0017576041840819245
-0.006465721342830161   -0.05879804171797853   -0.0019598239843533465
-0.005465472538084689   -0.05906298718858403   -0.0017138365232982262
-0.00762527473697836   -0.05648089171400557   -0.001622915030571653
-0.006127036703987342   -0.05879073195108344   -0.0016971998858419898
-0.005293744555157272   -0.05908850213345997   -0.0015463388839401834
-0.00762527473697836   -0.05648089171400557   -0.001622915030571653
-0.009391767069921432   -0.05619214705284507   -0.001630144766739811
-0.006127036703987342   -0.05879073195108344   -0.0016971998858419898
-0.009077225326383364   -0.05622488523522579   -0.0014047829932714443
-0.005293744555157272   -0.05908850213345997   -0.0015463388839401834
-0.005699280910510013   -0.05886148466790543   -0.0014226061277865612
-0.009077225326383364   -0.05622488523522579   -0.0014047829932714443
-0.006127036703987342   -0.05879073195108344   -0.0016971998858419898
-0.005293744555157272   -0.05908850213345997   -0.0015463388839401834
-0.009077225326383364   -0.05622488523522579   -0.0014047829932714443
-0.007524212765737542   -0.056490776675003004   -0.0014788623491521834
-0.00762527473697836   -0.05648089171400557   -0.001622915030571653
-0.005293744555157272   -0.05908850213345997   -0.0015463388839401834
-0.009077225326383364   -0.05622488523522579   -0.0014047829932714443
-0.00762527473697836   -0.05648089171400557   -0.001622915030571653
-0.006127036703987342   -0.05879073195108344   -0.0016971998858419898
-0.001758520004326821   -0.056570731573627714   -0.0010940646748496788
0.000286382266224778   -0.05249615312106323   -0.0009046800491795912
-0.0032577751014725084   -0.05674230368748105   -0.0013357383050133572
-0.0015227630617503031   -0.05645202398091748   -0.0012625136581410716
0.000286382266224778   -0.05249615312106323   -0.0009046800491795912
-0.0022457584944696493   -0.05262215179850044   -0.001141999025651958
-0.0032577751014725084   -0.05674230368748105   -0.0013357383050133572
-0.002202149998212239   -0.05252164218983183   -0.001200931980876527
-0.0015227630617503031   -0.05645202398091748   -0.0012625136581410716
-0.0031756178989580802   -0.05664640937856999   -0.0014099417150375082
-0.002202149998212239   -0.05252164218983183   -0.001200931980876527
-0.0032577751014725084   -0.05674230368748105   -0.0013357383050133572
-0.0015227630617503031   -0.05645202398091748   -0.0012625136581410716
-0.002202149998212239   -0.05252164218983183   -0.001200931980876527
0.0004512629211673909   -0.05237551258917437   -0.0010389734874632663
0.000286382266224778   -0.05249615312106323   -0.0009046800491795912
-0.0015227630617503031   -0.05645202398091748   -0.0012625136581410716
-0.002202149998212239   -0.05252164218983183   -0.001200931980876527
0.000286382266224778   -0.05249615312106323   -0.0009046800491795912
-0.0032577751014725084   -0.05674230368748105   -0.0013357383050133572
-0.0015227630617503031   -0.05645202398091748   -0.0012625136581410716
0.0004512629211673909   -0.05237551258917437   -0.0010389734874632663
-0.0031756178989580802   -0.05664640937856999   -0.0014099417150375082
-0.0013372446329217506   -0.05639573295504075   -0.0014210935833298066
0.0004512629211673909   -0.05237551258917437   -0.0010389734874632663
-0.002202149998212239   -0.05252164218983183   -0.001200931980876527
-0.0031756178989580802   -0.05664640937856999   -0.0014099417150375082
-0.002152446792253117   -0.052456218713815186   -0.0012530321751665237
-0.0013372446329217506   -0.05639573295504075   -0.0014210935833298066
-0.0030830682697005844   -0.0565934922321637   -0.0014774858022489426
-0.002152446792253117   -0.052456218713815186   -0.0012530321751665237
-0.0031756178989580802   -0.05664640937856999   -0.0014099417150375082
-0.0013372446329217506   -0.05639573295504075   -0.0014210935833298066
-0.002152446792253117   -0.052456218713815186   -0.0012530321751665237
0.0005725767305903482   -0.05230605630708477   -0.0011637030751519336
0.0004512629211673909   -0.05237551258917437   -0.0010389734874632663
-0.0013372446329217506   -0.05639573295504075   -0.0014210935833298066
-0.002152446792253117   -0.052456218713815186   -0.0012530321751665237
0.0004512629211673909   -0.05237551258917437   -0.0010389734874632663
-0.0031756178989580802   -0.05664640937856999   -0.0014099417150375082
-0.0013372446329217506   -0.05639573295504075   -0.0014210935833298066
0.0005725767305903482   -0.05230605630708477   -0.0011637030751519336
-0.0030830682697005844   -0.0565934922321637   -0.0014774858022489426
-0.0011345119779122353   -0.056385638754550375   -0.0015693896771250008
0.0005725767305903482   -0.05230605630708477   -0.0011637030751519336
-0.002152446792253117   -0.052456218713815186   -0.0012530321751665237
-0.0030830682697005844   -0.0565934922321637   -0.0014774858022489426
-0.002122725823591263   -0.0524239376877001   -0.0012989745384771104
-0.0011345119779122353   -0.056385638754550375   -0.0015693896771250008
-0.0030121269096875197   -0.05658207122483795   -0.0015385852225535692
-0.002122725823591263   -0.0524239376877001   -0.0012989745384771104
-0.0030830682697005844   -0.0565934922321637   -0.0014774858022489426
-0.0011345119779122353   -0.056385638754550375   -0.0015693896771250008
-0.002122725823591263   -0.0524239376877001   -0.0012989745384771104
0.0007025697722255457   -0.052272203290479484   -0.0012788240689003282
0.0005725767305903482   -0.05230605630708477   -0.0011637030751519336
-0.0011345119779122353   -0.056385638754550375   -0.0015693896771250008
-0.002122725823591263   -0.0524239376877001   -0.0012989745384771104
0.0005725767305903482   -0.05230605630708477   -0.0011637030751519336
-0.0030830682697005844   -0.0565934922321637   -0.0014774858022489426
-0.0032577751014725084   -0.05674230368748105   -0.0013357383050133572
-0.0022457584944696493   -0.05262215179850044   -0.001141999025651958
-0.004738694304176188   -0.056802748067218564   -0.0015327707252232627
-0.0031756178989580802   -0.05664640937856999   -0.0014099417150375082
-0.0022457584944696493   -0.05262215179850044   -0.001141999025651958
-0.004696216891464439   -0.05264627438537866   -0.0013374122162590513
-0.004738694304176188   -0.056802748067218564   -0.0015327707252232627
-0.0046641931009743735   -0.05256002479285703   -0.0013388908557473165
-0.0031756178989580802   -0.05664640937856999   -0.0014099417150375082
-0.004669652774179453   -0.056719096076007454   -0.0015368059943460907
-0.0046641931009743735   -0.05256002479285703   -0.0013388908557473165
-0.004738694304176188   -0.056802748067218564   -0.0015327707252232627
-0.0031756178989580802   -0.05664640937856999   -0.0014099417150375082
-0.0046641931009743735   -0.05256002479285703   -0.0013388908557473165
-0.002202149998212239   -0.05252164218983183   -0.001200931980876527
-0.0022457584944696493   -0.05262215179850044   -0.001141999025651958
-0.0031756178989580802   -0.05664640937856999   -0.0014099417150375082
-0.0046641931009743735   -0.05256002479285703   -0.0013388908557473165
-0.0022457584944696493   -0.05262215179850044   -0.001141999025651958
-0.004738694304176188   -0.056802748067218564   -0.0015327707252232627
-0.0031756178989580802   -0.05664640937856999   -0.0014099417150375082
-0.002202149998212239   -0.05252164218983183   -0.001200931980876527
-0.004669652774179453   -0.056719096076007454   -0.0015368059943460907
-0.0030830682697005844   -0.0565934922321637   -0.0014774858022489426
-0.002202149998212239   -0.05252164218983183   -0.001200931980876527
-0.0046641931009743735   -0.05256002479285703   -0.0013388908557473165
-0.004669652774179453   -0.056719096076007454   -0.0015368059943460907
-0.004631257225816298   -0.05250517585617541   -0.001333821349664129
-0.0030830682697005844   -0.0565934922321637   -0.0014774858022489426
-0.004598238417519224   -0.056674183377969464   -0.0015346731331822357
-0.004631257225816298   -0.05250517585617541   -0.001333821349664129
-0.004669652774179453   -0.056719096076007454   -0.0015368059943460907
-0.0030830682697005844   -0.0565934922321637   -0.0014774858022489426
-0.004631257225816298   -0.05250517585617541   -0.001333821349664129
-0.002152446792253117   -0.052456218713815186   -0.0012530321751665237
-0.002202149998212239   -0.05252164218983183   -0.001200931980876527
-0.0030830682697005844   -0.0565934922321637   -0.0014774858022489426
-0.004631257225816298   -0.05250517585617541   -0.001333821349664129
-0.002202149998212239   -0.05252164218983183   -0.001200931980876527
-0.004669652774179453   -0.056719096076007454   -0.0015368059943460907
-0.0030830682697005844   -0.0565934922321637   -0.0014774858022489426
-0.002152446792253117   -0.052456218713815186   -0.0012530321751665237
-0.004598238417519224   -0.056674183377969464   -0.0015346731331822357
-0.0030121269096875197   -0.05658207122483795   -0.0015385852225535692
-0.002152446792253117   -0.052456218713815186   -0.0012530321751665237
-0.004631257225816298   -0.05250517585617541   -0.001333821349664129
-0.004598238417519224   -0.056674183377969464   -0.0015346731331822357
-0.004602452270889427   -0.05248121434721245   -0.0013226423347847723
-0.0030121269096875197   -0.05658207122483795   -0.0015385852225535692
-0.004529374327675497   -0.05666615756563875   -0.0015263180732852668
-0.004602452270889427   -0.05248121434721245   -0.0013226423347847723
-0.004598238417519224   -0.056674183377969464   -0.0015346731331822357
-0.0030121269096875197   -0.05658207122483795   -0.0015385852225535692
-0.004602452270889427   -0.05248121434721245   -0.0013226423347847723
-0.002122725823591263   -0.0524239376877001   -0.0012989745384771104
-0.002152446792253117   -0.052456218713815186   -0.0012530321751665237
-0.0030121269096875197   -0.05658207122483795   -0.0015385852225535692
-0.004602452270889427   -0.05248121434721245   -0.0013226423347847723
-0.002152446792253117   -0.052456218713815186   -0.0012530321751665237
-0.004598238417519224   -0.056674183377969464   -0.0015346731331822357
-0.004738694304176188   -0.056802748067218564   -0.0015327707252232627
-0.004696216891464439   -0.05264627438537866   -0.0013374122162590513
-0.006209513025246098   -0.056748824072829766   -0.0017171965708958241
-0.004669652774179453   -0.056719096076007454   -0.0015368059943460907
-0.004696216891464439   -0.05264627438537866   -0.0013374122162590513
-0.007108340313166487   -0.05256815153545919   -0.0015137924510000556
-0.006209513025246098   -0.056748824072829766   -0.0017171965708958241
-0.007078529500363522   -0.05249374668547656   -0.0014592000140557092
-0.004669652774179453   -0.056719096076007454   -0.0015368059943460907
-0.006141017304219432   -0.056674510212967086   -0.0016539419548956505
-0.007078529500363522   -0.05249374668547656   -0.0014592000140557092
-0.006209513025246098   -0.056748824072829766   -0.0017171965708958241
-0.004669652774179453   -0.056719096076007454   -0.0015368059943460907
-0.007078529500363522   -0.05249374668547656   -0.0014592000140557092
-0.0046641931009743735   -0.05256002479285703   -0.0013388908557473165
-0.004696216891464439   -0.05264627438537866   -0.0013374122162590513
-0.004669652774179453   -0.056719096076007454   -0.0015368059943460907
-0.007078529500363522   -0.05249374668547656   -0.0014592000140557092
-0.004696216891464439   -0.05264627438537866   -0.0013374122162590513
-0.006209513025246098   -0.056748824072829766   -0.0017171965708958241
-0.004669652774179453   -0.056719096076007454   -0.0015368059943460907
-0.0046641931009743735   -0.05256002479285703   -0.0013388908557473165
-0.006141017304219432   -0.056674510212967086   -0.0016539419548956505
-0.004598238417519224   -0.056674183377969464   -0.0015346731331822357
-0.0046641931009743735   -0.05256002479285703   -0.0013388908557473165
-0.007078529500363522   -0.05249374668547656   -0.0014592000140557092
-0.006141017304219432   -0.056674510212967086   -0.0016539419548956505
-0.007042503829536707   -0.05245039801739091   -0.0013982029689144672
-0.004598238417519224   -0.056674183377969464   -0.0015346731331822357
-0.006064150892646377   -0.05663828998612231   -0.0015846122496840274
-0.007042503829536707   -0.05245039801739091   -0.0013982029689144672
-0.006141017304219432   -0.056674510212967086   -0.0016539419548956505
-0.004598238417519224   -0.056674183377969464   -0.0015346731331822357
-0.007042503829536707   -0.05245039801739091   -0.0013982029689144672
-0.004631257225816298   -0.05250517585617541   -0.001333821349664129
-0.0046641931009743735   -0.05256002479285703   -0.0013388908557473165
-0.004598238417519224   -0.056674183377969464   -0.0015346731331822357
-0.007042503829536707   -0.05245039801739091   -0.0013982029689144672
-0.0046641931009743735   -0.05256002479285703   -0.0013388908557473165
-0.006141017304219432   -0.056674510212967086   -0.0016539419548956505
-0.004598238417519224   -0.056674183377969464   -0.0015346731331822357
-0.004631257225816298   -0.05250517585617541   -0.001333821349664129
-0.006064150892646377   -0.05663828998612231   -0.0015846122496840274
-0.004529374327675497   -0.05666615756563875   -0.0015263180732852668
-0.004631257225816298   -0.05250517585617541   -0.001333821349664129
-0.007042503829536707   -0.05245039801739091   -0.0013982029689144672
-0.006064150892646377   -0.05663828998612231   -0.0015846122496840274
-0.0070074760814779055   -0.052436671777420917   -0.0013309981871270156
-0.004529374327675497   -0.05666615756563875   -0.0015263180732852668
-0.005986984358117285   -0.05663651737710873   -0.0015084676018450077
-0.0070074760814779055   -0.052436671777420917   -0.0013309981871270156
-0.006064150892646377   -0.05663828998612231   -0.0015846122496840274
-0.004529374327675497   -0.05666615756563875   -0.0015263180732852668
-0.0070074760814779055   -0.052436671777420917   -0.0013309981871270156
-0.004602452270889427   -0.05248121434721245   -0.0013226423347847723
-0.004631257225816298   -0.05250517585617541   -0.001333821349664129
-0.004529374327675497   -0.05666615756563875   -0.0015263180732852668
-0.0070074760814779055   -0.052436671777420917   -0.0013309981871270156
-0.004631257225816298   -0.05250517585617541   -0.001333821349664129
-0.006064150892646377   -0.05663828998612231   -0.0015846122496840274
-0.006209513025246098   -0.056748824072829766   -0.0017171965708958241
-0.007108340313166487   -0.05256815153545919   -0.0015137924510000556
-0.007825057539895146   -0.05657342398141446   -0.001886669245419909
-0.006141017304219432   -0.056674510212967086   -0.0016539419548956505
-0.007108340313166487   -0.05256815153545919   -0.0015137924510000556
-0.009635906019068382   -0.052390526339339355   -0.0016704955932800006
-0.007825057539895146   -0.05657342398141446   -0.001886669245419909
-0.009596913374638347   -0.05232741347106388   -0.0015597532475691667
-0.006141017304219432   -0.056674510212967086   -0.0016539419548956505
-0.007741158969575115   -0.05650845398124067   -0.0017576041840819245
-0.009596913374638347   -0.05232741347106388   -0.0015597532475691667
-0.007825057539895146   -0.05657342398141446   -0.001886669245419909
-0.006141017304219432   -0.056674510212967086   -0.0016539419548956505
-0.009596913374638347   -0.05232741347106388   -0.0015597532475691667
-0.007078529500363522   -0.05249374668547656   -0.0014592000140557092
-0.007108340313166487   -0.05256815153545919   -0.0015137924510000556
-0.006141017304219432   -0.056674510212967086   -0.0016539419548956505
-0.009596913374638347   -0.05232741347106388   -0.0015597532475691667
-0.007108340313166487   -0.05256815153545919   -0.0015137924510000556
-0.007825057539895146   -0.05657342398141446   -0.001886669245419909
-0.006141017304219432   -0.056674510212967086   -0.0016539419548956505
-0.007078529500363522   -0.05249374668547656   -0.0014592000140557092
-0.007741158969575115   -0.05650845398124067   -0.0017576041840819245
-0.006064150892646377   -0.05663828998612231   -0.0015846122496840274
-0.007078529500363522   -0.05249374668547656   -0.0014592000140557092
-0.009596913374638347   -0.05232741347106388   -0.0015597532475691667
-0.007741158969575115   -0.05650845398124067   -0.0017576041840819245
-0.009530781454176629   -0.052294490955825425   -0.0014435928546656812
-0.006064150892646377   -0.05663828998612231   -0.0015846122496840274
-0.00762527473697836   -0.05648089171400557   -0.001622915030571653
-0.009530781454176629   -0.052294490955825425   -0.0014435928546656812
-0.007741158969575115   -0.05650845398124067   -0.0017576041840819245
-0.006064150892646377   -0.05663828998612231   -0.0015846122496840274
-0.009530781454176629   -0.052294490955825425   -0.0014435928546656812
-0.007042503829536707   -0.05245039801739091   -0.0013982029689144672
-0.007078529500363522   -0.05249374668547656   -0.0014592000140557092
-0.006064150892646377   -0.05663828998612231   -0.0015846122496840274
-0.009530781454176629   -0.052294490955825425   -0.0014435928546656812
-0.007078529500363522   -0.05249374668547656   -0.0014592000140557092
-0.007741158969575115   -0.05650845398124067   -0.0017576041840819245
-0.006064150892646377   -0.05663828998612231   -0.0015846122496840274
-0.007042503829536707   -0.05245039801739091   -0.0013982029689144672
-0.00762527473697836   -0.05648089171400557   -0.001622915030571653
-0.005986984358117285   -0.05663651737710873   -0.0015084676018450077
-0.007042503829536707   -0.05245039801739091   -0.0013982029689144672
-0.009530781454176629   -0.052294490955825425   -0.0014435928546656812
-0.00762527473697836   -0.05648089171400557   -0.001622915030571653
-0.009477125060113964   -0.05229351218722557   -0.001320320035578284
-0.005986984358117285   -0.05663651737710873   -0.0015084676018450077
-0.007524212765737542   -0.056490776675003004   -0.0014788623491521834
-0.009477125060113964   -0.05229351218722557   -0.001320320035578284
-0.00762527473697836   -0.05648089171400557   -0.001622915030571653
-0.005986984358117285   -0.05663651737710873   -0.0015084676018450077
-0.009477125060113964   -0.05229351218722557   -0.001320320035578284
-0.0070074760814779055   -0.052436671777420917   -0.0013309981871270156
-0.007042503829536707   -0.05245039801739091   -0.0013982029689144672
-0.005986984358117285   -0.05663651737710873   -0.0015084676018450077
-0.009477125060113964   -0.05229351218722557   -0.001320320035578284
-0.007042503829536707   -0.05245039801739091   -0.0013982029689144672
-0.00762527473697836   -0.05648089171400557   -0.001622915030571653
-0.007825057539895146   -0.05657342398141446   -0.001886669245419909
-0.009635906019068382   -0.052390526339339355   -0.0016704955932800006
-0.00990541260906295   -0.05628816580995659   -0.0020495376220695458
-0.007741158969575115   -0.05650845398124067   -0.0017576041840819245
-0.009635906019068382   -0.052390526339339355   -0.0016704955932800006
-0.012583506219020707   -0.052134606454618475   -0.0018167435844144593
-0.00990541260906295   -0.05628816580995659   -0.0020495376220695458
-0.012383292328424757   -0.05206872085312388   -0.001643371093602919
-0.007741158969575115   -0.05650845398124067   -0.0017576041840819245
-0.009634474514967678   -0.05621764126322682   -0.0018457438924319002
-0.012383292328424757   -0.05206872085312388   -0.001643371093602919
-0.00990541260906295   -0.05628816580995659   -0.0020495376220695458
-0.007741158969575115   -0.05650845398124067   -0.0017576041840819245
-0.012383292328424757   -0.05206872085312388   -0.001643371093602919
-0.009596913374638347   -0.05232741347106388   -0.0015597532475691667
-0.009635906019068382   -0.052390526339339355   -0.0016704955932800006
-0.007741158969575115   -0.05650845398124067   -0.0017576041840819245
-0.012383292328424757   -0.05206872085312388   -0.001643371093602919
-0.009635906019068382   -0.052390526339339355   -0.0016704955932800006
-0.00990541260906295   -0.05628816580995659   -0.0020495376220695458
-0.007741158969575115   -0.05650845398124067   -0.0017576041840819245
-0.009596913374638347   -0.05232741347106388   -0.0015597532475691667
-0.009634474514967678   -0.05621764126322682   -0.0018457438924319002
-0.00762527473697836   -0.05648089171400557   -0.001622915030571653
-0.009596913374638347   -0.05232741347106388   -0.0015597532475691667
-0.012383292328424757   -0.05206872085312388   -0.001643371093602919
-0.009634474514967678   -0.05621764126322682   -0.0018457438924319002
-0.012209617148911408   -0.05203862922018979   -0.001461058375219218
-0.00762527473697836   -0.05648089171400557   -0.001622915030571653
-0.009391767069921432   -0.05619214705284507   -0.001630144766739811
-0.012209617148911408   -0.05203862922018979   -0.001461058375219218
-0.009634474514967678   -0.05621764126322682   -0.0018457438924319002
-0.00762527473697836   -0.05648089171400557   -0.001622915030571653
-0.012209617148911408   -0.05203862922018979   -0.001461058375219218
-0.009530781454176629   -0.052294490955825425   -0.0014435928546656812
-0.009596913374638347   -0.05232741347106388   -0.0015597532475691667
-0.00762527473697836   -0.05648089171400557   -0.001622915030571653
-0.012209617148911408   -0.05203862922018979   -0.001461058375219218
-0.009596913374638347   -0.05232741347106388   -0.0015597532475691667
-0.009634474514967678   -0.05621764126322682   -0.0018457438924319002
-0.00762527473697836   -0.05648089171400557   -0.001622915030571653
-0.009530781454176629   -0.052294490955825425   -0.0014435928546656812
-0.009391767069921432   -0.05619214705284507   -0.001630144766739811
-0.007524212765737542   -0.056490776675003004   -0.0014788623491521834
-0.009530781454176629   -0.052294490955825425   -0.0014435928546656812
-0.012209617148911408   -0.05203862922018979   -0.001461058375219218
-0.009391767069921432   -0.05619214705284507   -0.001630144766739811
-0.011975670333493513   -0.052057337906195676   -0.001270965850336337
-0.007524212765737542   -0.056490776675003004   -0.0014788623491521834
-0.009077225326383364   -0.05622488523522579   -0.0014047829932714443
-0.011975670333493513   -0.052057337906195676   -0.001270965850336337
-0.009391767069921432   -0.05619214705284507   -0.001630144766739811
-0.007524212765737542   -0.056490776675003004   -0.0014788623491521834
-0.011975670333493513   -0.052057337906195676   -0.001270965850336337
-0.009477125060113964   -0.05229351218722557   -0.001320320035578284
-0.009530781454176629   -0.052294490955825425   -0.0014435928546656812
-0.007524212765737542   -0.056490776675003004   -0.0014788623491521834
-0.011975670333493513   -0.052057337906195676   -0.001270965850336337
-0.009530781454176629   -0.052294490955825425   -0.0014435928546656812
-0.009391767069921432   -0.05619214705284507   -0.001630144766739811
0.000286382266224778   -0.05249615312106323   -0.0009046800491795912
0.0018411327660407273   -0.04695852283176155   -0.0006892889442011782
-0.0022457584944696493   -0.05262215179850044   -0.001141999025651958
0.0004512629211673909   -0.05237551258917437   -0.0010389734874632663
0.0018411327660407273   -0.04695852283176155   -0.0006892889442011782
-0.0015140324595249593   -0.04704196818654573   -0.0009158352748551458
-0.0022457584944696493   -0.05262215179850044   -0.001141999025651958
-0.001504872996168883   -0.046941994182300315   -0.0009567630626824998
0.0004512629211673909   -0.05237551258917437   -0.0010389734874632663
-0.002202149998212239   -0.05252164218983183   -0.001200931980876527
-0.001504872996168883   -0.046941994182300315   -0.0009567630626824998
-0.0022457584944696493   -0.05262215179850044   -0.001141999025651958
0.0004512629211673909   -0.05237551258917437   -0.0010389734874632663
-0.001504872996168883   -0.046941994182300315   -0.0009567630626824998
0.001939345786064648   -0.04684077752152366   -0.0007887745815164164
0.0018411327660407273   -0.04695852283176155   -0.0006892889442011782
0.0004512629211673909   -0.05237551258917437   -0.0010389734874632663
-0.001504872996168883   -0.046941994182300315   -0.0009567630626824998
0.0018411327660407273   -0.04695852283176155   -0.0006892889442011782
-0.0022457584944696493   -0.05262215179850044   -0.001141999025651958
0.0004512629211673909   -0.05237551258917437   -0.0010389734874632663
0.001939345786064648   -0.04684077752152366   -0.0007887745815164164
-0.002202149998212239   -0.05252164218983183   -0.001200931980876527
0.0005725767305903482   -0.05230605630708477   -0.0011637030751519336
0.001939345786064648   -0.04684077752152366   -0.0007887745815164164
-0.001504872996168883   -0.046941994182300315   -0.0009567630626824998
-0.002202149998212239   -0.05252164218983183   -0.001200931980876527
-0.0014932082302365405   -0.046869733199122444   -0.0009914390073323498
0.0005725767305903482   -0.05230605630708477   -0.0011637030751519336
-0.002152446792253117   -0.052456218713815186   -0.0012530321751665237
-0.0014932082302365405   -0.046869733199122444   -0.0009914390073323498
-0.002202149998212239   -0.05252164218983183   -0.001200931980876527
0.0005725767305903482   -0.05230605630708477   -0.0011637030751519336
-0.0014932082302365405   -0.046869733199122444   -0.0009914390073323498
0.0020022132872322008   -0.0467637783563819   -0.0008794236264190788
0.001939345786064648   -0.04684077752152366   -0.0007887745815164164
0.0005725767305903482   -0.05230605630708477   -0.0011637030751519336
-0.0014932082302365405   -0.046869733199122444   -0.0009914390073323498
0.001939345786064648   -0.04684077752152366   -0.0007887745815164164
-0.002202149998212239   -0.05252164218983183   -0.001200931980876527
0.0005725767305903482   -0.05230605630708477   -0.0011637030751519336
0.0020022132872322008   -0.0467637783563819   -0.0008794236264190788
-0.002152446792253117   -0.052456218713815186   -0.0012530321751665237
0.0007025697722255457   -0.052272203290479484   -0.0012788240689003282
0.0020022132872322008   -0.0467637783563819   -0.0008794236264190788
-0.0014932082302365405   -0.046869733199122444   -0.0009914390073323498
-0.002152446792253117   -0.052456218713815186   -0.0012530321751665237
-0.0014986191586438848   -0.04682286089805433   -0.0010203188448738635
0.0007025697722255457   -0.052272203290479484   -0.0012788240689003282
-0.002122725823591263   -0.0524239376877001   -0.0012989745384771104
-0.0014986191586438848   -0.04682286089805433   -0.0010203188448738635
-0.002152446792253117   -0.052456218713815186   -0.0012530321751665237
0.0007025697722255457   -0.052272203290479484   -0.0012788240689003282
-0.0014986191586438848   -0.04682286089805433   -0.0010203188448738635
0.002066876529805013   -0.04671252157707758   -0.0009614230024173424
0.0020022132872322008   -0.0467637783563819   -0.0008794236264190788
0.0007025697722255457   -0.052272203290479484   -0.0012788240689003282
-0.0014986191586438848   -0.04682286089805433   -0.0010203188448738635
0.0020022132872322008   -0.0467637783563819   -0.0008794236264190788
-0.002152446792253117   -0.052456218713815186   -0.0012530321751665237
-0.0022457584944696493   -0.05262215179850044   -0.001141999025651958
-0.0015140324595249593   -0.04704196818654573   -0.0009158352748551458
-0.004696216891464439   -0.05264627438537866   -0.0013374122162590513
-0.002202149998212239   -0.05252164218983183   -0.001200931980876527
-0.0015140324595249593   -0.04704196818654573   -0.0009158352748551458
-0.004743378639886695   -0.047042487888337696   -0.0011025135703200623
-0.004696216891464439   -0.05264627438537866   -0.0013374122162590513
-0.004743750186966809   -0.046957955445459644   -0.0010986460050689886
-0.002202149998212239   -0.05252164218983183   -0.001200931980876527
-0.0046641931009743735   -0.05256002479285703   -0.0013388908557473165
-0.004743750186966809   -0.046957955445459644   -0.0010986460050689886
-0.004696216891464439   -0.05264627438537866   -0.0013374122162590513
-0.002202149998212239   -0.05252164218983183   -0.001200931980876527
-0.004743750186966809   -0.046957955445459644   -0.0010986460050689886
-0.001504872996168883   -0.046941994182300315   -0.0009567630626824998
-0.0015140324595249593   -0.04704196818654573   -0.0009158352748551458
-0.002202149998212239   -0.05252164218983183   -0.001200931980876527
-0.004743750186966809   -0.046957955445459644   -0.0010986460050689886
-0.0015140324595249593   -0.04704196818654573   -0.0009158352748551458
-0.004696216891464439   -0.05264627438537866   -0.0013374122162590513
-0.002202149998212239   -0.05252164218983183   -0.001200931980876527
-0.001504872996168883   -0.046941994182300315   -0.0009567630626824998
-0.0046641931009743735   -0.05256002479285703   -0.0013388908557473165
-0.002152446792253117   -0.052456218713815186   -0.0012530321751665237
-0.001504872996168883   -0.046941994182300315   -0.0009567630626824998
-0.004743750186966809   -0.046957955445459644   -0.0010986460050689886
-0.0046641931009743735   -0.05256002479285703   -0.0013388908557473165
-0.004743902346465923   -0.04689785091399485   -0.0010885491058515147
-0.002152446792253117   -0.052456218713815186   -0.0012530321751665237
-0.004631257225816298   -0.05250517585617541   -0.001333821349664129
-0.004743902346465923   -0.04689785091399485   -0.0010885491058515147
-0.0046641931009743735   -0.05256002479285703   -0.0013388908557473165
-0.002152446792253117   -0.052456218713815186   -0.0012530321751665237
-0.004743902346465923   -0.04689785091399485   -0.0010885491058515147
-0.0014932082302365405   -0.046869733199122444   -0.0009914390073323498
-0.001504872996168883   -0.046941994182300315   -0.0009567630626824998
-0.002152446792253117   -0.052456218713815186   -0.0012530321751665237
-0.004743902346465923   -0.04689785091399485   -0.0010885491058515147
-0.001504872996168883   -0.046941994182300315   -0.0009567630626824998
-0.0046641931009743735   -0.05256002479285703   -0.0013388908557473165
-0.002152446792253117   -0.052456218713815186   -0.0012530321751665237
-0.0014932082302365405   -0.046869733199122444   -0.0009914390073323498
-0.004631257225816298   -0.05250517585617541   -0.001333821349664129
-0.002122725823591263   -0.0524239376877001   -0.0012989745384771104
-0.0014932082302365405   -0.046869733199122444   -0.0009914390073323498
-0.004743902346465923   -0.04689785091399485   -0.0010885491058515147
-0.004631257225816298   -0.05250517585617541   -0.001333821349664129
-0.004748367045914064   -0.04686221823836704   -0.0010725484244527472
-0.002122725823591263   -0.0524239376877001   -0.0012989745384771104
-0.004602452270889427   -0.05248121434721245   -0.0013226423347847723
-0.004748367045914064   -0.04686221823836704   -0.0010725484244527472
-0.004631257225816298   -0.05250517585617541   -0.001333821349664129
-0.002122725823591263   -0.0524239376877001   -0.0012989745384771104
-0.004748367045914064   -0.04686221823836704   -0.0010725484244527472
-0.0014986191586438848   -0.04682286089805433   -0.0010203188448738635
-0.0014932082302365405   -0.046869733199122444   -0.0009914390073323498
-0.002122725823591263   -0.0524239376877001   -0.0012989745384771104
-0.004748367045914064   -0.04686221823836704   -0.0010725484244527472
-0.0014932082302365405   -0.046869733199122444   -0.0009914390073323498
-0.004631257225816298   -0.05250517585617541   -0.001333821349664129
-0.004696216891464439   -0.05264627438537866   -0.0013374122162590513
-0.004743378639886695   -0.047042487888337696   -0.0011025135703200623
-0.007108340313166487   -0.05256815153545919   -0.0015137924510000556
-0.0046641931009743735   -0.05256002479285703   -0.0013388908557473165
-0.004743378639886695   -0.047042487888337696   -0.0011025135703200623
-0.007918045065645946   -0.04696204165818393   -0.0012659879052296262
-0.007108340313166487   -0.05256815153545919   -0.0015137924510000556
-0.007920812536340392   -0.04689106031761157   -0.0012178676118771853
-0.0046641931009743735   -0.05256002479285703   -0.0013388908557473165
-0.007078529500363522   -0.05249374668547656   -0.0014592000140557092
-0.007920812536340392   -0.04689106031761157   -0.0012178676118771853
-0.007108340313166487   -0.05256815153545919   -0.0015137924510000556
-0.0046641931009743735   -0.05256002479285703   -0.0013388908557473165
-0.007920812536340392   -0.04689106031761157   -0.0012178676118771853
-0.004743750186966809   -0.046957955445459644   -0.0010986460050689886
-0.004743378639886695   -0.047042487888337696   -0.0011025135703200623
-0.0046641931009743735   -0.05256002479285703   -0.0013388908557473165
-0.007920812536340392   -0.04689106031761157   -0.0012178676118771853
-0.004743378639886695   -0.047042487888337696   -0.0011025135703200623
-0.007108340313166487   -0.05256815153545919   -0.0015137924510000556
-0.0046641931009743735   -0.05256002479285703   -0.0013388908557473165
-0.004743750186966809   -0.046957955445459644   -0.0010986460050689886
-0.007078529500363522   -0.05249374668547656   -0.0014592000140557092
-0.004631257225816298   -0.05250517585617541   -0.001333821349664129
-0.004743750186966809   -0.046957955445459644   -0.0010986460050689886
-0.007920812536340392   -0.04689106031761157   -0.0012178676118771853
-0.007078529500363522   -0.05249374668547656   -0.0014592000140557092
-0.007918174038385295   -0.04684429101559471   -0.0011636401484093398
-0.004631257225816298   -0.05250517585617541   -0.001333821349664129
-0.007042503829536707   -0.05245039801739091   -0.0013982029689144672
-0.007918174038385295   -0.04684429101559471   -0.0011636401484093398
-0.007078529500363522   -0.05249374668547656   -0.0014592000140557092
-0.004631257225816298   -0.05250517585617541   -0.001333821349664129
-0.007918174038385295   -0.04684429101559471   -0.0011636401484093398
-0.004743902346465923   -0.04689785091399485   -0.0010885491058515147
-0.004743750186966809   -0.046957955445459644   -0.0010986460050689886
-0.004631257225816298   -0.05250517585617541   -0.001333821349664129
-0.007918174038385295   -0.04684429101559471   -0.0011636401484093398
-0.004743750186966809   -0.046957955445459644   -0.0010986460050689886
-0.007078529500363522   -0.05249374668547656   -0.0014592000140557092
-0.004631257225816298   -0.05250517585617541   -0.001333821349664129
-0.004743902346465923   -0.04689785091399485   -0.0010885491058515147
-0.007042503829536707   -0.05245039801739091   -0.0013982029689144672
-0.004602452270889427   -0.05248121434721245   -0.0013226423347847723
-0.004743902346465923   -0.04689785091399485   -0.0010885491058515147
-0.007918174038385295   -0.04684429101559471   -0.0011636401484093398
-0.007042503829536707   -0.05245039801739091   -0.0013982029689144672
-0.00791651592201186   -0.046821311035921014   -0.0011034829795289111
-0.004602452270889427   -0.05248121434721245   -0.0013226423347847723
-0.0070074760814779055   -0.052436671777420917   -0.0013309981871270156
-0.00791651592201186   -0.046821311035921014   -0.0011034829795289111
-0.007042503829536707   -0.05245039801739091   -0.0013982029689144672
-0.004602452270889427   -0.05248121434721245   -0.0013226423347847723
-0.00791651592201186   -0.046821311035921014   -0.0011034829795289111
-0.004748367045914064   -0.04686221823836704   -0.0010725484244527472
-0.004743902346465923   -0.04689785091399485   -0.0010885491058515147
-0.004602452270889427   -0.05248121434721245   -0.0013226423347847723
-0.00791651592201186   -0.046821311035921014   -0.0011034829795289111
-0.004743902346465923   -0.04689785091399485   -0.0010885491058515147
-0.007042503829536707   -0.05245039801739091   -0.0013982029689144672
-0.007108340313166487   -0.05256815153545919   -0.0015137924510000556
-0.007918045065645946   -0.04696204165818393   -0.0012659879052296262
-0.009635906019068382   -0.052390526339339355   -0.0016704955932800006
-0.007078529500363522   -0.05249374668547656   -0.0014592000140557092
-0.007918045065645946   -0.04696204165818393   -0.0012659879052296262
-0.01119155311479166   -0.04680365506774043   -0.0014065892511353633
-0.009635906019068382   -0.052390526339339355   -0.0016704955932800006
-0.01118762261125159   -0.04674563692779047   -0.001313688633854432
-0.007078529500363522   -0.05249374668547656   -0.0014592000140557092
-0.009596913374638347   -0.05232741347106388   -0.0015597532475691667
-0.01118762261125159   -0.04674563692779047   -0.001313688633854432
-0.009635906019068382   -0.052390526339339355   -0.0016704955932800006
-0.007078529500363522   -0.05249374668547656   -0.0014592000140557092
-0.01118762261125159   -0.04674563692779047   -0.001313688633854432
-0.007920812536340392   -0.04689106031761157   -0.0012178676118771853
-0.007918045065645946   -0.04696204165818393   -0.0012659879052296262
-0.007078529500363522   -0.05249374668547656   -0.0014592000140557092
-0.01118762261125159   -0.04674563692779047   -0.001313688633854432
-0.007918045065645946   -0.04696204165818393   -0.0012659879052296262
-0.009635906019068382   -0.052390526339339355   -0.0016704955932800006
-0.007078529500363522   -0.05249374668547656   -0.0014592000140557092
-0.007920812536340392   -0.04689106031761157   -0.0012178676118771853
-0.009596913374638347   -0.05232741347106388   -0.0015597532475691667
-0.007042503829536707   -0.05245039801739091   -0.0013982029689144672
-0.007920812536340392   -0.04689106031761157   -0.0012178676118771853
-0.01118762261125159   -0.04674563692779047   -0.001313688633854432
-0.009596913374638347   -0.05232741347106388   -0.0015597532475691667
-0.011160077275358237   -0.04671095971204436   -0.001215602282851898
-0.007042503829536707   -0.05245039801739091   -0.0013982029689144672
-0.009530781454176629   -0.052294490955825425   -0.0014435928546656812
-0.011160077275358237   -0.04671095971204436   -0.001215602282851898
-0.009596913374638347   -0.05232741347106388   -0.0015597532475691667
-0.007042503829536707   -0.05245039801739091   -0.0013982029689144672
-0.011160077275358237   -0.04671095971204436   -0.001215602282851898
-0.007918174038385295   -0.04684429101559471   -0.0011636401484093398
-0.007920812536340392   -0.04689106031761157   -0.0012178676118771853
-0.007042503829536707   -0.05245039801739091   -0.0013982029689144672
-0.011160077275358237   -0.04671095971204436   -0.001215602282851898
-0.007920812536340392   -0.04689106031761157   -0.0012178676118771853
-0.009596913374638347   -0.05232741347106388   -0.0015597532475691667
-0.007042503829536707   -0.05245039801739091   -0.0013982029689144672
-0.007918174038385295   -0.04684429101559471   -0.0011636401484093398
-0.009530781454176629   -0.052294490955825425   -0.0014435928546656812
-0.0070074760814779055   -0.052436671777420917   -0.0013309981871270156
-0.007918174038385295   -0.04684429101559471   -0.0011636401484093398
-0.011160077275358237   -0.04671095971204436   -0.001215602282851898
-0.009530781454176629   -0.052294490955825425   -0.0014435928546656812
-0.011141689283055915   -0.046702073550874704   -0.0011111083969880212
-0.0070074760814779055   -0.052436671777420917   -0.0013309981871270156
-0.009477125060113964   -0.05229351218722557   -0.001320320035578284
-0.011141689283055915   -0.046702073550874704   -0.0011111083969880212
-0.009530781454176629   -0.052294490955825425   -0.0014435928546656812
-0.0070074760814779055   -0.052436671777420917   -0.0013309981871270156
-0.011141689283055915   -0.046702073550874704   -0.0011111083969880212
-0.00791651592201186   -0.046821311035921014   -0.0011034829795289111
-0.007918174038385295   -0.04684429101559471   -0.0011636401484093398
-0.0070074760814779055   -0.052436671777420917   -0.0013309981871270156
-0.011141689283055915   -0.046702073550874704   -0.0011111083969880212
-0.007918174038385295   -0.04684429101559471   -0.0011636401484093398
-0.009530781454176629   -0.052294490955825425   -0.0014435928546656812
-0.009635906019068382   -0.052390526339339355   -0.0016704955932800006
-0.01119155311479166   -0.04680365506774043   -0.0014065892511353633
-0.012583506219020707   -0.052134606454618475   -0.0018167435844144593
-0.009596913374638347   -0.05232741347106388   -0.0015597532475691667
-0.01119155311479166   -0.04680365506774043   -0.0014065892511353633
-0.014848053202899057   -0.04658519614711842   -0.0015334506079971925
-0.012583506219020707   -0.052134606454618475   -0.0018167435844144593
-0.014710879053428147   -0.046528218618011444   -0.0013912860392402435
-0.009596913374638347   -0.05232741347106388   -0.0015597532475691667
-0.012383292328424757   -0.05206872085312388   -0.001643371093602919
-0.014710879053428147   -0.046528218618011444   -0.0013912860392402435
-0.012583506219020707   -0.052134606454618475   -0.0018167435844144593
-0.009596913374638347   -0.05232741347106388   -0.0015597532475691667
-0.014710879053428147   -0.046528218618011444   -0.0013912860392402435
-0.01118762261125159   -0.04674563692779047   -0.001313688633854432
-0.01119155311479166   -0.04680365506774043   -0.0014065892511353633
-0.009596913374638347   -0.05232741347106388   -0.0015597532475691667
-0.014710879053428147   -0.046528218618011444   -0.0013912860392402435
-0.01119155311479166   -0.04680365506774043   -0.0014065892511353633
-0.012583506219020707   -0.052134606454618475   -0.0018167435844144593
-0.009596913374638347   -0.05232741347106388   -0.0015597532475691667
-0.01118762261125159   -0.04674563692779047   -0.001313688633854432
-0.012383292328424757   -0.05206872085312388   -0.001643371093602919
-0.009530781454176629   -0.052294490955825425   -0.0014435928546656812
-0.01118762261125159   -0.04674563692779047   -0.001313688633854432
-0.014710879053428147   -0.046528218618011444   -0.0013912860392402435
-0.012383292328424757   -0.05206872085312388   -0.001643371093602919
-0.014593621865449422   -0.046497954780890235   -0.0012403999100974751
-0.009530781454176629   -0.052294490955825425   -0.0014435928546656812
-0.012209617148911408   -0.05203862922018979   -0.001461058375219218
-0.014593621865449422   -0.046497954780890235   -0.0012403999100974751
-0.012383292328424757   -0.05206872085312388   -0.001643371093602919
-0.009530781454176629   -0.052294490955825425   -0.0014435928546656812
-0.014593621865449422   -0.046497954780890235   -0.0012403999100974751
-0.011160077275358237   -0.04671095971204436   -0.001215602282851898
-0.01118762261125159   -0.04674563692779047   -0.001313688633854432
-0.009530781454176629   -0.052294490955825425   -0.0014435928546656812
-0.014593621865449422   -0.046497954780890235   -0.0012403999100974751
-0.01118762261125159   -0.04674563692779047   -0.001313688633854432
-0.012383292328424757   -0.05206872085312388   -0.001643371093602919
-0.009530781454176629   -0.052294490955825425   -0.0014435928546656812
-0.011160077275358237   -0.04671095971204436   -0.001215602282851898
-0.012209617148911408   -0.05203862922018979   -0.001461058375219218
-0.009477125060113964   -0.05229351218722557   -0.001320320035578284
-0.011160077275358237   -0.04671095971204436   -0.001215602282851898
-0.014593621865449422   -0.046497954780890235   -0.0012403999100974751
-0.012209617148911408   -0.05203862922018979   -0.001461058375219218
-0.01442447839706213   -0.046508578124963965   -0.001081990225819934
-0.009477125060113964   -0.05229351218722557   -0.001320320035578284
-0.011975670333493513   -0.052057337906195676   -0.001270965850336337
-0.01442447839706213   -0.046508578124963965   -0.001081990225819934
-0.012209617148911408   -0.05203862922018979   -0.001461058375219218
-0.009477125060113964   -0.05229351218722557   -0.001320320035578284
-0.01442447839706213   -0.046508578124963965   -0.001081990225819934
-0.011141689283055915   -0.046702073550874704   -0.0011111083969880212
-0.011160077275358237   -0.04671095971204436   -0.001215602282851898
-0.009477125060113964   -0.05229351218722557   -0.001320320035578284
-0.01442447839706213   -0.046508578124963965   -0.001081990225819934
-0.011160077275358237   -0.04671095971204436   -0.001215602282851898
-0.012209617148911408   -0.05203862922018979   -0.001461058375219218
0.0018411327660407273   -0.04695852283176155   -0.0006892889442011782
0.002914553137825732   -0.04029259195451617   -0.00045926444850472167
-0.0015140324595249593   -0.04704196818654573   -0.0009158352748551458
0.001939345786064648   -0.04684077752152366   -0.0007887745815164164
0.002914553137825732   -0.04029259195451617   -0.00045926444850472167
-0.0010684877021239088   -0.0403338041061654   -0.0006723900364976365
-0.0015140324595249593   -0.04704196818654573   -0.0009158352748551458
-0.0010870631348920885   -0.0402362774877789   -0.0006945300419019018
0.001939345786064648   -0.04684077752152366   -0.0007887745815164164
-0.001504872996168883   -0.046941994182300315   -0.0009567630626824998
-0.0010870631348920885   -0.0402362774877789   -0.0006945300419019018
-0.0015140324595249593   -0.04704196818654573   -0.0009158352748551458
0.001939345786064648   -0.04684077752152366   -0.0007887745815164164
-0.0010870631348920885   -0.0402362774877789   -0.0006945300419019018
0.0029536935549823043   -0.040179149527210335   -0.0005246005274073363
0.002914553137825732   -0.04029259195451617   -0.00045926444850472167
0.001939345786064648   -0.04684077752152366   -0.0007887745815164164
-0.0010870631348920885   -0.0402362774877789   -0.0006945300419019018
0.002914553137825732   -0.04029259195451617   -0.00045926444850472167
-0.0015140324595249593   -0.04704196818654573   -0.0009158352748551458
0.001939345786064648   -0.04684077752152366   -0.0007887745815164164
0.0029536935549823043   -0.040179149527210335   -0.0005246005274073363
-0.001504872996168883   -0.046941994182300315   -0.0009567630626824998
0.0020022132872322008   -0.0467637783563819   -0.0008794236264190788
0.0029536935549823043   -0.040179149527210335   -0.0005246005274073363
-0.0010870631348920885   -0.0402362774877789   -0.0006945300419019018
-0.001504872996168883   -0.046941994182300315   -0.0009567630626824998
-0.0011065657685809056   -0.040159319140323196   -0.0007110811104012197
0.0020022132872322008   -0.0467637783563819   -0.0008794236264190788
-0.0014932082302365405   -0.046869733199122444   -0.0009914390073323498
-0.0011065657685809056   -0.040159319140323196   -0.0007110811104012197
-0.001504872996168883   -0.046941994182300315   -0.0009567630626824998
0.0020022132872322008   -0.0467637783563819   -0.0008794236264190788
-0.0011065657685809056   -0.040159319140323196   -0.0007110811104012197
0.0029658337586644596   -0.04009672262216079   -0.0005816893261343415
0.0029536935549823043   -0.040179149527210335   -0.0005246005274073363
0.0020022132872322008   -0.0467637783563819   -0.0008794236264190788
-0.0011065657685809056   -0.040159319140323196   -0.0007110811104012197
0.0029536935549823043   -0.040179149527210335   -0.0005246005274073363
-0.001504872996168883   -0.046941994182300315   -0.0009567630626824998
0.0020022132872322008   -0.0467637783563819   -0.0008794236264190788
0.0029658337586644596   -0.04009672262216079   -0.0005816893261343415
-0.0014932082302365405   -0.046869733199122444   -0.0009914390073323498
0.002066876529805013   -0.04671252157707758   -0.0009614230024173424
0.0029658337586644596   -0.04009672262216079   -0.0005816893261343415
-0.0011065657685809056   -0.040159319140323196   -0.0007110811104012197
-0.0014932082302365405   -0.046869733199122444   -0.0009914390073323498
-0.0011399222633151865   -0.040100497854721126   -0.0007222317840164964
0.002066876529805013   -0.04671252157707758   -0.0009614230024173424
-0.0014986191586438848   -0.04682286089805433   -0.0010203188448738635
-0.0011399222633151865   -0.040100497854721126   -0.0007222317840164964
-0.0014932082302365405   -0.046869733199122444   -0.0009914390073323498
0.002066876529805013   -0.04671252157707758   -0.0009614230024173424
-0.0011399222633151865   -0.040100497854721126   -0.0007222317840164964
0.002972931778163597   -0.04003070589239031   -0.0006309221203205452
0.0029658337586644596   -0.04009672262216079   -0.0005816893261343415
0.002066876529805013   -0.04671252157707758   -0.0009614230024173424
-0.0011399222633151865   -0.040100497854721126   -0.0007222317840164964
0.0029658337586644596   -0.04009672262216079   -0.0005816893261343415
-0.0014932082302365405   -0.046869733199122444   -0.0009914390073323498
-0.0015140324595249593   -0.04704196818654573   -0.0009158352748551458
-0.0010684877021239088   -0.0403338041061654   -0.0006723900364976365
-0.004743378639886695   -0.047042487888337696   -0.0011025135703200623
-0.001504872996168883   -0.046941994182300315   -0.0009567630626824998
-0.0010684877021239088   -0.0403338041061654   -0.0006723900364976365
-0.00488686639317606   -0.04031285422238797   -0.000847700666602985
-0.004743378639886695   -0.047042487888337696   -0.0011025135703200623
-0.004912729900448458   -0.040231421648495136   -0.0008374123288438375
-0.001504872996168883   -0.046941994182300315   -0.0009567630626824998
-0.004743750186966809   -0.046957955445459644   -0.0010986460050689886
-0.004912729900448458   -0.040231421648495136   -0.0008374123288438375
-0.004743378639886695   -0.047042487888337696   -0.0011025135703200623
-0.001504872996168883   -0.046941994182300315   -0.0009567630626824998
-0.004912729900448458   -0.040231421648495136   -0.0008374123288438375
-0.0010870631348920885   -0.0402362774877789   -0.0006945300419019018
-0.0010684877021239088   -0.0403338041061654   -0.0006723900364976365
-0.001504872996168883   -0.046941994182300315   -0.0009567630626824998
-0.004912729900448458   -0.040231421648495136   -0.0008374123288438375
-0.0010684877021239088   -0.0403338041061654   -0.0006723900364976365
-0.004743378639886695   -0.047042487888337696   -0.0011025135703200623
-0.001504872996168883   -0.046941994182300315   -0.0009567630626824998
-0.0010870631348920885   -0.0402362774877789   -0.0006945300419019018
-0.004743750186966809   -0.046957955445459644   -0.0010986460050689886
-0.0014932082302365405   -0.046869733199122444   -0.0009914390073323498
-0.0010870631348920885   -0.0402362774877789   -0.0006945300419019018
-0.004912729900448458   -0.040231421648495136   -0.0008374123288438375
-0.004743750186966809   -0.046957955445459644   -0.0010986460050689886
-0.00493894953657457   -0.04016761843645959   -0.0008213685643471616
-0.0014932082302365405   -0.046869733199122444   -0.0009914390073323498
-0.004743902346465923   -0.04689785091399485   -0.0010885491058515147
-0.00493894953657457   -0.04016761843645959   -0.0008213685643471616
-0.004743750186966809   -0.046957955445459644   -0.0010986460050689886
-0.0014932082302365405   -0.046869733199122444   -0.0009914390073323498
-0.00493894953657457   -0.04016761843645959   -0.0008213685643471616
-0.0011065657685809056   -0.040159319140323196   -0.0007110811104012197
-0.0010870631348920885   -0.0402362774877789   -0.0006945300419019018
-0.0014932082302365405   -0.046869733199122444   -0.0009914390073323498
-0.00493894953657457   -0.04016761843645959   -0.0008213685643471616
-0.0010870631348920885   -0.0402362774877789   -0.0006945300419019018
-0.004743750186966809   -0.046957955445459644   -0.0010986460050689886
-0.0014932082302365405   -0.046869733199122444   -0.0009914390073323498
-0.0011065657685809056   -0.040159319140323196   -0.0007110811104012197
-0.004743902346465923   -0.04689785091399485   -0.0010885491058515147
-0.0014986191586438848   -0.04682286089805433   -0.0010203188448738635
-0.0011065657685809056   -0.040159319140323196   -0.0007110811104012197
-0.00493894953657457   -0.04016761843645959   -0.0008213685643471616
-0.004743902346465923   -0.04689785091399485   -0.0010885491058515147
-0.0049692655935130526   -0.040121743056515044   -0.0007998490626962411
-0.0014986191586438848   -0.04682286089805433   -0.0010203188448738635
-0.004748367045914064   -0.04686221823836704   -0.0010725484244527472
-0.0049692655935130526   -0.040121743056515044   -0.0007998490626962411
-0.004743902346465923   -0.04689785091399485   -0.0010885491058515147
-0.0014986191586438848   -0.04682286089805433   -0.0010203188448738635
-0.0049692655935130526   -0.040121743056515044   -0.0007998490626962411
-0.0011399222633151865   -0.040100497854721126   -0.0007222317840164964
-0.0011065657685809056   -0.040159319140323196   -0.0007110811104012197
-0.0014986191586438848   -0.04682286089805433   -0.0010203188448738635
-0.0049692655935130526   -0.040121743056515044   -0.0007998490626962411
-0.0011065657685809056   -0.040159319140323196   -0.0007110811104012197
-0.004743902346465923   -0.04689785091399485   -0.0010885491058515147
-0.004743378639886695   -0.047042487888337696   -0.0011025135703200623
-0.00488686639317606   -0.04031285422238797   -0.000847700666602985
-0.007918045065645946   -0.04696204165818393   -0.0012659879052296262
-0.004743750186966809   -0.046957955445459644   -0.0010986460050689886
-0.00488686639317606   -0.04031285422238797   -0.000847700666602985
-0.00864080274275482   -0.040233640165064866   -0.0009976172437106564
-0.007918045065645946   -0.04696204165818393   -0.0012659879052296262
-0.00866872837539537   -0.040166816479243896   -0.0009550618007986957
-0.004743750186966809   -0.046957955445459644   -0.0010986460050689886
-0.007920812536340392   -0.04689106031761157   -0.0012178676118771853
-0.00866872837539537   -0.040166816479243896   -0.0009550618007986957
-0.007918045065645946   -0.04696204165818393   -0.0012659879052296262
-0.004743750186966809   -0.046957955445459644   -0.0010986460050689886
-0.00866872837539537   -0.040166816479243896   -0.0009550618007986957
-0.004912729900448458   -0.040231421648495136   -0.0008374123288438375
-0.00488686639317606   -0.04031285422238797   -0.000847700666602985
-0.004743750186966809   -0.046957955445459644   -0.0010986460050689886
-0.00866872837539537   -0.040166816479243896   -0.0009550618007986957
-0.00488686639317606   -0.04031285422238797   -0.000847700666602985
-0.007918045065645946   -0.04696204165818393   -0.0012659879052296262
-0.004743750186966809   -0.046957955445459644   -0.0010986460050689886
-0.004912729900448458   -0.040231421648495136   -0.0008374123288438375
-0.007920812536340392   -0.04689106031761157   -0.0012178676118771853
-0.004743902346465923   -0.04689785091399485   -0.0010885491058515147
-0.004912729900448458   -0.040231421648495136   -0.0008374123288438375
-0.00866872837539537   -0.040166816479243896   -0.0009550618007986957
-0.007920812536340392   -0.04689106031761157   -0.0012178676118771853
-0.00869184984021405   -0.04011745408122428   -0.0009068537697838033
-0.004743902346465923   -0.04689785091399485   -0.0010885491058515147
-0.007918174038385295   -0.04684429101559471   -0.0011636401484093398
-0.00869184984021405   -0.04011745408122428   -0.0009068537697838033
-0.007920812536340392   -0.04689106031761157   -0.0012178676118771853
-0.004743902346465923   -0.04689785091399485   -0.0010885491058515147
-0.00869184984021405   -0.04011745408122428   -0.0009068537697838033
-0.00493894953657457   -0.04016761843645959   -0.0008213685643471616
-0.004912729900448458   -0.040231421648495136   -0.0008374123288438375
-0.004743902346465923   -0.04689785091399485   -0.0010885491058515147
-0.00869184984021405   -0.04011745408122428   -0.0009068537697838033
-0.004912729900448458   -0.040231421648495136   -0.0008374123288438375
-0.007920812536340392   -0.04689106031761157   -0.0012178676118771853
-0.004743902346465923   -0.04689785091399485   -0.0010885491058515147
-0.00493894953657457   -0.04016761843645959   -0.0008213685643471616
-0.007918174038385295   -0.04684429101559471   -0.0011636401484093398
-0.004748367045914064   -0.04686221823836704   -0.0010725484244527472
-0.00493894953657457   -0.04016761843645959   -0.0008213685643471616
-0.00869184984021405   -0.04011745408122428   -0.0009068537697838033
-0.007918174038385295   -0.04684429101559471   -0.0011636401484093398
-0.008715648538265537   -0.04008547907362266   -0.000853158873563451
-0.004748367045914064   -0.04686221823836704   -0.0010725484244527472
-0.00791651592201186   -0.046821311035921014   -0.0011034829795289111
-0.008715648538265537   -0.04008547907362266   -0.000853158873563451
-0.007918174038385295   -0.04684429101559471   -0.0011636401484093398
-0.004748367045914064   -0.04686221823836704   -0.0010725484244527472
-0.008715648538265537   -0.04008547907362266   -0.000853158873563451
-0.0049692655935130526   -0.040121743056515044   -0.0007998490626962411
-0.00493894953657457   -0.04016761843645959   -0.0008213685643471616
-0.004748367045914064   -0.04686221823836704   -0.0010725484244527472
-0.008715648538265537   -0.04008547907362266   -0.000853158873563451
-0.00493894953657457   -0.04016761843645959   -0.0008213685643471616
-0.007918174038385295   -0.04684429101559471   -0.0011636401484093398
-0.007918045065645946   -0.04696204165818393   -0.0012659879052296262
-0.00864080274275482   -0.040233640165064866   -0.0009976172437106564
-0.01119155311479166   -0.04680365506774043   -0.0014065892511353633
-0.007920812536340392   -0.04689106031761157   -0.0012178676118771853
-0.00864080274275482   -0.040233640165064866   -0.0009976172437106564
-0.012484014564973814   -0.04009773256886562   -0.0011227295820671486
-0.01119155311479166   -0.04680365506774043   -0.0014065892511353633
-0.012507080236344082   -0.040045169503649454   -0.00104746565911019
-0.007920812536340392   -0.04689106031761157   -0.0012178676118771853
-0.01118762261125159   -0.04674563692779047   -0.001313688633854432
-0.012507080236344082   -0.040045169503649454   -0.00104746565911019
-0.01119155311479166   -0.04680365506774043   -0.0014065892511353633
-0.007920812536340392   -0.04689106031761157   -0.0012178676118771853
-0.012507080236344082   -0.040045169503649454   -0.00104746565911019
-0.00866872837539537   -0.040166816479243896   -0.0009550618007986957
-0.00864080274275482   -0.040233640165064866   -0.0009976172437106564
-0.007920812536340392   -0.04689106031761157   -0.0012178676118771853
-0.012507080236344082   -0.040045169503649454   -0.00104746565911019
-0.00864080274275482   -0.040233640165064866   -0.0009976172437106564
-0.01119155311479166   -0.04680365506774043   -0.0014065892511353633
-0.007920812536340392   -0.04689106031761157   -0.0012178676118771853
-0.00866872837539537   -0.040166816479243896   -0.0009550618007986957
-0.01118762261125159   -0.04674563692779047   -0.001313688633854432
-0.007918174038385295   -0.04684429101559471   -0.0011636401484093398
-0.00866872837539537   -0.040166816479243896   -0.0009550618007986957
-0.012507080236344082   -0.040045169503649454   -0.00104746565911019
-0.01118762261125159   -0.04674563692779047   -0.001313688633854432
-0.012509908400834917   -0.040009013605140836   -0.0009673309678366911
-0.007918174038385295   -0.04684429101559471   -0.0011636401484093398
-0.011160077275358237   -0.04671095971204436   -0.001215602282851898
-0.012509908400834917   -0.040009013605140836   -0.0009673309678366911
-0.01118762261125159   -0.04674563692779047   -0.001313688633854432
-0.007918174038385295   -0.04684429101559471   -0.0011636401484093398
-0.012509908400834917   -0.040009013605140836   -0.0009673309678366911
-0.00869184984021405   -0.04011745408122428   -0.0009068537697838033
-0.00866872837539537   -0.040166816479243896   -0.0009550618007986957
-0.007918174038385295   -0.04684429101559471   -0.0011636401484093398
-0.012509908400834917   -0.040009013605140836   -0.0009673309678366911
-0.00866872837539537   -0.040166816479243896   -0.0009550618007986957
-0.01118762261125159   -0.04674563692779047   -0.001313688633854432
-0.007918174038385295   -0.04684429101559471   -0.0011636401484093398
-0.00869184984021405   -0.04011745408122428   -0.0009068537697838033
-0.011160077275358237   -0.04671095971204436   -0.001215602282851898
-0.00791651592201186   -0.046821311035921014   -0.0011034829795289111
-0.00869184984021405   -0.04011745408122428   -0.0009068537697838033
-0.012509908400834917   -0.040009013605140836   -0.0009673309678366911
-0.011160077275358237   -0.04671095971204436   -0.001215602282851898
-0.01251851126667858   -0.039991812787609694   -0.000881292823029535
-0.00791651592201186   -0.046821311035921014   -0.0011034829795289111
-0.011141689283055915   -0.046702073550874704   -0.0011111083969880212
-0.01251851126667858   -0.039991812787609694   -0.000881292823029535
-0.011160077275358237   -0.04671095971204436   -0.001215602282851898
-0.00791651592201186   -0.046821311035921014   -0.0011034829795289111
-0.01251851126667858   -0.039991812787609694   -0.000881292823029535
-0.008715648538265537   -0.04008547907362266   -0.000853158873563451
-0.00869184984021405   -0.04011745408122428   -0.0009068537697838033
-0.00791651592201186   -0.046821311035921014   -0.0011034829795289111
-0.01251851126667858   -0.039991812787609694   -0.000881292823029535
-0.00869184984021405   -0.04011745408122428   -0.0009068537697838033
-0.011160077275358237   -0.04671095971204436   -0.001215602282851898
-0.01119155311479166   -0.04680365506774043   -0.0014065892511353633
-0.012484014564973814   -0.04009773256886562   -0.0011227295820671486
-0.014848053202899057   -0.04658519614711842   -0.0015334506079971925
-0.01118762261125159   -0.04674563692779047   -0.001313688633854432
-0.012484014564973814   -0.04009773256886562   -0.0011227295820671486
-0.016675187348293433   -0.039919300149173526   -0.001229614166500983
-0.014848053202899057   -0.04658519614711842   -0.0015334506079971925
-0.01659449355801909   -0.039871283983100476   -0.0011197154516967784
-0.01118762261125159   -0.04674563692779047   -0.001313688633854432
-0.014710879053428147   -0.046528218618011444   -0.0013912860392402435
-0.01659449355801909   -0.039871283983100476   -0.0011197154516967784
-0.014848053202899057   -0.04658519614711842   -0.0015334506079971925
-0.01118762261125159   -0.04674563692779047   -0.001313688633854432
-0.01659449355801909   -0.039871283983100476   -0.0011197154516967784
-0.012507080236344082   -0.040045169503649454   -0.00104746565911019
-0.012484014564973814   -0.04009773256886562   -0.0011227295820671486
-0.01118762261125159   -0.04674563692779047   -0.001313688633854432
-0.01659449355801909   -0.039871283983100476   -0.0011197154516967784
-0.012484014564973814   -0.04009773256886562   -0.0011227295820671486
-0.014848053202899057   -0.04658519614711842   -0.0015334506079971925
-0.01118762261125159   -0.04674563692779047   -0.001313688633854432
-0.012507080236344082   -0.040045169503649454   -0.00104746565911019
-0.014710879053428147   -0.046528218618011444   -0.0013912860392402435
-0.011160077275358237   -0.04671095971204436   -0.001215602282851898
-0.012507080236344082   -0.040045169503649454   -0.00104746565911019
-0.01659449355801909   -0.039871283983100476   -0.0011197154516967784
-0.014710879053428147   -0.046528218618011444   -0.0013912860392402435
-0.0165264911476898   -0.039840729231048935   -0.001001309485282049
-0.011160077275358237   -0.04671095971204436   -0.001215602282851898
-0.014593621865449422   -0.046497954780890235   -0.0012403999100974751
-0.0165264911476898   -0.039840729231048935   -0.001001309485282049
-0.014710879053428147   -0.046528218618011444   -0.0013912860392402435
-0.011160077275358237   -0.04671095971204436   -0.001215602282851898
-0.0165264911476898   -0.039840729231048935   -0.001001309485282049
-0.012509908400834917   -0.040009013605140836   -0.0009673309678366911
-0.012507080236344082   -0.040045169503649454   -0.00104746565911019
-0.011160077275358237   -0.04671095971204436   -0.001215602282851898
-0.0165264911476898   -0.039840729231048935   -0.001001309485282049
-0.012507080236344082   -0.040045169503649454   -0.00104746565911019
-0.014710879053428147   -0.046528218618011444   -0.0013912860392402435
-0.011160077275358237   -0.04671095971204436   -0.001215602282851898
-0.012509908400834917   -0.040009013605140836   -0.0009673309678366911
-0.014593621865449422   -0.046497954780890235   -0.0012403999100974751
-0.011141689283055915   -0.046702073550874704   -0.0011111083969880212
-0.012509908400834917   -0.040009013605140836   -0.0009673309678366911
-0.0165264911476898   -0.039840729231048935   -0.001001309485282049
-0.014593621865449422   -0.046497954780890235   -0.0012403999100974751
-0.016414462756588012   -0.03984235827117186   -0.0008754577497679005
-0.011141689283055915   -0.046702073550874704   -0.0011111083969880212
-0.01442447839706213   -0.046508578124963965   -0.001081990225819934
-0.016414462756588012   -0.03984235827117186   -0.0008754577497679005
-0.014593621865449422   -0.046497954780890235   -0.0012403999100974751
-0.011141689283055915   -0.046702073550874704   -0.0011111083969880212
-0.016414462756588012   -0.03984235827117186   -0.0008754577497679005
-0.01251851126667858   -0.039991812787609694   -0.000881292823029535
-0.012509908400834917   -0.040009013605140836   -0.0009673309678366911
-0.011141689283055915   -0.046702073550874704   -0.0011111083969880212
-0.016414462756588012   -0.03984235827117186   -0.0008754577497679005
-0.012509908400834917   -0.040009013605140836   -0.0009673309678366911
-0.014593621865449422   -0.046497954780890235   -0.0012403999100974751
0.002914553137825732   -0.04029259195451617   -0.00045926444850472167
0.003512993836732141   -0.03280783824351361   -0.0002342198810521891
-0.0010684877021239088   -0.0403338041061654   -0.0006723900364976365
0.0029536935549823043   -0.040179149527210335   -0.0005246005274073363
0.003512993836732141   -0.03280783824351361   -0.0002342198810521891
-0.0009111053734118058   -0.03280719154260746   -0.0004317897669187148
-0.0010684877021239088   -0.0403338041061654   -0.0006723900364976365
-0.0009504630736133308   -0.032712885391446116   -0.0004348746157342563
0.0029536935549823043   -0.040179149527210335   -0.0005246005274073363
-0.0010870631348920885   -0.0402362774877789   -0.0006945300419019018
-0.0009504630736133308   -0.032712885391446116   -0.0004348746157342563
-0.0010684877021239088   -0.0403338041061654   -0.0006723900364976365
0.0029536935549823043   -0.040179149527210335   -0.0005246005274073363
-0.0009504630736133308   -0.032712885391446116   -0.0004348746157342563
0.003500738022069227   -0.032699256974820415   -0.00026573832244716024
0.003512993836732141   -0.03280783824351361   -0.0002342198810521891
0.0029536935549823043   -0.040179149527210335   -0.0005246005274073363
-0.0009504630736133308   -0.032712885391446116   -0.0004348746157342563
0.003512993836732141   -0.03280783824351361   -0.0002342198810521891
-0.0010684877021239088   -0.0403338041061654   -0.0006723900364976365
0.0029536935549823043   -0.040179149527210335   -0.0005246005274073363
0.003500738022069227   -0.032699256974820415   -0.00026573832244716024
-0.0010870631348920885   -0.0402362774877789   -0.0006945300419019018
0.0029658337586644596   -0.04009672262216079   -0.0005816893261343415
0.003500738022069227   -0.032699256974820415   -0.00026573832244716024
-0.0009504630736133308   -0.032712885391446116   -0.0004348746157342563
-0.0010870631348920885   -0.0402362774877789   -0.0006945300419019018
-0.0009942005373281162   -0.03263186900159132   -0.0004329959960499131
0.0029658337586644596   -0.04009672262216079   -0.0005816893261343415
-0.0011065657685809056   -0.040159319140323196   -0.0007110811104012197
-0.0009942005373281162   -0.03263186900159132   -0.0004329959960499131
-0.0010870631348920885   -0.0402362774877789   -0.0006945300419019018
0.0029658337586644596   -0.04009672262216079   -0.0005816893261343415
-0.0009942005373281162   -0.03263186900159132   -0.0004329959960499131
0.0034693446779705535   -0.032612100323254144   -0.00028930114592448696
0.003500738022069227   -0.032699256974820415   -0.00026573832244716024
0.0029658337586644596   -0.04009672262216079   -0.0005816893261343415
-0.0009942005373281162   -0.03263186900159132   -0.0004329959960499131
0.003500738022069227   -0.032699256974820415   -0.00026573832244716024
-0.0010870631348920885   -0.0402362774877789   -0.0006945300419019018
0.0029658337586644596   -0.04009672262216079   -0.0005816893261343415
0.0034693446779705535   -0.032612100323254144   -0.00028930114592448696
-0.0011065657685809056   -0.040159319140323196   -0.0007110811104012197
0.002972931778163597   -0.04003070589239031   -0.0006309221203205452
0.0034693446779705535   -0.032612100323254144   -0.00028930114592448696
-0.0009942005373281162   -0.03263186900159132   -0.0004329959960499131
-0.0011065657685809056   -0.040159319140323196   -0.0007110811104012197
-0.0010485621297502544   -0.03256203116892505   -0.0004259582307383078
0.002972931778163597   -0.04003070589239031   -0.0006309221203205452
-0.0011399222633151865   -0.040100497854721126   -0.0007222317840164964
-0.0010485621297502544   -0.03256203116892505   -0.0004259582307383078
-0.0011065657685809056   -0.040159319140323196   -0.0007110811104012197
0.002972931778163597   -0.04003070589239031   -0.0006309221203205452
-0.0010485621297502544   -0.03256203116892505   -0.0004259582307383078
0.003425440651173431   -0.03253206214212849   -0.0003054640120613447
0.0034693446779705535   -0.032612100323254144   -0.00028930114592448696
0.002972931778163597   -0.04003070589239031   -0.0006309221203205452
-0.0010485621297502544   -0.03256203116892505   -0.0004259582307383078
0.0034693446779705535   -0.032612100323254144   -0.00028930114592448696
-0.0011065657685809056   -0.040159319140323196   -0.0007110811104012197
-0.0010684877021239088   -0.0403338041061654   -0.0006723900364976365
-0.0009111053734118058   -0.03280719154260746   -0.0004317897669187148
-0.00488686639317606   -0.04031285422238797   -0.000847700666602985
-0.0010870631348920885   -0.0402362774877789   -0.0006945300419019018
-0.0009111053734118058   -0.03280719154260746   -0.0004317897669187148
-0.005131155908822608   -0.03276725808915658   -0.0005946302639404218
-0.00488686639317606   -0.04031285422238797   -0.000847700666602985
-0.0051752840704567885   -0.03268906347929808   -0.0005773745572723994
-0.0010870631348920885   -0.0402362774877789   -0.0006945300419019018
-0.004912729900448458   -0.040231421648495136   -0.0008374123288438375
-0.0051752840704567885   -0.03268906347929808   -0.0005773745572723994
-0.00488686639317606   -0.04031285422238797   -0.000847700666602985
-0.0010870631348920885   -0.0402362774877789   -0.0006945300419019018
-0.0051752840704567885   -0.03268906347929808   -0.0005773745572723994
-0.0009504630736133308   -0.032712885391446116   -0.0004348746157342563
-0.0009111053734118058   -0.03280719154260746   -0.0004317897669187148
-0.0010870631348920885   -0.0402362774877789   -0.0006945300419019018
-0.0051752840704567885   -0.03268906347929808   -0.0005773745572723994
-0.0009111053734118058   -0.03280719154260746   -0.0004317897669187148
-0.00488686639317606   -0.04031285422238797   -0.000847700666602985
-0.0010870631348920885   -0.0402362774877789   -0.0006945300419019018
-0.0009504630736133308   -0.032712885391446116   -0.0004348746157342563
-0.004912729900448458   -0.040231421648495136   -0.0008374123288438375
-0.0011065657685809056   -0.040159319140323196   -0.0007110811104012197
-0.0009504630736133308   -0.032712885391446116   -0.0004348746157342563
-0.0051752840704567885   -0.03268906347929808   -0.0005773745572723994
-0.004912729900448458   -0.040231421648495136   -0.0008374123288438375
-0.005220305042684686   -0.03262168712553728   -0.0005549467588444561
-0.0011065657685809056   -0.040159319140323196   -0.0007110811104012197
-0.00493894953657457   -0.04016761843645959   -0.0008213685643471616
-0.005220305042684686   -0.03262168712553728   -0.0005549467588444561
-0.004912729900448458   -0.040231421648495136   -0.0008374123288438375
-0.0011065657685809056   -0.040159319140323196   -0.0007110811104012197
-0.005220305042684686   -0.03262168712553728   -0.0005549467588444561
-0.0009942005373281162   -0.03263186900159132   -0.0004329959960499131
-0.0009504630736133308   -0.032712885391446116   -0.0004348746157342563
-0.0011065657685809056   -0.040159319140323196   -0.0007110811104012197
-0.005220305042684686   -0.03262168712553728   -0.0005549467588444561
-0.0009504630736133308   -0.032712885391446116   -0.0004348746157342563
-0.004912729900448458   -0.040231421648495136   -0.0008374123288438375
-0.0011065657685809056   -0.040159319140323196   -0.0007110811104012197
-0.0009942005373281162   -0.03263186900159132   -0.0004329959960499131
-0.00493894953657457   -0.04016761843645959   -0.0008213685643471616
-0.0011399222633151865   -0.040100497854721126   -0.0007222317840164964
-0.0009942005373281162   -0.03263186900159132   -0.0004329959960499131
-0.005220305042684686   -0.03262168712553728   -0.0005549467588444561
-0.00493894953657457   -0.04016761843645959   -0.0008213685643471616
-0.00526914574043208   -0.03256577064696351   -0.0005275915115345489
-0.0011399222633151865   -0.040100497854721126   -0.0007222317840164964
-0.0049692655935130526   -0.040121743056515044   -0.0007998490626962411
-0.00526914574043208   -0.03256577064696351   -0.0005275915115345489
-0.00493894953657457   -0.04016761843645959   -0.0008213685643471616
-0.0011399222633151865   -0.040100497854721126   -0.0007222317840164964
-0.00526914574043208   -0.03256577064696351   -0.0005275915115345489
-0.0010485621297502544   -0.03256203116892505   -0.0004259582307383078
-0.0009942005373281162   -0.03263186900159132   -0.0004329959960499131
-0.0011399222633151865   -0.040100497854721126   -0.0007222317840164964
-0.00526914574043208   -0.03256577064696351   -0.0005275915115345489
-0.0009942005373281162   -0.03263186900159132   -0.0004329959960499131
-0.00493894953657457   -0.04016761843645959   -0.0008213685643471616
-0.00488686639317606   -0.04031285422238797   -0.000847700666602985
-0.005131155908822608   -0.03276725808915658   -0.0005946302639404218
-0.00864080274275482   -0.040233640165064866   -0.0009976172437106564
-0.004912729900448458   -0.040231421648495136   -0.0008374123288438375
-0.005131155908822608   -0.03276725808915658   -0.0005946302639404218
-0.009279863841181263   -0.032692539139004585   -0.0007318882329894982
-0.00864080274275482   -0.040233640165064866   -0.0009976172437106564
-0.009325321246656207   -0.03262918346395405   -0.0006943350645572901
-0.004912729900448458   -0.040231421648495136   -0.0008374123288438375
-0.00866872837539537   -0.040166816479243896   -0.0009550618007986957
-0.009325321246656207   -0.03262918346395405   -0.0006943350645572901
-0.00864080274275482   -0.040233640165064866   -0.0009976172437106564
-0.004912729900448458   -0.040231421648495136   -0.0008374123288438375
-0.009325321246656207   -0.03262918346395405   -0.0006943350645572901
-0.0051752840704567885   -0.03268906347929808   -0.0005773745572723994
-0.005131155908822608   -0.03276725808915658   -0.0005946302639404218
-0.004912729900448458   -0.040231421648495136   -0.0008374123288438375
-0.009325321246656207   -0.03262918346395405   -0.0006943350645572901
-0.005131155908822608   -0.03276725808915658   -0.0005946302639404218
-0.00864080274275482   -0.040233640165064866   -0.0009976172437106564
-0.004912729900448458   -0.040231421648495136   -0.0008374123288438375
-0.0051752840704567885   -0.03268906347929808   -0.0005773745572723994
-0.00866872837539537   -0.040166816479243896   -0.0009550618007986957
-0.00493894953657457   -0.04016761843645959   -0.0008213685643471616
-0.0051752840704567885   -0.03268906347929808   -0.0005773745572723994
-0.009325321246656207   -0.03262918346395405   -0.0006943350645572901
-0.00866872837539537   -0.040166816479243896   -0.0009550618007986957
-0.00936654659212984   -0.032576569629816865   -0.0006517310255419856
-0.00493894953657457   -0.04016761843645959   -0.0008213685643471616
-0.00869184984021405   -0.04011745408122428   -0.0009068537697838033
-0.00936654659212984   -0.032576569629816865   -0.0006517310255419856
-0.00866872837539537   -0.040166816479243896   -0.0009550618007986957
-0.00493894953657457   -0.04016761843645959   -0.0008213685643471616
-0.00936654659212984   -0.032576569629816865   -0.0006517310255419856
-0.005220305042684686   -0.03262168712553728   -0.0005549467588444561
-0.0051752840704567885   -0.03268906347929808   -0.0005773745572723994
-0.00493894953657457   -0.04016761843645959   -0.0008213685643471616
-0.00936654659212984   -0.032576569629816865   -0.0006517310255419856
-0.0051752840704567885   -0.03268906347929808   -0.0005773745572723994
-0.00866872837539537   -0.040166816479243896   -0.0009550618007986957
-0.00493894953657457   -0.04016761843645959   -0.0008213685643471616
-0.005220305042684686   -0.03262168712553728   -0.0005549467588444561
-0.00869184984021405   -0.04011745408122428   -0.0009068537697838033
-0.0049692655935130526   -0.040121743056515044   -0.0007998490626962411
-0.005220305042684686   -0.03262168712553728   -0.0005549467588444561
-0.00936654659212984   -0.032576569629816865   -0.0006517310255419856
-0.00869184984021405   -0.04011745408122428   -0.0009068537697838033
-0.009408164572057556   -0.032534784869501725   -0.0006042678963219928
-0.0049692655935130526   -0.040121743056515044   -0.0007998490626962411
-0.008715648538265537   -0.04008547907362266   -0.000853158873563451
-0.009408164572057556   -0.032534784869501725   -0.0006042678963219928
-0.00869184984021405   -0.04011745408122428   -0.0009068537697838033
-0.0049692655935130526   -0.040121743056515044   -0.0007998490626962411
-0.009408164572057556   -0.032534784869501725   -0.0006042678963219928
-0.00526914574043208   -0.03256577064696351   -0.0005275915115345489
-0.005220305042684686   -0.03262168712553728   -0.0005549467588444561
-0.0049692655935130526   -0.040121743056515044   -0.0007998490626962411
-0.009408164572057556   -0.032534784869501725   -0.0006042678963219928
-0.005220305042684686   -0.03262168712553728   -0.0005549467588444561
-0.00869184984021405   -0.04011745408122428   -0.0009068537697838033
-0.00864080274275482   -0.040233640165064866   -0.0009976172437106564
-0.009279863841181263   -0.032692539139004585   -0.0007318882329894982
-0.012484014564973814   -0.04009773256886562   -0.0011227295820671486
-0.00866872837539537   -0.040166816479243896   -0.0009550618007986957
-0.009279863841181263   -0.032692539139004585   -0.0007318882329894982
-0.013510796436868231   -0.032581449459621756   -0.0008438860267166747
-0.012484014564973814   -0.04009773256886562   -0.0011227295820671486
-0.013552978967041964   -0.03253305208238662   -0.0007858790633069012
-0.00866872837539537   -0.040166816479243896   -0.0009550618007986957
-0.012507080236344082   -0.040045169503649454   -0.00104746565911019
-0.013552978967041964   -0.03253305208238662   -0.0007858790633069012
-0.012484014564973814   -0.04009773256886562   -0.0011227295820671486
-0.00866872837539537   -0.040166816479243896   -0.0009550618007986957
-0.013552978967041964   -0.03253305208238662   -0.0007858790633069012
-0.009325321246656207   -0.03262918346395405   -0.0006943350645572901
-0.009279863841181263   -0.032692539139004585   -0.0007318882329894982
-0.00866872837539537   -0.040166816479243896   -0.0009550618007986957
-0.013552978967041964   -0.03253305208238662   -0.0007858790633069012
-0.009279863841181263   -0.032692539139004585   -0.0007318882329894982
-0.012484014564973814   -0.04009773256886562   -0.0011227295820671486
-0.00866872837539537   -0.040166816479243896   -0.0009550618007986957
-0.009325321246656207   -0.03262918346395405   -0.0006943350645572901
-0.012507080236344082   -0.040045169503649454   -0.00104746565911019
-0.00869184984021405   -0.04011745408122428   -0.0009068537697838033
-0.009325321246656207   -0.03262918346395405   -0.0006943350645572901
-0.013552978967041964   -0.03253305208238662   -0.0007858790633069012
-0.012507080236344082   -0.040045169503649454   -0.00104746565911019
-0.013578437820039665   -0.032494046748237915   -0.0007235009828521858
-0.00869184984021405   -0.04011745408122428   -0.0009068537697838033
-0.012509908400834917   -0.040009013605140836   -0.0009673309678366911
-0.013578437820039665   -0.032494046748237915   -0.0007235009828521858
-0.012507080236344082   -0.040045169503649454   -0.00104746565911019
-0.00869184984021405   -0.04011745408122428   -0.0009068537697838033
-0.013578437820039665   -0.032494046748237915   -0.0007235009828521858
-0.00936654659212984   -0.032576569629816865   -0.0006517310255419856
-0.009325321246656207   -0.03262918346395405   -0.0006943350645572901
-0.00869184984021405   -0.04011745408122428   -0.0009068537697838033
-0.013578437820039665   -0.032494046748237915   -0.0007235009828521858
-0.009325321246656207   -0.03262918346395405   -0.0006943350645572901
-0.012507080236344082   -0.040045169503649454   -0.00104746565911019
-0.00869184984021405   -0.04011745408122428   -0.0009068537697838033
-0.00936654659212984   -0.032576569629816865   -0.0006517310255419856
-0.012509908400834917   -0.040009013605140836   -0.0009673309678366911
-0.008715648538265537   -0.04008547907362266   -0.000853158873563451
-0.00936654659212984   -0.032576569629816865   -0.0006517310255419856
-0.013578437820039665   -0.032494046748237915   -0.0007235009828521858
-0.012509908400834917   -0.040009013605140836   -0.0009673309678366911
-0.013606449194554986   -0.03246681427210091   -0.0006558488690356473
-0.008715648538265537   -0.04008547907362266   -0.000853158873563451
-0.01251851126667858   -0.039991812787609694   -0.000881292823029535
-0.013606449194554986   -0.03246681427210091   -0.0006558488690356473
-0.012509908400834917   -0.040009013605140836   -0.0009673309678366911
-0.008715648538265537   -0.04008547907362266   -0.000853158873563451
-0.013606449194554986   -0.03246681427210091   -0.0006558488690356473
-0.009408164572057556   -0.032534784869501725   -0.0006042678963219928
-0.00936654659212984   -0.032576569629816865   -0.0006517310255419856
-0.008715648538265537   -0.04008547907362266   -0.000853158873563451
-0.013606449194554986   -0.03246681427210091   -0.0006558488690356473
-0.00936654659212984   -0.032576569629816865   -0.0006517310255419856
-0.012509908400834917   -0.040009013605140836   -0.0009673309678366911
-0.012484014564973814   -0.04009773256886562   -0.0011227295820671486
-0.013510796436868231   -0.032581449459621756   -0.0008438860267166747
-0.016675187348293433   -0.039919300149173526   -0.001229614166500983
-0.012507080236344082   -0.040045169503649454   -0.00104746565911019
-0.013510796436868231   -0.032581449459621756   -0.0008438860267166747
-0.018052105562889654   -0.032444629429752285   -0.0009328473391717801
-0.016675187348293433   -0.039919300149173526   -0.001229614166500983
-0.018020439867886984   -0.032403885597343994   -0.0008554740934609288
-0.012507080236344082   -0.040045169503649454   -0.00104746565911019
-0.01659449355801909   -0.039871283983100476   -0.0011197154516967784
-0.018020439867886984   -0.032403885597343994   -0.0008554740934609288
-0.016675187348293433   -0.039919300149173526   -0.001229614166500983
-0.012507080236344082   -0.040045169503649454   -0.00104746565911019
-0.018020439867886984   -0.032403885597343994   -0.0008554740934609288
-0.013552978967041964   -0.03253305208238662   -0.0007858790633069012
-0.013510796436868231   -0.032581449459621756   -0.0008438860267166747
-0.012507080236344082   -0.040045169503649454   -0.00104746565911019
-0.018020439867886984   -0.032403885597343994   -0.0008554740934609288
-0.013510796436868231   -0.032581449459621756   -0.0008438860267166747
-0.016675187348293433   -0.039919300149173526   -0.001229614166500983
-0.012507080236344082   -0.040045169503649454   -0.00104746565911019
-0.013552978967041964   -0.03253305208238662   -0.0007858790633069012
-0.01659449355801909   -0.039871283983100476   -0.0011197154516967784
-0.012509908400834917   -0.040009013605140836   -0.0009673309678366911
-0.013552978967041964   -0.03253305208238662   -0.0007858790633069012
-0.018020439867886984   -0.032403885597343994   -0.0008554740934609288
-0.01659449355801909   -0.039871283983100476   -0.0011197154516967784
-0.01799462886247356   -0.03237129291988402   -0.0007700797756064211
-0.012509908400834917   -0.040009013605140836   -0.0009673309678366911
-0.0165264911476898   -0.039840729231048935   -0.001001309485282049
-0.01799462886247356   -0.03237129291988402   -0.0007700797756064211
-0.01659449355801909   -0.039871283983100476   -0.0011197154516967784
-0.012509908400834917   -0.040009013605140836   -0.0009673309678366911
-0.01799462886247356   -0.03237129291988402   -0.0007700797756064211
-0.013578437820039665   -0.032494046748237915   -0.0007235009828521858
-0.013552978967041964   -0.03253305208238662   -0.0007858790633069012
-0.012509908400834917   -0.040009013605140836   -0.0009673309678366911
-0.01799462886247356   -0.03237129291988402   -0.0007700797756064211
-0.013552978967041964   -0.03253305208238662   -0.0007858790633069012
-0.01659449355801909   -0.039871283983100476   -0.0011197154516967784
-0.012509908400834917   -0.040009013605140836   -0.0009673309678366911
-0.013578437820039665   -0.032494046748237915   -0.0007235009828521858
-0.0165264911476898   -0.039840729231048935   -0.001001309485282049
-0.01251851126667858   -0.039991812787609694   -0.000881292823029535
-0.013578437820039665   -0.032494046748237915   -0.0007235009828521858
-0.01799462886247356   -0.03237129291988402   -0.0007700797756064211
-0.0165264911476898   -0.039840729231048935   -0.001001309485282049
-0.01793307340013226   -0.03236153143820669   -0.0006775786973510431
-0.01251851126667858   -0.039991812787609694   -0.000881292823029535
-0.016414462756588012   -0.03984235827117186   -0.0008754577497679005
-0.01793307340013226   -0.03236153143820669   -0.0006775786973510431
-0.0165264911476898   -0.039840729231048935   -0.001001309485282049
-0.01251851126667858   -0.039991812787609694   -0.000881292823029535
-0.01793307340013226   -0.03236153143820669   -0.0006775786973510431
-0.013606449194554986   -0.03246681427210091   -0.0006558488690356473
-0.013578437820039665   -0.032494046748237915   -0.0007235009828521858
-0.01251851126667858   -0.039991812787609694   -0.000881292823029535
-0.01793307340013226   -0.03236153143820669   -0.0006775786973510431
-0.013578437820039665   -0.032494046748237915   -0.0007235009828521858
-0.0165264911476898   -0.039840729231048935   -0.001001309485282049
0.003512993836732141   -0.03280783824351361   -0.0002342198810521891
0.0036359778957715245   -0.02480163236398942   -3.718573023638031e-05
-0.0009111053734118058   -0.03280719154260746   -0.0004317897669187148
0.003500738022069227   -0.032699256974820415   -0.00026573832244716024
0.0036359778957715245   -0.02480163236398942   -3.718573023638031e-05
-0.0010414203116084575   -0.024760751346713825   -0.0002146828641436177
-0.0009111053734118058   -0.03280719154260746   -0.0004317897669187148
-0.0010955433382606353   -0.024670540867426677   -0.00019868770157885595
0.003500738022069227   -0.032699256974820415   -0.00026573832244716024
-0.0009504630736133308   -0.032712885391446116   -0.0004348746157342563
-0.0010955433382606353   -0.024670540867426677   -0.00019868770157885595
-0.0009111053734118058   -0.03280719154260746   -0.0004317897669187148
0.003500738022069227   -0.032699256974820415   -0.00026573832244716024
-0.0010955433382606353   -0.024670540867426677   -0.00019868770157885595
0.003578823681737656   -0.02469810309771913   -3.425388076473927e-05
0.0036359778957715245   -0.02480163236398942   -3.718573023638031e-05
0.003500738022069227   -0.032699256974820415   -0.00026573832244716024
-0.0010955433382606353   -0.024670540867426677   -0.00019868770157885595
0.0036359778957715245   -0.02480163236398942   -3.718573023638031e-05
-0.0009111053734118058   -0.03280719154260746   -0.0004317897669187148
0.003500738022069227   -0.032699256974820415   -0.00026573832244716024
0.003578823681737656   -0.02469810309771913   -3.425388076473927e-05
-0.0009504630736133308   -0.032712885391446116   -0.0004348746157342563
0.0034693446779705535   -0.032612100323254144   -0.00028930114592448696
0.003578823681737656   -0.02469810309771913   -3.425388076473927e-05
-0.0010955433382606353   -0.024670540867426677   -0.00019868770157885595
-0.0009504630736133308   -0.032712885391446116   -0.0004348746157342563
-0.0011575285312431845   -0.024585508331978086   -0.00017818530230288105
0.0034693446779705535   -0.032612100323254144   -0.00028930114592448696
-0.0009942005373281162   -0.03263186900159132   -0.0004329959960499131
-0.0011575285312431845   -0.024585508331978086   -0.00017818530230288105
-0.0009504630736133308   -0.032712885391446116   -0.0004348746157342563
0.0034693446779705535   -0.032612100323254144   -0.00028930114592448696
-0.0011575285312431845   -0.024585508331978086   -0.00017818530230288105
0.0035084495218946805   -0.024605759559500645   -2.2116957822281487e-05
0.003578823681737656   -0.02469810309771913   -3.425388076473927e-05
0.0034693446779705535   -0.032612100323254144   -0.00028930114592448696
-0.0011575285312431845   -0.024585508331978086   -0.00017818530230288105
0.003578823681737656   -0.02469810309771913   -3.425388076473927e-05
-0.0009504630736133308   -0.032712885391446116   -0.0004348746157342563
0.0034693446779705535   -0.032612100323254144   -0.00028930114592448696
0.0035084495218946805   -0.024605759559500645   -2.2116957822281487e-05
-0.0009942005373281162   -0.03263186900159132   -0.0004329959960499131
0.003425440651173431   -0.03253206214212849   -0.0003054640120613447
0.0035084495218946805   -0.024605759559500645   -2.2116957822281487e-05
-0.0011575285312431845   -0.024585508331978086   -0.00017818530230288105
-0.0009942005373281162   -0.03263186900159132   -0.0004329959960499131
-0.0012271540965952835   -0.024504484341732906   -0.00015204668687854084
0.003425440651173431   -0.03253206214212849   -0.0003054640120613447
-0.0010485621297502544   -0.03256203116892505   -0.0004259582307383078
-0.0012271540965952835   -0.024504484341732906   -0.00015204668687854084
-0.0009942005373281162   -0.03263186900159132   -0.0004329959960499131
0.003425440651173431   -0.03253206214212849   -0.0003054640120613447
-0.0012271540965952835   -0.024504484341732906   -0.00015204668687854084
0.0034156253621860826   -0.02450924908829228   -1.1901219444335178e-06
0.0035084495218946805   -0.024605759559500645   -2.2116957822281487e-05
0.003425440651173431   -0.03253206214212849   -0.0003054640120613447
-0.0012271540965952835   -0.024504484341732906   -0.00015204668687854084
0.0035084495218946805   -0.024605759559500645   -2.2116957822281487e-05
-0.0009942005373281162   -0.03263186900159132   -0.0004329959960499131
-0.0009111053734118058   -0.03280719154260746   -0.0004317897669187148
-0.0010414203116084575   -0.024760751346713825   -0.0002146828641436177
-0.005131155908822608   -0.03276725808915658   -0.0005946302639404218
-0.0009504630736133308   -0.032712885391446116   -0.0004348746157342563
-0.0010414203116084575   -0.024760751346713825   -0.0002146828641436177
-0.005473417705071453   -0.024712840649914095   -0.00036466929986607097
-0.005131155908822608   -0.03276725808915658   -0.0005946302639404218
-0.005528697626104551   -0.02463749277802859   -0.0003399906862861029
-0.0009504630736133308   -0.032712885391446116   -0.0004348746157342563
-0.0051752840704567885   -0.03268906347929808   -0.0005773745572723994
-0.005528697626104551   -0.02463749277802859   -0.0003399906862861029
-0.005131155908822608   -0.03276725808915658   -0.0005946302639404218
-0.0009504630736133308   -0.032712885391446116   -0.0004348746157342563
-0.005528697626104551   -0.02463749277802859   -0.0003399906862861029
-0.0010955433382606353   -0.024670540867426677   -0.00019868770157885595
-0.0010414203116084575   -0.024760751346713825   -0.0002146828641436177
-0.0009504630736133308   -0.032712885391446116   -0.0004348746157342563
-0.005528697626104551   -0.02463749277802859   -0.0003399906862861029
-0.0010414203116084575   -0.024760751346713825   -0.0002146828641436177
-0.005131155908822608   -0.03276725808915658   -0.0005946302639404218
-0.0009504630736133308   -0.032712885391446116   -0.0004348746157342563
-0.0010955433382606353   -0.024670540867426677   -0.00019868770157885595
-0.0051752840704567885   -0.03268906347929808   -0.0005773745572723994
-0.0009942005373281162   -0.03263186900159132   -0.0004329959960499131
-0.0010955433382606353   -0.024670540867426677   -0.00019868770157885595
-0.005528697626104551   -0.02463749277802859   -0.0003399906862861029
-0.0051752840704567885   -0.03268906347929808   -0.0005773745572723994
-0.00558522336079218   -0.024566161661766273   -0.0003110133790053597
-0.0009942005373281162   -0.03263186900159132   -0.0004329959960499131
-0.005220305042684686   -0.03262168712553728   -0.0005549467588444561
-0.00558522336079218   -0.024566161661766273   -0.0003110133790053597
-0.0051752840704567885   -0.03268906347929808   -0.0005773745572723994
-0.0009942005373281162   -0.03263186900159132   -0.0004329959960499131
-0.00558522336079218   -0.024566161661766273   -0.0003110133790053597
-0.0011575285312431845   -0.024585508331978086   -0.00017818530230288105
-0.0010955433382606353   -0.024670540867426677   -0.00019868770157885595
-0.0009942005373281162   -0.03263186900159132   -0.0004329959960499131
-0.00558522336079218   -0.024566161661766273   -0.0003110133790053597
-0.0010955433382606353   -0.024670540867426677   -0.00019868770157885595
-0.0051752840704567885   -0.03268906347929808   -0.0005773745572723994
-0.0009942005373281162   -0.03263186900159132   -0.0004329959960499131
-0.0011575285312431845   -0.024585508331978086   -0.00017818530230288105
-0.005220305042684686   -0.03262168712553728   -0.0005549467588444561
-0.0010485621297502544   -0.03256203116892505   -0.0004259582307383078
-0.0011575285312431845   -0.024585508331978086   -0.00017818530230288105
-0.00558522336079218   -0.024566161661766273   -0.0003110133790053597
-0.005220305042684686   -0.03262168712553728   -0.0005549467588444561
-0.00564535580889692   -0.024499962284967168   -0.0002776935476462531
-0.0010485621297502544   -0.03256203116892505   -0.0004259582307383078
-0.00526914574043208   -0.03256577064696351   -0.0005275915115345489
-0.00564535580889692   -0.024499962284967168   -0.0002776935476462531
-0.005220305042684686   -0.03262168712553728   -0.0005549467588444561
-0.0010485621297502544   -0.03256203116892505   -0.0004259582307383078
-0.00564535580889692   -0.024499962284967168   -0.0002776935476462531
-0.0012271540965952835   -0.024504484341732906   -0.00015204668687854084
-0.0011575285312431845   -0.024585508331978086   -0.00017818530230288105
-0.0010485621297502544   -0.03256203116892505   -0.0004259582307383078
-0.00564535580889692   -0.024499962284967168   -0.0002776935476462531
-0.0011575285312431845   -0.024585508331978086   -0.00017818530230288105
-0.005220305042684686   -0.03262168712553728   -0.0005549467588444561
-0.005131155908822608   -0.03276725808915658   -0.0005946302639404218
-0.005473417705071453   -0.024712840649914095   -0.00036466929986607097
-0.009279863841181263   -0.032692539139004585   -0.0007318882329894982
-0.0051752840704567885   -0.03268906347929808   -0.0005773745572723994
-0.005473417705071453   -0.024712840649914095   -0.00036466929986607097
-0.009833177191775693   -0.02465526627574711   -0.0004919088342582699
-0.009279863841181263   -0.032692539139004585   -0.0007318882329894982
-0.009888083685972377   -0.02459367716251155   -0.0004585633468040856
-0.0051752840704567885   -0.03268906347929808   -0.0005773745572723994
-0.009325321246656207   -0.03262918346395405   -0.0006943350645572901
-0.009888083685972377   -0.02459367716251155   -0.0004585633468040856
-0.009279863841181263   -0.032692539139004585   -0.0007318882329894982
-0.0051752840704567885   -0.03268906347929808   -0.0005773745572723994
-0.009888083685972377   -0.02459367716251155   -0.0004585633468040856
-0.005528697626104551   -0.02463749277802859   -0.0003399906862861029
-0.005473417705071453   -0.024712840649914095   -0.00036466929986607097
-0.0051752840704567885   -0.03268906347929808   -0.0005773745572723994
-0.009888083685972377   -0.02459367716251155   -0.0004585633468040856
-0.005473417705071453   -0.024712840649914095   -0.00036466929986607097
-0.009279863841181263   -0.032692539139004585   -0.0007318882329894982
-0.0051752840704567885   -0.03268906347929808   -0.0005773745572723994
-0.005528697626104551   -0.02463749277802859   -0.0003399906862861029
-0.009325321246656207   -0.03262918346395405   -0.0006943350645572901
-0.005220305042684686   -0.03262168712553728   -0.0005549467588444561
-0.005528697626104551   -0.02463749277802859   -0.0003399906862861029
-0.009888083685972377   -0.02459367716251155   -0.0004585633468040856
-0.009325321246656207   -0.03262918346395405   -0.0006943350645572901
-0.00993943016348152   -0.024536328224942273   -0.0004210659834584217
-0.005220305042684686   -0.03262168712553728   -0.0005549467588444561
-0.00936654659212984   -0.032576569629816865   -0.0006517310255419856
-0.00993943016348152   -0.024536328224942273   -0.0004210659834584217
-0.009325321246656207   -0.03262918346395405   -0.0006943350645572901
-0.005220305042684686   -0.03262168712553728   -0.0005549467588444561
-0.00993943016348152   -0.024536328224942273   -0.0004210659834584217
-0.00558522336079218   -0.024566161661766273   -0.0003110133790053597
-0.005528697626104551   -0.02463749277802859   -0.0003399906862861029
-0.005220305042684686   -0.03262168712553728   -0.0005549467588444561
-0.00993943016348152   -0.024536328224942273   -0.0004210659834584217
-0.005528697626104551   -0.02463749277802859   -0.0003399906862861029
-0.009325321246656207   -0.03262918346395405   -0.0006943350645572901
-0.005220305042684686   -0.03262168712553728   -0.0005549467588444561
-0.00558522336079218   -0.024566161661766273   -0.0003110133790053597
-0.00936654659212984   -0.032576569629816865   -0.0006517310255419856
-0.00526914574043208   -0.03256577064696351   -0.0005275915115345489
-0.00558522336079218   -0.024566161661766273   -0.0003110133790053597
-0.00993943016348152   -0.024536328224942273   -0.0004210659834584217
-0.00936654659212984   -0.032576569629816865   -0.0006517310255419856
-0.00999096055538307   -0.024483376772848987   -0.0003796216094276223
-0.00526914574043208   -0.03256577064696351   -0.0005275915115345489
-0.009408164572057556   -0.032534784869501725   -0.0006042678963219928
-0.00999096055538307   -0.024483376772848987   -0.0003796216094276223
-0.00936654659212984   -0.032576569629816865   -0.0006517310255419856
-0.00526914574043208   -0.03256577064696351   -0.0005275915115345489
-0.00999096055538307   -0.024483376772848987   -0.0003796216094276223
-0.00564535580889692   -0.024499962284967168   -0.0002776935476462531
-0.00558522336079218   -0.024566161661766273   -0.0003110133790053597
-0.00526914574043208   -0.03256577064696351   -0.0005275915115345489
-0.00999096055538307   -0.024483376772848987   -0.0003796216094276223
-0.00558522336079218   -0.024566161661766273   -0.0003110133790053597
-0.00936654659212984   -0.032576569629816865   -0.0006517310255419856
-0.009279863841181263   -0.032692539139004585   -0.0007318882329894982
-0.009833177191775693   -0.02465526627574711   -0.0004919088342582699
-0.013510796436868231   -0.032581449459621756   -0.0008438860267166747
-0.009325321246656207   -0.03262918346395405   -0.0006943350645572901
-0.009833177191775693   -0.02465526627574711   -0.0004919088342582699
-0.014271766788812089   -0.024577353521658858   -0.000595311981586497
-0.013510796436868231   -0.032581449459621756   -0.0008438860267166747
-0.014324335465292257   -0.02453023803296327   -0.000553403232999626
-0.009325321246656207   -0.03262918346395405   -0.0006943350645572901
-0.013552978967041964   -0.03253305208238662   -0.0007858790633069012
-0.014324335465292257   -0.02453023803296327   -0.000553403232999626
-0.013510796436868231   -0.032581449459621756   -0.0008438860267166747
-0.009325321246656207   -0.03262918346395405   -0.0006943350645572901
-0.014324335465292257   -0.02453023803296327   -0.000553403232999626
-0.009888083685972377   -0.02459367716251155   -0.0004585633468040856
-0.009833177191775693   -0.02465526627574711   -0.0004919088342582699
-0.009325321246656207   -0.03262918346395405   -0.0006943350645572901
-0.014324335465292257   -0.02453023803296327   -0.000553403232999626
-0.009833177191775693   -0.02465526627574711   -0.0004919088342582699
-0.013510796436868231   -0.032581449459621756   -0.0008438860267166747
-0.009325321246656207   -0.03262918346395405   -0.0006943350645572901
-0.009888083685972377   -0.02459367716251155   -0.0004585633468040856
-0.013552978967041964   -0.03253305208238662   -0.0007858790633069012
-0.00936654659212984   -0.032576569629816865   -0.0006517310255419856
-0.009888083685972377   -0.02459367716251155   -0.0004585633468040856
-0.014324335465292257   -0.02453023803296327   -0.000553403232999626
-0.013552978967041964   -0.03253305208238662   -0.0007858790633069012
-0.014364124931813573   -0.024485772218477357   -0.0005080241195529003
-0.00936654659212984   -0.032576569629816865   -0.0006517310255419856
-0.013578437820039665   -0.032494046748237915   -0.0007235009828521858
-0.014364124931813573   -0.024485772218477357   -0.0005080241195529003
-0.013552978967041964   -0.03253305208238662   -0.0007858790633069012
-0.00936654659212984   -0.032576569629816865   -0.0006517310255419856
-0.014364124931813573   -0.024485772218477357   -0.0005080241195529003
-0.00993943016348152   -0.024536328224942273   -0.0004210659834584217
-0.009888083685972377   -0.02459367716251155   -0.0004585633468040856
-0.00936654659212984   -0.032576569629816865   -0.0006517310255419856
-0.014364124931813573   -0.024485772218477357   -0.0005080241195529003
-0.009888083685972377   -0.02459367716251155   -0.0004585633468040856
-0.013552978967041964   -0.03253305208238662   -0.0007858790633069012
-0.00936654659212984   -0.032576569629816865   -0.0006517310255419856
-0.00993943016348152   -0.024536328224942273   -0.0004210659834584217
-0.013578437820039665   -0.032494046748237915   -0.0007235009828521858
-0.009408164572057556   -0.032534784869501725   -0.0006042678963219928
-0.00993943016348152   -0.024536328224942273   -0.0004210659834584217
-0.014364124931813573   -0.024485772218477357   -0.0005080241195529003
-0.013578437820039665   -0.032494046748237915   -0.0007235009828521858
-0.014403619511085385   -0.024445952236956895   -0.0004582724517248498
-0.009408164572057556   -0.032534784869501725   -0.0006042678963219928
-0.013606449194554986   -0.03246681427210091   -0.0006558488690356473
-0.014403619511085385   -0.024445952236956895   -0.0004582724517248498
-0.013578437820039665   -0.032494046748237915   -0.0007235009828521858
-0.009408164572057556   -0.032534784869501725   -0.0006042678963219928
-0.014403619511085385   -0.024445952236956895   -0.0004582724517248498
-0.00999096055538307   -0.024483376772848987   -0.0003796216094276223
-0.00993943016348152   -0.024536328224942273   -0.0004210659834584217
-0.009408164572057556   -0.032534784869501725   -0.0006042678963219928
-0.014403619511085385   -0.024445952236956895   -0.0004582724517248498
-0.00993943016348152   -0.024536328224942273   -0.0004210659834584217
-0.013578437820039665   -0.032494046748237915   -0.0007235009828521858
-0.013510796436868231   -0.032581449459621756   -0.0008438860267166747
-0.014271766788812089   -0.024577353521658858   -0.000595311981586497
-0.018052105562889654   -0.032444629429752285   -0.0009328473391717801
-0.013552978967041964   -0.03253305208238662   -0.0007858790633069012
-0.014271766788812089   -0.024577353521658858   -0.000595311981586497
-0.018976673638258373   -0.024485166866954705   -0.0006718417516295745
-0.018052105562889654   -0.032444629429752285   -0.0009328473391717801
-0.018984344709775013   -0.024447680506242464   -0.0006254259254088198
-0.013552978967041964   -0.03253305208238662   -0.0007858790633069012
-0.018020439867886984   -0.032403885597343994   -0.0008554740934609288
-0.018984344709775013   -0.024447680506242464   -0.0006254259254088198
-0.018052105562889654   -0.032444629429752285   -0.0009328473391717801
-0.013552978967041964   -0.03253305208238662   -0.0007858790633069012
-0.018984344709775013   -0.024447680506242464   -0.0006254259254088198
-0.014324335465292257   -0.02453023803296327   -0.000553403232999626
-0.014271766788812089   -0.024577353521658858   -0.000595311981586497
-0.013552978967041964   -0.03253305208238662   -0.0007858790633069012
-0.018984344709775013   -0.024447680506242464   -0.0006254259254088198
-0.014271766788812089   -0.024577353521658858   -0.000595311981586497
-0.018052105562889654   -0.032444629429752285   -0.0009328473391717801
-0.013552978967041964   -0.03253305208238662   -0.0007858790633069012
-0.014324335465292257   -0.02453023803296327   -0.000553403232999626
-0.018020439867886984   -0.032403885597343994   -0.0008554740934609288
-0.013578437820039665   -0.032494046748237915   -0.0007235009828521858
-0.014324335465292257   -0.02453023803296327   -0.000553403232999626
-0.018984344709775013   -0.024447680506242464   -0.0006254259254088198
-0.018020439867886984   -0.032403885597343994   -0.0008554740934609288
-0.018992288967381345   -0.024409833343029527   -0.0005720268618104586
-0.013578437820039665   -0.032494046748237915   -0.0007235009828521858
-0.01799462886247356   -0.03237129291988402   -0.0007700797756064211
-0.018992288967381345   -0.024409833343029527   -0.0005720268618104586
-0.018020439867886984   -0.032403885597343994   -0.0008554740934609288
-0.013578437820039665   -0.032494046748237915   -0.0007235009828521858
-0.018992288967381345   -0.024409833343029527   -0.0005720268618104586
-0.014364124931813573   -0.024485772218477357   -0.0005080241195529003
-0.014324335465292257   -0.02453023803296327   -0.000553403232999626
-0.013578437820039665   -0.032494046748237915   -0.0007235009828521858
-0.018992288967381345   -0.024409833343029527   -0.0005720268618104586
-0.014324335465292257   -0.02453023803296327   -0.000553403232999626
-0.018020439867886984   -0.032403885597343994   -0.0008554740934609288
-0.013578437820039665   -0.032494046748237915   -0.0007235009828521858
-0.014364124931813573   -0.024485772218477357   -0.0005080241195529003
-0.01799462886247356   -0.03237129291988402   -0.0007700797756064211
-0.013606449194554986   -0.03246681427210091   -0.0006558488690356473
-0.014364124931813573   -0.024485772218477357   -0.0005080241195529003
-0.018992288967381345   -0.024409833343029527   -0.0005720268618104586
-0.01799462886247356   -0.03237129291988402   -0.0007700797756064211
-0.018973677661458334   -0.024385239475437578   -0.0005124706890647346
-0.013606449194554986   -0.03246681427210091   -0.0006558488690356473
-0.01793307340013226   -0.03236153143820669   -0.0006775786973510431
-0.018973677661458334   -0.024385239475437578   -0.0005124706890647346
-0.01799462886247356   -0.03237129291988402   -0.0007700797756064211
-0.013606449194554986   -0.03246681427210091   -0.0006558488690356473
-0.018973677661458334   -0.024385239475437578   -0.0005124706890647346
-0.014403619511085385   -0.024445952236956895   -0.0004582724517248498
-0.014364124931813573   -0.024485772218477357   -0.0005080241195529003
-0.013606449194554986   -0.03246681427210091   -0.0006558488690356473
-0.018973677661458334   -0.024385239475437578   -0.0005124706890647346
-0.014364124931813573   -0.024485772218477357   -0.0005080241195529003
-0.01799462886247356   -0.03237129291988402   -0.0007700797756064211
0.0036359778957715245   -0.02480163236398942   -3.718573023638031e-05
0.0032623455904979815   -0.016553530225396098   9.885067941060669e-05
-0.0010414203116084575   -0.024760751346713825   -0.0002146828641436177
0.003578823681737656   -0.02469810309771913   -3.425388076473927e-05
0.0032623455904979815   -0.016553530225396098   9.885067941060669e-05
-0.0014521445196404804   -0.016476083098069968   -4.19054401673597e-05
-0.0010414203116084575   -0.024760751346713825   -0.0002146828641436177
-0.0015169374271635679   -0.016394492025508422   -8.314682011002134e-06
0.003578823681737656   -0.02469810309771913   -3.425388076473927e-05
-0.0010955433382606353   -0.024670540867426677   -0.00019868770157885595
-0.0015169374271635679   -0.016394492025508422   -8.314682011002134e-06
-0.0010414203116084575   -0.024760751346713825   -0.0002146828641436177
0.003578823681737656   -0.02469810309771913   -3.425388076473927e-05
-0.0015169374271635679   -0.016394492025508422   -8.314682011002134e-06
0.0031604982835266716   -0.016454952682787814   0.00014048422720585788
0.0032623455904979815   -0.016553530225396098   9.885067941060669e-05
0.003578823681737656   -0.02469810309771913   -3.425388076473927e-05
-0.0015169374271635679   -0.016394492025508422   -8.314682011002134e-06
0.0032623455904979815   -0.016553530225396098   9.885067941060669e-05
-0.0010414203116084575   -0.024760751346713825   -0.0002146828641436177
0.003578823681737656   -0.02469810309771913   -3.425388076473927e-05
0.0031604982835266716   -0.016454952682787814   0.00014048422720585788
-0.0010955433382606353   -0.024670540867426677   -0.00019868770157885595
0.0035084495218946805   -0.024605759559500645   -2.2116957822281487e-05
0.0031604982835266716   -0.016454952682787814   0.00014048422720585788
-0.0015169374271635679   -0.016394492025508422   -8.314682011002134e-06
-0.0010955433382606353   -0.024670540867426677   -0.00019868770157885595
-0.0015927669614853083   -0.01630842379624494   3.127866822030138e-05
0.0035084495218946805   -0.024605759559500645   -2.2116957822281487e-05
-0.0011575285312431845   -0.024585508331978086   -0.00017818530230288105
-0.0015927669614853083   -0.01630842379624494   3.127866822030138e-05
-0.0010955433382606353   -0.024670540867426677   -0.00019868770157885595
0.0035084495218946805   -0.024605759559500645   -2.2116957822281487e-05
-0.0015927669614853083   -0.01630842379624494   3.127866822030138e-05
0.0030466312818639555   -0.016357160045284237   0.00020044237682000454
0.0031604982835266716   -0.016454952682787814   0.00014048422720585788
0.0035084495218946805   -0.024605759559500645   -2.2116957822281487e-05
-0.0015927669614853083   -0.01630842379624494   3.127866822030138e-05
0.0031604982835266716   -0.016454952682787814   0.00014048422720585788
-0.0010955433382606353   -0.024670540867426677   -0.00019868770157885595
0.0035084495218946805   -0.024605759559500645   -2.2116957822281487e-05
0.0030466312818639555   -0.016357160045284237   0.00020044237682000454
-0.0011575285312431845   -0.024585508331978086   -0.00017818530230288105
0.0034156253621860826   -0.02450924908829228   -1.1901219444335178e-06
0.0030466312818639555   -0.016357160045284237   0.00020044237682000454
-0.0015927669614853083   -0.01630842379624494   3.127866822030138e-05
-0.0011575285312431845   -0.024585508331978086   -0.00017818530230288105
-0.0016712427139959686   -0.01621707750695107   7.679978328239036e-05
0.0034156253621860826   -0.02450924908829228   -1.1901219444335178e-06
-0.0012271540965952835   -0.024504484341732906   -0.00015204668687854084
-0.0016712427139959686   -0.01621707750695107   7.679978328239036e-05
-0.0011575285312431845   -0.024585508331978086   -0.00017818530230288105
0.0034156253621860826   -0.02450924908829228   -1.1901219444335178e-06
-0.0016712427139959686   -0.01621707750695107   7.679978328239036e-05
0.0029074836208407956   -0.016236986629435988   0.00026644594332256457
0.0030466312818639555   -0.016357160045284237   0.00020044237682000454
0.0034156253621860826   -0.02450924908829228   -1.1901219444335178e-06
-0.0016712427139959686   -0.01621707750695107   7.679978328239036e-05
0.0030466312818639555   -0.016357160045284237   0.00020044237682000454
-0.0011575285312431845   -0.024585508331978086   -0.00017818530230288105
-0.0010414203116084575   -0.024760751346713825   -0.0002146828641436177
-0.0014521445196404804   -0.016476083098069968   -4.19054401673597e-05
-0.005473417705071453   -0.024712840649914095   -0.00036466929986607097
-0.0010955433382606353   -0.024670540867426677   -0.00019868770157885595
-0.0014521445196404804   -0.016476083098069968   -4.19054401673597e-05
-0.005891042452562986   -0.01645602486827112   -0.00017744519611245048
-0.005473417705071453   -0.024712840649914095   -0.00036466929986607097
-0.00594967798664886   -0.016384914200585972   -0.0001461065122154821
-0.0010955433382606353   -0.024670540867426677   -0.00019868770157885595
-0.005528697626104551   -0.02463749277802859   -0.0003399906862861029
-0.00594967798664886   -0.016384914200585972   -0.0001461065122154821
-0.005473417705071453   -0.024712840649914095   -0.00036466929986607097
-0.0010955433382606353   -0.024670540867426677   -0.00019868770157885595
-0.00594967798664886   -0.016384914200585972   -0.0001461065122154821
-0.0015169374271635679   -0.016394492025508422   -8.314682011002134e-06
-0.0014521445196404804   -0.016476083098069968   -4.19054401673597e-05
-0.0010955433382606353   -0.024670540867426677   -0.00019868770157885595
-0.00594967798664886   -0.016384914200585972   -0.0001461065122154821
-0.0014521445196404804   -0.016476083098069968   -4.19054401673597e-05
-0.005473417705071453   -0.024712840649914095   -0.00036466929986607097
-0.0010955433382606353   -0.024670540867426677   -0.00019868770157885595
-0.0015169374271635679   -0.016394492025508422   -8.314682011002134e-06
-0.005528697626104551   -0.02463749277802859   -0.0003399906862861029
-0.0011575285312431845   -0.024585508331978086   -0.00017818530230288105
-0.0015169374271635679   -0.016394492025508422   -8.314682011002134e-06
-0.00594967798664886   -0.016384914200585972   -0.0001461065122154821
-0.005528697626104551   -0.02463749277802859   -0.0003399906862861029
-0.006010350280798079   -0.016310962855337268   -0.00011164257871079947
-0.0011575285312431845   -0.024585508331978086   -0.00017818530230288105
-0.00558522336079218   -0.024566161661766273   -0.0003110133790053597
-0.006010350280798079   -0.016310962855337268   -0.00011164257871079947
-0.005528697626104551   -0.02463749277802859   -0.0003399906862861029
-0.0011575285312431845   -0.024585508331978086   -0.00017818530230288105
-0.006010350280798079   -0.016310962855337268   -0.00011164257871079947
-0.0015927669614853083   -0.01630842379624494   3.127866822030138e-05
-0.0015169374271635679   -0.016394492025508422   -8.314682011002134e-06
-0.0011575285312431845   -0.024585508331978086   -0.00017818530230288105
-0.006010350280798079   -0.016310962855337268   -0.00011164257871079947
-0.0015169374271635679   -0.016394492025508422   -8.314682011002134e-06
-0.005528697626104551   -0.02463749277802859   -0.0003399906862861029
-0.0011575285312431845   -0.024585508331978086   -0.00017818530230288105
-0.0015927669614853083   -0.01630842379624494   3.127866822030138e-05
-0.00558522336079218   -0.024566161661766273   -0.0003110133790053597
-0.0012271540965952835   -0.024504484341732906   -0.00015204668687854084
-0.0015927669614853083   -0.01630842379624494   3.127866822030138e-05
-0.006010350280798079   -0.016310962855337268   -0.00011164257871079947
-0.00558522336079218   -0.024566161661766273   -0.0003110133790053597
-0.0060735318088660315   -0.016235517086353932   -7.343249643247603e-05
-0.0012271540965952835   -0.024504484341732906   -0.00015204668687854084
-0.00564535580889692   -0.024499962284967168   -0.0002776935476462531
-0.0060735318088660315   -0.016235517086353932   -7.343249643247603e-05
-0.00558522336079218   -0.024566161661766273   -0.0003110133790053597
-0.0012271540965952835   -0.024504484341732906   -0.00015204668687854084
-0.0060735318088660315   -0.016235517086353932   -7.343249643247603e-05
-0.0016712427139959686   -0.01621707750695107   7.679978328239036e-05
-0.0015927669614853083   -0.01630842379624494   3.127866822030138e-05
-0.0012271540965952835   -0.024504484341732906   -0.00015204668687854084
-0.0060735318088660315   -0.016235517086353932   -7.343249643247603e-05
-0.0015927669614853083   -0.01630842379624494   3.127866822030138e-05
-0.00558522336079218   -0.024566161661766273   -0.0003110133790053597
-0.005473417705071453   -0.024712840649914095   -0.00036466929986607097
-0.005891042452562986   -0.01645602486827112   -0.00017744519611245048
-0.009833177191775693   -0.02465526627574711   -0.0004919088342582699
-0.005528697626104551   -0.02463749277802859   -0.0003399906862861029
-0.005891042452562986   -0.01645602486827112   -0.00017744519611245048
-0.010283972809437398   -0.016450427345340652   -0.0002998760555700354
-0.009833177191775693   -0.02465526627574711   -0.0004919088342582699
-0.010340061446202127   -0.016388147315097763   -0.000269906899086382
-0.005528697626104551   -0.02463749277802859   -0.0003399906862861029
-0.009888083685972377   -0.02459367716251155   -0.0004585633468040856
-0.010340061446202127   -0.016388147315097763   -0.000269906899086382
-0.009833177191775693   -0.02465526627574711   -0.0004919088342582699
-0.005528697626104551   -0.02463749277802859   -0.0003399906862861029
-0.010340061446202127   -0.016388147315097763   -0.000269906899086382
-0.00594967798664886   -0.016384914200585972   -0.0001461065122154821
-0.005891042452562986   -0.01645602486827112   -0.00017744519611245048
-0.005528697626104551   -0.02463749277802859   -0.0003399906862861029
-0.010340061446202127   -0.016388147315097763   -0.000269906899086382
-0.005891042452562986   -0.01645602486827112   -0.00017744519611245048
-0.009833177191775693   -0.02465526627574711   -0.0004919088342582699
-0.005528697626104551   -0.02463749277802859   -0.0003399906862861029
-0.00594967798664886   -0.016384914200585972   -0.0001461065122154821
-0.009888083685972377   -0.02459367716251155   -0.0004585633468040856
-0.00558522336079218   -0.024566161661766273   -0.0003110133790053597
-0.00594967798664886   -0.016384914200585972   -0.0001461065122154821
-0.010340061446202127   -0.016388147315097763   -0.000269906899086382
-0.009888083685972377   -0.02459367716251155   -0.0004585633468040856
-0.010393493770506003   -0.016324768704197367   -0.00023720225335547616
-0.00558522336079218   -0.024566161661766273   -0.0003110133790053597
-0.00993943016348152   -0.024536328224942273   -0.0004210659834584217
-0.010393493770506003   -0.016324768704197367   -0.00023720225335547616
-0.009888083685972377   -0.02459367716251155   -0.0004585633468040856
-0.00558522336079218   -0.024566161661766273   -0.0003110133790053597
-0.010393493770506003   -0.016324768704197367   -0.00023720225335547616
-0.006010350280798079   -0.016310962855337268   -0.00011164257871079947
-0.00594967798664886   -0.016384914200585972   -0.0001461065122154821
-0.00558522336079218   -0.024566161661766273   -0.0003110133790053597
-0.010393493770506003   -0.016324768704197367   -0.00023720225335547616
-0.00594967798664886   -0.016384914200585972   -0.0001461065122154821
-0.009888083685972377   -0.02459367716251155   -0.0004585633468040856
-0.00558522336079218   -0.024566161661766273   -0.0003110133790053597
-0.006010350280798079   -0.016310962855337268   -0.00011164257871079947
-0.00993943016348152   -0.024536328224942273   -0.0004210659834584217
-0.00564535580889692   -0.024499962284967168   -0.0002776935476462531
-0.006010350280798079   -0.016310962855337268   -0.00011164257871079947
-0.010393493770506003   -0.016324768704197367   -0.00023720225335547616
-0.00993943016348152   -0.024536328224942273   -0.0004210659834584217
-0.010446390402182305   -0.016259925662713785   -0.00020191468055483425
-0.00564535580889692   -0.024499962284967168   -0.0002776935476462531
-0.00999096055538307   -0.024483376772848987   -0.0003796216094276223
-0.010446390402182305   -0.016259925662713785   -0.00020191468055483425
-0.00993943016348152   -0.024536328224942273   -0.0004210659834584217
-0.00564535580889692   -0.024499962284967168   -0.0002776935476462531
-0.010446390402182305   -0.016259925662713785   -0.00020191468055483425
-0.0060735318088660315   -0.016235517086353932   -7.343249643247603e-05
-0.006010350280798079   -0.016310962855337268   -0.00011164257871079947
-0.00564535580889692   -0.024499962284967168   -0.0002776935476462531
-0.010446390402182305   -0.016259925662713785   -0.00020191468055483425
-0.006010350280798079   -0.016310962855337268   -0.00011164257871079947
-0.00993943016348152   -0.024536328224942273   -0.0004210659834584217
-0.009833177191775693   -0.02465526627574711   -0.0004919088342582699
-0.010283972809437398   -0.016450427345340652   -0.0002998760555700354
-0.014271766788812089   -0.024577353521658858   -0.000595311981586497
-0.009888083685972377   -0.02459367716251155   -0.0004585633468040856
-0.010283972809437398   -0.016450427345340652   -0.0002998760555700354
-0.014770029646897293   -0.016424804326269513   -0.00040254889719634805
-0.014271766788812089   -0.024577353521658858   -0.000595311981586497
-0.014823498973583172   -0.016374166029719403   -0.000374109713625132
-0.009888083685972377   -0.02459367716251155   -0.0004585633468040856
-0.014324335465292257   -0.02453023803296327   -0.000553403232999626
-0.014823498973583172   -0.016374166029719403   -0.000374109713625132
-0.014271766788812089   -0.024577353521658858   -0.000595311981586497
-0.009888083685972377   -0.02459367716251155   -0.0004585633468040856
-0.014823498973583172   -0.016374166029719403   -0.000374109713625132
-0.010340061446202127   -0.016388147315097763   -0.000269906899086382
-0.010283972809437398   -0.016450427345340652   -0.0002998760555700354
-0.009888083685972377   -0.02459367716251155   -0.0004585633468040856
-0.014823498973583172   -0.016374166029719403   -0.000374109713625132
-0.010283972809437398   -0.016450427345340652   -0.0002998760555700354
-0.014271766788812089   -0.024577353521658858   -0.000595311981586497
-0.009888083685972377   -0.02459367716251155   -0.0004585633468040856
-0.010340061446202127   -0.016388147315097763   -0.000269906899086382
-0.014324335465292257   -0.02453023803296327   -0.000553403232999626
-0.00993943016348152   -0.024536328224942273   -0.0004210659834584217
-0.010340061446202127   -0.016388147315097763   -0.000269906899086382
-0.014823498973583172   -0.016374166029719403   -0.000374109713625132
-0.014324335465292257   -0.02453023803296327   -0.000553403232999626
-0.014868767869002675   -0.016320760123256794   -0.0003437202037198246
-0.00993943016348152   -0.024536328224942273   -0.0004210659834584217
-0.014364124931813573   -0.024485772218477357   -0.0005080241195529003
-0.014868767869002675   -0.016320760123256794   -0.0003437202037198246
-0.014324335465292257   -0.02453023803296327   -0.000553403232999626
-0.00993943016348152   -0.024536328224942273   -0.0004210659834584217
-0.014868767869002675   -0.016320760123256794   -0.0003437202037198246
-0.010393493770506003   -0.016324768704197367   -0.00023720225335547616
-0.010340061446202127   -0.016388147315097763   -0.000269906899086382
-0.00993943016348152   -0.024536328224942273   -0.0004210659834584217
-0.014868767869002675   -0.016320760123256794   -0.0003437202037198246
-0.010340061446202127   -0.016388147315097763   -0.000269906899086382
-0.014324335465292257   -0.02453023803296327   -0.000553403232999626
-0.00993943016348152   -0.024536328224942273   -0.0004210659834584217
-0.010393493770506003   -0.016324768704197367   -0.00023720225335547616
-0.014364124931813573   -0.024485772218477357   -0.0005080241195529003
-0.00999096055538307   -0.024483376772848987   -0.0003796216094276223
-0.010393493770506003   -0.016324768704197367   -0.00023720225335547616
-0.014868767869002675   -0.016320760123256794   -0.0003437202037198246
-0.014364124931813573   -0.024485772218477357   -0.0005080241195529003
-0.014911551578469136   -0.016265972899836157   -0.00031053831944603024
-0.00999096055538307   -0.024483376772848987   -0.0003796216094276223
-0.014403619511085385   -0.024445952236956895   -0.0004582724517248498
-0.014911551578469136   -0.016265972899836157   -0.00031053831944603024
-0.014364124931813573   -0.024485772218477357   -0.0005080241195529003
-0.00999096055538307   -0.024483376772848987   -0.0003796216094276223
-0.014911551578469136   -0.016265972899836157   -0.00031053831944603024
-0.010446390402182305   -0.016259925662713785   -0.00020191468055483425
-0.010393493770506003   -0.016324768704197367   -0.00023720225335547616
-0.00999096055538307   -0.024483376772848987   -0.0003796216094276223
-0.014911551578469136   -0.016265972899836157   -0.00031053831944603024
-0.010393493770506003   -0.016324768704197367   -0.00023720225335547616
-0.014364124931813573   -0.024485772218477357   -0.0005080241195529003
-0.014271766788812089   -0.024577353521658858   -0.000595311981586497
-0.014770029646897293   -0.016424804326269513   -0.00040254889719634805
-0.018976673638258373   -0.024485166866954705   -0.0006718417516295745
-0.014324335465292257   -0.02453023803296327   -0.000553403232999626
-0.014770029646897293   -0.016424804326269513   -0.00040254889719634805
-0.019469944862409043   -0.016382488818423097   -0.00047824282093194534
-0.018976673638258373   -0.024485166866954705   -0.0006718417516295745
-0.019502986792365836   -0.016340100008292908   -0.0004567976947706854
-0.014324335465292257   -0.02453023803296327   -0.000553403232999626
-0.018984344709775013   -0.024447680506242464   -0.0006254259254088198
-0.019502986792365836   -0.016340100008292908   -0.0004567976947706854
-0.018976673638258373   -0.024485166866954705   -0.0006718417516295745
-0.014324335465292257   -0.02453023803296327   -0.000553403232999626
-0.019502986792365836   -0.016340100008292908   -0.0004567976947706854
-0.014823498973583172   -0.016374166029719403   -0.000374109713625132
-0.014770029646897293   -0.016424804326269513   -0.00040254889719634805
-0.014324335465292257   -0.02453023803296327   -0.000553403232999626
-0.019502986792365836   -0.016340100008292908   -0.0004567976947706854
-0.014770029646897293   -0.016424804326269513   -0.00040254889719634805
-0.018976673638258373   -0.024485166866954705   -0.0006718417516295745
-0.014324335465292257   -0.02453023803296327   -0.000553403232999626
-0.014823498973583172   -0.016374166029719403   -0.000374109713625132
-0.018984344709775013   -0.024447680506242464   -0.0006254259254088198
-0.014364124931813573   -0.024485772218477357   -0.0005080241195529003
-0.014823498973583172   -0.016374166029719403   -0.000374109713625132
-0.019502986792365836   -0.016340100008292908   -0.0004567976947706854
-0.018984344709775013   -0.024447680506242464   -0.0006254259254088198
-0.01953319995729461   -0.01629208556118448   -0.00043058394635063014
-0.014364124931813573   -0.024485772218477357   -0.0005080241195529003
-0.018992288967381345   -0.024409833343029527   -0.0005720268618104586
-0.01953319995729461   -0.01629208556118448   -0.00043058394635063014
-0.018984344709775013   -0.024447680506242464   -0.0006254259254088198
-0.014364124931813573   -0.024485772218477357   -0.0005080241195529003
-0.01953319995729461   -0.01629208556118448   -0.00043058394635063014
-0.014868767869002675   -0.016320760123256794   -0.0003437202037198246
-0.014823498973583172   -0.016374166029719403   -0.000374109713625132
-0.014364124931813573   -0.024485772218477357   -0.0005080241195529003
-0.01953319995729461   -0.01629208556118448   -0.00043058394635063014
-0.014823498973583172   -0.016374166029719403   -0.000374109713625132
-0.018984344709775013   -0.024447680506242464   -0.0006254259254088198
-0.014364124931813573   -0.024485772218477357   -0.0005080241195529003
-0.014868767869002675   -0.016320760123256794   -0.0003437202037198246
-0.018992288967381345   -0.024409833343029527   -0.0005720268618104586
-0.014403619511085385   -0.024445952236956895   -0.0004582724517248498
-0.014868767869002675   -0.016320760123256794   -0.0003437202037198246
-0.01953319995729461   -0.01629208556118448   -0.00043058394635063014
-0.018992288967381345   -0.024409833343029527   -0.0005720268618104586
-0.019547629849312388   -0.016248173160472973   -0.0004007848132087718
-0.014403619511085385   -0.024445952236956895   -0.0004582724517248498
-0.018973677661458334   -0.024385239475437578   -0.0005124706890647346
-0.019547629849312388   -0.016248173160472973   -0.0004007848132087718
-0.018992288967381345   -0.024409833343029527   -0.0005720268618104586
-0.014403619511085385   -0.024445952236956895   -0.0004582724517248498
-0.019547629849312388   -0.016248173160472973   -0.0004007848132087718
-0.014911551578469136   -0.016265972899836157   -0.00031053831944603024
-0.014868767869002675   -0.016320760123256794   -0.0003437202037198246
-0.014403619511085385   -0.024445952236956895   -0.0004582724517248498
-0.019547629849312388   -0.016248173160472973   -0.0004007848132087718
-0.014868767869002675   -0.016320760123256794   -0.0003437202037198246
-0.018992288967381345   -0.024409833343029527   -0.0005720268618104586
0.0032623455904979815   -0.016553530225396098   9.885067941060669e-05
0.0022877392986764434   -0.008316840192677278   0.00010644233228997655
-0.0014521445196404804   -0.016476083098069968   -4.19054401673597e-05
0.0031604982835266716   -0.016454952682787814   0.00014048422720585788
0.0022877392986764434   -0.008316840192677278   0.00010644233228997655
-0.0021109843017538435   -0.008209664300381786   5.5223314817690075e-05
-0.0014521445196404804   -0.016476083098069968   -4.19054401673597e-05
-0.0021755214481736663   -0.008168802680382803   0.00010202527832459545
0.0031604982835266716   -0.016454952682787814   0.00014048422720585788
-0.0015169374271635679   -0.016394492025508422   -8.314682011002134e-06
-0.0021755214481736663   -0.008168802680382803   0.00010202527832459545
-0.0014521445196404804   -0.016476083098069968   -4.19054401673597e-05
0.0031604982835266716   -0.016454952682787814   0.00014048422720585788
-0.0021755214481736663   -0.008168802680382803   0.00010202527832459545
0.0020864886747129804   -0.008211973905437861   0.00022217148719125957
0.0022877392986764434   -0.008316840192677278   0.00010644233228997655
0.0031604982835266716   -0.016454952682787814   0.00014048422720585788
-0.0021755214481736663   -0.008168802680382803   0.00010202527832459545
0.0022877392986764434   -0.008316840192677278   0.00010644233228997655
-0.0014521445196404804   -0.016476083098069968   -4.19054401673597e-05
0.0031604982835266716   -0.016454952682787814   0.00014048422720585788
0.0020864886747129804   -0.008211973905437861   0.00022217148719125957
-0.0015169374271635679   -0.016394492025508422   -8.314682011002134e-06
0.0030466312818639555   -0.016357160045284237   0.00020044237682000454
0.0020864886747129804   -0.008211973905437861   0.00022217148719125957
-0.0021755214481736663   -0.008168802680382803   0.00010202527832459545
-0.0015169374271635679   -0.016394492025508422   -8.314682011002134e-06
-0.002260485002045682   -0.008095538866226869   0.0001588981151184915
0.0030466312818639555   -0.016357160045284237   0.00020044237682000454
-0.0015927669614853083   -0.01630842379624494   3.127866822030138e-05
-0.002260485002045682   -0.008095538866226869   0.0001588981151184915
-0.0015169374271635679   -0.016394492025508422   -8.314682011002134e-06
0.0030466312818639555   -0.016357160045284237   0.00020044237682000454
-0.002260485002045682   -0.008095538866226869   0.0001588981151184915
0.0019687056434414653   -0.00812643017218257   0.00030845497290747767
0.0020864886747129804   -0.008211973905437861   0.00022217148719125957
0.0030466312818639555   -0.016357160045284237   0.00020044237682000454
-0.002260485002045682   -0.008095538866226869   0.0001588981151184915
0.0020864886747129804   -0.008211973905437861   0.00022217148719125957
-0.0015169374271635679   -0.016394492025508422   -8.314682011002134e-06
0.0030466312818639555   -0.016357160045284237   0.00020044237682000454
0.0019687056434414653   -0.00812643017218257   0.00030845497290747767
-0.0015927669614853083   -0.01630842379624494   3.127866822030138e-05
0.0029074836208407956   -0.016236986629435988   0.00026644594332256457
0.0019687056434414653   -0.00812643017218257   0.00030845497290747767
-0.002260485002045682   -0.008095538866226869   0.0001588981151184915
-0.0015927669614853083   -0.01630842379624494   3.127866822030138e-05
-0.002331980888538073   -0.008016852423561517   0.00020895382228125573
0.0029074836208407956   -0.016236986629435988   0.00026644594332256457
-0.0016712427139959686   -0.01621707750695107   7.679978328239036e-05
-0.002331980888538073   -0.008016852423561517   0.00020895382228125573
-0.0015927669614853083   -0.01630842379624494   3.127866822030138e-05
0.0029074836208407956   -0.016236986629435988   0.00026644594332256457
-0.002331980888538073   -0.008016852423561517   0.00020895382228125573
0.0018176572199096433   -0.007995470147843103   0.0004072909137263264
0.0019687056434414653   -0.00812643017218257   0.00030845497290747767
0.0029074836208407956   -0.016236986629435988   0.00026644594332256457
-0.002331980888538073   -0.008016852423561517   0.00020895382228125573
0.0019687056434414653   -0.00812643017218257   0.00030845497290747767
-0.0015927669614853083   -0.01630842379624494   3.127866822030138e-05
-0.0014521445196404804   -0.016476083098069968   -4.19054401673597e-05
-0.0021109843017538435   -0.008209664300381786   5.5223314817690075e-05
-0.005891042452562986   -0.01645602486827112   -0.00017744519611245048
-0.0015169374271635679   -0.016394492025508422   -8.314682011002134e-06
-0.0021109843017538435   -0.008209664300381786   5.5223314817690075e-05
-0.006295717480385462   -0.008331481735337938   -5.228141060879148e-05
-0.005891042452562986   -0.01645602486827112   -0.00017744519611245048
-0.006355271173320872   -0.008268649331298943   -1.9076974604818092e-05
-0.0015169374271635679   -0.016394492025508422   -8.314682011002134e-06
-0.00594967798664886   -0.016384914200585972   -0.0001461065122154821
-0.006355271173320872   -0.008268649331298943   -1.9076974604818092e-05
-0.005891042452562986   -0.01645602486827112   -0.00017744519611245048
-0.0015169374271635679   -0.016394492025508422   -8.314682011002134e-06
-0.006355271173320872   -0.008268649331298943   -1.9076974604818092e-05
-0.0021755214481736663   -0.008168802680382803   0.00010202527832459545
-0.0021109843017538435   -0.008209664300381786   5.5223314817690075e-05
-0.0015169374271635679   -0.016394492025508422   -8.314682011002134e-06
-0.006355271173320872   -0.008268649331298943   -1.9076974604818092e-05
-0.0021109843017538435   -0.008209664300381786   5.5223314817690075e-05
-0.005891042452562986   -0.01645602486827112   -0.00017744519611245048
-0.0015169374271635679   -0.016394492025508422   -8.314682011002134e-06
-0.0021755214481736663   -0.008168802680382803   0.00010202527832459545
-0.00594967798664886   -0.016384914200585972   -0.0001461065122154821
-0.0015927669614853083   -0.01630842379624494   3.127866822030138e-05
-0.0021755214481736663   -0.008168802680382803   0.00010202527832459545
-0.006355271173320872   -0.008268649331298943   -1.9076974604818092e-05
-0.00594967798664886   -0.016384914200585972   -0.0001461065122154821
-0.006417677524690498   -0.008197616437053147   1.6098952347724536e-05
-0.0015927669614853083   -0.01630842379624494   3.127866822030138e-05
-0.006010350280798079   -0.016310962855337268   -0.00011164257871079947
-0.006417677524690498   -0.008197616437053147   1.6098952347724536e-05
-0.00594967798664886   -0.016384914200585972   -0.0001461065122154821
-0.0015927669614853083   -0.01630842379624494   3.127866822030138e-05
-0.006417677524690498   -0.008197616437053147   1.6098952347724536e-05
-0.002260485002045682   -0.008095538866226869   0.0001588981151184915
-0.0021755214481736663   -0.008168802680382803   0.00010202527832459545
-0.0015927669614853083   -0.01630842379624494   3.127866822030138e-05
-0.006417677524690498   -0.008197616437053147   1.6098952347724536e-05
-0.0021755214481736663   -0.008168802680382803   0.00010202527832459545
-0.00594967798664886   -0.016384914200585972   -0.0001461065122154821
-0.0015927669614853083   -0.01630842379624494   3.127866822030138e-05
-0.002260485002045682   -0.008095538866226869   0.0001588981151184915
-0.006010350280798079   -0.016310962855337268   -0.00011164257871079947
-0.0016712427139959686   -0.01621707750695107   7.679978328239036e-05
-0.002260485002045682   -0.008095538866226869   0.0001588981151184915
-0.006417677524690498   -0.008197616437053147   1.6098952347724536e-05
-0.006010350280798079   -0.016310962855337268   -0.00011164257871079947
-0.006477052072305378   -0.008119763368127201   5.4913410923413034e-05
-0.0016712427139959686   -0.01621707750695107   7.679978328239036e-05
-0.0060735318088660315   -0.016235517086353932   -7.343249643247603e-05
-0.006477052072305378   -0.008119763368127201   5.4913410923413034e-05
-0.006010350280798079   -0.016310962855337268   -0.00011164257871079947
-0.0016712427139959686   -0.01621707750695107   7.679978328239036e-05
-0.006477052072305378   -0.008119763368127201   5.4913410923413034e-05
-0.002331980888538073   -0.008016852423561517   0.00020895382228125573
-0.002260485002045682   -0.008095538866226869   0.0001588981151184915
-0.0016712427139959686   -0.01621707750695107   7.679978328239036e-05
-0.006477052072305378   -0.008119763368127201   5.4913410923413034e-05
-0.002260485002045682   -0.008095538866226869   0.0001588981151184915
-0.006010350280798079   -0.016310962855337268   -0.00011164257871079947
-0.005891042452562986   -0.01645602486827112   -0.00017744519611245048
-0.006295717480385462   -0.008331481735337938   -5.228141060879148e-05
-0.010283972809437398   -0.016450427345340652   -0.0002998760555700354
-0.00594967798664886   -0.016384914200585972   -0.0001461065122154821
-0.006295717480385462   -0.008331481735337938   -5.228141060879148e-05
-0.010582290329440223   -0.008426655876090207   -0.0001716550519454409
-0.010283972809437398   -0.016450427345340652   -0.0002998760555700354
-0.010635834643228245   -0.008362121906896983   -0.00014588272096911553
-0.00594967798664886   -0.016384914200585972   -0.0001461065122154821
-0.010340061446202127   -0.016388147315097763   -0.000269906899086382
-0.010635834643228245   -0.008362121906896983   -0.00014588272096911553
-0.010283972809437398   -0.016450427345340652   -0.0002998760555700354
-0.00594967798664886   -0.016384914200585972   -0.0001461065122154821
-0.010635834643228245   -0.008362121906896983   -0.00014588272096911553
-0.006355271173320872   -0.008268649331298943   -1.9076974604818092e-05
-0.006295717480385462   -0.008331481735337938   -5.228141060879148e-05
-0.00594967798664886   -0.016384914200585972   -0.0001461065122154821
-0.010635834643228245   -0.008362121906896983   -0.00014588272096911553
-0.006295717480385462   -0.008331481735337938   -5.228141060879148e-05
-0.010283972809437398   -0.016450427345340652   -0.0002998760555700354
-0.00594967798664886   -0.016384914200585972   -0.0001461065122154821
-0.006355271173320872   -0.008268649331298943   -1.9076974604818092e-05
-0.010340061446202127   -0.016388147315097763   -0.000269906899086382
-0.006010350280798079   -0.016310962855337268   -0.00011164257871079947
-0.006355271173320872   -0.008268649331298943   -1.9076974604818092e-05
-0.010635834643228245   -0.008362121906896983   -0.00014588272096911553
-0.010340061446202127   -0.016388147315097763   -0.000269906899086382
-0.01068712530389915   -0.00829392379060415   -0.00012016942391524283
-0.006010350280798079   -0.016310962855337268   -0.00011164257871079947
-0.010393493770506003   -0.016324768704197367   -0.00023720225335547616
-0.01068712530389915   -0.00829392379060415   -0.00012016942391524283
-0.010340061446202127   -0.016388147315097763   -0.000269906899086382
-0.006010350280798079   -0.016310962855337268   -0.00011164257871079947
-0.01068712530389915   -0.00829392379060415   -0.00012016942391524283
-0.006417677524690498   -0.008197616437053147   1.6098952347724536e-05
-0.006355271173320872   -0.008268649331298943   -1.9076974604818092e-05
-0.006010350280798079   -0.016310962855337268   -0.00011164257871079947
-0.01068712530389915   -0.00829392379060415   -0.00012016942391524283
-0.006355271173320872   -0.008268649331298943   -1.9076974604818092e-05
-0.010340061446202127   -0.016388147315097763   -0.000269906899086382
-0.006010350280798079   -0.016310962855337268   -0.00011164257871079947
-0.006417677524690498   -0.008197616437053147   1.6098952347724536e-05
-0.010393493770506003   -0.016324768704197367   -0.00023720225335547616
-0.0060735318088660315   -0.016235517086353932   -7.343249643247603e-05
-0.006417677524690498   -0.008197616437053147   1.6098952347724536e-05
-0.01068712530389915   -0.00829392379060415   -0.00012016942391524283
-0.010393493770506003   -0.016324768704197367   -0.00023720225335547616
-0.010734434515354625   -0.008220054979290016   -9.214918171261883e-05
-0.0060735318088660315   -0.016235517086353932   -7.343249643247603e-05
-0.010446390402182305   -0.016259925662713785   -0.00020191468055483425
-0.010734434515354625   -0.008220054979290016   -9.214918171261883e-05
-0.010393493770506003   -0.016324768704197367   -0.00023720225335547616
-0.0060735318088660315   -0.016235517086353932   -7.343249643247603e-05
-0.010734434515354625   -0.008220054979290016   -9.214918171261883e-05
-0.006477052072305378   -0.008119763368127201   5.4913410923413034e-05
-0.006417677524690498   -0.008197616437053147   1.6098952347724536e-05
-0.0060735318088660315   -0.016235517086353932   -7.343249643247603e-05
-0.010734434515354625   -0.008220054979290016   -9.214918171261883e-05
-0.006417677524690498   -0.008197616437053147   1.6098952347724536e-05
-0.010393493770506003   -0.016324768704197367   -0.00023720225335547616
-0.010283972809437398   -0.016450427345340652   -0.0002998760555700354
-0.010582290329440223   -0.008426655876090207   -0.0001716550519454409
-0.014770029646897293   -0.016424804326269513   -0.00040254889719634805
-0.010340061446202127   -0.016388147315097763   -0.000269906899086382
-0.010582290329440223   -0.008426655876090207   -0.0001716550519454409
-0.015019455856844955   -0.008465745371903147   -0.00028180692940229255
-0.014770029646897293   -0.016424804326269513   -0.00040254889719634805
-0.01506770716375752   -0.008407845884501152   -0.0002629858420211457
-0.010340061446202127   -0.016388147315097763   -0.000269906899086382
-0.014823498973583172   -0.016374166029719403   -0.000374109713625132
-0.01506770716375752   -0.008407845884501152   -0.0002629858420211457
-0.014770029646897293   -0.016424804326269513   -0.00040254889719634805
-0.010340061446202127   -0.016388147315097763   -0.000269906899086382
-0.01506770716375752   -0.008407845884501152   -0.0002629858420211457
-0.010635834643228245   -0.008362121906896983   -0.00014588272096911553
-0.010582290329440223   -0.008426655876090207   -0.0001716550519454409
-0.010340061446202127   -0.016388147315097763   -0.000269906899086382
-0.01506770716375752   -0.008407845884501152   -0.0002629858420211457
-0.010582290329440223   -0.008426655876090207   -0.0001716550519454409
-0.014770029646897293   -0.016424804326269513   -0.00040254889719634805
-0.010340061446202127   -0.016388147315097763   -0.000269906899086382
-0.010635834643228245   -0.008362121906896983   -0.00014588272096911553
-0.014823498973583172   -0.016374166029719403   -0.000374109713625132
-0.010393493770506003   -0.016324768704197367   -0.00023720225335547616
-0.010635834643228245   -0.008362121906896983   -0.00014588272096911553
-0.01506770716375752   -0.008407845884501152   -0.0002629858420211457
-0.014823498973583172   -0.016374166029719403   -0.000374109713625132
-0.015110706754349803   -0.00834473195230456   -0.0002446789248767966
-0.010393493770506003   -0.016324768704197367   -0.00023720225335547616
-0.014868767869002675   -0.016320760123256794   -0.0003437202037198246
-0.015110706754349803   -0.00834473195230456   -0.0002446789248767966
-0.014823498973583172   -0.016374166029719403   -0.000374109713625132
-0.010393493770506003   -0.016324768704197367   -0.00023720225335547616
-0.015110706754349803   -0.00834473195230456   -0.0002446789248767966
-0.01068712530389915   -0.00829392379060415   -0.00012016942391524283
-0.010635834643228245   -0.008362121906896983   -0.00014588272096911553
-0.010393493770506003   -0.016324768704197367   -0.00023720225335547616
-0.015110706754349803   -0.00834473195230456   -0.0002446789248767966
-0.010635834643228245   -0.008362121906896983   -0.00014588272096911553
-0.014823498973583172   -0.016374166029719403   -0.000374109713625132
-0.010393493770506003   -0.016324768704197367   -0.00023720225335547616
-0.01068712530389915   -0.00829392379060415   -0.00012016942391524283
-0.014868767869002675   -0.016320760123256794   -0.0003437202037198246
-0.010446390402182305   -0.016259925662713785   -0.00020191468055483425
-0.01068712530389915   -0.00829392379060415   -0.00012016942391524283
-0.015110706754349803   -0.00834473195230456   -0.0002446789248767966
-0.014868767869002675   -0.016320760123256794   -0.0003437202037198246
-0.015149653503311517   -0.008277522588816514   -0.00022580226528283828
-0.010446390402182305   -0.016259925662713785   -0.00020191468055483425
-0.014911551578469136   -0.016265972899836157   -0.00031053831944603024
-0.015149653503311517   -0.008277522588816514   -0.00022580226528283828
-0.014868767869002675   -0.016320760123256794   -0.0003437202037198246
-0.010446390402182305   -0.016259925662713785   -0.00020191468055483425
-0.015149653503311517   -0.008277522588816514   -0.00022580226528283828
-0.010734434515354625   -0.008220054979290016   -9.214918171261883e-05
-0.01068712530389915   -0.00829392379060415   -0.00012016942391524283
-0.010446390402182305   -0.016259925662713785   -0.00020191468055483425
-0.015149653503311517   -0.008277522588816514   -0.00022580226528283828
-0.01068712530389915   -0.00829392379060415   -0.00012016942391524283
-0.014868767869002675   -0.016320760123256794   -0.0003437202037198246
-0.014770029646897293   -0.016424804326269513   -0.00040254889719634805
-0.015019455856844955   -0.008465745371903147   -0.00028180692940229255
-0.019469944862409043   -0.016382488818423097   -0.00047824282093194534
-0.014823498973583172   -0.016374166029719403   -0.000374109713625132
-0.015019455856844955   -0.008465745371903147   -0.00028180692940229255
-0.019615289385001053   -0.008470061378212379   -0.0003730815511648658
-0.019469944862409043   -0.016382488818423097   -0.00047824282093194534
-0.01965669620134101   -0.00841388782670569   -0.00036493695583957183
-0.014823498973583172   -0.016374166029719403   -0.000374109713625132
-0.019502986792365836   -0.016340100008292908   -0.0004567976947706854
-0.01965669620134101   -0.00841388782670569   -0.00036493695583957183
-0.019469944862409043   -0.016382488818423097   -0.00047824282093194534
-0.014823498973583172   -0.016374166029719403   -0.000374109713625132
-0.01965669620134101   -0.00841388782670569   -0.00036493695583957183
-0.01506770716375752   -0.008407845884501152   -0.0002629858420211457
-0.015019455856844955   -0.008465745371903147   -0.00028180692940229255
-0.014823498973583172   -0.016374166029719403   -0.000374109713625132
-0.01965669620134101   -0.00841388782670569   -0.00036493695583957183
-0.015019455856844955   -0.008465745371903147   -0.00028180692940229255
-0.019469944862409043   -0.016382488818423097   -0.00047824282093194534
-0.014823498973583172   -0.016374166029719403   -0.000374109713625132
-0.01506770716375752   -0.008407845884501152   -0.0002629858420211457
-0.019502986792365836   -0.016340100008292908   -0.0004567976947706854
-0.014868767869002675   -0.016320760123256794   -0.0003437202037198246
-0.01506770716375752   -0.008407845884501152   -0.0002629858420211457
-0.01965669620134101   -0.00841388782670569   -0.00036493695583957183
-0.019502986792365836   -0.016340100008292908   -0.0004567976947706854
-0.019693793146026536   -0.00835310226693292   -0.00035539948946115244
-0.014868767869002675   -0.016320760123256794   -0.0003437202037198246
-0.01953319995729461   -0.01629208556118448   -0.00043058394635063014
-0.019693793146026536   -0.00835310226693292   -0.00035539948946115244
-0.019502986792365836   -0.016340100008292908   -0.0004567976947706854
-0.014868767869002675   -0.016320760123256794   -0.0003437202037198246
-0.019693793146026536   -0.00835310226693292   -0.00035539948946115244
-0.015110706754349803   -0.00834473195230456   -0.0002446789248767966
-0.01506770716375752   -0.008407845884501152   -0.0002629858420211457
-0.014868767869002675   -0.016320760123256794   -0.0003437202037198246
-0.019693793146026536   -0.00835310226693292   -0.00035539948946115244
-0.01506770716375752   -0.008407845884501152   -0.0002629858420211457
-0.019502986792365836   -0.016340100008292908   -0.0004567976947706854
-0.014868767869002675   -0.016320760123256794   -0.0003437202037198246
-0.015110706754349803   -0.00834473195230456   -0.0002446789248767966
-0.01953319995729461   -0.01629208556118448   -0.00043058394635063014
-0.014911551578469136   -0.016265972899836157   -0.00031053831944603024
-0.015110706754349803   -0.00834473195230456   -0.0002446789248767966
-0.019693793146026536   -0.00835310226693292   -0.00035539948946115244
-0.01953319995729461   -0.01629208556118448   -0.00043058394635063014
-0.01972492341342264   -0.0082887458037942   -0.00034648832049302166
-0.014911551578469136   -0.016265972899836157   -0.00031053831944603024
-0.019547629849312388   -0.016248173160472973   -0.0004007848132087718
-0.01972492341342264   -0.0082887458037942   -0.00034648832049302166
-0.01953319995729461   -0.01629208556118448   -0.00043058394635063014
-0.014911551578469136   -0.016265972899836157   -0.00031053831944603024
-0.01972492341342264   -0.0082887458037942   -0.00034648832049302166
-0.015149653503311517   -0.008277522588816514   -0.00022580226528283828
-0.015110706754349803   -0.00834473195230456   -0.0002446789248767966
-0.014911551578469136   -0.016265972899836157   -0.00031053831944603024
-0.01972492341342264   -0.0082887458037942   -0.00034648832049302166
-0.015110706754349803   -0.00834473195230456   -0.0002446789248767966
-0.01953319995729461   -0.01629208556118448   -0.00043058394635063014
0.0022877392986764434   -0.008316840192677278   0.00010644233228997655
0.0   0.0   0.0
-0.0021109843017538435   -0.008209664300381786   5.5223314817690075e-05
0.0020864886747129804   -0.008211973905437861   0.00022217148719125957
0.0   0.0   0.0
-0.0026481997589595306   -0.0006746238844860358   -2.1560378964310948e-05
-0.0021109843017538435   -0.008209664300381786   5.5223314817690075e-05
-0.0028064909125778458   -0.0005249366089721037   6.998609818236886e-05
0.0020864886747129804   -0.008211973905437861   0.00022217148719125957
-0.0021755214481736663   -0.008168802680382803   0.00010202527832459545
-0.0028064909125778458   -0.0005249366089721037   6.998609818236886e-05
-0.0021109843017538435   -0.008209664300381786   5.5223314817690075e-05
0.0020864886747129804   -0.008211973905437861   0.00022217148719125957
-0.0028064909125778458   -0.0005249366089721037   6.998609818236886e-05
0.0   0.0   0.0
0.0   0.0   0.0
0.0020864886747129804   -0.008211973905437861   0.00022217148719125957
-0.0028064909125778458   -0.0005249366089721037   6.998609818236886e-05
0.0   0.0   0.0
-0.0021109843017538435   -0.008209664300381786   5.5223314817690075e-05
0.0020864886747129804   -0.008211973905437861   0.00022217148719125957
0.0   0.0   0.0
-0.0021755214481736663   -0.008168802680382803   0.00010202527832459545
0.0019687056434414653   -0.00812643017218257   0.00030845497290747767
0.0   0.0   0.0
-0.0028064909125778458   -0.0005249366089721037   6.998609818236886e-05
-0.0021755214481736663   -0.008168802680382803   0.00010202527832459545
-0.0029059297180655383   -0.0004528871207573815   0.0001229385954983535
0.0019687056434414653   -0.00812643017218257   0.00030845497290747767
-0.002260485002045682   -0.008095538866226869   0.0001588981151184915
-0.0029059297180655383   -0.0004528871207573815   0.0001229385954983535
-0.0021755214481736663   -0.008168802680382803   0.00010202527832459545
0.0019687056434414653   -0.00812643017218257   0.00030845497290747767
-0.0029059297180655383   -0.0004528871207573815   0.0001229385954983535
0.0   0.0   0.0
0.0   0.0   0.0
0.0019687056434414653   -0.00812643017218257   0.00030845497290747767
-0.0029059297180655383   -0.0004528871207573815   0.0001229385954983535
0.0   0.0   0.0
-0.0021755214481736663   -0.008168802680382803   0.00010202527832459545
0.0019687056434414653   -0.00812643017218257   0.00030845497290747767
0.0   0.0   0.0
-0.002260485002045682   -0.008095538866226869   0.0001588981151184915
0.0018176572199096433   -0.007995470147843103   0.0004072909137263264
0.0   0.0   0.0
-0.0029059297180655383   -0.0004528871207573815   0.0001229385954983535
-0.002260485002045682   -0.008095538866226869   0.0001588981151184915
-0.0030394177858227406   -0.00035715577253295444   0.00018373973717929562
0.0018176572199096433   -0.007995470147843103   0.0004072909137263264
-0.002331980888538073   -0.008016852423561517   0.00020895382228125573
-0.0030394177858227406   -0.00035715577253295444   0.00018373973717929562
-0.002260485002045682   -0.008095538866226869   0.0001588981151184915
0.0018176572199096433   -0.007995470147843103   0.0004072909137263264
-0.0030394177858227406   -0.00035715577253295444   0.00018373973717929562
0.0   0.0   0.0
0.0   0.0   0.0
0.0018176572199096433   -0.007995470147843103   0.0004072909137263264
-0.0030394177858227406   -0.00035715577253295444   0.00018373973717929562
0.0   0.0   0.0
-0.002260485002045682   -0.008095538866226869   0.0001588981151184915
-0.0021109843017538435   -0.008209664300381786   5.5223314817690075e-05
-0.0026481997589595306   -0.0006746238844860358   -2.1560378964310948e-05
-0.006295717480385462   -0.008331481735337938   -5.228141060879148e-05
-0.0021755214481736663   -0.008168802680382803   0.00010202527832459545
-0.0026481997589595306   -0.0006746238844860358   -2.1560378964310948e-05
-0.006482674067446755   -0.0008848270906867348   -1.9255628970229328e-05
-0.006295717480385462   -0.008331481735337938   -5.228141060879148e-05
-0.006564365259809929   -0.0008031822968755601   4.346219535969147e-06
-0.0021755214481736663   -0.008168802680382803   0.00010202527832459545
-0.006355271173320872   -0.008268649331298943   -1.9076974604818092e-05
-0.006564365259809929   -0.0008031822968755601   4.346219535969147e-06
-0.006295717480385462   -0.008331481735337938   -5.228141060879148e-05
-0.0021755214481736663   -0.008168802680382803   0.00010202527832459545
-0.006564365259809929   -0.0008031822968755601   4.346219535969147e-06
-0.0028064909125778458   -0.0005249366089721037   6.998609818236886e-05
-0.0026481997589595306   -0.0006746238844860358   -2.1560378964310948e-05
-0.0021755214481736663   -0.008168802680382803   0.00010202527832459545
-0.006564365259809929   -0.0008031822968755601   4.346219535969147e-06
-0.0026481997589595306   -0.0006746238844860358   -2.1560378964310948e-05
-0.006295717480385462   -0.008331481735337938   -5.228141060879148e-05
-0.0021755214481736663   -0.008168802680382803   0.00010202527832459545
-0.0028064909125778458   -0.0005249366089721037   6.998609818236886e-05
-0.006355271173320872   -0.008268649331298943   -1.9076974604818092e-05
-0.002260485002045682   -0.008095538866226869   0.0001588981151184915
-0.0028064909125778458   -0.0005249366089721037   6.998609818236886e-05
-0.006564365259809929   -0.0008031822968755601   4.346219535969147e-06
-0.006355271173320872   -0.008268649331298943   -1.9076974604818092e-05
-0.006645756702893159   -0.0007076111387934946   4.6521273226640034e-05
-0.002260485002045682   -0.008095538866226869   0.0001588981151184915
-0.006417677524690498   -0.008197616437053147   1.6098952347724536e-05
-0.006645756702893159   -0.0007076111387934946   4.6521273226640034e-05
-0.006355271173320872   -0.008268649331298943   -1.9076974604818092e-05
-0.002260485002045682   -0.008095538866226869   0.0001588981151184915
-0.006645756702893159   -0.0007076111387934946   4.6521273226640034e-05
-0.0029059297180655383   -0.0004528871207573815   0.0001229385954983535
-0.0028064909125778458   -0.0005249366089721037   6.998609818236886e-05
-0.002260485002045682   -0.008095538866226869   0.0001588981151184915
-0.006645756702893159   -0.0007076111387934946   4.6521273226640034e-05
-0.0028064909125778458   -0.0005249366089721037   6.998609818236886e-05
-0.006355271173320872   -0.008268649331298943   -1.9076974604818092e-05
-0.002260485002045682   -0.008095538866226869   0.0001588981151184915
-0.0029059297180655383   -0.0004528871207573815   0.0001229385954983535
-0.006417677524690498   -0.008197616437053147   1.6098952347724536e-05
-0.002331980888538073   -0.008016852423561517   0.00020895382228125573
-0.0029059297180655383   -0.0004528871207573815   0.0001229385954983535
-0.006645756702893159   -0.0007076111387934946   4.6521273226640034e-05
-0.006417677524690498   -0.008197616437053147   1.6098952347724536e-05
-0.006736054634819177   -0.0005970175668512551   8.69674065546749e-05
-0.002331980888538073   -0.008016852423561517   0.00020895382228125573
-0.006477052072305378   -0.008119763368127201   5.4913410923413034e-05
-0.006736054634819177   -0.0005970175668512551   8.69674065546749e-05
-0.006417677524690498   -0.008197616437053147   1.6098952347724536e-05
-0.002331980888538073   -0.008016852423561517   0.00020895382228125573
-0.006736054634819177   -0.0005970175668512551   8.69674065546749e-05
-0.0030394177858227406   -0.00035715577253295444   0.00018373973717929562
-0.0029059297180655383   -0.0004528871207573815   0.0001229385954983535
-0.002331980888538073   -0.008016852423561517   0.00020895382228125573
-0.006736054634819177   -0.0005970175668512551   8.69674065546749e-05
-0.0029059297180655383   -0.0004528871207573815   0.0001229385954983535
-0.006417677524690498   -0.008197616437053147   1.6098952347724536e-05
-0.006295717480385462   -0.008331481735337938   -5.228141060879148e-05
-0.006482674067446755   -0.0008848270906867348   -1.9255628970229328e-05
-0.010582290329440223   -0.008426655876090207   -0.0001716550519454409
-0.006355271173320872   -0.008268649331298943   -1.9076974604818092e-05
-0.006482674067446755   -0.0008848270906867348   -1.9255628970229328e-05
-0.010686708078785634   -0.000944159790051185   -9.443378487362849e-05
-0.010582290329440223   -0.008426655876090207   -0.0001716550519454409
-0.01073632935230977   -0.0008806474214211018   -8.78570311868457e-05
-0.006355271173320872   -0.008268649331298943   -1.9076974604818092e-05
-0.010635834643228245   -0.008362121906896983   -0.00014588272096911553
-0.01073632935230977   -0.0008806474214211018   -8.78570311868457e-05
-0.010582290329440223   -0.008426655876090207   -0.0001716550519454409
-0.006355271173320872   -0.008268649331298943   -1.9076974604818092e-05
-0.01073632935230977   -0.0008806474214211018   -8.78570311868457e-05
-0.006564365259809929   -0.0008031822968755601   4.346219535969147e-06
-0.006482674067446755   -0.0008848270906867348   -1.9255628970229328e-05
-0.006355271173320872   -0.008268649331298943   -1.9076974604818092e-05
-0.01073632935230977   -0.0008806474214211018   -8.78570311868457e-05
-0.006482674067446755   -0.0008848270906867348   -1.9255628970229328e-05
-0.010582290329440223   -0.008426655876090207   -0.0001716550519454409
-0.006355271173320872   -0.008268649331298943   -1.9076974604818092e-05
-0.006564365259809929   -0.0008031822968755601   4.346219535969147e-06
-0.010635834643228245   -0.008362121906896983   -0.00014588272096911553
-0.006417677524690498   -0.008197616437053147   1.6098952347724536e-05
-0.006564365259809929   -0.0008031822968755601   4.346219535969147e-06
-0.01073632935230977   -0.0008806474214211018   -8.78570311868457e-05
-0.010635834643228245   -0.008362121906896983   -0.00014588272096911553
-0.010787936009296893   -0.0008068555849801226   -7.633749256412489e-05
-0.006417677524690498   -0.008197616437053147   1.6098952347724536e-05
-0.01068712530389915   -0.00829392379060415   -0.00012016942391524283
-0.010787936009296893   -0.0008068555849801226   -7.633749256412489e-05
-0.010635834643228245   -0.008362121906896983   -0.00014588272096911553
-0.006417677524690498   -0.008197616437053147   1.6098952347724536e-05
-0.010787936009296893   -0.0008068555849801226   -7.633749256412489e-05
-0.006645756702893159   -0.0007076111387934946   4.6521273226640034e-05
-0.006564365259809929   -0.0008031822968755601   4.346219535969147e-06
-0.006417677524690498   -0.008197616437053147   1.6098952347724536e-05
-0.010787936009296893   -0.0008068555849801226   -7.633749256412489e-05
-0.006564365259809929   -0.0008031822968755601   4.346219535969147e-06
-0.010635834643228245   -0.008362121906896983   -0.00014588272096911553
-0.006417677524690498   -0.008197616437053147   1.6098952347724536e-05
-0.006645756702893159   -0.0007076111387934946   4.6521273226640034e-05
-0.01068712530389915   -0.00829392379060415   -0.00012016942391524283
-0.006477052072305378   -0.008119763368127201   5.4913410923413034e-05
-0.006645756702893159   -0.0007076111387934946   4.6521273226640034e-05
-0.010787936009296893   -0.0008068555849801226   -7.633749256412489e-05
-0.01068712530389915   -0.00829392379060415   -0.00012016942391524283
-0.010837042466602227   -0.0007169471413376978   -6.109532976645352e-05
-0.006477052072305378   -0.008119763368127201   5.4913410923413034e-05
-0.010734434515354625   -0.008220054979290016   -9.214918171261883e-05
-0.010837042466602227   -0.0007169471413376978   -6.109532976645352e-05
-0.01068712530389915   -0.00829392379060415   -0.00012016942391524283
-0.006477052072305378   -0.008119763368127201   5.4913410923413034e-05
-0.010837042466602227   -0.0007169471413376978   -6.109532976645352e-05
-0.006736054634819177   -0.0005970175668512551   8.69674065546749e-05
-0.006645756702893159   -0.0007076111387934946   4.6521273226640034e-05
-0.006477052072305378   -0.008119763368127201   5.4913410923413034e-05
-0.010837042466602227   -0.0007169471413376978   -6.109532976645352e-05
-0.006645756702893159   -0.0007076111387934946   4.6521273226640034e-05
-0.01068712530389915   -0.00829392379060415   -0.00012016942391524283
-0.010582290329440223   -0.008426655876090207   -0.0001716550519454409
-0.010686708078785634   -0.000944159790051185   -9.443378487362849e-05
-0.015019455856844955   -0.008465745371903147   -0.00028180692940229255
-0.010635834643228245   -0.008362121906896983   -0.00014588272096911553
-0.010686708078785634   -0.000944159790051185   -9.443378487362849e-05
-0.015097271902444058   -0.0009346417808181992   -0.00020295510764842985
-0.015019455856844955   -0.008465745371903147   -0.00028180692940229255
-0.015130801465076366   -0.0008776833552017855   -0.00020013347076453433
-0.010635834643228245   -0.008362121906896983   -0.00014588272096911553
-0.01506770716375752   -0.008407845884501152   -0.0002629858420211457
-0.015130801465076366   -0.0008776833552017855   -0.00020013347076453433
-0.015019455856844955   -0.008465745371903147   -0.00028180692940229255
-0.010635834643228245   -0.008362121906896983   -0.00014588272096911553
-0.015130801465076366   -0.0008776833552017855   -0.00020013347076453433
-0.01073632935230977   -0.0008806474214211018   -8.78570311868457e-05
-0.010686708078785634   -0.000944159790051185   -9.443378487362849e-05
-0.010635834643228245   -0.008362121906896983   -0.00014588272096911553
-0.015130801465076366   -0.0008776833552017855   -0.00020013347076453433
-0.010686708078785634   -0.000944159790051185   -9.443378487362849e-05
-0.015019455856844955   -0.008465745371903147   -0.00028180692940229255
-0.010635834643228245   -0.008362121906896983   -0.00014588272096911553
-0.01073632935230977   -0.0008806474214211018   -8.78570311868457e-05
-0.01506770716375752   -0.008407845884501152   -0.0002629858420211457
-0.01068712530389915   -0.00829392379060415   -0.00012016942391524283
-0.01073632935230977   -0.0008806474214211018   -8.78570311868457e-05
-0.015130801465076366   -0.0008776833552017855   -0.00020013347076453433
-0.01506770716375752   -0.008407845884501152   -0.0002629858420211457
-0.015165779174672881   -0.0008142121579094105   -0.00019813764771038135
-0.01068712530389915   -0.00829392379060415   -0.00012016942391524283
-0.015110706754349803   -0.00834473195230456   -0.0002446789248767966
-0.015165779174672881   -0.0008142121579094105   -0.00019813764771038135
-0.01506770716375752   -0.008407845884501152   -0.0002629858420211457
-0.01068712530389915   -0.00829392379060415   -0.00012016942391524283
-0.015165779174672881   -0.0008142121579094105   -0.00019813764771038135
-0.010787936009296893   -0.0008068555849801226   -7.633749256412489e-05
-0.01073632935230977   -0.0008806474214211018   -8.78570311868457e-05
-0.01068712530389915   -0.00829392379060415   -0.00012016942391524283
-0.015165779174672881   -0.0008142121579094105   -0.00019813764771038135
-0.01073632935230977   -0.0008806474214211018   -8.78570311868457e-05
-0.01506770716375752   -0.008407845884501152   -0.0002629858420211457
-0.01068712530389915   -0.00829392379060415   -0.00012016942391524283
-0.010787936009296893   -0.0008068555849801226   -7.633749256412489e-05
-0.015110706754349803   -0.00834473195230456   -0.0002446789248767966
-0.010734434515354625   -0.008220054979290016   -9.214918171261883e-05
-0.010787936009296893   -0.0008068555849801226   -7.633749256412489e-05
-0.015165779174672881   -0.0008142121579094105   -0.00019813764771038135
-0.015110706754349803   -0.00834473195230456   -0.0002446789248767966
-0.015192429442137303   -0.0007454145492750344   -0.00019711340377988218
-0.010734434515354625   -0.008220054979290016   -9.214918171261883e-05
-0.015149653503311517   -0.008277522588816514   -0.00022580226528283828
-0.015192429442137303   -0.0007454145492750344   -0.00019711340377988218
-0.015110706754349803   -0.00834473195230456   -0.0002446789248767966
-0.010734434515354625   -0.008220054979290016   -9.214918171261883e-05
-0.015192429442137303   -0.0007454145492750344   -0.00019711340377988218
-0.010837042466602227   -0.0007169471413376978   -6.109532976645352e-05
-0.010787936009296893   -0.0008068555849801226   -7.633749256412489e-05
-0.010734434515354625   -0.008220054979290016   -9.214918171261883e-05
-0.015192429442137303   -0.0007454145492750344   -0.00019711340377988218
-0.010787936009296893   -0.0008068555849801226   -7.633749256412489e-05
-0.015110706754349803   -0.00834473195230456   -0.0002446789248767966
-0.015019455856844955   -0.008465745371903147   -0.00028180692940229255
-0.015097271902444058   -0.0009346417808181992   -0.00020295510764842985
-0.019615289385001053   -0.008470061378212379   -0.0003730815511648658
-0.01506770716375752   -0.008407845884501152   -0.0002629858420211457
-0.015097271902444058   -0.0009346417808181992   -0.00020295510764842985
-0.01963005523992251   -0.0009280266677439651   -0.00030982587963313815
-0.019615289385001053   -0.008470061378212379   -0.0003730815511648658
-0.019657016386605358   -0.0008662667515629849   -0.00030975130089131245
-0.01506770716375752   -0.008407845884501152   -0.0002629858420211457
-0.01965669620134101   -0.00841388782670569   -0.00036493695583957183
-0.019657016386605358   -0.0008662667515629849   -0.00030975130089131245
-0.019615289385001053   -0.008470061378212379   -0.0003730815511648658
-0.01506770716375752   -0.008407845884501152   -0.0002629858420211457
-0.019657016386605358   -0.0008662667515629849   -0.00030975130089131245
-0.015130801465076366   -0.0008776833552017855   -0.00020013347076453433
-0.015097271902444058   -0.0009346417808181992   -0.00020295510764842985
-0.01506770716375752   -0.008407845884501152   -0.0002629858420211457
-0.019657016386605358   -0.0008662667515629849   -0.00030975130089131245
-0.015097271902444058   -0.0009346417808181992   -0.00020295510764842985
-0.019615289385001053   -0.008470061378212379   -0.0003730815511648658
-0.01506770716375752   -0.008407845884501152   -0.0002629858420211457
-0.015130801465076366   -0.0008776833552017855   -0.00020013347076453433
-0.01965669620134101   -0.00841388782670569   -0.00036493695583957183
-0.015110706754349803   -0.00834473195230456   -0.0002446789248767966
-0.015130801465076366   -0.0008776833552017855   -0.00020013347076453433
-0.019657016386605358   -0.0008662667515629849   -0.00030975130089131245
-0.01965669620134101   -0.00841388782670569   -0.00036493695583957183
-0.01968660554643754   -0.0008045178951387663   -0.00031449844991148456
-0.015110706754349803   -0.00834473195230456   -0.0002446789248767966
-0.019693793146026536   -0.00835310226693292   -0.00035539948946115244
-0.01968660554643754   -0.0008045178951387663   -0.00031449844991148456
-0.01965669620134101   -0.00841388782670569   -0.00036493695583957183
-0.015110706754349803   -0.00834473195230456   -0.0002446789248767966
-0.01968660554643754   -0.0008045178951387663   -0.00031449844991148456
-0.015165779174672881   -0.0008142121579094105   -0.00019813764771038135
-0.015130801465076366   -0.0008776833552017855   -0.00020013347076453433
-0.015110706754349803   -0.00834473195230456   -0.0002446789248767966
-0.01968660554643754   -0.0008045178951387663   -0.00031449844991148456
-0.015130801465076366   -0.0008776833552017855   -0.00020013347076453433
-0.01965669620134101   -0.00841388782670569   -0.00036493695583957183
-0.015110706754349803   -0.00834473195230456   -0.0002446789248767966
-0.015165779174672881   -0.0008142121579094105   -0.00019813764771038135
-0.019693793146026536   -0.00835310226693292   -0.00035539948946115244
-0.015149653503311517   -0.008277522588816514   -0.00022580226528283828
-0.015165779174672881   -0.0008142121579094105   -0.00019813764771038135
-0.01968660554643754   -0.0008045178951387663   -0.00031449844991148456
-0.019693793146026536   -0.00835310226693292   -0.00035539948946115244
-0.019708432318600883   -0.0007372559201412685   -0.0003195340682254697
-0.015149653503311517   -0.008277522588816514   -0.00022580226528283828
-0.01972492341342264   -0.0082887458037942   -0.00034648832049302166
-0.019708432318600883   -0.0007372559201412685   -0.0003195340682254697
-0.019693793146026536   -0.00835310226693292   -0.00035539948946115244
-0.015149653503311517   -0.008277522588816514   -0.00022580226528283828
-0.019708432318600883   -0.0007372559201412685   -0.0003195340682254697
-0.015192429442137303   -0.0007454145492750344   -0.00019711340377988218
-0.015165779174672881   -0.0008142121579094105   -0.00019813764771038135
-0.015149653503311517   -0.008277522588816514   -0.00022580226528283828
-0.019708432318600883   -0.0007372559201412685   -0.0003195340682254697
-0.015165779174672881   -0.0008142121579094105   -0.00019813764771038135
-0.019693793146026536   -0.00835310226693292   -0.00035539948946115244
              </DataArray>   
          </PointData>  
       </Piece>  
   </UnstructuredGrid> 
</VTKFile> 
